
     Program PWSCF v.7.5 starts on  3Oct2026 at  3:53:11 

     This program is part of the open-source Quantum ESPRESSO suite
     for quantum simulation of materials; please cite
         "P. Giannozzi et al., J. Phys.:Condens. Matter 21 395502 (2009);
         "P. Giannozzi et al., J. Phys.:Condens. Matter 29 465901 (2017);
         "P. Giannozzi et al., J. Chem. Phys. 152 154105 (2020);
          URL http://www.quantum-espresso.org", 
     in publications or presentations arising from this work. More details at
     http://www.quantum-espresso.org/quote

     Parallel version (MPI & OpenMP), running on       1 processor cores
     Number of MPI processes:                 1
     Threads/MPI process:                     1

     MPI processes distributed on     1 nodes
     149199 MiB available memory on the printing compute node when the environment starts

     Reading input from input.in

     Current dimensions of program PWSCF are:
     Max number of different atomic species (ntypx) = 10
     Max number of k-points (npk) =  40000
     Max angular momentum in pseudopotentials (lmaxx) =  4

     gamma-point specific algorithms are used
     Message from routine setup:
     using ibrav=0 with symmetry is DISCOURAGED, use correct ibrav instead

     Subspace diagonalization in iterative solution of the eigenvalue problem:
     a serial algorithm will be used


     G-vector sticks info
     --------------------
     sticks:   dense  smooth     PW     G-vecs:    dense   smooth      PW
     Sum       10185    5097   1281               773489   273425   34265

     Using Slab Decomposition



     bravais-lattice index     =            0
     lattice parameter (alat)  =      20.0000  a.u.
     unit-cell volume          =    8000.0000 (a.u.)^3
     number of atoms/cell      =            2
     number of atomic types    =            1
     number of electrons       =         2.00
     number of Kohn-Sham states=            1
     kinetic-energy cutoff     =      40.0000  Ry
     charge density cutoff     =     320.0000  Ry
     scf convergence threshold =      1.0E-10
     mixing beta               =       0.3000
     number of iterations used =            8  plain     mixing
     energy convergence thresh.=      1.0E-07
     force convergence thresh. =      1.0E-04
     Exchange-correlation= PBE
                           (   1   4   3   4   0   0   0)
     nstep                     =           30


     celldm(1)=  20.000000  celldm(2)=   0.000000  celldm(3)=   0.000000
     celldm(4)=   0.000000  celldm(5)=   0.000000  celldm(6)=   0.000000

     crystal axes: (cart. coord. in units of alat)
               a(1) = (   1.000000   0.000000   0.000000 )  
               a(2) = (   0.000000   1.000000   0.000000 )  
               a(3) = (   0.000000   0.000000   1.000000 )  

     reciprocal axes: (cart. coord. in units 2 pi/alat)
               b(1) = (  1.000000  0.000000  0.000000 )  
               b(2) = (  0.000000  1.000000  0.000000 )  
               b(3) = (  0.000000  0.000000  1.000000 )  


     PseudoPot. # 1 for H  read from file:
     /anvil/projects/x-che260157/sts_pa_probe_2026-10-03/tiny_results/continuous/H.pbe-rrkjus_psl.1.0.0.UPF
     MD5 check sum: f52b6d4d1c606e5624b1dc7b2218f220
     Pseudo is Ultrasoft, Zval =  1.0
     Generated using "atomic" code by A. Dal Corso  v.5.1
     Using radial grid of  929 points,  2 beta functions with: 
                l(1) =   0
                l(2) =   0
     Q(r) pseudized with 0 coefficients 


     atomic species   valence    mass     pseudopotential
     H                 1.00     1.00794     H ( 1.00)

      8 Sym. Ops. (no inversion) found



   Cartesian axes

     site n.     atom                  positions (alat units)
         1        H      tau(   1) = (   0.0000000   0.0000000   0.0000000  )
         2        H      tau(   2) = (   0.0000000   0.0000000   0.1000000  )

     number of k points=     1
                       cart. coord. in units 2pi/alat
        k(    1) = (   0.0000000   0.0000000   0.0000000), wk =   2.0000000

     Dense  grid:   386745 G-vectors     FFT dimensions: ( 120, 120, 120)

     Smooth grid:   136713 G-vectors     FFT dimensions: (  81,  81,  81)

     Estimated max dynamical RAM per process >     340.86 MB

     Initial potential from superposition of free atoms

     starting charge       2.0000, renormalised to       2.0000

     negative rho (up, down):  3.558E-05 0.000E+00
     Starting wfcs are    2 randomized atomic wfcs

     total cpu time spent up to now is        2.1 secs

     per-process dynamical memory:   290.0 Mb

     Self-consistent Calculation

     iteration #  1     ecut=    40.00 Ry     beta= 0.30
     Davidson diagonalization with overlap
     ethr =  1.00E-07,  avg # of iterations =  6.0

     negative rho (up, down):  3.642E-05 0.000E+00

     total cpu time spent up to now is        2.8 secs

     total energy              =      -2.27160595 Ry
     estimated scf accuracy    <       0.04792712 Ry

     iteration #  2     ecut=    40.00 Ry     beta= 0.30
     Davidson diagonalization with overlap
     ethr =  2.40E-03,  avg # of iterations =  1.0

     negative rho (up, down):  1.429E-04 0.000E+00

     total cpu time spent up to now is        3.5 secs

     total energy              =      -2.26273350 Ry
     estimated scf accuracy    <       0.01894782 Ry

     iteration #  3     ecut=    40.00 Ry     beta= 0.30
     Davidson diagonalization with overlap
     ethr =  9.47E-04,  avg # of iterations =  1.0

     negative rho (up, down):  6.814E-05 0.000E+00

     total cpu time spent up to now is        4.1 secs

     total energy              =      -2.26461651 Ry
     estimated scf accuracy    <       0.00007239 Ry

     iteration #  4     ecut=    40.00 Ry     beta= 0.30
     Davidson diagonalization with overlap
     ethr =  3.62E-06,  avg # of iterations =  2.0

     negative rho (up, down):  6.664E-05 0.000E+00

     total cpu time spent up to now is        4.8 secs

     total energy              =      -2.26459336 Ry
     estimated scf accuracy    <       0.00017014 Ry

     iteration #  5     ecut=    40.00 Ry     beta= 0.30
     Davidson diagonalization with overlap
     ethr =  3.62E-06,  avg # of iterations =  2.0

     negative rho (up, down):  4.808E-05 0.000E+00

     total cpu time spent up to now is        5.5 secs

     total energy              =      -2.26460725 Ry
     estimated scf accuracy    <       0.00000108 Ry

     iteration #  6     ecut=    40.00 Ry     beta= 0.30
     Davidson diagonalization with overlap
     ethr =  5.38E-08,  avg # of iterations =  2.0

     negative rho (up, down):  4.798E-05 0.000E+00

     total cpu time spent up to now is        6.1 secs

     total energy              =      -2.26460801 Ry
     estimated scf accuracy    <       0.00000191 Ry

     iteration #  7     ecut=    40.00 Ry     beta= 0.30
     Davidson diagonalization with overlap
     ethr =  5.38E-08,  avg # of iterations =  1.0

     negative rho (up, down):  4.508E-05 0.000E+00

     total cpu time spent up to now is        6.7 secs

     total energy              =      -2.26460807 Ry
     estimated scf accuracy    <          3.4E-09 Ry

     iteration #  8     ecut=    40.00 Ry     beta= 0.30
     Davidson diagonalization with overlap
     ethr =  1.68E-10,  avg # of iterations =  2.0

     negative rho (up, down):  4.357E-05 0.000E+00

     total cpu time spent up to now is        7.4 secs

     total energy              =      -2.26460808 Ry
     estimated scf accuracy    <          3.1E-09 Ry

     iteration #  9     ecut=    40.00 Ry     beta= 0.30
     Davidson diagonalization with overlap
     ethr =  1.56E-10,  avg # of iterations =  1.0

     negative rho (up, down):  4.264E-05 0.000E+00

     total cpu time spent up to now is        8.1 secs

     total energy              =      -2.26460808 Ry
     estimated scf accuracy    <          4.1E-09 Ry

     iteration # 10     ecut=    40.00 Ry     beta= 0.30
     Davidson diagonalization with overlap
     ethr =  1.56E-10,  avg # of iterations =  2.0

     negative rho (up, down):  4.222E-05 0.000E+00

     total cpu time spent up to now is        8.7 secs

     total energy              =      -2.26460809 Ry
     estimated scf accuracy    <          1.7E-10 Ry

     iteration # 11     ecut=    40.00 Ry     beta= 0.30
     Davidson diagonalization with overlap
     ethr =  8.51E-12,  avg # of iterations =  1.0

     negative rho (up, down):  4.164E-05 0.000E+00

     total cpu time spent up to now is        9.3 secs

     End of self-consistent calculation

          k = 0.0000 0.0000 0.0000 ( 17133 PWs)   bands (ev):

    -9.1109

     highest occupied level (ev):    -9.1109

!    total energy              =      -2.26460807 Ry
     estimated scf accuracy    <          3.6E-11 Ry

     The total energy is the sum of the following terms:
     one-electron contribution =      -3.18686293 Ry
     hartree contribution      =       1.70537807 Ry
     xc contribution           =      -1.21778925 Ry
     ewald contribution        =       0.43466604 Ry

     convergence has been achieved in  11 iterations

     Forces acting on atoms (cartesian axes, Ry/au):

     atom    1 type  1   force =     0.00000000    0.00000000    0.17474087
     atom    2 type  1   force =     0.00000000    0.00000000   -0.17474087

     Total force =     0.247121     Total SCF correction =     0.000000

     BFGS Geometry Optimization
     Energy error            =      6.1E-02 Ry
     Gradient error          =      1.7E-01 Ry/Bohr

     number of scf cycles    =   1
     number of bfgs steps    =   0

     energy             new  =      -2.2646080739 Ry

     new trust radius        =       0.1747408695 bohr
     new conv_thr            =            1.0E-10 Ry


ATOMIC_POSITIONS (bohr)
H                0.0000000000        0.0000000000        0.1747408695
H                0.0000000000        0.0000000000        1.8252591305



     Writing config-only to output data dir /anvil/projects/x-che260157/sts_pa_probe_2026-10-03/tiny_results/continuous/scratch/h2_probe.save/ :
     XML data file
     NEW-OLD atomic charge density approx. for the potential

     negative rho (up, down):  6.987E-05 0.000E+00

     total cpu time spent up to now is       10.0 secs

     per-process dynamical memory:   332.4 Mb

     Self-consistent Calculation

     iteration #  1     ecut=    40.00 Ry     beta= 0.30
     Davidson diagonalization with overlap
     ethr =  1.00E-06,  avg # of iterations =  5.0

     negative rho (up, down):  5.989E-05 0.000E+00

     total cpu time spent up to now is       10.7 secs

     total energy              =      -2.31796587 Ry
     estimated scf accuracy    <       0.00436356 Ry

     iteration #  2     ecut=    40.00 Ry     beta= 0.30
     Davidson diagonalization with overlap
     ethr =  2.18E-04,  avg # of iterations =  1.0

     negative rho (up, down):  2.812E-04 0.000E+00

     total cpu time spent up to now is       11.3 secs

     total energy              =      -2.31734691 Ry
     estimated scf accuracy    <       0.00167541 Ry

     iteration #  3     ecut=    40.00 Ry     beta= 0.30
     Davidson diagonalization with overlap
     ethr =  8.38E-05,  avg # of iterations =  2.0

     negative rho (up, down):  2.383E-04 0.000E+00

     total cpu time spent up to now is       12.0 secs

     total energy              =      -2.31752835 Ry
     estimated scf accuracy    <       0.00001043 Ry

     iteration #  4     ecut=    40.00 Ry     beta= 0.30
     Davidson diagonalization with overlap
     ethr =  5.22E-07,  avg # of iterations =  2.0

     negative rho (up, down):  1.804E-04 0.000E+00

     total cpu time spent up to now is       12.6 secs

     total energy              =      -2.31752830 Ry
     estimated scf accuracy    <       0.00000303 Ry

     iteration #  5     ecut=    40.00 Ry     beta= 0.30
     Davidson diagonalization with overlap
     ethr =  1.52E-07,  avg # of iterations =  1.0

     negative rho (up, down):  1.261E-04 0.000E+00

     total cpu time spent up to now is       13.3 secs

     total energy              =      -2.31752845 Ry
     estimated scf accuracy    <          9.5E-09 Ry

     iteration #  6     ecut=    40.00 Ry     beta= 0.30
     Davidson diagonalization with overlap
     ethr =  4.76E-10,  avg # of iterations =  2.0

     negative rho (up, down):  9.594E-05 0.000E+00

     total cpu time spent up to now is       13.8 secs

     total energy              =      -2.31752843 Ry
     estimated scf accuracy    <          2.9E-09 Ry

     iteration #  7     ecut=    40.00 Ry     beta= 0.30
     Davidson diagonalization with overlap
     ethr =  1.44E-10,  avg # of iterations =  1.0

     negative rho (up, down):  7.736E-05 0.000E+00

     total cpu time spent up to now is       14.4 secs

     total energy              =      -2.31752841 Ry
     estimated scf accuracy    <          4.6E-10 Ry

     iteration #  8     ecut=    40.00 Ry     beta= 0.30
     Davidson diagonalization with overlap
     ethr =  2.32E-11,  avg # of iterations =  1.0

     negative rho (up, down):  6.679E-05 0.000E+00

     total cpu time spent up to now is       15.1 secs

     total energy              =      -2.31752839 Ry
     estimated scf accuracy    <          1.3E-10 Ry

     iteration #  9     ecut=    40.00 Ry     beta= 0.30
     Davidson diagonalization with overlap
     ethr =  6.50E-12,  avg # of iterations =  2.0

     negative rho (up, down):  5.512E-05 0.000E+00

     total cpu time spent up to now is       15.6 secs

     End of self-consistent calculation

          k = 0.0000 0.0000 0.0000 ( 17133 PWs)   bands (ev):

    -9.7643

     highest occupied level (ev):    -9.7643

!    total energy              =      -2.31752826 Ry
     estimated scf accuracy    <          3.0E-12 Ry

     The total energy is the sum of the following terms:
     one-electron contribution =      -3.55749034 Ry
     hartree contribution      =       1.89797912 Ry
     xc contribution           =      -1.30373899 Ry
     ewald contribution        =       0.64572194 Ry

     convergence has been achieved in   9 iterations

     Forces acting on atoms (cartesian axes, Ry/au):

     atom    1 type  1   force =     0.00000000    0.00000000    0.11355036
     atom    2 type  1   force =     0.00000000    0.00000000   -0.11355036

     Total force =     0.160584     Total SCF correction =     0.000000
     Energy error            =      5.3E-02 Ry
     Gradient error          =      1.1E-01 Ry/Bohr

     number of scf cycles    =   2
     number of bfgs steps    =   1

     energy             old  =      -2.2646080739 Ry
     energy             new  =      -2.3175282595 Ry

     CASE: energy            _new < energy            _old

     new trust radius        =       0.1922149565 bohr
     new conv_thr            =            1.0E-10 Ry


ATOMIC_POSITIONS (bohr)
H                0.0000000000        0.0000000000        0.3669558260
H                0.0000000000        0.0000000000        1.6330441740



     Writing config-only to output data dir /anvil/projects/x-che260157/sts_pa_probe_2026-10-03/tiny_results/continuous/scratch/h2_probe.save/ :
     XML data file
     NEW-OLD atomic charge density approx. for the potential

     negative rho (up, down):  1.432E-04 0.000E+00

     total cpu time spent up to now is       16.4 secs

     per-process dynamical memory:   332.4 Mb

     Self-consistent Calculation

     iteration #  1     ecut=    40.00 Ry     beta= 0.30
     Davidson diagonalization with overlap
     ethr =  1.00E-06,  avg # of iterations =  5.0

     negative rho (up, down):  9.998E-05 0.000E+00

     total cpu time spent up to now is       17.1 secs

     total energy              =      -2.32358000 Ry
     estimated scf accuracy    <       0.01132759 Ry

     iteration #  2     ecut=    40.00 Ry     beta= 0.30
     Davidson diagonalization with overlap
     ethr =  5.66E-04,  avg # of iterations =  1.0

     negative rho (up, down):  6.610E-04 0.000E+00

     total cpu time spent up to now is       17.7 secs

     total energy              =      -2.32184312 Ry
     estimated scf accuracy    <       0.00426072 Ry

     iteration #  3     ecut=    40.00 Ry     beta= 0.30
     Davidson diagonalization with overlap
     ethr =  2.13E-04,  avg # of iterations =  2.0

     negative rho (up, down):  5.746E-04 0.000E+00

     total cpu time spent up to now is       18.3 secs

     total energy              =      -2.32233075 Ry
     estimated scf accuracy    <       0.00002190 Ry

     iteration #  4     ecut=    40.00 Ry     beta= 0.30
     Davidson diagonalization with overlap
     ethr =  1.10E-06,  avg # of iterations =  2.0

     negative rho (up, down):  4.294E-04 0.000E+00

     total cpu time spent up to now is       18.9 secs

     total energy              =      -2.32232824 Ry
     estimated scf accuracy    <       0.00001229 Ry

     iteration #  5     ecut=    40.00 Ry     beta= 0.30
     Davidson diagonalization with overlap
     ethr =  6.15E-07,  avg # of iterations =  2.0

     negative rho (up, down):  2.912E-04 0.000E+00

     total cpu time spent up to now is       19.5 secs

     total energy              =      -2.32232932 Ry
     estimated scf accuracy    <          9.1E-09 Ry

     iteration #  6     ecut=    40.00 Ry     beta= 0.30
     Davidson diagonalization with overlap
     ethr =  4.53E-10,  avg # of iterations =  2.0

     negative rho (up, down):  2.080E-04 0.000E+00

     total cpu time spent up to now is       20.1 secs

     total energy              =      -2.32232931 Ry
     estimated scf accuracy    <          9.7E-10 Ry

     iteration #  7     ecut=    40.00 Ry     beta= 0.30
     Davidson diagonalization with overlap
     ethr =  4.84E-11,  avg # of iterations =  2.0

     negative rho (up, down):  7.786E-05 0.000E+00

     total cpu time spent up to now is       20.7 secs

     End of self-consistent calculation

          k = 0.0000 0.0000 0.0000 ( 17133 PWs)   bands (ev):

   -10.7157

     highest occupied level (ev):   -10.7157

!    total energy              =      -2.32232940 Ry
     estimated scf accuracy    <          2.0E-11 Ry

     The total energy is the sum of the following terms:
     one-electron contribution =      -4.07275940 Ry
     hartree contribution      =       2.16543283 Ry
     xc contribution           =      -1.42805624 Ry
     ewald contribution        =       1.01305341 Ry

     convergence has been achieved in   7 iterations

     Forces acting on atoms (cartesian axes, Ry/au):

     atom    1 type  1   force =     0.00000000    0.00000000   -0.14237673
     atom    2 type  1   force =     0.00000000    0.00000000    0.14237673

     Total force =     0.201351     Total SCF correction =     0.000001
     Energy error            =      4.8E-03 Ry
     Gradient error          =      1.4E-01 Ry/Bohr

     number of scf cycles    =   3
     number of bfgs steps    =   2

     energy             old  =      -2.3175282595 Ry
     energy             new  =      -2.3223293989 Ry

     CASE: energy            _new < energy            _old

     new trust radius        =       0.1069325529 bohr
     new conv_thr            =            1.0E-10 Ry


ATOMIC_POSITIONS (bohr)
H                0.0000000000        0.0000000000        0.2600232731
H                0.0000000000        0.0000000000        1.7399767269



     Writing config-only to output data dir /anvil/projects/x-che260157/sts_pa_probe_2026-10-03/tiny_results/continuous/scratch/h2_probe.save/ :
     XML data file
     NEW-OLD atomic charge density approx. for the potential

     negative rho (up, down):  6.494E-05 0.000E+00

     total cpu time spent up to now is       21.5 secs

     per-process dynamical memory:   332.4 Mb

     Self-consistent Calculation

     iteration #  1     ecut=    40.00 Ry     beta= 0.30
     Davidson diagonalization with overlap
     ethr =  1.00E-06,  avg # of iterations =  4.0

     negative rho (up, down):  6.331E-05 0.000E+00

     total cpu time spent up to now is       22.2 secs

     total energy              =      -2.33149471 Ry
     estimated scf accuracy    <       0.00411306 Ry

     iteration #  2     ecut=    40.00 Ry     beta= 0.30
     Davidson diagonalization with overlap
     ethr =  2.06E-04,  avg # of iterations =  1.0

     negative rho (up, down):  4.037E-04 0.000E+00

     total cpu time spent up to now is       22.8 secs

     total energy              =      -2.33094378 Ry
     estimated scf accuracy    <       0.00151639 Ry

     iteration #  3     ecut=    40.00 Ry     beta= 0.30
     Davidson diagonalization with overlap
     ethr =  7.58E-05,  avg # of iterations =  2.0

     negative rho (up, down):  4.232E-04 0.000E+00

     total cpu time spent up to now is       23.4 secs

     total energy              =      -2.33111835 Ry
     estimated scf accuracy    <       0.00001394 Ry

     iteration #  4     ecut=    40.00 Ry     beta= 0.30
     Davidson diagonalization with overlap
     ethr =  6.97E-07,  avg # of iterations =  1.0

     negative rho (up, down):  3.111E-04 0.000E+00

     total cpu time spent up to now is       24.0 secs

     total energy              =      -2.33111861 Ry
     estimated scf accuracy    <       0.00000019 Ry

     iteration #  5     ecut=    40.00 Ry     beta= 0.30
     Davidson diagonalization with overlap
     ethr =  9.27E-09,  avg # of iterations =  1.0

     negative rho (up, down):  2.135E-04 0.000E+00

     total cpu time spent up to now is       24.6 secs

     total energy              =      -2.33111834 Ry
     estimated scf accuracy    <       0.00000001 Ry

     iteration #  6     ecut=    40.00 Ry     beta= 0.30
     Davidson diagonalization with overlap
     ethr =  5.80E-10,  avg # of iterations =  2.0

     negative rho (up, down):  1.531E-04 0.000E+00

     total cpu time spent up to now is       25.2 secs

     total energy              =      -2.33111822 Ry
     estimated scf accuracy    <       0.00000002 Ry

     iteration #  7     ecut=    40.00 Ry     beta= 0.30
     Davidson diagonalization with overlap
     ethr =  5.80E-10,  avg # of iterations =  2.0

     negative rho (up, down):  1.155E-04 0.000E+00

     total cpu time spent up to now is       25.8 secs

     total energy              =      -2.33111821 Ry
     estimated scf accuracy    <          1.2E-10 Ry

     iteration #  8     ecut=    40.00 Ry     beta= 0.30
     Davidson diagonalization with overlap
     ethr =  5.81E-12,  avg # of iterations =  2.0

     negative rho (up, down):  9.266E-05 0.000E+00

     total cpu time spent up to now is       26.5 secs

     total energy              =      -2.33111823 Ry
     estimated scf accuracy    <          1.2E-10 Ry

     iteration #  9     ecut=    40.00 Ry     beta= 0.30
     Davidson diagonalization with overlap
     ethr =  5.81E-12,  avg # of iterations =  2.0

     negative rho (up, down):  6.523E-05 0.000E+00

     total cpu time spent up to now is       27.1 secs

     End of self-consistent calculation

          k = 0.0000 0.0000 0.0000 ( 17133 PWs)   bands (ev):

   -10.1518

     highest occupied level (ev):   -10.1518

!    total energy              =      -2.33111847 Ry
     estimated scf accuracy    <          1.7E-12 Ry

     The total energy is the sum of the following terms:
     one-electron contribution =      -3.77012731 Ry
     hartree contribution      =       2.00841055 Ry
     xc contribution           =      -1.35449221 Ry
     ewald contribution        =       0.78509050 Ry

     convergence has been achieved in   9 iterations

     Forces acting on atoms (cartesian axes, Ry/au):

     atom    1 type  1   force =     0.00000000    0.00000000    0.03859690
     atom    2 type  1   force =     0.00000000    0.00000000   -0.03859690

     Total force =     0.054584     Total SCF correction =     0.000000
     Energy error            =      8.8E-03 Ry
     Gradient error          =      3.9E-02 Ry/Bohr

     number of scf cycles    =   4
     number of bfgs steps    =   3

     energy             old  =      -2.3223293989 Ry
     energy             new  =      -2.3311184704 Ry

     CASE: energy            _new < energy            _old

     new trust radius        =       0.0228058915 bohr
     new conv_thr            =            1.0E-10 Ry


ATOMIC_POSITIONS (bohr)
H                0.0000000000        0.0000000000        0.2828291646
H                0.0000000000        0.0000000000        1.7171708354



     Writing config-only to output data dir /anvil/projects/x-che260157/sts_pa_probe_2026-10-03/tiny_results/continuous/scratch/h2_probe.save/ :
     XML data file
     NEW-OLD atomic charge density approx. for the potential

     negative rho (up, down):  6.584E-05 0.000E+00

     total cpu time spent up to now is       27.8 secs

     per-process dynamical memory:   332.4 Mb

     Self-consistent Calculation

     iteration #  1     ecut=    40.00 Ry     beta= 0.30
     Davidson diagonalization with overlap
     ethr =  1.00E-06,  avg # of iterations =  3.0

     negative rho (up, down):  6.636E-05 0.000E+00

     total cpu time spent up to now is       28.5 secs

     total energy              =      -2.33226182 Ry
     estimated scf accuracy    <       0.00015482 Ry

     iteration #  2     ecut=    40.00 Ry     beta= 0.30
     Davidson diagonalization with overlap
     ethr =  7.74E-06,  avg # of iterations =  1.0

     negative rho (up, down):  9.811E-05 0.000E+00

     total cpu time spent up to now is       29.2 secs

     total energy              =      -2.33223836 Ry
     estimated scf accuracy    <       0.00005933 Ry

     iteration #  3     ecut=    40.00 Ry     beta= 0.30
     Davidson diagonalization with overlap
     ethr =  2.97E-06,  avg # of iterations =  2.0

     negative rho (up, down):  9.800E-05 0.000E+00

     total cpu time spent up to now is       29.8 secs

     total energy              =      -2.33224571 Ry
     estimated scf accuracy    <       0.00000046 Ry

     iteration #  4     ecut=    40.00 Ry     beta= 0.30
     Davidson diagonalization with overlap
     ethr =  2.31E-08,  avg # of iterations =  2.0

     negative rho (up, down):  8.347E-05 0.000E+00

     total cpu time spent up to now is       30.4 secs

     total energy              =      -2.33224532 Ry
     estimated scf accuracy    <       0.00000096 Ry

     iteration #  5     ecut=    40.00 Ry     beta= 0.30
     Davidson diagonalization with overlap
     ethr =  2.31E-08,  avg # of iterations =  2.0

     negative rho (up, down):  7.528E-05 0.000E+00

     total cpu time spent up to now is       31.0 secs

     total energy              =      -2.33224542 Ry
     estimated scf accuracy    <          7.3E-10 Ry

     iteration #  6     ecut=    40.00 Ry     beta= 0.30
     Davidson diagonalization with overlap
     ethr =  3.67E-11,  avg # of iterations =  2.0

     negative rho (up, down):  7.120E-05 0.000E+00

     total cpu time spent up to now is       31.7 secs

     total energy              =      -2.33224543 Ry
     estimated scf accuracy    <          1.6E-10 Ry

     iteration #  7     ecut=    40.00 Ry     beta= 0.30
     Davidson diagonalization with overlap
     ethr =  7.93E-12,  avg # of iterations =  2.0

     negative rho (up, down):  6.724E-05 0.000E+00

     total cpu time spent up to now is       32.3 secs

     End of self-consistent calculation

          k = 0.0000 0.0000 0.0000 ( 17133 PWs)   bands (ev):

   -10.2643

     highest occupied level (ev):   -10.2643

!    total energy              =      -2.33224537 Ry
     estimated scf accuracy    <          2.1E-13 Ry

     The total energy is the sum of the following terms:
     one-electron contribution =      -3.83110354 Ry
     hartree contribution      =       2.04006192 Ry
     xc contribution           =      -1.36919762 Ry
     ewald contribution        =       0.82799386 Ry

     convergence has been achieved in   7 iterations

     Forces acting on atoms (cartesian axes, Ry/au):

     atom    1 type  1   force =     0.00000000    0.00000000    0.01010591
     atom    2 type  1   force =     0.00000000    0.00000000   -0.01010591

     Total force =     0.014292     Total SCF correction =     0.000000
     Energy error            =      1.1E-03 Ry
     Gradient error          =      1.0E-02 Ry/Bohr

     number of scf cycles    =   5
     number of bfgs steps    =   4

     energy             old  =      -2.3311184704 Ry
     energy             new  =      -2.3322453663 Ry

     CASE: energy            _new < energy            _old

     new trust radius        =       0.0080893694 bohr
     new conv_thr            =            1.0E-10 Ry


ATOMIC_POSITIONS (bohr)
H                0.0000000000        0.0000000000        0.2909185340
H                0.0000000000        0.0000000000        1.7090814660



     Writing config-only to output data dir /anvil/projects/x-che260157/sts_pa_probe_2026-10-03/tiny_results/continuous/scratch/h2_probe.save/ :
     XML data file
     NEW-OLD atomic charge density approx. for the potential

     negative rho (up, down):  6.744E-05 0.000E+00

     total cpu time spent up to now is       33.1 secs

     per-process dynamical memory:   332.4 Mb

     Self-consistent Calculation

     iteration #  1     ecut=    40.00 Ry     beta= 0.30
     Davidson diagonalization with overlap
     ethr =  1.00E-06,  avg # of iterations =  3.0

     negative rho (up, down):  6.763E-05 0.000E+00

     total cpu time spent up to now is       33.7 secs

     total energy              =      -2.33232121 Ry
     estimated scf accuracy    <       0.00002079 Ry

     iteration #  2     ecut=    40.00 Ry     beta= 0.30
     Davidson diagonalization with overlap
     ethr =  1.04E-06,  avg # of iterations =  1.0

     negative rho (up, down):  7.305E-05 0.000E+00

     total cpu time spent up to now is       34.4 secs

     total energy              =      -2.33231806 Ry
     estimated scf accuracy    <       0.00000793 Ry

     iteration #  3     ecut=    40.00 Ry     beta= 0.30
     Davidson diagonalization with overlap
     ethr =  3.96E-07,  avg # of iterations =  2.0

     negative rho (up, down):  7.336E-05 0.000E+00

     total cpu time spent up to now is       35.1 secs

     total energy              =      -2.33231908 Ry
     estimated scf accuracy    <       0.00000006 Ry

     iteration #  4     ecut=    40.00 Ry     beta= 0.30
     Davidson diagonalization with overlap
     ethr =  3.10E-09,  avg # of iterations =  2.0

     negative rho (up, down):  7.052E-05 0.000E+00

     total cpu time spent up to now is       35.7 secs

     total energy              =      -2.33231902 Ry
     estimated scf accuracy    <       0.00000011 Ry

     iteration #  5     ecut=    40.00 Ry     beta= 0.30
     Davidson diagonalization with overlap
     ethr =  3.10E-09,  avg # of iterations =  2.0

     negative rho (up, down):  6.791E-05 0.000E+00

     total cpu time spent up to now is       36.3 secs

     End of self-consistent calculation

          k = 0.0000 0.0000 0.0000 ( 17133 PWs)   bands (ev):

   -10.3053

     highest occupied level (ev):   -10.3053

!    total energy              =      -2.33231900 Ry
     estimated scf accuracy    <          9.8E-11 Ry

     The total energy is the sum of the following terms:
     one-electron contribution =      -3.85318166 Ry
     hartree contribution      =       2.05152635 Ry
     xc contribution           =      -1.37454032 Ry
     ewald contribution        =       0.84387662 Ry

     convergence has been achieved in   5 iterations

     Forces acting on atoms (cartesian axes, Ry/au):

     atom    1 type  1   force =     0.00000000    0.00000000   -0.00108730
     atom    2 type  1   force =     0.00000000    0.00000000    0.00108730

     Total force =     0.001538     Total SCF correction =     0.000003
     Energy error            =      7.4E-05 Ry
     Gradient error          =      1.1E-03 Ry/Bohr

     number of scf cycles    =   6
     number of bfgs steps    =   5

     energy             old  =      -2.3322453663 Ry
     energy             new  =      -2.3323190048 Ry

     CASE: energy            _new < energy            _old

     new trust radius        =       0.0007857966 bohr
     new conv_thr            =            1.1E-11 Ry


ATOMIC_POSITIONS (bohr)
H                0.0000000000        0.0000000000        0.2901327374
H                0.0000000000        0.0000000000        1.7098672626



     Writing config-only to output data dir /anvil/projects/x-che260157/sts_pa_probe_2026-10-03/tiny_results/continuous/scratch/h2_probe.save/ :
     XML data file
     NEW-OLD atomic charge density approx. for the potential

     negative rho (up, down):  6.789E-05 0.000E+00

     total cpu time spent up to now is       37.2 secs

     per-process dynamical memory:   332.4 Mb

     Self-consistent Calculation

     iteration #  1     ecut=    40.00 Ry     beta= 0.30
     Davidson diagonalization with overlap
     ethr =  1.00E-06,  avg # of iterations =  2.0

     Threshold (ethr) on eigenvalues was too large:
     Diagonalizing with lowered threshold

     Davidson diagonalization with overlap
     ethr =  9.57E-09,  avg # of iterations =  1.0

     negative rho (up, down):  6.787E-05 0.000E+00

     total cpu time spent up to now is       37.9 secs

     total energy              =      -2.33231988 Ry
     estimated scf accuracy    <       0.00000020 Ry

     iteration #  2     ecut=    40.00 Ry     beta= 0.30
     Davidson diagonalization with overlap
     ethr =  1.01E-08,  avg # of iterations =  1.0

     negative rho (up, down):  6.789E-05 0.000E+00

     total cpu time spent up to now is       38.6 secs

     total energy              =      -2.33231984 Ry
     estimated scf accuracy    <       0.00000008 Ry

     iteration #  3     ecut=    40.00 Ry     beta= 0.30
     Davidson diagonalization with overlap
     ethr =  3.86E-09,  avg # of iterations =  2.0

     negative rho (up, down):  6.791E-05 0.000E+00

     total cpu time spent up to now is       39.2 secs

     total energy              =      -2.33231985 Ry
     estimated scf accuracy    <          6.0E-10 Ry

     iteration #  4     ecut=    40.00 Ry     beta= 0.30
     Davidson diagonalization with overlap
     ethr =  3.00E-11,  avg # of iterations =  2.0

     negative rho (up, down):  6.787E-05 0.000E+00

     total cpu time spent up to now is       39.9 secs

     total energy              =      -2.33231985 Ry
     estimated scf accuracy    <          9.5E-10 Ry

     iteration #  5     ecut=    40.00 Ry     beta= 0.30
     Davidson diagonalization with overlap
     ethr =  3.00E-11,  avg # of iterations =  2.0

     negative rho (up, down):  6.784E-05 0.000E+00

     total cpu time spent up to now is       40.4 secs

     End of self-consistent calculation

          k = 0.0000 0.0000 0.0000 ( 17133 PWs)   bands (ev):

   -10.3012

     highest occupied level (ev):   -10.3012

!    total energy              =      -2.33231986 Ry
     estimated scf accuracy    <          9.8E-13 Ry

     The total energy is the sum of the following terms:
     one-electron contribution =      -3.85102287 Ry
     hartree contribution      =       2.05040000 Ry
     xc contribution           =      -1.37401485 Ry
     ewald contribution        =       0.84231786 Ry

     convergence has been achieved in   5 iterations

     Forces acting on atoms (cartesian axes, Ry/au):

     atom    1 type  1   force =     0.00000000    0.00000000    0.00002417
     atom    2 type  1   force =     0.00000000    0.00000000   -0.00002417

     Total force =     0.000034     Total SCF correction =     0.000000
     Energy error            =      8.5E-07 Ry
     Gradient error          =      2.4E-05 Ry/Bohr

     number of scf cycles    =   7
     number of bfgs steps    =   6

     energy             old  =      -2.3323190048 Ry
     energy             new  =      -2.3323198595 Ry

     CASE: energy            _new < energy            _old

     small trust_radius: resetting bfgs history

     new trust radius        =       0.0000241713 bohr
     new conv_thr            =            1.0E-12 Ry


ATOMIC_POSITIONS (bohr)
H                0.0000000000        0.0000000000        0.2901569087
H                0.0000000000        0.0000000000        1.7098430913



     Writing config-only to output data dir /anvil/projects/x-che260157/sts_pa_probe_2026-10-03/tiny_results/continuous/scratch/h2_probe.save/ :
     XML data file
     NEW-OLD atomic charge density approx. for the potential

     negative rho (up, down):  6.784E-05 0.000E+00

     total cpu time spent up to now is       41.2 secs

     per-process dynamical memory:   332.4 Mb

     Self-consistent Calculation

     iteration #  1     ecut=    40.00 Ry     beta= 0.30
     Davidson diagonalization with overlap
     ethr =  1.00E-06,  avg # of iterations =  1.0

     Threshold (ethr) on eigenvalues was too large:
     Diagonalizing with lowered threshold

     Davidson diagonalization with overlap
     ethr =  6.82E-12,  avg # of iterations =  2.0

     negative rho (up, down):  6.784E-05 0.000E+00

     total cpu time spent up to now is       41.9 secs

     total energy              =      -2.33231986 Ry
     estimated scf accuracy    <          2.0E-10 Ry

     iteration #  2     ecut=    40.00 Ry     beta= 0.30
     Davidson diagonalization with overlap
     ethr =  9.98E-12,  avg # of iterations =  1.0

     negative rho (up, down):  6.785E-05 0.000E+00

     total cpu time spent up to now is       42.5 secs

     total energy              =      -2.33231986 Ry
     estimated scf accuracy    <          7.6E-11 Ry

     iteration #  3     ecut=    40.00 Ry     beta= 0.30
     Davidson diagonalization with overlap
     ethr =  3.79E-12,  avg # of iterations =  2.0

     negative rho (up, down):  6.785E-05 0.000E+00

     total cpu time spent up to now is       43.1 secs

     End of self-consistent calculation

          k = 0.0000 0.0000 0.0000 ( 17133 PWs)   bands (ev):

   -10.3013

     highest occupied level (ev):   -10.3013

!    total energy              =      -2.33231986 Ry
     estimated scf accuracy    <          5.7E-13 Ry

     The total energy is the sum of the following terms:
     one-electron contribution =      -3.85108938 Ry
     hartree contribution      =       2.05043490 Ry
     xc contribution           =      -1.37403114 Ry
     ewald contribution        =       0.84236576 Ry

     convergence has been achieved in   3 iterations

     Forces acting on atoms (cartesian axes, Ry/au):

     atom    1 type  1   force =     0.00000000    0.00000000   -0.00000989
     atom    2 type  1   force =     0.00000000    0.00000000    0.00000989

     Total force =     0.000014     Total SCF correction =     0.000000
     Energy error            =      3.5E-10 Ry
     Gradient error          =      9.9E-06 Ry/Bohr

     bfgs converged in   8 scf cycles and   7 bfgs steps
     (criteria: energy <  1.0E-07 Ry, force <  1.0E-04 Ry/Bohr)

     End of BFGS Geometry Optimization

     Final energy             =      -2.3323198599 Ry

     File /anvil/projects/x-che260157/sts_pa_probe_2026-10-03/tiny_results/continuous/scratch/h2_probe.bfgs deleted, as requested
Begin final coordinates

ATOMIC_POSITIONS (bohr)
H                0.0000000000        0.0000000000        0.2901569087
H                0.0000000000        0.0000000000        1.7098430913
End final coordinates



     Writing all to output data dir /anvil/projects/x-che260157/sts_pa_probe_2026-10-03/tiny_results/continuous/scratch/h2_probe.save/ :
     XML data file, charge density, pseudopotentials, collected wavefunctions

     init_run     :      1.93s CPU      2.03s WALL (       1 calls)
     electrons    :     33.35s CPU     35.58s WALL (       8 calls)
     update_pot   :      2.96s CPU      3.39s WALL (       7 calls)
     forces       :      1.36s CPU      1.56s WALL (       8 calls)

     Called by init_run:
     wfcinit      :      0.12s CPU      0.12s WALL (       1 calls)
     potinit      :      0.69s CPU      0.75s WALL (       1 calls)
     hinit0       :      0.97s CPU      0.99s WALL (       1 calls)

     Called by electrons:
     c_bands      :      1.60s CPU      1.62s WALL (      58 calls)
     sum_band     :      2.97s CPU      3.05s WALL (      58 calls)
     v_of_rho     :     24.58s CPU     26.98s WALL (      64 calls)
     newd         :      2.36s CPU      2.39s WALL (      64 calls)
     mix_rho      :      2.55s CPU      2.58s WALL (      58 calls)

     Called by c_bands:
     init_us_2    :      0.08s CPU      0.09s WALL (     125 calls)
     regterg      :      1.53s CPU      1.55s WALL (      58 calls)

     Called by *egterg:
     rdiaghg      :      0.00s CPU      0.00s WALL (     160 calls)
     h_psi        :      1.56s CPU      1.58s WALL (     170 calls)
     s_psi        :      0.01s CPU      0.01s WALL (     170 calls)
     g_psi        :      0.01s CPU      0.01s WALL (     111 calls)

     Called by h_psi:
     h_psi:calbec :      0.01s CPU      0.01s WALL (     170 calls)
     vloc_psi     :      1.54s CPU      1.56s WALL (     170 calls)
                                        0.00s GPU  (     170 calls)
     add_vuspsi   :      0.01s CPU      0.01s WALL (     170 calls)

     General routines
     calbec       :      0.01s CPU      0.01s WALL (     260 calls)
     fft          :     12.42s CPU     12.53s WALL (     713 calls)
     ffts         :      0.90s CPU      0.91s WALL (     122 calls)
     fftw         :      1.48s CPU      1.49s WALL (     398 calls)
     interpolate  :      2.10s CPU      2.12s WALL (      64 calls)

     Parallel routines

     PWSCF        :     40.25s CPU     43.29s WALL


   This run was terminated on:   3:53:54   3Oct2026            

=------------------------------------------------------------------------------=
   JOB DONE.
=------------------------------------------------------------------------------=
