
     Program PWSCF v.7.5 starts on  1Sep2026 at 19:38:47 

     This program is part of the open-source Quantum ESPRESSO suite
     for quantum simulation of materials; please cite
         "P. Giannozzi et al., J. Phys.:Condens. Matter 21 395502 (2009);
         "P. Giannozzi et al., J. Phys.:Condens. Matter 29 465901 (2017);
         "P. Giannozzi et al., J. Chem. Phys. 152 154105 (2020);
          URL http://www.quantum-espresso.org", 
     in publications or presentations arising from this work. More details at
     http://www.quantum-espresso.org/quote

     Parallel version (MPI & OpenMP), running on     128 processor cores
     Number of MPI processes:               128
     Threads/MPI process:                     1

     MPI processes distributed on     1 nodes
     230733 MiB available memory on the printing compute node when the environment starts

     Reading input from s0_OOH__u000__sp2m010.run.in

     Current dimensions of program PWSCF are:
     Max number of different atomic species (ntypx) = 10
     Max number of k-points (npk) =  40000
     Max angular momentum in pseudopotentials (lmaxx) =  4
     file O.pbe-n-kjpaw_psl.0.1.UPF: wavefunction(s)  2P renormalized
     Message from routine setup:
     using ibrav=0 with symmetry is DISCOURAGED, use correct ibrav instead

     K-points division:     npool     =       4
     R & G space division:  proc/nbgrp/npool/nimage =      32
     Subspace diagonalization in iterative solution of the eigenvalue problem:
     a serial algorithm will be used


     Parallelization info
     --------------------
     sticks:   dense  smooth     PW     G-vecs:    dense   smooth      PW
     Min         112      56     16                28918    10208    1540
     Max         113      57     17                28934    10234    1560
     Sum        3587    1793    513               925697   327113   49625

     Using Slab Decomposition



     bravais-lattice index     =            0
     lattice parameter (alat)  =       5.8714  a.u.
     unit-cell volume          =    3384.5999 (a.u.)^3
     number of atoms/cell      =           21
     number of atomic types    =            3
     number of electrons       =       181.00
     number of Kohn-Sham states=          109
     kinetic-energy cutoff     =      80.0000  Ry
     charge density cutoff     =     640.0000  Ry
     scf convergence threshold =      1.0E-06
     mixing beta               =       0.3000
     number of iterations used =            8  local-TF  mixing
     Exchange-correlation= SLA  PW   PBX  PBC
                           (   1   4   3   4   0   0   0)

     celldm(1)=   5.871379  celldm(2)=   0.000000  celldm(3)=   0.000000
     celldm(4)=   0.000000  celldm(5)=   0.000000  celldm(6)=   0.000000

     crystal axes: (cart. coord. in units of alat)
               a(1) = (   1.000000   0.000000   0.000000 )  
               a(2) = (   0.000000   2.044624   0.000000 )  
               a(3) = (   0.000000   0.000000   8.178497 )  

     reciprocal axes: (cart. coord. in units 2 pi/alat)
               b(1) = (  1.000000  0.000000  0.000000 )  
               b(2) = (  0.000000  0.489087  0.000000 )  
               b(3) = (  0.000000  0.000000  0.122272 )  


     PseudoPot. # 1 for H  read from file:
     /anvil/projects/x-che260157/pseudo/H.pbe-rrkjus_psl.1.0.0.UPF
     MD5 check sum: f52b6d4d1c606e5624b1dc7b2218f220
     Pseudo is Ultrasoft, Zval =  1.0
     Generated using "atomic" code by A. Dal Corso  v.5.1
     Using radial grid of  929 points,  2 beta functions with: 
                l(1) =   0
                l(2) =   0
     Q(r) pseudized with 0 coefficients 


     PseudoPot. # 2 for Ru read from file:
     /anvil/projects/x-che260157/pseudo/Ru_ONCV_PBE-1.0.oncvpsp.upf
     MD5 check sum: be037bb81c227cfb9b1461a9f099f4bd
     Pseudo is Norm-conserving, Zval = 16.0
     Generated using ONCVPSP code by D. R. Hamann
     Using radial grid of 1458 points,  6 beta functions with: 
                l(1) =   0
                l(2) =   0
                l(3) =   1
                l(4) =   1
                l(5) =   2
                l(6) =   2

     PseudoPot. # 3 for O  read from file:
     /anvil/projects/x-che260157/pseudo/O.pbe-n-kjpaw_psl.0.1.UPF
     MD5 check sum: 0234752ac141de4415c5fc33072bef88
     Pseudo is Projector augmented-wave + core cor, Zval =  6.0
     Generated using "atomic" code by A. Dal Corso  v.5.0.99 svn rev. 10869
     Shape of augmentation charge: BESSEL
     Using radial grid of 1095 points,  4 beta functions with: 
                l(1) =   0
                l(2) =   0
                l(3) =   1
                l(4) =   1
     Q(r) pseudized with 0 coefficients 


     atomic species   valence    mass     pseudopotential
     H                 1.00     1.00800     H ( 1.00)
     Ru               16.00   101.07000     Ru( 1.00)
     O                 6.00    15.99900     O ( 1.00)

     Starting magnetic structure 
     atomic species   magnetization
     H               0.000
     Ru              0.100
     O               0.000

      2 Sym. Ops. (no inversion) found ( 1 have fractional translation)



   Cartesian axes

     site n.     atom                  positions (alat units)
         1        Ru     tau(   1) = (   0.0000000   0.5111560   3.0669363  )
         2        Ru     tau(   2) = (   0.5000000   1.5334681   3.0669363  )
         3        Ru     tau(   3) = (   0.0036513   1.5334681   4.1010901  )
         4        Ru     tau(   4) = (   0.5011434   0.5111560   4.0829838  )
         5        Ru     tau(   5) = (  -0.0034005   0.5111560   5.1128160  )
         6        Ru     tau(   6) = (   0.5023911   1.5334681   5.1500971  )
         7        O      tau(   7) = (   0.0000000   1.5334681   3.4656380  )
         8        O      tau(   8) = (   0.0000000   1.5334681   2.6682346  )
         9        O      tau(   9) = (   0.5000000   0.1124543   3.0669363  )
        10        O      tau(  10) = (   0.5000000   0.9098578   3.0669363  )
        11        O      tau(  11) = (   0.0014323   0.5111560   4.4911398  )
        12        O      tau(  12) = (   0.0000000   0.5111560   3.6905466  )
        13        O      tau(  13) = (   0.5034297   1.1369455   4.0929878  )
        14        O      tau(  14) = (   0.5034297   1.9299908   4.0929878  )
        15        O      tau(  15) = (   0.0031289   1.5334681   5.5052300  )
        16        O      tau(  16) = (   0.0021555   1.5334681   4.7241012  )
        17        O      tau(  17) = (   0.5023215   0.1156519   5.1188702  )
        18        O      tau(  18) = (   0.5023215   0.9066602   5.1188702  )
        19        O      tau(  19) = (   0.0666044   0.5111560   5.7356750  )
        20        O      tau(  20) = (  -0.2099082   0.5111560   6.0861679  )
        21        H      tau(  21) = (  -0.5108953   0.5111560   5.9503934  )

     number of k points=    15  Marzari-Vanderbilt smearing, width (Ry)=  0.0100
                       cart. coord. in units 2pi/alat
        k(    1) = (   0.0000000   0.0000000   0.0000000), wk =   0.0312500
        k(    2) = (   0.0000000   0.1222719   0.0000000), wk =   0.0625000
        k(    3) = (   0.0000000  -0.2445437   0.0000000), wk =   0.0312500
        k(    4) = (   0.1250000   0.0000000   0.0000000), wk =   0.0625000
        k(    5) = (   0.1250000   0.1222719   0.0000000), wk =   0.1250000
        k(    6) = (   0.1250000  -0.2445437   0.0000000), wk =   0.0625000
        k(    7) = (   0.2500000   0.0000000   0.0000000), wk =   0.0625000
        k(    8) = (   0.2500000   0.1222719   0.0000000), wk =   0.1250000
        k(    9) = (   0.2500000  -0.2445437   0.0000000), wk =   0.0625000
        k(   10) = (   0.3750000   0.0000000   0.0000000), wk =   0.0625000
        k(   11) = (   0.3750000   0.1222719   0.0000000), wk =   0.1250000
        k(   12) = (   0.3750000  -0.2445437   0.0000000), wk =   0.0625000
        k(   13) = (  -0.5000000   0.0000000   0.0000000), wk =   0.0312500
        k(   14) = (  -0.5000000   0.1222719   0.0000000), wk =   0.0625000
        k(   15) = (  -0.5000000  -0.2445437   0.0000000), wk =   0.0312500

     Dense  grid:   925697 G-vectors     FFT dimensions: (  48, 100, 400)

     Smooth grid:   327113 G-vectors     FFT dimensions: (  36,  72, 288)

     Estimated max dynamical RAM per process >      73.99 MB

     Estimated total dynamical RAM >       7.92 GB
     Generating pointlists ...
     new r_m :   0.1362 (alat units)  0.7997 (a.u.) for type    1
     new r_m :   0.2527 (alat units)  1.4839 (a.u.) for type    2
     new r_m :   0.1362 (alat units)  0.7997 (a.u.) for type    3

     Initial potential from superposition of free atoms

     starting charge     180.9967, renormalised to     181.0000

     negative rho (up, down):  3.996E-05 3.997E-05
     Starting wfcs are  117 randomized atomic wfcs
     Checking if some PAW data can be deallocated... 

     total cpu time spent up to now is        6.2 secs

     per-process dynamical memory:   109.6 Mb

     Self-consistent Calculation

     iteration #  1     ecut=    80.00 Ry     beta= 0.30
     Davidson diagonalization with overlap
     ethr =  1.00E-02,  avg # of iterations =  2.0

     negative rho (up, down):  5.785E-05 5.793E-05

     total cpu time spent up to now is       11.6 secs

     total energy              =   -1714.77962246 Ry
     estimated scf accuracy    <       4.67478557 Ry

     total magnetization       =     6.40 Bohr mag/cell
     absolute magnetization    =     6.53 Bohr mag/cell

     iteration #  2     ecut=    80.00 Ry     beta= 0.30
     Davidson diagonalization with overlap
     ethr =  2.58E-03,  avg # of iterations =  1.1

     negative rho (up, down):  2.786E-06 2.792E-06

     total cpu time spent up to now is       16.3 secs

     total energy              =   -1714.87325514 Ry
     estimated scf accuracy    <       0.96820820 Ry

     total magnetization       =     4.36 Bohr mag/cell
     absolute magnetization    =     4.59 Bohr mag/cell

     iteration #  3     ecut=    80.00 Ry     beta= 0.30
     Davidson diagonalization with overlap
     ethr =  5.35E-04,  avg # of iterations =  2.0

     total cpu time spent up to now is       20.8 secs

     total energy              =   -1715.00001777 Ry
     estimated scf accuracy    <       0.26771912 Ry

     total magnetization       =     3.45 Bohr mag/cell
     absolute magnetization    =     3.66 Bohr mag/cell

     iteration #  4     ecut=    80.00 Ry     beta= 0.30
     Davidson diagonalization with overlap
     ethr =  1.48E-04,  avg # of iterations =  1.1

     total cpu time spent up to now is       24.8 secs

     total energy              =   -1715.00532562 Ry
     estimated scf accuracy    <       0.13354702 Ry

     total magnetization       =     3.30 Bohr mag/cell
     absolute magnetization    =     3.44 Bohr mag/cell

     iteration #  5     ecut=    80.00 Ry     beta= 0.30
     Davidson diagonalization with overlap
     ethr =  7.38E-05,  avg # of iterations =  2.1

     total cpu time spent up to now is       29.1 secs

     total energy              =   -1715.00888104 Ry
     estimated scf accuracy    <       0.03825773 Ry

     total magnetization       =     2.83 Bohr mag/cell
     absolute magnetization    =     2.91 Bohr mag/cell

     iteration #  6     ecut=    80.00 Ry     beta= 0.30
     Davidson diagonalization with overlap
     ethr =  2.11E-05,  avg # of iterations =  4.5

     total cpu time spent up to now is       33.9 secs

     total energy              =   -1715.01215524 Ry
     estimated scf accuracy    <       0.01470726 Ry

     total magnetization       =     2.38 Bohr mag/cell
     absolute magnetization    =     2.45 Bohr mag/cell

     iteration #  7     ecut=    80.00 Ry     beta= 0.30
     Davidson diagonalization with overlap
     ethr =  8.13E-06,  avg # of iterations =  2.4

     total cpu time spent up to now is       38.5 secs

     total energy              =   -1715.01084512 Ry
     estimated scf accuracy    <       0.01202167 Ry

     total magnetization       =     2.25 Bohr mag/cell
     absolute magnetization    =     2.34 Bohr mag/cell

     iteration #  8     ecut=    80.00 Ry     beta= 0.30
     Davidson diagonalization with overlap
     ethr =  6.64E-06,  avg # of iterations =  2.9

     total cpu time spent up to now is       43.2 secs

     total energy              =   -1715.01167583 Ry
     estimated scf accuracy    <       0.00614872 Ry

     total magnetization       =     1.96 Bohr mag/cell
     absolute magnetization    =     2.21 Bohr mag/cell

     iteration #  9     ecut=    80.00 Ry     beta= 0.30
     Davidson diagonalization with overlap
     ethr =  3.40E-06,  avg # of iterations =  2.9

     total cpu time spent up to now is       47.7 secs

     total energy              =   -1715.01157291 Ry
     estimated scf accuracy    <       0.00327966 Ry

     total magnetization       =     1.85 Bohr mag/cell
     absolute magnetization    =     2.19 Bohr mag/cell

     iteration # 10     ecut=    80.00 Ry     beta= 0.30
     Davidson diagonalization with overlap
     ethr =  1.81E-06,  avg # of iterations =  2.7

     negative rho (up, down):  3.600E-04 4.119E-04

     total cpu time spent up to now is       52.2 secs

     total energy              =   -1715.01135125 Ry
     estimated scf accuracy    <       0.00224514 Ry

     total magnetization       =     1.77 Bohr mag/cell
     absolute magnetization    =     2.22 Bohr mag/cell

     iteration # 11     ecut=    80.00 Ry     beta= 0.30
     Davidson diagonalization with overlap
     ethr =  1.24E-06,  avg # of iterations =  1.7

     negative rho (up, down):  1.588E-03 1.692E-03

     total cpu time spent up to now is       56.8 secs

     total energy              =   -1715.01139475 Ry
     estimated scf accuracy    <       0.00111704 Ry

     total magnetization       =     1.67 Bohr mag/cell
     absolute magnetization    =     2.28 Bohr mag/cell

     iteration # 12     ecut=    80.00 Ry     beta= 0.30
     Davidson diagonalization with overlap
     ethr =  6.17E-07,  avg # of iterations =  3.9

     negative rho (up, down):  1.465E-03 1.567E-03

     total cpu time spent up to now is       61.7 secs

     total energy              =   -1715.01161002 Ry
     estimated scf accuracy    <       0.00065486 Ry

     total magnetization       =     1.60 Bohr mag/cell
     absolute magnetization    =     2.42 Bohr mag/cell

     iteration # 13     ecut=    80.00 Ry     beta= 0.30
     Davidson diagonalization with overlap
     ethr =  3.62E-07,  avg # of iterations =  1.1

     negative rho (up, down):  1.047E-03 1.118E-03

     total cpu time spent up to now is       66.0 secs

     total energy              =   -1715.01158840 Ry
     estimated scf accuracy    <       0.00043730 Ry

     total magnetization       =     1.59 Bohr mag/cell
     absolute magnetization    =     2.48 Bohr mag/cell

     iteration # 14     ecut=    80.00 Ry     beta= 0.30
     Davidson diagonalization with overlap
     ethr =  2.42E-07,  avg # of iterations =  2.0

     negative rho (up, down):  1.597E-03 1.661E-03

     total cpu time spent up to now is       70.5 secs

     total energy              =   -1715.01168771 Ry
     estimated scf accuracy    <       0.00016456 Ry

     total magnetization       =     1.57 Bohr mag/cell
     absolute magnetization    =     2.55 Bohr mag/cell

     iteration # 15     ecut=    80.00 Ry     beta= 0.30
     Davidson diagonalization with overlap
     ethr =  9.09E-08,  avg # of iterations =  3.1

     negative rho (up, down):  1.004E-03 1.039E-03

     total cpu time spent up to now is       75.4 secs

     total energy              =   -1715.01180667 Ry
     estimated scf accuracy    <       0.00006705 Ry

     total magnetization       =     1.53 Bohr mag/cell
     absolute magnetization    =     2.64 Bohr mag/cell

     iteration # 16     ecut=    80.00 Ry     beta= 0.30
     Davidson diagonalization with overlap
     ethr =  3.70E-08,  avg # of iterations =  2.0

     negative rho (up, down):  4.869E-04 5.072E-04

     total cpu time spent up to now is       80.0 secs

     total energy              =   -1715.01183816 Ry
     estimated scf accuracy    <       0.00003394 Ry

     total magnetization       =     1.51 Bohr mag/cell
     absolute magnetization    =     2.63 Bohr mag/cell

     iteration # 17     ecut=    80.00 Ry     beta= 0.30
     Davidson diagonalization with overlap
     ethr =  1.88E-08,  avg # of iterations =  2.2

     negative rho (up, down):  2.801E-04 2.875E-04

     total cpu time spent up to now is       84.7 secs

     total energy              =   -1715.01186706 Ry
     estimated scf accuracy    <       0.00001237 Ry

     total magnetization       =     1.50 Bohr mag/cell
     absolute magnetization    =     2.63 Bohr mag/cell

     iteration # 18     ecut=    80.00 Ry     beta= 0.30
     Davidson diagonalization with overlap
     ethr =  6.83E-09,  avg # of iterations =  2.3

     negative rho (up, down):  1.804E-04 1.862E-04

     total cpu time spent up to now is       89.4 secs

     total energy              =   -1715.01188255 Ry
     estimated scf accuracy    <       0.00000601 Ry

     total magnetization       =     1.48 Bohr mag/cell
     absolute magnetization    =     2.62 Bohr mag/cell

     iteration # 19     ecut=    80.00 Ry     beta= 0.30
     Davidson diagonalization with overlap
     ethr =  3.32E-09,  avg # of iterations =  2.0

     negative rho (up, down):  9.838E-05 9.736E-05

     total cpu time spent up to now is       95.3 secs

     total energy              =   -1715.01188928 Ry
     estimated scf accuracy    <       0.00000460 Ry

     total magnetization       =     1.47 Bohr mag/cell
     absolute magnetization    =     2.61 Bohr mag/cell

     iteration # 20     ecut=    80.00 Ry     beta= 0.30
     Davidson diagonalization with overlap
     ethr =  2.54E-09,  avg # of iterations =  3.0

     negative rho (up, down):  1.431E-04 1.422E-04

     total cpu time spent up to now is      100.6 secs

     total energy              =   -1715.01189917 Ry
     estimated scf accuracy    <       0.00000247 Ry

     total magnetization       =     1.45 Bohr mag/cell
     absolute magnetization    =     2.59 Bohr mag/cell

     iteration # 21     ecut=    80.00 Ry     beta= 0.30
     Davidson diagonalization with overlap
     ethr =  1.36E-09,  avg # of iterations =  2.6

     negative rho (up, down):  1.474E-04 1.465E-04

     total cpu time spent up to now is      105.3 secs

     total energy              =   -1715.01190391 Ry
     estimated scf accuracy    <       0.00000209 Ry

     total magnetization       =     1.44 Bohr mag/cell
     absolute magnetization    =     2.59 Bohr mag/cell

     iteration # 22     ecut=    80.00 Ry     beta= 0.30
     Davidson diagonalization with overlap
     ethr =  1.15E-09,  avg # of iterations =  2.2

     negative rho (up, down):  9.327E-05 9.184E-05

     total cpu time spent up to now is      110.3 secs

     total energy              =   -1715.01189888 Ry
     estimated scf accuracy    <       0.00000180 Ry

     total magnetization       =     1.42 Bohr mag/cell
     absolute magnetization    =     2.58 Bohr mag/cell

     iteration # 23     ecut=    80.00 Ry     beta= 0.30
     Davidson diagonalization with overlap
     ethr =  9.92E-10,  avg # of iterations =  4.3

     negative rho (up, down):  7.429E-05 7.333E-05

     total cpu time spent up to now is      116.9 secs

     total energy              =   -1715.01192082 Ry
     estimated scf accuracy    <       0.00000126 Ry

     total magnetization       =     1.38 Bohr mag/cell
     absolute magnetization    =     2.56 Bohr mag/cell

     iteration # 24     ecut=    80.00 Ry     beta= 0.30
     Davidson diagonalization with overlap
     ethr =  6.97E-10,  avg # of iterations =  3.1

     negative rho (up, down):  4.945E-05 4.797E-05

     Magnetic moment per site  (integrated on atomic sphere of radius R)
     atom   1 (R=0.253)  charge= 10.8712  magn= -0.1677
     atom   2 (R=0.253)  charge= 10.7775  magn=  0.5047
     atom   3 (R=0.253)  charge= 10.8073  magn= -0.1424
     atom   4 (R=0.253)  charge= 10.8198  magn=  0.0722
     atom   5 (R=0.253)  charge= 10.8125  magn= -0.0366
     atom   6 (R=0.253)  charge= 10.7792  magn=  0.3644
     atom   7 (R=0.136)  charge=  2.1380  magn=  0.0175
     atom   8 (R=0.136)  charge=  2.1133  magn=  0.0874
     atom   9 (R=0.136)  charge=  2.1360  magn= -0.0073
     atom  10 (R=0.136)  charge=  2.1360  magn= -0.0073
     atom  11 (R=0.136)  charge=  2.1348  magn=  0.0016
     atom  12 (R=0.136)  charge=  2.1321  magn= -0.0010
     atom  13 (R=0.136)  charge=  2.1380  magn= -0.0033
     atom  14 (R=0.136)  charge=  2.1380  magn= -0.0033
     atom  15 (R=0.136)  charge=  2.1230  magn=  0.0897
     atom  16 (R=0.136)  charge=  2.1360  magn=  0.0079
     atom  17 (R=0.136)  charge=  2.1397  magn= -0.0000
     atom  18 (R=0.136)  charge=  2.1397  magn= -0.0000
     atom  19 (R=0.136)  charge=  2.1247  magn=  0.0069
     atom  20 (R=0.136)  charge=  2.1293  magn=  0.0051
     atom  21 (R=0.136)  charge=  0.4073  magn= -0.0001

     total cpu time spent up to now is      122.1 secs

     End of self-consistent calculation

 ------ SPIN UP ------------


          k = 0.0000 0.0000 0.0000 ( 40831 PWs)   bands (ev):

   -72.6157 -72.5290 -72.0311 -72.0282 -71.9599 -71.6515 -42.7186 -42.6596
   -42.6201 -42.5834 -42.5732 -42.4579 -42.3044 -42.2766 -42.1811 -41.9463
   -41.8980 -41.8757 -41.8431 -41.8095 -41.8034 -41.7720 -41.5408 -41.4945
   -22.2267 -18.5981 -18.2933 -18.1404 -17.9798 -17.6188 -17.5179 -17.1144
   -16.8353 -16.7709 -16.7069 -16.5462 -15.9856 -14.2431  -7.2629  -6.9311
    -6.9273  -6.8871  -6.4070  -6.1179  -5.4611  -5.4312  -5.4003  -5.3662
    -5.3494  -5.3359  -5.2884  -5.1262  -4.9006  -4.0497  -4.0254  -3.5808
    -3.3454  -2.9817  -2.8924  -2.7812  -2.7482  -2.6866  -2.6408  -2.5123
    -2.3580  -2.2524  -2.1375  -2.0972  -1.9043  -1.7326  -1.6917  -1.5655
    -1.2101  -1.1826  -0.9975  -0.9672  -0.5543  -0.4761  -0.3005  -0.1795
     0.0016   0.0581   0.1008   0.1475   0.3282   0.3778   0.4761   0.9007
     0.9074   0.9356   0.9802   1.1591   1.5182   2.0442   2.4544   2.5479
     2.6570   3.0463   3.5960   4.4131   4.9316   5.4958   5.5856   5.6320
     5.9151   6.0663   6.1018   6.1306   6.2394

          k = 0.0000 0.1223 0.0000 ( 40974 PWs)   bands (ev):

   -72.6157 -72.5290 -72.0311 -72.0282 -71.9599 -71.6515 -42.7177 -42.6589
   -42.6200 -42.5834 -42.5731 -42.4579 -42.3044 -42.2751 -42.1811 -41.9463
   -41.8991 -41.8754 -41.8431 -41.8095 -41.8037 -41.7737 -41.5408 -41.4953
   -22.2266 -18.4892 -18.1598 -18.0273 -17.9964 -17.6267 -17.5560 -17.1209
   -16.9799 -16.9151 -16.8703 -16.5440 -15.9825 -14.2430  -7.2587  -6.5172
    -6.4623  -6.4428  -6.3660  -6.1070  -5.4288  -5.4034  -5.3707  -5.3115
    -5.2692  -5.2050  -5.1937  -5.1198  -4.7168  -4.0646  -3.9652  -3.8598
    -3.5882  -3.4784  -3.3766  -3.2420  -2.9137  -2.8381  -2.7592  -2.5752
    -2.5639  -2.5157  -2.4256  -2.2563  -2.2063  -2.0050  -1.8382  -1.6701
    -1.4317  -1.3711  -1.1767  -1.0029  -0.7615  -0.5619   0.2470   0.2779
     0.3413   0.4005   0.5111   0.5469   0.6723   0.6794   0.7730   0.9060
     0.9470   0.9830   1.0789   1.1553   1.5530   2.0084   2.2728   2.4197
     2.7219   2.8937   3.9933   4.7143   5.1729   5.4766   5.5737   5.6198
     5.8084   5.8547   5.8963   5.9575   6.3072

          k = 0.0000-0.2445 0.0000 ( 41014 PWs)   bands (ev):

   -72.6157 -72.5290 -72.0311 -72.0282 -71.9599 -71.6515 -42.7169 -42.6583
   -42.6200 -42.5834 -42.5731 -42.4579 -42.3044 -42.2735 -42.1811 -41.9463
   -41.9001 -41.8752 -41.8431 -41.8095 -41.8039 -41.7754 -41.5408 -41.4961
   -22.2264 -18.3155 -18.1338 -17.8793 -17.7784 -17.7516 -17.6412 -17.1621
   -17.1507 -17.0515 -17.0355 -16.5443 -15.9804 -14.2430  -7.2586  -6.4372
    -6.1413  -5.7395  -5.6996  -5.6322  -5.4247  -5.4087  -5.3736  -5.2086
    -5.1803  -5.1529  -5.0683  -4.7215  -4.5996  -4.3304  -4.2583  -4.1905
    -4.1533  -4.1013  -4.0171  -3.5917  -3.3510  -3.1374  -2.9466  -2.8436
    -2.7937  -2.7015  -2.4425  -2.4279  -2.4189  -2.1064  -1.7833  -1.5394
    -1.4341  -1.3077  -1.1556  -0.8510  -0.8335  -0.7947   0.2954   0.3262
     0.6799   0.7327   0.7828   0.8466   0.9002   0.9462   1.0114   1.0278
     1.0874   1.1762   1.1800   1.3993   1.5457   1.6920   2.0665   2.4012
     2.4903   3.0391   4.5492   4.6517   5.3688   5.5239   5.5517   5.5949
     5.6272   5.6847   5.8407   5.9437   6.0817

          k = 0.1250 0.0000 0.0000 ( 40851 PWs)   bands (ev):

   -72.6142 -72.5275 -72.0296 -72.0267 -71.9584 -71.6500 -42.7166 -42.6576
   -42.6171 -42.5994 -42.5791 -42.4837 -42.3026 -42.2744 -42.1794 -41.9417
   -41.9026 -41.8937 -41.8703 -41.8307 -41.8077 -41.7678 -41.5683 -41.4899
   -22.1492 -18.4692 -18.1747 -18.0289 -17.8854 -17.5416 -17.4266 -17.1748
   -16.9109 -16.8496 -16.7883 -16.6257 -16.0344 -14.4032  -7.3896  -6.7598
    -6.7529  -6.7092  -6.2259  -6.0883  -5.5065  -5.4766  -5.4639  -5.3563
    -5.3162  -5.1790  -4.9366  -4.8547  -4.6761  -4.3101  -3.8683  -3.4687
    -3.3595  -3.2549  -3.0895  -2.8647  -2.7990  -2.7310  -2.6847  -2.6629
    -2.4519  -2.4358  -2.3787  -2.0794  -1.9809  -1.9258  -1.7893  -1.7321
    -1.6256  -1.5985  -1.5159  -1.0159  -0.8601  -0.5001  -0.1504   0.2154
     0.2912   0.3352   0.4406   0.5009   0.5915   0.6602   0.7121   0.9331
     0.9399   1.0810   1.1506   1.4687   1.4945   1.9005   2.3021   2.5251
     2.7071   2.9033   3.7573   4.5233   5.0005   5.1469   5.1752   5.4843
     5.6363   5.7439   5.7820   5.8170   6.3050

          k = 0.1250 0.1223 0.0000 ( 40932 PWs)   bands (ev):

   -72.6142 -72.5275 -72.0296 -72.0267 -71.9584 -71.6500 -42.7159 -42.6572
   -42.6171 -42.5994 -42.5791 -42.4837 -42.3026 -42.2732 -42.1794 -41.9417
   -41.9025 -41.8945 -41.8702 -41.8307 -41.8077 -41.7691 -41.5682 -41.4906
   -22.1491 -18.3671 -18.0477 -17.9302 -17.8891 -17.5368 -17.4710 -17.1806
   -17.0450 -16.9827 -16.9394 -16.6239 -16.0319 -14.4031  -7.3891  -6.3675
    -6.3130  -6.2835  -6.1975  -6.0714  -5.5041  -5.4440  -5.3638  -5.3281
    -5.2037  -4.9714  -4.9474  -4.8562  -4.5420  -4.3061  -3.8845  -3.7607
    -3.5547  -3.4323  -3.3567  -3.2682  -3.1365  -3.0808  -2.9923  -2.8443
    -2.7570  -2.6969  -2.5856  -2.4047  -2.2742  -1.9749  -1.8668  -1.7250
    -1.6375  -1.4669  -1.2986  -0.9080  -0.8269  -0.6531   0.1348   0.3351
     0.4953   0.5569   0.6047   0.6913   0.7259   0.9075   0.9735   1.0461
     1.1104   1.2081   1.2687   1.4681   1.5550   1.9198   2.1380   2.3215
     2.6791   2.9116   4.0843   4.7363   5.0663   5.1007   5.1737   5.4229
     5.4596   5.5466   5.6459   5.7527   6.3515

          k = 0.1250-0.2445 0.0000 ( 40974 PWs)   bands (ev):

   -72.6142 -72.5275 -72.0296 -72.0267 -71.9584 -71.6500 -42.7152 -42.6567
   -42.6171 -42.5994 -42.5791 -42.4837 -42.3026 -42.2720 -42.1793 -41.9418
   -41.9024 -41.8954 -41.8701 -41.8308 -41.8077 -41.7705 -41.5682 -41.4913
   -22.1489 -18.2060 -18.0236 -17.7701 -17.6825 -17.6467 -17.5562 -17.2289
   -17.2087 -17.1115 -17.0885 -16.6243 -16.0299 -14.4030  -7.3899  -6.2602
    -6.1065  -5.5452  -5.4984  -5.4961  -5.4536  -5.4153  -5.3692  -5.3184
    -5.3114  -4.9572  -4.8656  -4.5549  -4.4635  -4.2927  -4.2199  -4.1349
    -3.9225  -3.8346  -3.8116  -3.7275  -3.6159  -3.6111  -3.2971  -3.0284
    -2.9622  -2.9220  -2.7630  -2.5874  -2.2942  -2.0056  -1.9007  -1.5550
    -1.3485  -1.1988  -1.1286  -1.0198  -0.8463  -0.7688   0.3364   0.4379
     0.5077   0.6607   0.7171   0.7442   0.8324   1.0471   1.0777   1.2873
     1.4146   1.4861   1.5016   1.5551   1.7165   1.7192   1.9916   2.2807
     2.3770   3.0779   4.5896   4.6032   4.8850   5.0221   5.0297   5.3175
     5.3561   5.5222   5.6803   5.9318   6.1715

          k = 0.2500 0.0000 0.0000 ( 40947 PWs)   bands (ev):

   -72.6104 -72.5239 -72.0258 -72.0231 -71.9547 -71.6462 -42.7116 -42.6683
   -42.6530 -42.6037 -42.5686 -42.5454 -42.2983 -42.2690 -42.1753 -41.9679
   -41.9377 -41.9266 -41.8960 -41.8831 -41.8042 -41.7576 -41.6341 -41.4788
   -21.9492 -18.1420 -17.8829 -17.7559 -17.6782 -17.4238 -17.2841 -17.1885
   -17.0894 -17.0348 -16.9797 -16.8052 -16.1028 -14.8120  -7.5935  -6.3293
    -6.2975  -6.2438  -5.8716  -5.7338  -5.5524  -5.5348  -5.4260  -5.1866
    -5.1584  -4.7879  -4.7554  -4.4114  -4.3196  -4.2104  -4.1526  -3.8697
    -3.6983  -3.5494  -3.5207  -3.5184  -3.2315  -3.0520  -3.0458  -2.7432
    -2.5670  -2.5107  -2.4152  -2.2945  -2.2864  -2.0866  -1.9897  -1.9746
    -1.7464  -1.5611  -1.0950  -0.9513  -0.9282  -0.8112  -0.1309   0.1719
     0.6722   0.7090   0.7483   0.8147   0.9287   1.0768   1.1001   1.1693
     1.2532   1.4003   1.4300   1.5769   1.6604   1.6631   1.9894   2.2591
     2.5181   2.8683   4.0125   4.2452   4.6806   4.7937   4.9075   5.1455
     5.1767   5.1869   5.2471   5.5529   6.1149

          k = 0.2500 0.1223 0.0000 ( 40905 PWs)   bands (ev):

   -72.6104 -72.5239 -72.0258 -72.0230 -71.9547 -71.6462 -42.7115 -42.6684
   -42.6529 -42.6037 -42.5686 -42.5454 -42.2983 -42.2688 -42.1753 -41.9680
   -41.9375 -41.9265 -41.8955 -41.8836 -41.8042 -41.7582 -41.6339 -41.4792
   -21.9491 -18.0660 -17.7900 -17.7184 -17.6396 -17.4237 -17.3117 -17.2128
   -17.1778 -17.1175 -17.0749 -16.8045 -16.1022 -14.8117  -7.5945  -6.0470
    -5.9804  -5.9275  -5.8559  -5.7291  -5.5438  -5.3649  -5.2993  -5.2450
    -5.0556  -4.8205  -4.5253  -4.4161  -4.3991  -4.2679  -4.1513  -4.0957
    -4.0274  -3.9332  -3.8075  -3.4726  -3.3643  -3.1842  -3.0285  -2.8088
    -2.7219  -2.6085  -2.5936  -2.4254  -2.3326  -2.1436  -1.9176  -1.8625
    -1.6997  -1.6030  -1.0934  -1.0347  -0.9026  -0.7948  -0.1677   0.2362
     0.6322   0.7274   0.7904   0.9974   1.0672   1.1588   1.1900   1.2313
     1.2491   1.3701   1.3886   1.6462   1.8268   1.8846   1.9695   2.1742
     2.4034   2.9756   4.1326   4.2287   4.4661   4.5498   4.5629   4.8042
     5.1065   5.3186   5.6973   5.7842   6.2325

          k = 0.2500-0.2445 0.0000 ( 40892 PWs)   bands (ev):

   -72.6104 -72.5239 -72.0258 -72.0230 -71.9547 -71.6462 -42.7113 -42.6684
   -42.6528 -42.6037 -42.5686 -42.5454 -42.2983 -42.2687 -42.1753 -41.9681
   -41.9373 -41.9265 -41.8949 -41.8840 -41.8042 -41.7588 -41.6336 -41.4795
   -21.9490 -17.9495 -17.7813 -17.5521 -17.5454 -17.4109 -17.3952 -17.3598
   -17.2729 -17.2111 -17.1253 -16.8049 -16.1016 -14.8115  -7.5957  -5.8963
    -5.7806  -5.5367  -5.4920  -5.4849  -5.4408  -5.3397  -5.0620  -5.0333
    -4.9186  -4.8513  -4.6913  -4.6807  -4.6374  -4.4431  -4.3392  -4.2859
    -4.0085  -4.0052  -3.9296  -3.5522  -3.3544  -3.2584  -3.2074  -3.1670
    -3.0713  -3.0695  -2.8512  -2.6427  -2.3106  -2.0697  -1.7406  -1.5577
    -1.5282  -1.2808  -1.1756  -1.0891  -0.9535  -0.8722   0.1193   0.1570
     0.5076   0.5109   0.7906   0.8895   1.0767   1.1013   1.2145   1.2523
     1.5441   1.5680   1.7337   1.7909   1.9084   2.0282   2.0585   2.0770
     2.2692   3.0648   3.9895   4.1259   4.1510   4.2459   4.3885   4.8014
     5.2462   5.3605   5.9297   6.0494   6.2370

          k = 0.3750 0.0000 0.0000 ( 40852 PWs)   bands (ev):

   -72.6066 -72.5203 -72.0220 -72.0194 -71.9509 -71.6424 -42.7335 -42.7067
   -42.6484 -42.6065 -42.5932 -42.5579 -42.2942 -42.2636 -42.1713 -42.0308
   -42.0004 -41.9606 -41.9166 -41.8725 -41.8011 -41.7474 -41.6992 -41.4677
   -21.7268 -17.8086 -17.6273 -17.5282 -17.4579 -17.3910 -17.2855 -17.2625
   -17.2138 -17.1641 -17.0367 -16.8701 -16.0806 -15.2507  -7.6587  -5.9214
    -5.8266  -5.7067  -5.6499  -5.5998  -5.4882  -5.3751  -5.3042  -5.1966
    -5.0956  -4.9696  -4.7431  -4.4888  -4.4251  -4.3238  -4.1103  -4.1036
    -3.9951  -3.7309  -3.6607  -3.2017  -3.1482  -3.1379  -3.0947  -2.9959
    -2.9069  -2.5672  -2.5447  -2.4864  -2.1469  -2.1426  -1.9021  -1.8942
    -1.7889  -1.3627  -1.2177  -1.1866  -0.7756  -0.3030  -0.1583   0.3816
     0.5423   0.6271   0.6393   0.8230   0.9149   1.0066   1.0671   1.1626
     1.2630   1.3953   1.6054   1.7549   1.8239   1.9079   2.0339   2.3020
     2.3579   2.7553   3.5438   4.0940   4.3749   4.7355   4.7679   4.7694
     4.8683   4.9736   5.1863   5.4355   5.9024

          k = 0.3750 0.1223 0.0000 ( 40842 PWs)   bands (ev):

   -72.6066 -72.5203 -72.0220 -72.0194 -71.9510 -71.6424 -42.7336 -42.7070
   -42.6487 -42.6066 -42.5932 -42.5579 -42.2942 -42.2646 -42.1713 -42.0311
   -41.9999 -41.9593 -41.9166 -41.8726 -41.8011 -41.7473 -41.6987 -41.4677
   -21.7267 -17.7917 -17.6300 -17.5922 -17.5164 -17.4407 -17.3213 -17.1898
   -17.1461 -17.1130 -17.0380 -16.8715 -16.0809 -15.2502  -7.6593  -5.8080
    -5.7648  -5.7478  -5.6615  -5.6128  -5.4962  -5.3630  -5.3295  -5.2286
    -5.1696  -5.1111  -4.6136  -4.4052  -4.3562  -4.2221  -4.1568  -4.0742
    -3.9998  -3.8167  -3.4231  -3.2993  -3.2082  -3.0476  -2.9626  -2.8576
    -2.8044  -2.5997  -2.4526  -2.4242  -2.3362  -2.1830  -2.0406  -1.6947
    -1.6603  -1.6264  -1.3558  -1.1291  -0.8885  -0.3655  -0.1947   0.1667
     0.3974   0.4507   0.5660   0.7127   0.8036   0.8872   1.0514   1.1363
     1.1799   1.2883   1.5876   1.7795   2.1206   2.1820   2.2440   2.2691
     2.4022   2.8493   3.5524   3.9250   4.0137   4.0597   4.1544   4.3892
     5.3098   5.6071   5.8487   5.9104   6.0825

          k = 0.3750-0.2445 0.0000 ( 40856 PWs)   bands (ev):

   -72.6066 -72.5203 -72.0220 -72.0194 -71.9510 -71.6424 -42.7337 -42.7074
   -42.6490 -42.6067 -42.5932 -42.5579 -42.2942 -42.2657 -42.1713 -42.0313
   -41.9993 -41.9579 -41.9166 -41.8726 -41.8011 -41.7472 -41.6983 -41.4677
   -21.7266 -17.7636 -17.6744 -17.5944 -17.5867 -17.4684 -17.3389 -17.1395
   -17.1000 -17.0808 -17.0360 -16.8733 -16.0812 -15.2497  -7.6600  -5.7360
    -5.7055  -5.6651  -5.6220  -5.5932  -5.5128  -5.4706  -5.4057  -5.3177
    -5.2204  -5.1618  -4.6418  -4.4623  -4.2143  -4.2039  -3.9558  -3.8731
    -3.8657  -3.7772  -3.4489  -3.2626  -3.2451  -2.9816  -2.9477  -2.8149
    -2.7747  -2.7505  -2.6009  -2.5082  -2.2102  -2.0768  -2.0611  -1.8134
    -1.7646  -1.3214  -1.3015  -1.0886  -1.0677  -0.5203  -0.1494  -0.1401
     0.0365   0.0902   0.5686   0.6459   0.7741   0.9113   1.0154   1.1833
     1.2528   1.3954   1.5283   1.7162   2.1738   2.1777   2.4206   2.4283
     2.5861   2.9365   3.4239   3.5959   3.6317   3.6824   4.1823   4.3868
     5.3995   5.8094   6.2384   6.2859   6.3215

          k =-0.5000 0.0000 0.0000 ( 40876 PWs)   bands (ev):

   -72.6050 -72.5188 -72.0204 -72.0179 -71.9494 -71.6409 -42.7604 -42.7046
   -42.6465 -42.6317 -42.5888 -42.5535 -42.2926 -42.2614 -42.1697 -42.0567
   -42.0268 -41.9872 -41.9117 -41.8681 -41.7999 -41.7431 -41.7259 -41.4630
   -21.6265 -17.7514 -17.4790 -17.4470 -17.3847 -17.3326 -17.3293 -17.2862
   -17.2757 -17.2386 -17.0819 -16.7822 -16.0421 -15.4411  -7.6451  -5.9246
    -5.8091  -5.7038  -5.5499  -5.4440  -5.3865  -5.3022  -5.2269  -5.1174
    -5.0938  -4.9722  -4.8338  -4.7314  -4.5365  -4.4762  -4.2843  -4.0062
    -3.6801  -3.4024  -3.3460  -3.3360  -3.3159  -3.3112  -3.1701  -3.0002
    -2.8256  -2.6619  -2.4003  -2.2491  -2.1009  -2.0614  -2.0178  -1.8084
    -1.7993  -1.3864  -1.2902  -1.2328  -0.7544  -0.0823  -0.0818   0.1048
     0.1941   0.4984   0.8522   0.8630   0.9010   0.9213   0.9708   1.0198
     1.1309   1.2694   1.4634   1.7448   1.9215   2.0008   2.2861   2.4487
     2.5041   2.6415   3.3266   4.0502   4.2978   4.6137   4.6432   4.7575
     4.7608   4.9555   5.1646   5.4158   5.9150

          k =-0.5000 0.1223 0.0000 ( 40858 PWs)   bands (ev):

   -72.6050 -72.5188 -72.0204 -72.0179 -71.9494 -71.6409 -42.7605 -42.7052
   -42.6469 -42.6317 -42.5888 -42.5535 -42.2926 -42.2630 -42.1697 -42.0570
   -42.0262 -41.9854 -41.9117 -41.8680 -41.7999 -41.7428 -41.7254 -41.4629
   -21.6264 -17.7476 -17.6136 -17.5647 -17.5347 -17.4764 -17.2801 -17.1237
   -17.0874 -17.0850 -17.0698 -16.7825 -16.0417 -15.4403  -7.6454  -5.9020
    -5.8126  -5.7836  -5.7785  -5.7002  -5.6481  -5.3488  -5.2848  -5.2425
    -5.2061  -4.8709  -4.5994  -4.5321  -4.3536  -4.1094  -4.0472  -3.7473
    -3.5712  -3.4305  -3.4123  -3.3934  -3.3172  -3.3020  -3.0884  -2.7443
    -2.5128  -2.4869  -2.3378  -2.2785  -2.1542  -2.1279  -2.0474  -1.8035
    -1.7821  -1.5111  -1.3940  -1.1823  -0.9693  -0.1886  -0.1281   0.0757
     0.1894   0.1969   0.3030   0.4541   0.7067   0.8660   0.8977   0.9387
     0.9846   1.1508   1.4188   1.9335   2.2949   2.3667   2.3724   2.3782
     2.5936   2.7365   3.3779   3.7159   3.8316   3.8878   4.0989   4.2997
     5.4460   5.8027   5.9217   5.9839   6.0001

          k =-0.5000-0.2445 0.0000 ( 40872 PWs)   bands (ev):

   -72.6050 -72.5188 -72.0204 -72.0179 -71.9494 -71.6409 -42.7606 -42.7058
   -42.6474 -42.6318 -42.5888 -42.5536 -42.2926 -42.2646 -42.1697 -42.0573
   -42.0255 -41.9837 -41.9117 -41.8679 -41.7999 -41.7424 -41.7248 -41.4628
   -21.6264 -17.7437 -17.7041 -17.6539 -17.6241 -17.4741 -17.2823 -17.0894
   -17.0238 -16.9892 -16.9753 -16.7828 -16.0412 -15.4394  -7.6456  -5.9957
    -5.9809  -5.9189  -5.8893  -5.7501  -5.5033  -5.4555  -5.2997  -5.2887
    -5.1783  -4.8667  -4.6413  -4.6274  -4.3719  -3.7947  -3.6261  -3.5986
    -3.5357  -3.4279  -3.3206  -3.1280  -3.0905  -3.0109  -2.9068  -2.7418
    -2.6187  -2.5429  -2.3591  -2.3036  -2.2273  -2.1237  -1.9007  -1.7598
    -1.6991  -1.5366  -1.4784  -1.2311  -1.0058  -0.6160  -0.3384  -0.3017
    -0.0186   0.1300   0.1819   0.2376   0.4765   0.7673   0.8671   0.9396
     0.9940   1.1628   1.4025   1.8731   2.2689   2.3239   2.5884   2.7079
     2.7378   2.7983   3.3331   3.4151   3.4543   3.4965   4.1375   4.3008
     5.4923   6.0488   6.3078   6.4201   6.4226

 ------ SPIN DOWN ----------


          k = 0.0000 0.0000 0.0000 ( 40831 PWs)   bands (ev):

   -72.3248 -72.1278 -72.0721 -72.0587 -71.9709 -71.7808 -42.4030 -42.3820
   -42.3590 -42.2172 -42.2057 -42.1784 -42.1076 -42.0509 -41.9397 -41.9328
   -41.9163 -41.9117 -41.8867 -41.8844 -41.8638 -41.8122 -41.6828 -41.6588
   -22.2077 -18.5945 -18.2841 -18.1407 -17.9642 -17.5478 -17.4094 -17.1115
   -16.8560 -16.7811 -16.7108 -16.3350 -15.6954 -14.2181  -7.2576  -6.9055
    -6.8941  -6.8888  -6.4008  -5.9465  -5.4446  -5.4023  -5.3699  -5.3600
    -5.3045  -5.2613  -5.0423  -4.9439  -4.8496  -4.0500  -3.9906  -3.5834
    -3.2357  -2.9458  -2.8329  -2.7898  -2.7502  -2.6260  -2.5668  -2.3216
    -2.3118  -2.1673  -2.1029  -2.0765  -1.9002  -1.6945  -1.6808  -1.5165
    -1.2175  -1.0977  -0.9186  -0.7159  -0.5079  -0.3949   0.0622   0.0742
     0.1167   0.1763   0.2177   0.2379   0.2945   0.4599   0.5226   0.7410
     0.7884   0.9763   1.5902   1.6231   1.7847   2.1465   2.4685   2.5298
     2.8046   3.1094   3.6694   4.4621   5.1185   5.5606   5.6345   5.8734
     6.0403   6.0802   6.0842   6.1169   6.2742

          k = 0.0000 0.1223 0.0000 ( 40974 PWs)   bands (ev):

   -72.3248 -72.1278 -72.0721 -72.0587 -71.9709 -71.7808 -42.4014 -42.3820
   -42.3590 -42.2157 -42.2056 -42.1754 -42.1077 -42.0508 -41.9396 -41.9327
   -41.9180 -41.9150 -41.8867 -41.8845 -41.8638 -41.8123 -41.6829 -41.6605
   -22.2075 -18.4854 -18.1475 -18.0047 -17.9987 -17.5571 -17.4705 -17.1187
   -16.9941 -16.9226 -16.8633 -16.3338 -15.6926 -14.2180  -7.2540  -6.5010
    -6.4523  -6.4360  -6.3530  -5.9403  -5.3668  -5.3229  -5.2946  -5.2751
    -5.2544  -5.2256  -5.0188  -4.9420  -4.6640  -4.0606  -3.9439  -3.7764
    -3.5824  -3.4487  -3.2976  -3.1715  -2.9205  -2.8244  -2.7228  -2.5365
    -2.4865  -2.3735  -2.2932  -2.2450  -2.1004  -1.9576  -1.7919  -1.6279
    -1.4166  -1.2563  -1.0549  -0.7720  -0.6362  -0.4867   0.1766   0.2772
     0.5571   0.6043   0.6705   0.7071   0.7266   0.7466   0.8519   0.8584
     0.8675   1.0441   1.5829   1.6732   1.7931   2.1570   2.2372   2.5250
     2.7074   2.9616   4.0579   4.7823   5.3238   5.5827   5.6634   5.7817
     5.7947   5.8294   5.9115   6.1321   6.3326

          k = 0.0000-0.2445 0.0000 ( 41014 PWs)   bands (ev):

   -72.3248 -72.1278 -72.0721 -72.0587 -71.9710 -71.7808 -42.3999 -42.3820
   -42.3590 -42.2143 -42.2056 -42.1722 -42.1077 -42.0508 -41.9395 -41.9325
   -41.9197 -41.9183 -41.8868 -41.8845 -41.8638 -41.8125 -41.6830 -41.6621
   -22.2074 -18.3185 -18.0943 -17.8864 -17.7607 -17.6760 -17.6088 -17.1692
   -17.1461 -17.0538 -17.0053 -16.3337 -15.6904 -14.2181  -7.2540  -6.4308
    -5.9849  -5.7383  -5.7108  -5.6583  -5.3631  -5.2790  -5.2182  -5.2013
    -5.1599  -5.1407  -4.9369  -4.6887  -4.5379  -4.2773  -4.1754  -4.1511
    -4.0671  -4.0639  -3.9376  -3.5927  -3.3629  -3.1010  -2.8586  -2.7632
    -2.7309  -2.6248  -2.4178  -2.3877  -2.1636  -2.0642  -1.7028  -1.5445
    -1.3197  -1.1823  -1.0756  -0.7795  -0.6880  -0.6070   0.1768   0.3242
     0.7119   0.7541   0.8185   0.9604   0.9817   1.0981   1.1348   1.2632
     1.2992   1.4686   1.5161   1.5794   1.7927   1.9556   2.0970   2.4516
     2.4936   3.0258   4.6511   4.6863   5.4975   5.5292   5.5458   5.5995
     5.6631   5.8618   5.8938   6.1332   6.2111

          k = 0.1250 0.0000 0.0000 ( 40851 PWs)   bands (ev):

   -72.3232 -72.1263 -72.0706 -72.0571 -71.9694 -71.7793 -42.4007 -42.3802
   -42.3572 -42.2337 -42.2150 -42.1757 -42.1032 -42.0489 -41.9659 -41.9598
   -41.9139 -41.9121 -41.9081 -41.8800 -41.8598 -41.8387 -41.7101 -41.6546
   -22.1300 -18.4664 -18.1678 -18.0296 -17.8722 -17.4816 -17.3153 -17.1715
   -16.9318 -16.8600 -16.7923 -16.4073 -15.7371 -14.3785  -7.3852  -6.7286
    -6.7145  -6.7124  -6.2209  -5.9514  -5.4849  -5.4642  -5.4495  -5.3059
    -5.2252  -5.1656  -4.7246  -4.6304  -4.5963  -4.3030  -3.8313  -3.4833
    -3.3686  -3.1411  -3.0417  -2.8314  -2.7866  -2.6867  -2.6812  -2.5837
    -2.4005  -2.3485  -2.2492  -1.9991  -1.9429  -1.7543  -1.7028  -1.6858
    -1.5967  -1.4882  -1.4521  -0.8977  -0.6456  -0.4535  -0.0135   0.2673
     0.3271   0.4606   0.4642   0.5454   0.6844   0.7092   0.8616   0.8943
     0.9767   1.0996   1.5939   1.7995   2.0151   2.0227   2.3230   2.6694
     2.6713   2.9645   3.8190   4.5737   5.1385   5.2451   5.4053   5.6845
     5.7190   5.7247   5.7577   5.7697   6.3301

          k = 0.1250 0.1223 0.0000 ( 40932 PWs)   bands (ev):

   -72.3232 -72.1263 -72.0706 -72.0572 -71.9694 -71.7793 -42.3995 -42.3801
   -42.3572 -42.2337 -42.2139 -42.1734 -42.1032 -42.0489 -41.9658 -41.9594
   -41.9142 -41.9132 -41.9110 -41.8800 -41.8598 -41.8387 -41.7100 -41.6559
   -22.1299 -18.3640 -18.0379 -17.9090 -17.8922 -17.4845 -17.3815 -17.1764
   -17.0583 -16.9905 -16.9306 -16.4062 -15.7349 -14.3785  -7.3848  -6.3474
    -6.2920  -6.2775  -6.1823  -5.9435  -5.4665  -5.3791  -5.3504  -5.2989
    -5.2081  -4.9297  -4.7429  -4.6121  -4.4823  -4.2971  -3.8454  -3.6973
    -3.5420  -3.4151  -3.3306  -3.2136  -3.0769  -3.0129  -2.9412  -2.8152
    -2.7335  -2.6936  -2.4402  -2.3309  -2.0977  -1.8686  -1.7929  -1.6415
    -1.5802  -1.4420  -1.1935  -0.7330  -0.6759  -0.5834   0.2364   0.3875
     0.5085   0.6401   0.7252   0.7635   0.8341   0.9860   1.0465   1.0822
     1.1781   1.2660   1.6352   1.8101   2.0017   2.0531   2.1530   2.4393
     2.6877   2.9261   4.1443   4.8047   5.1572   5.1888   5.3008   5.4391
     5.5281   5.6587   5.7175   5.8486   6.3814

          k = 0.1250-0.2445 0.0000 ( 40974 PWs)   bands (ev):

   -72.3232 -72.1263 -72.0706 -72.0572 -71.9694 -71.7793 -42.3983 -42.3801
   -42.3572 -42.2337 -42.2128 -42.1711 -42.1032 -42.0488 -41.9657 -41.9590
   -41.9150 -41.9141 -41.9136 -41.8800 -41.8599 -41.8386 -41.7099 -41.6572
   -22.1298 -18.2092 -17.9855 -17.7768 -17.6566 -17.5985 -17.5331 -17.2368
   -17.1980 -17.1130 -17.0494 -16.4060 -15.7331 -14.3785  -7.3856  -6.2553
    -5.9735  -5.5409  -5.5138  -5.4577  -5.4269  -5.3576  -5.3448  -5.3416
    -5.3075  -4.7510  -4.6323  -4.5181  -4.4179  -4.2774  -4.1955  -4.0405
    -3.8633  -3.7878  -3.7736  -3.6348  -3.5650  -3.5111  -3.2819  -3.0489
    -2.9549  -2.8859  -2.7163  -2.4110  -2.0553  -1.8864  -1.8463  -1.5020
    -1.3425  -1.1071  -1.0174  -0.9935  -0.6590  -0.6105   0.3845   0.4785
     0.5192   0.7328   0.7756   0.8542   0.8760   1.1835   1.3902   1.4935
     1.5557   1.5677   1.6669   1.7825   1.9213   2.0446   2.0539   2.3413
     2.3949   3.0503   4.5912   4.7346   4.9563   4.9671   5.0376   5.3755
     5.5034   5.7132   5.8644   5.9390   6.2858

          k = 0.2500 0.0000 0.0000 ( 40947 PWs)   bands (ev):

   -72.3194 -72.1226 -72.0669 -72.0534 -71.9657 -71.7755 -42.3952 -42.3762
   -42.3529 -42.3003 -42.2097 -42.1692 -42.0928 -42.0445 -42.0285 -42.0243
   -41.9789 -41.9031 -41.9021 -41.8992 -41.8693 -41.8496 -41.7751 -41.6442
   -21.9297 -18.1408 -17.8811 -17.7581 -17.6714 -17.3817 -17.2767 -17.1107
   -17.0983 -17.0457 -16.9839 -16.5499 -15.7904 -14.7884  -7.5896  -6.2883
    -6.2500  -6.2378  -5.7856  -5.7314  -5.5425  -5.5213  -5.3789  -5.1551
    -5.0778  -4.7900  -4.7254  -4.3613  -4.2164  -4.1646  -3.9390  -3.7455
    -3.6658  -3.5431  -3.4692  -3.4472  -3.2163  -2.9285  -2.8008  -2.6785
    -2.5215  -2.5157  -2.3282  -2.2526  -2.2510  -2.0815  -1.8970  -1.7210
    -1.6953  -1.4986  -0.9218  -0.9120  -0.8162  -0.6872  -0.0553   0.2320
     0.6938   0.7423   0.7774   0.8128   0.9122   1.0861   1.2723   1.3175
     1.3775   1.5696   1.7984   1.8135   1.8736   2.0655   2.1028   2.3717
     2.5660   2.8003   4.0763   4.4097   4.7773   5.0071   5.0364   5.1167
     5.1532   5.1859   5.3598   5.6493   6.1468

          k = 0.2500 0.1223 0.0000 ( 40905 PWs)   bands (ev):

   -72.3194 -72.1226 -72.0669 -72.0534 -71.9657 -71.7755 -42.3950 -42.3762
   -42.3529 -42.3004 -42.2095 -42.1693 -42.0928 -42.0445 -42.0283 -42.0229
   -41.9784 -41.9092 -41.9028 -41.8948 -41.8693 -41.8496 -41.7745 -41.6449
   -21.9296 -18.0650 -17.7854 -17.7084 -17.6395 -17.3992 -17.2963 -17.2026
   -17.1617 -17.1200 -17.0422 -16.5494 -15.7900 -14.7883  -7.5906  -6.0055
    -5.9362  -5.9211  -5.7798  -5.7211  -5.5364  -5.3530  -5.2487  -5.1778
    -5.0226  -4.8227  -4.4834  -4.3985  -4.2672  -4.1845  -4.1099  -4.0748
    -3.9394  -3.8264  -3.6072  -3.4394  -3.2869  -2.9961  -2.9033  -2.8187
    -2.7146  -2.6046  -2.5726  -2.3642  -2.2794  -2.0206  -1.8000  -1.7222
    -1.6187  -1.5046  -0.9898  -0.8807  -0.8226  -0.6883  -0.0885   0.3085
     0.6752   0.7966   0.8205   1.0445   1.1750   1.1857   1.2757   1.3298
     1.4523   1.6415   1.8150   1.8594   1.9349   2.0051   2.1347   2.2730
     2.4322   2.9331   4.2232   4.3687   4.5129   4.5461   4.5892   5.0437
     5.1343   5.3789   5.7735   5.9272   6.2714

          k = 0.2500-0.2445 0.0000 ( 40892 PWs)   bands (ev):

   -72.3194 -72.1226 -72.0669 -72.0534 -71.9657 -71.7755 -42.3947 -42.3762
   -42.3529 -42.3004 -42.2093 -42.1694 -42.0928 -42.0445 -42.0282 -42.0214
   -41.9778 -41.9128 -41.9035 -41.8928 -41.8693 -41.8496 -41.7740 -41.6456
   -21.9295 -17.9535 -17.7498 -17.5481 -17.5378 -17.4111 -17.4076 -17.3694
   -17.2477 -17.2095 -17.0562 -16.5492 -15.7896 -14.7881  -7.5917  -5.8090
    -5.7795  -5.5363  -5.4538  -5.4492  -5.4343  -5.2715  -5.0363  -5.0265
    -4.8901  -4.8138  -4.6734  -4.6590  -4.6122  -4.3216  -4.3071  -4.1836
    -3.9379  -3.8608  -3.7474  -3.4974  -3.2998  -3.2056  -3.1178  -3.0905
    -3.0818  -2.8736  -2.8557  -2.6255  -2.2460  -1.8055  -1.6805  -1.5020
    -1.4333  -1.2231  -1.1344  -0.9231  -0.8537  -0.7213   0.1591   0.2338
     0.5054   0.6930   0.8385   0.9270   1.2600   1.3882   1.3929   1.5741
     1.6303   1.7927   1.8402   1.9227   2.0189   2.0903   2.1450   2.1844
     2.3029   3.0310   4.0625   4.0689   4.1598   4.4010   4.4307   5.0470
     5.2595   5.4799   6.0533   6.1105   6.3506

          k = 0.3750 0.0000 0.0000 ( 40852 PWs)   bands (ev):

   -72.3156 -72.1190 -72.0632 -72.0497 -71.9620 -71.7718 -42.3897 -42.3798
   -42.3587 -42.3487 -42.2044 -42.1627 -42.0922 -42.0894 -42.0795 -42.0433
   -42.0414 -41.9646 -41.8920 -41.8901 -41.8586 -41.8468 -41.8325 -41.6338
   -21.7069 -17.8088 -17.6207 -17.5408 -17.4538 -17.3502 -17.2841 -17.2819
   -17.2252 -17.1684 -16.9909 -16.5595 -15.7627 -15.2284  -7.6546  -5.8733
    -5.7618  -5.6868  -5.6380  -5.5681  -5.4435  -5.3646  -5.2052  -5.1884
    -5.0846  -4.8916  -4.7342  -4.4635  -4.4088  -4.2428  -4.0747  -4.0424
    -3.9073  -3.7103  -3.6180  -3.1725  -3.1033  -3.0601  -2.9936  -2.9191
    -2.7157  -2.4789  -2.4324  -2.3767  -2.1786  -1.9598  -1.9135  -1.8711
    -1.5343  -1.2940  -1.1162  -0.9395  -0.5828  -0.2936  -0.1326   0.3613
     0.6899   0.7780   0.9060   0.9323   1.0805   1.2223   1.2226   1.3908
     1.4447   1.5266   1.6211   1.6302   1.9239   1.9836   2.1469   2.4642
     2.5415   2.6724   3.7387   4.1189   4.6623   4.6853   4.7284   4.7778
     4.9183   5.1570   5.3438   5.5044   5.9538

          k = 0.3750 0.1223 0.0000 ( 40842 PWs)   bands (ev):

   -72.3156 -72.1190 -72.0632 -72.0497 -71.9620 -71.7718 -42.3906 -42.3799
   -42.3587 -42.3487 -42.2053 -42.1674 -42.0899 -42.0878 -42.0781 -42.0424
   -42.0413 -41.9657 -41.8921 -41.8895 -41.8586 -41.8462 -41.8319 -41.6339
   -21.7069 -17.7938 -17.6283 -17.6048 -17.5168 -17.3970 -17.3189 -17.2117
   -17.1507 -17.1131 -16.9939 -16.5601 -15.7629 -15.2280  -7.6552  -5.7659
    -5.7174  -5.7055  -5.6391  -5.5781  -5.4385  -5.3143  -5.3044  -5.1989
    -5.1567  -5.0703  -4.5899  -4.3868  -4.3041  -4.1631  -4.1157  -3.9978
    -3.9740  -3.7655  -3.4077  -3.1980  -3.1231  -2.9722  -2.8661  -2.7777
    -2.6809  -2.5073  -2.4393  -2.3915  -2.2804  -2.0924  -1.8237  -1.6707
    -1.5515  -1.4336  -1.2538  -0.9219  -0.7215  -0.3341  -0.1696   0.2439
     0.4532   0.5958   0.8010   0.9047   1.0360   1.0458   1.1767   1.2241
     1.2970   1.4965   1.5877   2.0863   2.1364   2.2055   2.3471   2.3527
     2.4566   2.8032   3.7340   3.9720   4.0199   4.0783   4.1718   4.6810
     5.3320   5.6814   5.9543   6.0519   6.1315

          k = 0.3750-0.2445 0.0000 ( 40856 PWs)   bands (ev):

   -72.3156 -72.1190 -72.0632 -72.0497 -71.9620 -71.7718 -42.3914 -42.3799
   -42.3588 -42.3486 -42.2062 -42.1715 -42.0900 -42.0855 -42.0759 -42.0419
   -42.0406 -41.9668 -41.8921 -41.8889 -41.8586 -41.8456 -41.8313 -41.6339
   -21.7068 -17.7679 -17.6859 -17.6037 -17.5794 -17.4230 -17.3365 -17.1622
   -17.0995 -17.0789 -16.9962 -16.5609 -15.7631 -15.2276  -7.6558  -5.7234
    -5.6758  -5.6025  -5.5635  -5.5091  -5.4674  -5.4378  -5.3548  -5.2972
    -5.2372  -5.1593  -4.6340  -4.3460  -4.2105  -4.1040  -3.9609  -3.8496
    -3.8368  -3.7162  -3.3670  -3.1733  -3.1432  -2.9837  -2.8396  -2.8149
    -2.7203  -2.6124  -2.5258  -2.4590  -2.2077  -1.9400  -1.7696  -1.7067
    -1.6123  -1.2246  -1.2175  -0.9494  -0.9439  -0.4316  -0.1162   0.0224
     0.0688   0.2290   0.6622   0.9575   1.1004   1.1237   1.1749   1.2804
     1.2899   1.4851   1.5085   2.0766   2.1937   2.3196   2.4685   2.5048
     2.5197   2.9111   3.5084   3.5314   3.6524   3.8758   4.1989   4.6828
     5.4125   5.8970   6.2849   6.3935   6.4833

          k =-0.5000 0.0000 0.0000 ( 40876 PWs)   bands (ev):

   -72.3140 -72.1175 -72.0616 -72.0482 -71.9605 -71.7702 -42.3992 -42.3875
   -42.3648 -42.3470 -42.2022 -42.1600 -42.1165 -42.1150 -42.0770 -42.0693
   -42.0421 -41.9881 -41.8879 -41.8864 -41.8685 -41.8542 -41.8332 -41.6295
   -21.6064 -17.7515 -17.4645 -17.4217 -17.3927 -17.3544 -17.3302 -17.2978
   -17.2653 -17.2430 -17.0078 -16.4967 -15.7257 -15.4193  -7.6408  -5.9156
    -5.7515  -5.6355  -5.5395  -5.3807  -5.3644  -5.2717  -5.1071  -5.0932
    -5.0669  -4.9679  -4.7341  -4.7150  -4.5262  -4.3820  -4.2246  -3.9959
    -3.6415  -3.3849  -3.3703  -3.3464  -3.2711  -3.2431  -3.0931  -2.9841
    -2.6986  -2.6623  -2.3150  -2.2320  -2.0622  -1.9764  -1.8050  -1.6090
    -1.3608  -1.3564  -1.2427  -1.0817  -0.5537  -0.0746  -0.0527   0.3395
     0.7913   0.8391   0.9142   0.9271   0.9517   0.9981   1.1111   1.1444
     1.2432   1.4580   1.4958   1.6041   1.7841   2.1513   2.2833   2.5574
     2.6427   2.7344   3.5090   4.0658   4.5491   4.5996   4.6105   4.6531
     4.9481   5.1998   5.3259   5.4328   5.9769

          k =-0.5000 0.1223 0.0000 ( 40858 PWs)   bands (ev):

   -72.3140 -72.1175 -72.0616 -72.0482 -71.9605 -71.7702 -42.3993 -42.3888
   -42.3648 -42.3470 -42.2036 -42.1688 -42.1152 -42.1076 -42.0768 -42.0680
   -42.0422 -41.9890 -41.8876 -41.8854 -41.8671 -41.8542 -41.8331 -41.6293
   -21.6064 -17.7483 -17.6345 -17.5778 -17.5312 -17.4160 -17.2725 -17.1470
   -17.0990 -17.0685 -17.0114 -16.4963 -15.7252 -15.4186  -7.6410  -5.9027
    -5.7933  -5.7143  -5.7064  -5.6315  -5.5884  -5.3146  -5.2679  -5.1980
    -5.1727  -4.8668  -4.5776  -4.4330  -4.3151  -4.0686  -4.0197  -3.7182
    -3.4890  -3.4255  -3.3886  -3.3519  -3.3017  -3.2385  -3.0653  -2.6552
    -2.4984  -2.4050  -2.3152  -2.3024  -2.1225  -2.0763  -1.6972  -1.6408
    -1.4522  -1.3478  -1.2750  -1.1522  -0.7665  -0.1613  -0.1105   0.3039
     0.3248   0.4880   0.7550   0.8489   0.8605   0.8850   0.9293   0.9344
     1.0213   1.1468   1.4184   2.2325   2.2775   2.3645   2.4578   2.5343
     2.5508   2.7724   3.5706   3.7574   3.8183   3.9107   4.1146   4.6143
     5.4590   5.8961   6.0355   6.0419   6.1277

          k =-0.5000-0.2445 0.0000 ( 40872 PWs)   bands (ev):

   -72.3140 -72.1175 -72.0616 -72.0482 -71.9605 -71.7702 -42.3995 -42.3902
   -42.3648 -42.3469 -42.2050 -42.1756 -42.1154 -42.1009 -42.0765 -42.0667
   -42.0423 -41.9898 -41.8874 -41.8845 -41.8657 -41.8542 -41.8330 -41.6291
   -21.6063 -17.7451 -17.7251 -17.6674 -17.6200 -17.4102 -17.2782 -17.0473
   -17.0152 -17.0013 -16.9738 -16.4959 -15.7246 -15.4179  -7.6412  -5.9767
    -5.9141  -5.8930  -5.8398  -5.6609  -5.5112  -5.3528  -5.2630  -5.2529
    -5.1948  -4.8708  -4.6317  -4.5009  -4.3651  -3.7521  -3.5418  -3.5296
    -3.5191  -3.4057  -3.2793  -3.1212  -3.0698  -2.9998  -2.8735  -2.7409
    -2.5411  -2.5206  -2.3104  -2.1446  -2.1229  -2.0621  -1.6225  -1.5375
    -1.5248  -1.4775  -1.2915  -1.2133  -0.8349  -0.4252  -0.3422  -0.0833
     0.1097   0.2149   0.3465   0.7784   0.8086   0.8720   0.9282   0.9328
     1.0363   1.1460   1.3908   2.2441   2.2894   2.4947   2.6305   2.6610
     2.7185   2.8114   3.3878   3.4097   3.5250   3.6153   4.1529   4.6176
     5.5056   6.1038   6.4164   6.4754   6.6055

     the Fermi energy is     1.5478 ev

!    total energy              =   -1715.01192755 Ry
     estimated scf accuracy    <       0.00000099 Ry
     smearing contrib. (-TS)   =      -0.00018820 Ry
     internal energy E=F+TS    =   -1715.01173935 Ry

     The total energy is F=E-TS. E is the sum of the following terms:
     one-electron contribution =  -17069.94039288 Ry
     hartree contribution      =    8562.54622576 Ry
     xc contribution           =    -222.29037258 Ry
     ewald contribution        =    7147.97059655 Ry
     one-center paw contrib.   =    -133.29779618 Ry

     total magnetization       =     1.36 Bohr mag/cell
     absolute magnetization    =     2.56 Bohr mag/cell

     convergence has been achieved in  24 iterations

     negative rho (up, down):  4.945E-05 4.797E-05

     Forces acting on atoms (cartesian axes, Ry/au):

     atom    1 type  2   force =    -0.00009500    0.00000000    0.06425397
     atom    2 type  2   force =    -0.00005133    0.00000000   -0.09059306
     atom    3 type  2   force =    -0.00119870    0.00000000    0.00119549
     atom    4 type  2   force =     0.00024704    0.00000000    0.00205717
     atom    5 type  2   force =    -0.00125337    0.00000000   -0.00114082
     atom    6 type  2   force =     0.00117968    0.00000000    0.00054148
     atom    7 type  3   force =     0.00108741    0.00000000    0.02426800
     atom    8 type  3   force =     0.00030207    0.00000000    0.06567598
     atom    9 type  3   force =     0.00000112    0.02516490   -0.02520391
     atom   10 type  3   force =     0.00000112   -0.02516490   -0.02520391
     atom   11 type  3   force =     0.00005378    0.00000000   -0.00014708
     atom   12 type  3   force =     0.00195556    0.00000000   -0.01890999
     atom   13 type  3   force =    -0.00123525    0.00038479    0.00012318
     atom   14 type  3   force =    -0.00123525   -0.00038479    0.00012318
     atom   15 type  3   force =     0.00015017    0.00000000   -0.00292633
     atom   16 type  3   force =     0.00005170    0.00000000    0.00470467
     atom   17 type  3   force =    -0.00028987   -0.00037142    0.00068637
     atom   18 type  3   force =    -0.00028987    0.00037142    0.00068637
     atom   19 type  3   force =     0.00181449    0.00000000   -0.00051408
     atom   20 type  3   force =    -0.00165411    0.00000000   -0.00070643
     atom   21 type  1   force =     0.00045860    0.00000000    0.00102974

     Total force =     0.007436     Total SCF correction =     0.000559

     Writing all to output data dir ./tmp_s0_OOH__u000__sp2m010/s0_OOH__u000__sp2m010.save/ :
     XML data file, charge density, pseudopotentials, collected wavefunctions

     init_run     :      5.71s CPU      5.89s WALL (       1 calls)
     electrons    :    114.19s CPU    135.52s WALL (       1 calls)
     forces       :      0.80s CPU      0.82s WALL (       1 calls)

     Called by init_run:
     wfcinit      :      1.25s CPU      1.30s WALL (       1 calls)
     potinit      :      0.58s CPU      0.61s WALL (       1 calls)
     hinit0       :      0.44s CPU      0.51s WALL (       1 calls)

     Called by electrons:
     c_bands      :     90.61s CPU     91.95s WALL (      24 calls)
     sum_band     :     14.58s CPU     14.83s WALL (      24 calls)
     v_of_rho     :      3.12s CPU      3.17s WALL (      25 calls)
     newd         :      0.63s CPU      0.64s WALL (      25 calls)
     PAW_pot      :      1.90s CPU      1.91s WALL (      25 calls)
     mix_rho      :      2.77s CPU      2.82s WALL (      24 calls)

     Called by c_bands:
     init_us_2    :      1.83s CPU      1.86s WALL (     400 calls)
     cegterg      :     78.81s CPU     80.01s WALL (     192 calls)

     Called by *egterg:
     cdiaghg      :      9.67s CPU      9.74s WALL (     757 calls)
     h_psi        :     51.41s CPU     52.29s WALL (     765 calls)
     s_psi        :      3.44s CPU      3.48s WALL (     765 calls)
     g_psi        :      0.24s CPU      0.24s WALL (     565 calls)

     Called by h_psi:
     h_psi:calbec :      4.88s CPU      4.94s WALL (     765 calls)
     vloc_psi     :     42.62s CPU     43.40s WALL (     765 calls)
                                        0.00s GPU  (     765 calls)
     add_vuspsi   :      3.42s CPU      3.44s WALL (     765 calls)

     General routines
     calbec       :      7.28s CPU      7.36s WALL (     989 calls)
     fft          :      2.34s CPU      2.42s WALL (     638 calls)
     ffts         :      2.02s CPU      2.05s WALL (    2927 calls)
     fftw         :     49.74s CPU     50.61s WALL (  113584 calls)
     interpolate  :      0.59s CPU      0.59s WALL (      50 calls)

     Parallel routines

     PWSCF        :   2m 1.43s CPU   2m23.33s WALL


   This run was terminated on:  19:41:11   1Sep2026            

=------------------------------------------------------------------------------=
   JOB DONE.
=------------------------------------------------------------------------------=
Note: The following floating-point exceptions are signalling: IEEE_DENORMAL
Note: The following floating-point exceptions are signalling: IEEE_DENORMAL
Note: The following floating-point exceptions are signalling: IEEE_DENORMAL
Note: The following floating-point exceptions are signalling: IEEE_DENORMAL
Note: The following floating-point exceptions are signalling: IEEE_DENORMAL
Note: The following floating-point exceptions are signalling: IEEE_DENORMAL
Note: The following floating-point exceptions are signalling: IEEE_DENORMAL
Note: The following floating-point exceptions are signalling: IEEE_DENORMAL
Note: The following floating-point exceptions are signalling: IEEE_DENORMAL
Note: The following floating-point exceptions are signalling: IEEE_DENORMAL
Note: The following floating-point exceptions are signalling: IEEE_DENORMAL
Note: The following floating-point exceptions are signalling: IEEE_DENORMAL
Note: The following floating-point exceptions are signalling: IEEE_DENORMAL
Note: The following floating-point exceptions are signalling: IEEE_DENORMAL
Note: The following floating-point exceptions are signalling: IEEE_DENORMAL
Note: The following floating-point exceptions are signalling: IEEE_DENORMAL
Note: The following floating-point exceptions are signalling: IEEE_DENORMAL
Note: The following floating-point exceptions are signalling: IEEE_DENORMAL
Note: The following floating-point exceptions are signalling: IEEE_DENORMAL
Note: The following floating-point exceptions are signalling: IEEE_DENORMAL
Note: The following floating-point exceptions are signalling: IEEE_DENORMAL
Note: The following floating-point exceptions are signalling: IEEE_DENORMAL
Note: The following floating-point exceptions are signalling: IEEE_DENORMAL
Note: The following floating-point exceptions are signalling: IEEE_DENORMAL
Note: The following floating-point exceptions are signalling: IEEE_DENORMAL
Note: The following floating-point exceptions are signalling: IEEE_DENORMAL
Note: The following floating-point exceptions are signalling: IEEE_DENORMAL
Note: The following floating-point exceptions are signalling: IEEE_DENORMAL
Note: The following floating-point exceptions are signalling: IEEE_DENORMAL
Note: The following floating-point exceptions are signalling: IEEE_DENORMAL
Note: The following floating-point exceptions are signalling: IEEE_DENORMAL
Note: The following floating-point exceptions are signalling: IEEE_DENORMAL
Note: The following floating-point exceptions are signalling: IEEE_DENORMAL
Note: The following floating-point exceptions are signalling: IEEE_DENORMAL
Note: The following floating-point exceptions are signalling: IEEE_DENORMAL
Note: The following floating-point exceptions are signalling: IEEE_DENORMAL
Note: The following floating-point exceptions are signalling: IEEE_DENORMAL
Note: The following floating-point exceptions are signalling: IEEE_DENORMAL
Note: The following floating-point exceptions are signalling: IEEE_DENORMAL
Note: The following floating-point exceptions are signalling: IEEE_DENORMAL
Note: The following floating-point exceptions are signalling: IEEE_DENORMAL
Note: The following floating-point exceptions are signalling: IEEE_DENORMAL
Note: The following floating-point exceptions are signalling: IEEE_DENORMAL
Note: The following floating-point exceptions are signalling: IEEE_DENORMAL
Note: The following floating-point exceptions are signalling: IEEE_DENORMAL
Note: The following floating-point exceptions are signalling: IEEE_DENORMAL
Note: The following floating-point exceptions are signalling: IEEE_DENORMAL
Note: The following floating-point exceptions are signalling: IEEE_DENORMAL
Note: The following floating-point exceptions are signalling: IEEE_DENORMAL
Note: The following floating-point exceptions are signalling: IEEE_DENORMAL
