
     Program PWSCF v.7.5 starts on  3Oct2026 at  3:54: 7 

     This program is part of the open-source Quantum ESPRESSO suite
     for quantum simulation of materials; please cite
         "P. Giannozzi et al., J. Phys.:Condens. Matter 21 395502 (2009);
         "P. Giannozzi et al., J. Phys.:Condens. Matter 29 465901 (2017);
         "P. Giannozzi et al., J. Chem. Phys. 152 154105 (2020);
          URL http://www.quantum-espresso.org", 
     in publications or presentations arising from this work. More details at
     http://www.quantum-espresso.org/quote

     Parallel version (MPI & OpenMP), running on       1 processor cores
     Number of MPI processes:                 1
     Threads/MPI process:                     1

     MPI processes distributed on     1 nodes
     148625 MiB available memory on the printing compute node when the environment starts

     Reading input from input.in

     Current dimensions of program PWSCF are:
     Max number of different atomic species (ntypx) = 10
     Max number of k-points (npk) =  40000
     Max angular momentum in pseudopotentials (lmaxx) =  4

     File /anvil/projects/x-che260157/sts_pa_probe_2026-10-03/tiny_results/negative-fresh/scratch/h2_probe.update deleted, as requested

     File /anvil/projects/x-che260157/sts_pa_probe_2026-10-03/tiny_results/negative-fresh/scratch/h2_probe.bfgs deleted, as requested

     gamma-point specific algorithms are used
     Message from routine setup:
     using ibrav=0 with symmetry is DISCOURAGED, use correct ibrav instead

     Subspace diagonalization in iterative solution of the eigenvalue problem:
     a serial algorithm will be used


     G-vector sticks info
     --------------------
     sticks:   dense  smooth     PW     G-vecs:    dense   smooth      PW
     Sum       10185    5097   1281               773489   273425   34265

     Using Slab Decomposition



     bravais-lattice index     =            0
     lattice parameter (alat)  =      20.0000  a.u.
     unit-cell volume          =    8000.0000 (a.u.)^3
     number of atoms/cell      =            2
     number of atomic types    =            1
     number of electrons       =         2.00
     number of Kohn-Sham states=            1
     kinetic-energy cutoff     =      40.0000  Ry
     charge density cutoff     =     320.0000  Ry
     scf convergence threshold =      1.0E-10
     mixing beta               =       0.3000
     number of iterations used =            8  plain     mixing
     energy convergence thresh.=      1.0E-07
     force convergence thresh. =      1.0E-04
     Exchange-correlation= PBE
                           (   1   4   3   4   0   0   0)
     nstep                     =           30


     celldm(1)=  20.000000  celldm(2)=   0.000000  celldm(3)=   0.000000
     celldm(4)=   0.000000  celldm(5)=   0.000000  celldm(6)=   0.000000

     crystal axes: (cart. coord. in units of alat)
               a(1) = (   1.000000   0.000000   0.000000 )  
               a(2) = (   0.000000   1.000000   0.000000 )  
               a(3) = (   0.000000   0.000000   1.000000 )  

     reciprocal axes: (cart. coord. in units 2 pi/alat)
               b(1) = (  1.000000  0.000000  0.000000 )  
               b(2) = (  0.000000  1.000000  0.000000 )  
               b(3) = (  0.000000  0.000000  1.000000 )  


     PseudoPot. # 1 for H  read from file:
     /anvil/projects/x-che260157/sts_pa_probe_2026-10-03/tiny_results/negative-fresh/H.pbe-rrkjus_psl.1.0.0.UPF
     MD5 check sum: f52b6d4d1c606e5624b1dc7b2218f220
     Pseudo is Ultrasoft, Zval =  1.0
     Generated using "atomic" code by A. Dal Corso  v.5.1
     Using radial grid of  929 points,  2 beta functions with: 
                l(1) =   0
                l(2) =   0
     Q(r) pseudized with 0 coefficients 


     atomic species   valence    mass     pseudopotential
     H                 1.00     1.00794     H ( 1.00)

      8 Sym. Ops. (no inversion) found



   Cartesian axes

     site n.     atom                  positions (alat units)
         1        H      tau(   1) = (   0.0000000   0.0000000   0.0087370  )
         2        H      tau(   2) = (   0.0000000   0.0000000   0.0912630  )

     number of k points=     1
                       cart. coord. in units 2pi/alat
        k(    1) = (   0.0000000   0.0000000   0.0000000), wk =   2.0000000

     Dense  grid:   386745 G-vectors     FFT dimensions: ( 120, 120, 120)

     Smooth grid:   136713 G-vectors     FFT dimensions: (  81,  81,  81)

     Estimated max dynamical RAM per process >     340.86 MB

     Initial potential from superposition of free atoms

     starting charge       2.0000, renormalised to       2.0000

     negative rho (up, down):  3.662E-05 0.000E+00
     Starting wfcs are    2 randomized atomic wfcs

     total cpu time spent up to now is        2.0 secs

     per-process dynamical memory:   333.9 Mb

     Self-consistent Calculation

     iteration #  1     ecut=    40.00 Ry     beta= 0.30
     Davidson diagonalization with overlap
     ethr =  1.00E-07,  avg # of iterations =  5.0

     negative rho (up, down):  3.978E-05 0.000E+00

     total cpu time spent up to now is        2.7 secs

     total energy              =      -2.32996096 Ry
     estimated scf accuracy    <       0.07981375 Ry

     iteration #  2     ecut=    40.00 Ry     beta= 0.30
     Davidson diagonalization with overlap
     ethr =  3.99E-03,  avg # of iterations =  1.0

     negative rho (up, down):  3.192E-04 0.000E+00

     total cpu time spent up to now is        3.4 secs

     total energy              =      -2.31408899 Ry
     estimated scf accuracy    <       0.03109812 Ry

     iteration #  3     ecut=    40.00 Ry     beta= 0.30
     Davidson diagonalization with overlap
     ethr =  1.55E-03,  avg # of iterations =  2.0

     negative rho (up, down):  1.775E-04 0.000E+00

     total cpu time spent up to now is        4.0 secs

     total energy              =      -2.31754958 Ry
     estimated scf accuracy    <       0.00008792 Ry

     iteration #  4     ecut=    40.00 Ry     beta= 0.30
     Davidson diagonalization with overlap
     ethr =  4.40E-06,  avg # of iterations =  2.0

     negative rho (up, down):  1.510E-04 0.000E+00

     total cpu time spent up to now is        4.6 secs

     total energy              =      -2.31751543 Ry
     estimated scf accuracy    <       0.00012333 Ry

     iteration #  5     ecut=    40.00 Ry     beta= 0.30
     Davidson diagonalization with overlap
     ethr =  4.40E-06,  avg # of iterations =  2.0

     negative rho (up, down):  1.094E-04 0.000E+00

     total cpu time spent up to now is        5.3 secs

     total energy              =      -2.31752839 Ry
     estimated scf accuracy    <          7.3E-09 Ry

     iteration #  6     ecut=    40.00 Ry     beta= 0.30
     Davidson diagonalization with overlap
     ethr =  3.63E-10,  avg # of iterations =  3.0

     negative rho (up, down):  8.505E-05 0.000E+00

     total cpu time spent up to now is        5.9 secs

     total energy              =      -2.31752837 Ry
     estimated scf accuracy    <          4.5E-09 Ry

     iteration #  7     ecut=    40.00 Ry     beta= 0.30
     Davidson diagonalization with overlap
     ethr =  2.23E-10,  avg # of iterations =  2.0

     negative rho (up, down):  7.103E-05 0.000E+00

     total cpu time spent up to now is        6.6 secs

     total energy              =      -2.31752835 Ry
     estimated scf accuracy    <          2.2E-09 Ry

     iteration #  8     ecut=    40.00 Ry     beta= 0.30
     Davidson diagonalization with overlap
     ethr =  1.10E-10,  avg # of iterations =  1.0

     negative rho (up, down):  6.323E-05 0.000E+00

     total cpu time spent up to now is        7.2 secs

     total energy              =      -2.31752830 Ry
     estimated scf accuracy    <          3.8E-10 Ry

     iteration #  9     ecut=    40.00 Ry     beta= 0.30
     Davidson diagonalization with overlap
     ethr =  1.90E-11,  avg # of iterations =  2.0

     negative rho (up, down):  5.512E-05 0.000E+00

     total cpu time spent up to now is        7.7 secs

     End of self-consistent calculation

          k = 0.0000 0.0000 0.0000 ( 17133 PWs)   bands (ev):

    -9.7643

     highest occupied level (ev):    -9.7643

!    total energy              =      -2.31752826 Ry
     estimated scf accuracy    <          5.7E-13 Ry

     The total energy is the sum of the following terms:
     one-electron contribution =      -3.55749022 Ry
     hartree contribution      =       1.89797881 Ry
     xc contribution           =      -1.30373879 Ry
     ewald contribution        =       0.64572194 Ry

     convergence has been achieved in   9 iterations

     Forces acting on atoms (cartesian axes, Ry/au):

     atom    1 type  1   force =     0.00000000    0.00000000    0.11355009
     atom    2 type  1   force =     0.00000000    0.00000000   -0.11355009

     Total force =     0.160584     Total SCF correction =     0.000000

     BFGS Geometry Optimization
     Energy error            =      2.6E-02 Ry
     Gradient error          =      1.1E-01 Ry/Bohr

     number of scf cycles    =   1
     number of bfgs steps    =   0

     energy             new  =      -2.3175282619 Ry

     new trust radius        =       0.1135500871 bohr
     new conv_thr            =            1.0E-10 Ry


ATOMIC_POSITIONS (bohr)
H                0.0000000000        0.0000000000        0.2882909566
H                0.0000000000        0.0000000000        1.7117090434



     Writing config-only to output data dir /anvil/projects/x-che260157/sts_pa_probe_2026-10-03/tiny_results/negative-fresh/scratch/h2_probe.save/ :
     XML data file
     NEW-OLD atomic charge density approx. for the potential

     negative rho (up, down):  6.586E-05 0.000E+00

     total cpu time spent up to now is        8.5 secs

     per-process dynamical memory:   332.4 Mb

     Self-consistent Calculation

     iteration #  1     ecut=    40.00 Ry     beta= 0.30
     Davidson diagonalization with overlap
     ethr =  1.00E-06,  avg # of iterations =  4.0

     negative rho (up, down):  6.524E-05 0.000E+00

     total cpu time spent up to now is        9.1 secs

     total energy              =      -2.33266247 Ry
     estimated scf accuracy    <       0.00331797 Ry

     iteration #  2     ecut=    40.00 Ry     beta= 0.30
     Davidson diagonalization with overlap
     ethr =  1.66E-04,  avg # of iterations =  1.0

     negative rho (up, down):  3.160E-04 0.000E+00

     total cpu time spent up to now is        9.8 secs

     total energy              =      -2.33217214 Ry
     estimated scf accuracy    <       0.00125660 Ry

     iteration #  3     ecut=    40.00 Ry     beta= 0.30
     Davidson diagonalization with overlap
     ethr =  6.28E-05,  avg # of iterations =  2.0

     negative rho (up, down):  2.788E-04 0.000E+00

     total cpu time spent up to now is       10.4 secs

     total energy              =      -2.33231508 Ry
     estimated scf accuracy    <       0.00000782 Ry

     iteration #  4     ecut=    40.00 Ry     beta= 0.30
     Davidson diagonalization with overlap
     ethr =  3.91E-07,  avg # of iterations =  2.0

     negative rho (up, down):  2.147E-04 0.000E+00

     total cpu time spent up to now is       11.0 secs

     total energy              =      -2.33231479 Ry
     estimated scf accuracy    <       0.00000310 Ry

     iteration #  5     ecut=    40.00 Ry     beta= 0.30
     Davidson diagonalization with overlap
     ethr =  1.55E-07,  avg # of iterations =  1.0

     negative rho (up, down):  1.515E-04 0.000E+00

     total cpu time spent up to now is       11.7 secs

     total energy              =      -2.33231503 Ry
     estimated scf accuracy    <          8.1E-09 Ry

     iteration #  6     ecut=    40.00 Ry     beta= 0.30
     Davidson diagonalization with overlap
     ethr =  4.04E-10,  avg # of iterations =  2.0

     negative rho (up, down):  1.153E-04 0.000E+00

     total cpu time spent up to now is       12.3 secs

     total energy              =      -2.33231502 Ry
     estimated scf accuracy    <          4.0E-10 Ry

     iteration #  7     ecut=    40.00 Ry     beta= 0.30
     Davidson diagonalization with overlap
     ethr =  2.01E-11,  avg # of iterations =  2.0

     negative rho (up, down):  9.337E-05 0.000E+00

     total cpu time spent up to now is       12.8 secs

     total energy              =      -2.33231504 Ry
     estimated scf accuracy    <          2.8E-10 Ry

     iteration #  8     ecut=    40.00 Ry     beta= 0.30
     Davidson diagonalization with overlap
     ethr =  1.40E-11,  avg # of iterations =  2.0

     negative rho (up, down):  6.768E-05 0.000E+00

     total cpu time spent up to now is       13.4 secs

     End of self-consistent calculation

          k = 0.0000 0.0000 0.0000 ( 17133 PWs)   bands (ev):

   -10.2919

     highest occupied level (ev):   -10.2919

!    total energy              =      -2.33231501 Ry
     estimated scf accuracy    <          2.1E-12 Ry

     The total energy is the sum of the following terms:
     one-electron contribution =      -3.84598140 Ry
     hartree contribution      =       2.04778344 Ry
     xc contribution           =      -1.37279497 Ry
     ewald contribution        =       0.83867792 Ry

     convergence has been achieved in   8 iterations

     Forces acting on atoms (cartesian axes, Ry/au):

     atom    1 type  1   force =     0.00000000    0.00000000    0.00261299
     atom    2 type  1   force =     0.00000000    0.00000000   -0.00261299

     Total force =     0.003695     Total SCF correction =     0.000000
     Energy error            =      1.5E-02 Ry
     Gradient error          =      2.6E-03 Ry/Bohr

     number of scf cycles    =   2
     number of bfgs steps    =   1

     energy             old  =      -2.3175282619 Ry
     energy             new  =      -2.3323150117 Ry

     CASE: energy            _new < energy            _old

     new trust radius        =       0.0026745369 bohr
     new conv_thr            =            2.6E-11 Ry


ATOMIC_POSITIONS (bohr)
H                0.0000000000        0.0000000000        0.2909654936
H                0.0000000000        0.0000000000        1.7090345064



     Writing config-only to output data dir /anvil/projects/x-che260157/sts_pa_probe_2026-10-03/tiny_results/negative-fresh/scratch/h2_probe.save/ :
     XML data file
     NEW-OLD atomic charge density approx. for the potential

     negative rho (up, down):  6.776E-05 0.000E+00

     total cpu time spent up to now is       14.2 secs

     per-process dynamical memory:   332.4 Mb

     Self-consistent Calculation

     iteration #  1     ecut=    40.00 Ry     beta= 0.30
     Davidson diagonalization with overlap
     ethr =  1.00E-06,  avg # of iterations =  2.0

     negative rho (up, down):  6.780E-05 0.000E+00

     total cpu time spent up to now is       14.8 secs

     total energy              =      -2.33231917 Ry
     estimated scf accuracy    <       0.00000217 Ry

     iteration #  2     ecut=    40.00 Ry     beta= 0.30
     Davidson diagonalization with overlap
     ethr =  1.08E-07,  avg # of iterations =  1.0

     negative rho (up, down):  6.872E-05 0.000E+00

     total cpu time spent up to now is       15.4 secs

     total energy              =      -2.33231878 Ry
     estimated scf accuracy    <       0.00000094 Ry

     iteration #  3     ecut=    40.00 Ry     beta= 0.30
     Davidson diagonalization with overlap
     ethr =  4.68E-08,  avg # of iterations =  2.0

     negative rho (up, down):  6.803E-05 0.000E+00

     total cpu time spent up to now is       16.0 secs

     total energy              =      -2.33231891 Ry
     estimated scf accuracy    <       0.00000003 Ry

     iteration #  4     ecut=    40.00 Ry     beta= 0.30
     Davidson diagonalization with overlap
     ethr =  1.48E-09,  avg # of iterations =  2.0

     negative rho (up, down):  6.819E-05 0.000E+00

     total cpu time spent up to now is       16.6 secs

     total energy              =      -2.33231891 Ry
     estimated scf accuracy    <       0.00000004 Ry

     iteration #  5     ecut=    40.00 Ry     beta= 0.30
     Davidson diagonalization with overlap
     ethr =  1.48E-09,  avg # of iterations =  2.0

     negative rho (up, down):  6.806E-05 0.000E+00

     total cpu time spent up to now is       17.2 secs

     total energy              =      -2.33231891 Ry
     estimated scf accuracy    <          4.7E-11 Ry

     iteration #  6     ecut=    40.00 Ry     beta= 0.30
     Davidson diagonalization with overlap
     ethr =  2.35E-12,  avg # of iterations =  1.0

     negative rho (up, down):  6.798E-05 0.000E+00

     total cpu time spent up to now is       17.9 secs

     total energy              =      -2.33231891 Ry
     estimated scf accuracy    <          1.5E-10 Ry

     iteration #  7     ecut=    40.00 Ry     beta= 0.30
     Davidson diagonalization with overlap
     ethr =  2.35E-12,  avg # of iterations =  2.0

     negative rho (up, down):  6.791E-05 0.000E+00

     total cpu time spent up to now is       18.5 secs

     End of self-consistent calculation

          k = 0.0000 0.0000 0.0000 ( 17133 PWs)   bands (ev):

   -10.3054

     highest occupied level (ev):   -10.3054

!    total energy              =      -2.33231890 Ry
     estimated scf accuracy    <          9.7E-13 Ry

     The total energy is the sum of the following terms:
     one-electron contribution =      -3.85330653 Ry
     hartree contribution      =       2.05158541 Ry
     xc contribution           =      -1.37456765 Ry
     ewald contribution        =       0.84396988 Ry

     convergence has been achieved in   7 iterations

     Forces acting on atoms (cartesian axes, Ry/au):

     atom    1 type  1   force =     0.00000000    0.00000000   -0.00115684
     atom    2 type  1   force =     0.00000000    0.00000000    0.00115684

     Total force =     0.001636     Total SCF correction =     0.000000
     Energy error            =      3.9E-06 Ry
     Gradient error          =      1.2E-03 Ry/Bohr

     number of scf cycles    =   3
     number of bfgs steps    =   2

     energy             old  =      -2.3323150117 Ry
     energy             new  =      -2.3323188994 Ry

     CASE: energy            _new < energy            _old

     new trust radius        =       0.0008207281 bohr
     new conv_thr            =            1.2E-11 Ry


ATOMIC_POSITIONS (bohr)
H                0.0000000000        0.0000000000        0.2901447655
H                0.0000000000        0.0000000000        1.7098552345



     Writing config-only to output data dir /anvil/projects/x-che260157/sts_pa_probe_2026-10-03/tiny_results/negative-fresh/scratch/h2_probe.save/ :
     XML data file
     NEW-OLD atomic charge density approx. for the potential

     negative rho (up, down):  6.789E-05 0.000E+00

     total cpu time spent up to now is       19.2 secs

     per-process dynamical memory:   332.4 Mb

     Self-consistent Calculation

     iteration #  1     ecut=    40.00 Ry     beta= 0.30
     Davidson diagonalization with overlap
     ethr =  1.00E-06,  avg # of iterations =  2.0

     Threshold (ethr) on eigenvalues was too large:
     Diagonalizing with lowered threshold

     Davidson diagonalization with overlap
     ethr =  1.02E-08,  avg # of iterations =  1.0

     negative rho (up, down):  6.787E-05 0.000E+00

     total cpu time spent up to now is       19.9 secs

     total energy              =      -2.33231988 Ry
     estimated scf accuracy    <       0.00000022 Ry

     iteration #  2     ecut=    40.00 Ry     beta= 0.30
     Davidson diagonalization with overlap
     ethr =  1.09E-08,  avg # of iterations =  1.0

     negative rho (up, down):  6.790E-05 0.000E+00

     total cpu time spent up to now is       20.5 secs

     total energy              =      -2.33231984 Ry
     estimated scf accuracy    <       0.00000008 Ry

     iteration #  3     ecut=    40.00 Ry     beta= 0.30
     Davidson diagonalization with overlap
     ethr =  4.13E-09,  avg # of iterations =  2.0

     negative rho (up, down):  6.791E-05 0.000E+00

     total cpu time spent up to now is       21.1 secs

     total energy              =      -2.33231985 Ry
     estimated scf accuracy    <          6.6E-10 Ry

     iteration #  4     ecut=    40.00 Ry     beta= 0.30
     Davidson diagonalization with overlap
     ethr =  3.28E-11,  avg # of iterations =  2.0

     negative rho (up, down):  6.788E-05 0.000E+00

     total cpu time spent up to now is       21.7 secs

     total energy              =      -2.33231985 Ry
     estimated scf accuracy    <          1.0E-09 Ry

     iteration #  5     ecut=    40.00 Ry     beta= 0.30
     Davidson diagonalization with overlap
     ethr =  3.28E-11,  avg # of iterations =  2.0

     negative rho (up, down):  6.784E-05 0.000E+00

     total cpu time spent up to now is       22.2 secs

     End of self-consistent calculation

          k = 0.0000 0.0000 0.0000 ( 17133 PWs)   bands (ev):

   -10.3013

     highest occupied level (ev):   -10.3013

!    total energy              =      -2.33231986 Ry
     estimated scf accuracy    <          1.1E-12 Ry

     The total energy is the sum of the following terms:
     one-electron contribution =      -3.85105581 Ry
     hartree contribution      =       2.05041707 Ry
     xc contribution           =      -1.37402281 Ry
     ewald contribution        =       0.84234170 Ry

     convergence has been achieved in   5 iterations

     Forces acting on atoms (cartesian axes, Ry/au):

     atom    1 type  1   force =     0.00000000    0.00000000    0.00000714
     atom    2 type  1   force =     0.00000000    0.00000000   -0.00000714

     Total force =     0.000010     Total SCF correction =     0.000000
     Energy error            =      9.6E-07 Ry
     Gradient error          =      7.1E-06 Ry/Bohr

     number of scf cycles    =   4
     number of bfgs steps    =   3

     energy             old  =      -2.3323188994 Ry
     energy             new  =      -2.3323198599 Ry

     CASE: energy            _new < energy            _old

     small trust_radius: resetting bfgs history

     new trust radius        =       0.0000071432 bohr
     new conv_thr            =            1.0E-12 Ry


ATOMIC_POSITIONS (bohr)
H                0.0000000000        0.0000000000        0.2901519087
H                0.0000000000        0.0000000000        1.7098480913



     Writing config-only to output data dir /anvil/projects/x-che260157/sts_pa_probe_2026-10-03/tiny_results/negative-fresh/scratch/h2_probe.save/ :
     XML data file
     NEW-OLD atomic charge density approx. for the potential

     negative rho (up, down):  6.784E-05 0.000E+00

     total cpu time spent up to now is       23.0 secs

     per-process dynamical memory:   332.4 Mb

     Self-consistent Calculation

     iteration #  1     ecut=    40.00 Ry     beta= 0.30
     Davidson diagonalization with overlap
     ethr =  1.00E-06,  avg # of iterations =  1.0

     Threshold (ethr) on eigenvalues was too large:
     Diagonalizing with lowered threshold

     Davidson diagonalization with overlap
     ethr =  6.99E-13,  avg # of iterations =  2.0

     negative rho (up, down):  6.784E-05 0.000E+00

     total cpu time spent up to now is       23.7 secs

     total energy              =      -2.33231986 Ry
     estimated scf accuracy    <          2.0E-11 Ry

     iteration #  2     ecut=    40.00 Ry     beta= 0.30
     Davidson diagonalization with overlap
     ethr =  1.01E-12,  avg # of iterations =  1.0

     negative rho (up, down):  6.785E-05 0.000E+00

     total cpu time spent up to now is       24.3 secs

     total energy              =      -2.33231986 Ry
     estimated scf accuracy    <          7.7E-12 Ry

     iteration #  3     ecut=    40.00 Ry     beta= 0.30
     Davidson diagonalization with overlap
     ethr =  3.83E-13,  avg # of iterations =  2.0

     negative rho (up, down):  6.785E-05 0.000E+00

     total cpu time spent up to now is       24.9 secs

     End of self-consistent calculation

          k = 0.0000 0.0000 0.0000 ( 17133 PWs)   bands (ev):

   -10.3013

     highest occupied level (ev):   -10.3013

!    total energy              =      -2.33231986 Ry
     estimated scf accuracy    <          5.3E-14 Ry

     The total energy is the sum of the following terms:
     one-electron contribution =      -3.85107573 Ry
     hartree contribution      =       2.05042791 Ry
     xc contribution           =      -1.37402788 Ry
     ewald contribution        =       0.84235585 Ry

     convergence has been achieved in   3 iterations

     Forces acting on atoms (cartesian axes, Ry/au):

     atom    1 type  1   force =     0.00000000    0.00000000   -0.00000273
     atom    2 type  1   force =     0.00000000    0.00000000    0.00000273

     Total force =     0.000004     Total SCF correction =     0.000000
     Energy error            =      3.5E-11 Ry
     Gradient error          =      2.7E-06 Ry/Bohr

     bfgs converged in   5 scf cycles and   4 bfgs steps
     (criteria: energy <  1.0E-07 Ry, force <  1.0E-04 Ry/Bohr)

     End of BFGS Geometry Optimization

     Final energy             =      -2.3323198599 Ry

     File /anvil/projects/x-che260157/sts_pa_probe_2026-10-03/tiny_results/negative-fresh/scratch/h2_probe.bfgs deleted, as requested
Begin final coordinates

ATOMIC_POSITIONS (bohr)
H                0.0000000000        0.0000000000        0.2901519087
H                0.0000000000        0.0000000000        1.7098480913
End final coordinates



     Writing all to output data dir /anvil/projects/x-che260157/sts_pa_probe_2026-10-03/tiny_results/negative-fresh/scratch/h2_probe.save/ :
     XML data file, charge density, pseudopotentials, collected wavefunctions

     init_run     :      1.91s CPU      2.01s WALL (       1 calls)
     electrons    :     18.55s CPU     19.77s WALL (       5 calls)
     update_pot   :      1.69s CPU      1.94s WALL (       4 calls)
     forces       :      0.81s CPU      0.91s WALL (       5 calls)

     Called by init_run:
     wfcinit      :      0.11s CPU      0.11s WALL (       1 calls)
     potinit      :      0.65s CPU      0.72s WALL (       1 calls)
     hinit0       :      1.00s CPU      1.02s WALL (       1 calls)

     Called by electrons:
     c_bands      :      0.93s CPU      0.94s WALL (      34 calls)
     sum_band     :      1.72s CPU      1.76s WALL (      34 calls)
     v_of_rho     :     13.86s CPU     15.23s WALL (      37 calls)
     newd         :      1.30s CPU      1.32s WALL (      37 calls)
     mix_rho      :      1.43s CPU      1.45s WALL (      34 calls)

     Called by c_bands:
     init_us_2    :      0.05s CPU      0.06s WALL (      74 calls)
     regterg      :      0.89s CPU      0.89s WALL (      34 calls)

     Called by *egterg:
     rdiaghg      :      0.00s CPU      0.00s WALL (      92 calls)
     h_psi        :      0.95s CPU      0.95s WALL (      99 calls)
     s_psi        :      0.00s CPU      0.00s WALL (      99 calls)
     g_psi        :      0.01s CPU      0.01s WALL (      64 calls)

     Called by h_psi:
     h_psi:calbec :      0.01s CPU      0.01s WALL (      99 calls)
     vloc_psi     :      0.93s CPU      0.94s WALL (      99 calls)
                                        0.00s GPU  (      99 calls)
     add_vuspsi   :      0.01s CPU      0.01s WALL (      99 calls)

     General routines
     calbec       :      0.01s CPU      0.01s WALL (     153 calls)
     fft          :      7.39s CPU      7.44s WALL (     413 calls)
     ffts         :      0.56s CPU      0.57s WALL (      71 calls)
     fftw         :      0.90s CPU      0.90s WALL (     232 calls)
     interpolate  :      1.21s CPU      1.23s WALL (      37 calls)

     Parallel routines

     PWSCF        :     23.35s CPU     25.09s WALL


   This run was terminated on:   3:54:32   3Oct2026            

=------------------------------------------------------------------------------=
   JOB DONE.
=------------------------------------------------------------------------------=
