
     Program PWSCF v.7.5 starts on 13Aug2026 at  6:31:18 

     This program is part of the open-source Quantum ESPRESSO suite
     for quantum simulation of materials; please cite
         "P. Giannozzi et al., J. Phys.:Condens. Matter 21 395502 (2009);
         "P. Giannozzi et al., J. Phys.:Condens. Matter 29 465901 (2017);
         "P. Giannozzi et al., J. Chem. Phys. 152 154105 (2020);
          URL http://www.quantum-espresso.org", 
     in publications or presentations arising from this work. More details at
     http://www.quantum-espresso.org/quote

     Parallel version (MPI & OpenMP), running on      20 processor cores
     Number of MPI processes:                20
     Threads/MPI process:                     1

     MPI processes distributed on     1 nodes
     121239 MiB available memory on the printing compute node when the environment starts

     Reading input from s0_OOH__1x1_off__g1.run.in

     Current dimensions of program PWSCF are:
     Max number of different atomic species (ntypx) = 10
     Max number of k-points (npk) =  40000
     Max angular momentum in pseudopotentials (lmaxx) =  4
     file O.pbe-n-kjpaw_psl.0.1.UPF: wavefunction(s)  2P renormalized

     K-points division:     npool     =       4
     R & G space division:  proc/nbgrp/npool/nimage =       5
     Subspace diagonalization in iterative solution of the eigenvalue problem:
     a serial algorithm will be used


     Parallelization info
     --------------------
     sticks:   dense  smooth     PW     G-vecs:    dense   smooth      PW
     Min         664     330     94               168246    59478    8976
     Max         665     331     95               168255    59487    8990
     Sum        3323    1653    471               841263   297421   44917

     Using Slab Decomposition



     bravais-lattice index     =            0
     lattice parameter (alat)  =       5.5104  a.u.
     unit-cell volume          =    3076.9124 (a.u.)^3
     number of atoms/cell      =           21
     number of atomic types    =            3
     number of electrons       =       169.00
     number of Kohn-Sham states=          102
     kinetic-energy cutoff     =      80.0000  Ry
     charge density cutoff     =     640.0000  Ry
     scf convergence threshold =      1.0E-06
     mixing beta               =       0.3000
     number of iterations used =            8  local-TF  mixing
     Exchange-correlation= SLA  PW   PBX  PBC
                           (   1   4   3   4   0   0   0)
     Hubbard projectors: atomic
     Hubbard parameters of DFT+U (Dudarev formulation) in eV:
     U(Cr-3d) =  3.7000

     Internal variables: lda_plus_u =T, lda_plus_u_kind = 0

     Internal variables: orbital_resolved =F, hub_pot_fix =F, apply_U = F

     celldm(1)=   5.510441  celldm(2)=   0.000000  celldm(3)=   0.000000
     celldm(4)=   0.000000  celldm(5)=   0.000000  celldm(6)=   0.000000

     crystal axes: (cart. coord. in units of alat)
               a(1) = (   1.000000   0.000000   0.000000 )  
               a(2) = (   0.000000   2.144115   0.000000 )  
               a(3) = (   0.000000   0.000000   8.576458 )  

     reciprocal axes: (cart. coord. in units 2 pi/alat)
               b(1) = (  1.000000  0.000000  0.000000 )  
               b(2) = (  0.000000  0.466393  0.000000 )  
               b(3) = (  0.000000  0.000000  0.116598 )  


     PseudoPot. # 1 for Cr read from file:
     /usr/share/espresso/pseudo/cr_pbe_v1.5.uspp.F.UPF
     MD5 check sum: 0d52af634a40206e4dee301ad30da4bf
     Pseudo is Ultrasoft + core correction, Zval = 14.0
     Generated by new atomic code, or converted to UPF format
     Using radial grid of  857 points,  6 beta functions with: 
                l(1) =   0
                l(2) =   0
                l(3) =   1
                l(4) =   1
                l(5) =   2
                l(6) =   2
     Q(r) pseudized with  8 coefficients,  rinner =    0.950   0.950   0.950
                                                       0.950   0.950

     PseudoPot. # 2 for H  read from file:
     /usr/share/espresso/pseudo/H.pbe-rrkjus_psl.1.0.0.UPF
     MD5 check sum: f52b6d4d1c606e5624b1dc7b2218f220
     Pseudo is Ultrasoft, Zval =  1.0
     Generated using "atomic" code by A. Dal Corso  v.5.1
     Using radial grid of  929 points,  2 beta functions with: 
                l(1) =   0
                l(2) =   0
     Q(r) pseudized with 0 coefficients 


     PseudoPot. # 3 for O  read from file:
     /usr/share/espresso/pseudo/O.pbe-n-kjpaw_psl.0.1.UPF
     MD5 check sum: 0234752ac141de4415c5fc33072bef88
     Pseudo is Projector augmented-wave + core cor, Zval =  6.0
     Generated using "atomic" code by A. Dal Corso  v.5.0.99 svn rev. 10869
     Shape of augmentation charge: BESSEL
     Using radial grid of 1095 points,  4 beta functions with: 
                l(1) =   0
                l(2) =   0
                l(3) =   1
                l(4) =   1
     Q(r) pseudized with 0 coefficients 


     atomic species   valence    mass     pseudopotential
     Cr               14.00    51.99600     Cr( 1.00)
     H                 1.00     1.00800     H ( 1.00)
     O                 6.00    15.99900     O ( 1.00)

     Starting magnetic structure 
     atomic species   magnetization
     Cr              0.600
     H               0.000
     O               0.000

     No symmetry found



   Cartesian axes

     site n.     atom                  positions (alat units)
         1        Cr     tau(   1) = (   0.0000000   0.5360286   3.2161719  )
         2        Cr     tau(   2) = (   0.5000000   1.6080859   3.2161719  )
         3        Cr     tau(   3) = (  -0.0005796   1.6055463   4.3050584  )
         4        Cr     tau(   4) = (   0.4985543   0.5302259   4.2967906  )
         5        Cr     tau(   5) = (  -0.0048103   0.5445338   5.3713845  )
         6        Cr     tau(   6) = (   0.4934204   1.6154400   5.4025382  )
         7        O      tau(   7) = (   0.0000000   1.6080859   3.6342742  )
         8        O      tau(   8) = (   0.0000000   1.6080859   2.7980695  )
         9        O      tau(   9) = (   0.5000000   0.1179263   3.2161719  )
        10        O      tau(  10) = (   0.5000000   0.9541310   3.2161719  )
        11        O      tau(  11) = (  -0.0033662   0.5167785   4.7345481  )
        12        O      tau(  12) = (   0.0000000   0.5360286   3.8701268  )
        13        O      tau(  13) = (   0.4994400   1.1799507   4.3129072  )
        14        O      tau(  14) = (   0.4990990   2.0278783   4.2926499  )
        15        O      tau(  15) = (  -0.0072140   1.5788453   5.8680044  )
        16        O      tau(  16) = (  -0.0045333   1.6258698   4.9715182  )
        17        O      tau(  17) = (   0.4940054   0.1255456   5.4677557  )
        18        O      tau(  18) = (   0.4953485   0.9629374   5.4046396  )
        19        O      tau(  19) = (   0.0195354   0.6265983   6.2218469  )
        20        O      tau(  20) = (  -0.0796506   0.3040110   6.4779603  )
        21        H      tau(  21) = (  -0.0094666  -0.3135276   6.0867871  )

     number of k points=    36  Marzari-Vanderbilt smearing, width (Ry)=  0.0100
                       cart. coord. in units 2pi/alat
        k(    1) = (   0.0000000   0.0000000   0.0000000), wk =   0.0277778
        k(    2) = (   0.0000000   0.1165982   0.0000000), wk =   0.0277778
        k(    3) = (   0.0000000  -0.2331965   0.0000000), wk =   0.0277778
        k(    4) = (   0.0000000  -0.1165982   0.0000000), wk =   0.0277778
        k(    5) = (   0.1111111   0.0000000   0.0000000), wk =   0.0277778
        k(    6) = (   0.1111111   0.1165982   0.0000000), wk =   0.0277778
        k(    7) = (   0.1111111  -0.2331965   0.0000000), wk =   0.0277778
        k(    8) = (   0.1111111  -0.1165982   0.0000000), wk =   0.0277778
        k(    9) = (   0.2222222   0.0000000   0.0000000), wk =   0.0277778
        k(   10) = (   0.2222222   0.1165982   0.0000000), wk =   0.0277778
        k(   11) = (   0.2222222  -0.2331965   0.0000000), wk =   0.0277778
        k(   12) = (   0.2222222  -0.1165982   0.0000000), wk =   0.0277778
        k(   13) = (   0.3333333   0.0000000   0.0000000), wk =   0.0277778
        k(   14) = (   0.3333333   0.1165982   0.0000000), wk =   0.0277778
        k(   15) = (   0.3333333  -0.2331965   0.0000000), wk =   0.0277778
        k(   16) = (   0.3333333  -0.1165982   0.0000000), wk =   0.0277778
        k(   17) = (   0.4444444   0.0000000   0.0000000), wk =   0.0277778
        k(   18) = (   0.4444444   0.1165982   0.0000000), wk =   0.0277778
        k(   19) = (   0.4444444  -0.2331965   0.0000000), wk =   0.0277778
        k(   20) = (   0.4444444  -0.1165982   0.0000000), wk =   0.0277778
        k(   21) = (  -0.4444444   0.0000000   0.0000000), wk =   0.0277778
        k(   22) = (  -0.4444444   0.1165982   0.0000000), wk =   0.0277778
        k(   23) = (  -0.4444444  -0.2331965   0.0000000), wk =   0.0277778
        k(   24) = (  -0.4444444  -0.1165982   0.0000000), wk =   0.0277778
        k(   25) = (  -0.3333333   0.0000000   0.0000000), wk =   0.0277778
        k(   26) = (  -0.3333333   0.1165982   0.0000000), wk =   0.0277778
        k(   27) = (  -0.3333333  -0.2331965   0.0000000), wk =   0.0277778
        k(   28) = (  -0.3333333  -0.1165982   0.0000000), wk =   0.0277778
        k(   29) = (  -0.2222222   0.0000000   0.0000000), wk =   0.0277778
        k(   30) = (  -0.2222222   0.1165982   0.0000000), wk =   0.0277778
        k(   31) = (  -0.2222222  -0.2331965   0.0000000), wk =   0.0277778
        k(   32) = (  -0.2222222  -0.1165982   0.0000000), wk =   0.0277778
        k(   33) = (  -0.1111111   0.0000000   0.0000000), wk =   0.0277778
        k(   34) = (  -0.1111111   0.1165982   0.0000000), wk =   0.0277778
        k(   35) = (  -0.1111111  -0.2331965   0.0000000), wk =   0.0277778
        k(   36) = (  -0.1111111  -0.1165982   0.0000000), wk =   0.0277778

     Dense  grid:   841263 G-vectors     FFT dimensions: (  45,  96, 384)

     Smooth grid:   297421 G-vectors     FFT dimensions: (  32,  72, 270)

     Estimated max dynamical RAM per process >     629.81 MB

     Estimated total dynamical RAM >      11.10 GB

     Check: negative core charge=   -0.000001
     Generating pointlists ...
     new r_m :   0.2629 (alat units)  1.4489 (a.u.) for type    1
     new r_m :   0.1376 (alat units)  0.7581 (a.u.) for type    2
     new r_m :   0.1376 (alat units)  0.7581 (a.u.) for type    3

     Initial potential from superposition of free atoms

     starting charge     162.9999, renormalised to     169.0000

     negative rho (up, down):  4.215E-03 1.025E-03

     STARTING HUBBARD OCCUPATIONS:

     =================== HUBBARD OCCUPATIONS ===================
     ------------------------ ATOM    1 ------------------------
     Tr[ns(  1)] (up, down, total) =   3.40000  0.00000  3.40000
     Atomic magnetic moment for atom   1 =   3.40000
     SPIN  1
     eigenvalues:
       0.680  0.680  0.680  0.680  0.680
     eigenvectors (columns):
       1.000  0.000  0.000  0.000  0.000
       0.000  1.000  0.000  0.000  0.000
       0.000  0.000  1.000  0.000  0.000
       0.000  0.000  0.000  1.000  0.000
       0.000  0.000  0.000  0.000  1.000
     occupation matrix ns (before diag.):
       0.680  0.000  0.000  0.000  0.000
       0.000  0.680  0.000  0.000  0.000
       0.000  0.000  0.680  0.000  0.000
       0.000  0.000  0.000  0.680  0.000
       0.000  0.000  0.000  0.000  0.680
     SPIN  2
     eigenvalues:
       0.000  0.000  0.000  0.000  0.000
     eigenvectors (columns):
       1.000  0.000  0.000  0.000  0.000
       0.000  1.000  0.000  0.000  0.000
       0.000  0.000  1.000  0.000  0.000
       0.000  0.000  0.000  1.000  0.000
       0.000  0.000  0.000  0.000  1.000
     occupation matrix ns (before diag.):
       0.000  0.000  0.000  0.000  0.000
       0.000  0.000  0.000  0.000  0.000
       0.000  0.000  0.000  0.000  0.000
       0.000  0.000  0.000  0.000  0.000
       0.000  0.000  0.000  0.000  0.000
     ------------------------ ATOM    2 ------------------------
     Tr[ns(  2)] (up, down, total) =   3.40000  0.00000  3.40000
     Atomic magnetic moment for atom   2 =   3.40000
     SPIN  1
     eigenvalues:
       0.680  0.680  0.680  0.680  0.680
     eigenvectors (columns):
       1.000  0.000  0.000  0.000  0.000
       0.000  1.000  0.000  0.000  0.000
       0.000  0.000  1.000  0.000  0.000
       0.000  0.000  0.000  1.000  0.000
       0.000  0.000  0.000  0.000  1.000
     occupation matrix ns (before diag.):
       0.680  0.000  0.000  0.000  0.000
       0.000  0.680  0.000  0.000  0.000
       0.000  0.000  0.680  0.000  0.000
       0.000  0.000  0.000  0.680  0.000
       0.000  0.000  0.000  0.000  0.680
     SPIN  2
     eigenvalues:
       0.000  0.000  0.000  0.000  0.000
     eigenvectors (columns):
       1.000  0.000  0.000  0.000  0.000
       0.000  1.000  0.000  0.000  0.000
       0.000  0.000  1.000  0.000  0.000
       0.000  0.000  0.000  1.000  0.000
       0.000  0.000  0.000  0.000  1.000
     occupation matrix ns (before diag.):
       0.000  0.000  0.000  0.000  0.000
       0.000  0.000  0.000  0.000  0.000
       0.000  0.000  0.000  0.000  0.000
       0.000  0.000  0.000  0.000  0.000
       0.000  0.000  0.000  0.000  0.000
     ------------------------ ATOM    3 ------------------------
     Tr[ns(  3)] (up, down, total) =   3.40000  0.00000  3.40000
     Atomic magnetic moment for atom   3 =   3.40000
     SPIN  1
     eigenvalues:
       0.680  0.680  0.680  0.680  0.680
     eigenvectors (columns):
       1.000  0.000  0.000  0.000  0.000
       0.000  1.000  0.000  0.000  0.000
       0.000  0.000  1.000  0.000  0.000
       0.000  0.000  0.000  1.000  0.000
       0.000  0.000  0.000  0.000  1.000
     occupation matrix ns (before diag.):
       0.680  0.000  0.000  0.000  0.000
       0.000  0.680  0.000  0.000  0.000
       0.000  0.000  0.680  0.000  0.000
       0.000  0.000  0.000  0.680  0.000
       0.000  0.000  0.000  0.000  0.680
     SPIN  2
     eigenvalues:
       0.000  0.000  0.000  0.000  0.000
     eigenvectors (columns):
       1.000  0.000  0.000  0.000  0.000
       0.000  1.000  0.000  0.000  0.000
       0.000  0.000  1.000  0.000  0.000
       0.000  0.000  0.000  1.000  0.000
       0.000  0.000  0.000  0.000  1.000
     occupation matrix ns (before diag.):
       0.000  0.000  0.000  0.000  0.000
       0.000  0.000  0.000  0.000  0.000
       0.000  0.000  0.000  0.000  0.000
       0.000  0.000  0.000  0.000  0.000
       0.000  0.000  0.000  0.000  0.000
     ------------------------ ATOM    4 ------------------------
     Tr[ns(  4)] (up, down, total) =   3.40000  0.00000  3.40000
     Atomic magnetic moment for atom   4 =   3.40000
     SPIN  1
     eigenvalues:
       0.680  0.680  0.680  0.680  0.680
     eigenvectors (columns):
       1.000  0.000  0.000  0.000  0.000
       0.000  1.000  0.000  0.000  0.000
       0.000  0.000  1.000  0.000  0.000
       0.000  0.000  0.000  1.000  0.000
       0.000  0.000  0.000  0.000  1.000
     occupation matrix ns (before diag.):
       0.680  0.000  0.000  0.000  0.000
       0.000  0.680  0.000  0.000  0.000
       0.000  0.000  0.680  0.000  0.000
       0.000  0.000  0.000  0.680  0.000
       0.000  0.000  0.000  0.000  0.680
     SPIN  2
     eigenvalues:
       0.000  0.000  0.000  0.000  0.000
     eigenvectors (columns):
       1.000  0.000  0.000  0.000  0.000
       0.000  1.000  0.000  0.000  0.000
       0.000  0.000  1.000  0.000  0.000
       0.000  0.000  0.000  1.000  0.000
       0.000  0.000  0.000  0.000  1.000
     occupation matrix ns (before diag.):
       0.000  0.000  0.000  0.000  0.000
       0.000  0.000  0.000  0.000  0.000
       0.000  0.000  0.000  0.000  0.000
       0.000  0.000  0.000  0.000  0.000
       0.000  0.000  0.000  0.000  0.000
     ------------------------ ATOM    5 ------------------------
     Tr[ns(  5)] (up, down, total) =   3.40000  0.00000  3.40000
     Atomic magnetic moment for atom   5 =   3.40000
     SPIN  1
     eigenvalues:
       0.680  0.680  0.680  0.680  0.680
     eigenvectors (columns):
       1.000  0.000  0.000  0.000  0.000
       0.000  1.000  0.000  0.000  0.000
       0.000  0.000  1.000  0.000  0.000
       0.000  0.000  0.000  1.000  0.000
       0.000  0.000  0.000  0.000  1.000
     occupation matrix ns (before diag.):
       0.680  0.000  0.000  0.000  0.000
       0.000  0.680  0.000  0.000  0.000
       0.000  0.000  0.680  0.000  0.000
       0.000  0.000  0.000  0.680  0.000
       0.000  0.000  0.000  0.000  0.680
     SPIN  2
     eigenvalues:
       0.000  0.000  0.000  0.000  0.000
     eigenvectors (columns):
       1.000  0.000  0.000  0.000  0.000
       0.000  1.000  0.000  0.000  0.000
       0.000  0.000  1.000  0.000  0.000
       0.000  0.000  0.000  1.000  0.000
       0.000  0.000  0.000  0.000  1.000
     occupation matrix ns (before diag.):
       0.000  0.000  0.000  0.000  0.000
       0.000  0.000  0.000  0.000  0.000
       0.000  0.000  0.000  0.000  0.000
       0.000  0.000  0.000  0.000  0.000
       0.000  0.000  0.000  0.000  0.000
     ------------------------ ATOM    6 ------------------------
     Tr[ns(  6)] (up, down, total) =   3.40000  0.00000  3.40000
     Atomic magnetic moment for atom   6 =   3.40000
     SPIN  1
     eigenvalues:
       0.680  0.680  0.680  0.680  0.680
     eigenvectors (columns):
       1.000  0.000  0.000  0.000  0.000
       0.000  1.000  0.000  0.000  0.000
       0.000  0.000  1.000  0.000  0.000
       0.000  0.000  0.000  1.000  0.000
       0.000  0.000  0.000  0.000  1.000
     occupation matrix ns (before diag.):
       0.680  0.000  0.000  0.000  0.000
       0.000  0.680  0.000  0.000  0.000
       0.000  0.000  0.680  0.000  0.000
       0.000  0.000  0.000  0.680  0.000
       0.000  0.000  0.000  0.000  0.680
     SPIN  2
     eigenvalues:
       0.000  0.000  0.000  0.000  0.000
     eigenvectors (columns):
       1.000  0.000  0.000  0.000  0.000
       0.000  1.000  0.000  0.000  0.000
       0.000  0.000  1.000  0.000  0.000
       0.000  0.000  0.000  1.000  0.000
       0.000  0.000  0.000  0.000  1.000
     occupation matrix ns (before diag.):
       0.000  0.000  0.000  0.000  0.000
       0.000  0.000  0.000  0.000  0.000
       0.000  0.000  0.000  0.000  0.000
       0.000  0.000  0.000  0.000  0.000
       0.000  0.000  0.000  0.000  0.000

     Number of occupied Hubbard levels =   20.4000

     Atomic wfc used for Hubbard projectors are NOT orthogonalized

     Starting wfcs are  117 randomized atomic wfcs
     Checking if some PAW data can be deallocated... 

     total cpu time spent up to now is       13.8 secs

     per-process dynamical memory:   442.6 Mb

     Self-consistent Calculation

     iteration #  1     ecut=    80.00 Ry     beta= 0.30
     Davidson diagonalization with overlap
     ethr =  1.00E-02,  avg # of iterations =  5.3

     =================== HUBBARD OCCUPATIONS ===================
     ------------------------ ATOM    1 ------------------------
     Tr[ns(  1)] (up, down, total) =   4.97114  0.70636  5.67750
     Atomic magnetic moment for atom   1 =   4.26478
     SPIN  1
     eigenvalues:
       0.987  0.995  0.996  0.996  0.997
     eigenvectors (columns):
      -0.983  0.182 -0.000 -0.001 -0.001
       0.000 -0.002 -0.115 -0.993 -0.002
       0.001  0.002  0.003  0.002 -1.000
       0.182  0.983 -0.001 -0.002  0.002
       0.000 -0.000 -0.993  0.115 -0.003
     occupation matrix ns (before diag.):
       0.988  0.000  0.000  0.001  0.000
       0.000  0.996  0.000  0.000 -0.000
       0.000  0.000  0.997 -0.000  0.000
       0.001  0.000 -0.000  0.995 -0.000
       0.000 -0.000  0.000 -0.000  0.996
     SPIN  2
     eigenvalues:
       0.048  0.099  0.128  0.189  0.242
     eigenvectors (columns):
       0.001 -0.000  0.272  0.000 -0.962
      -0.000 -1.000  0.000 -0.000  0.000
      -1.000  0.000 -0.000  0.000 -0.001
      -0.001  0.000  0.962 -0.000  0.272
      -0.000  0.000  0.000 -1.000 -0.000
     occupation matrix ns (before diag.):
       0.234 -0.000  0.000 -0.030  0.000
      -0.000  0.099 -0.000  0.000  0.000
       0.000 -0.000  0.048 -0.000 -0.000
      -0.030  0.000 -0.000  0.137 -0.000
       0.000  0.000 -0.000 -0.000  0.189
     ------------------------ ATOM    2 ------------------------
     Tr[ns(  2)] (up, down, total) =   4.97718  0.62240  5.59958
     Atomic magnetic moment for atom   2 =   4.35478
     SPIN  1
     eigenvalues:
       0.995  0.995  0.996  0.996  0.996
     eigenvectors (columns):
      -0.824 -0.001  0.567 -0.012 -0.007
      -0.000 -0.012  0.021  1.000 -0.006
      -0.006  0.001 -0.020 -0.006 -1.000
       0.567  0.002  0.823 -0.017 -0.020
      -0.002  1.000 -0.001  0.012  0.001
     occupation matrix ns (before diag.):
       0.995 -0.000 -0.000  0.001 -0.000
      -0.000  0.996  0.000 -0.000  0.000
      -0.000  0.000  0.996  0.000 -0.000
       0.001 -0.000  0.000  0.995 -0.000
      -0.000  0.000 -0.000 -0.000  0.995
     SPIN  2
     eigenvalues:
       0.073  0.076  0.082  0.193  0.199
     eigenvectors (columns):
      -0.935  0.000  0.012  0.353  0.001
       0.000 -0.000 -0.000  0.003 -1.000
       0.013 -0.002  1.000 -0.000 -0.000
       0.353 -0.000 -0.004  0.936  0.003
       0.000  1.000  0.002 -0.000 -0.000
     occupation matrix ns (before diag.):
       0.088 -0.000  0.000  0.039 -0.000
      -0.000  0.199  0.000 -0.000  0.000
       0.000  0.000  0.082 -0.000  0.000
       0.039 -0.000 -0.000  0.178 -0.000
      -0.000  0.000  0.000 -0.000  0.076
     ------------------------ ATOM    3 ------------------------
     Tr[ns(  3)] (up, down, total) =   4.97211  0.55973  5.53184
     Atomic magnetic moment for atom   3 =   4.41237
     SPIN  1
     eigenvalues:
       0.992  0.994  0.995  0.995  0.996
     eigenvectors (columns):
      -0.874  0.481 -0.034  0.062 -0.002
      -0.006  0.059  0.998  0.001 -0.031
       0.071  0.001 -0.001  0.997 -0.003
       0.481  0.875 -0.049 -0.035  0.002
       0.003 -0.001 -0.031 -0.003 -1.000
     occupation matrix ns (before diag.):
       0.993 -0.000  0.000  0.001  0.000
      -0.000  0.995  0.000 -0.000  0.000
       0.000  0.000  0.995 -0.000  0.000
       0.001 -0.000 -0.000  0.994 -0.000
       0.000  0.000  0.000 -0.000  0.996
     SPIN  2
     eigenvalues:
       0.060  0.063  0.069  0.182  0.185
     eigenvectors (columns):
      -0.119  0.035  0.003 -0.038  0.992
       0.016 -0.002 -1.000 -0.024  0.004
       0.047  0.998 -0.002  0.000 -0.029
      -0.992  0.044 -0.016  0.005 -0.120
      -0.001 -0.001  0.024 -0.999 -0.038
     occupation matrix ns (before diag.):
       0.183  0.001 -0.004 -0.015 -0.000
       0.001  0.069 -0.000  0.000  0.003
      -0.004 -0.000  0.063  0.001  0.000
      -0.015  0.000  0.001  0.062 -0.000
      -0.000  0.003  0.000 -0.000  0.182
     ------------------------ ATOM    4 ------------------------
     Tr[ns(  4)] (up, down, total) =   4.96906  0.57133  5.54039
     Atomic magnetic moment for atom   4 =   4.39773
     SPIN  1
     eigenvalues:
       0.992  0.993  0.994  0.995  0.996
     eigenvectors (columns):
       0.037  0.651  0.759 -0.007  0.005
       0.997 -0.062  0.005  0.055 -0.001
      -0.001  0.006  0.002  0.004 -1.000
      -0.050 -0.757  0.652 -0.001 -0.003
       0.055 -0.007 -0.006 -0.998 -0.004
     occupation matrix ns (before diag.):
       0.994 -0.000 -0.000  0.001  0.000
      -0.000  0.992  0.000  0.000 -0.000
      -0.000  0.000  0.996  0.000  0.000
       0.001  0.000  0.000  0.993  0.000
       0.000 -0.000  0.000  0.000  0.995
     SPIN  2
     eigenvalues:
       0.062  0.063  0.070  0.183  0.192
     eigenvectors (columns):
       0.909 -0.107  0.002 -0.039  0.401
       0.003  0.001  0.024 -0.994 -0.104
      -0.129 -0.989  0.060 -0.003  0.027
      -0.397  0.077 -0.003 -0.096  0.910
      -0.005 -0.060 -0.998 -0.023 -0.003
     occupation matrix ns (before diag.):
       0.083 -0.001  0.002  0.048 -0.000
      -0.001  0.183 -0.000 -0.001  0.003
       0.002 -0.000  0.063  0.003 -0.000
       0.048 -0.001  0.003  0.171 -0.000
      -0.000  0.003 -0.000 -0.000  0.070
     ------------------------ ATOM    5 ------------------------
     Tr[ns(  5)] (up, down, total) =   2.01951  0.46966  2.48917
     Atomic magnetic moment for atom   5 =   1.54985
     SPIN  1
     eigenvalues:
       0.285  0.393  0.418  0.450  0.474
     eigenvectors (columns):
       0.960  0.001  0.000 -0.236 -0.152
       0.005  0.973 -0.230  0.024 -0.000
      -0.061 -0.007  0.006  0.353 -0.934
      -0.274  0.020 -0.015 -0.905 -0.324
      -0.003  0.231  0.973 -0.010  0.000
     occupation matrix ns (before diag.):
       0.298 -0.001  0.013  0.045  0.000
      -0.001  0.394  0.001 -0.001 -0.006
       0.013  0.001  0.470  0.004 -0.000
       0.045 -0.001  0.004  0.440  0.000
       0.000 -0.006 -0.000  0.000  0.417
     SPIN  2
     eigenvalues:
       0.046  0.058  0.060  0.123  0.182
     eigenvectors (columns):
      -0.102  0.003  0.218 -0.971  0.006
      -0.022  0.997 -0.016  0.003  0.073
      -0.991 -0.024 -0.102  0.081 -0.001
      -0.082  0.013  0.970  0.227  0.000
       0.001 -0.073 -0.000  0.006  0.997
     occupation matrix ns (before diag.):
       0.119 -0.000 -0.006 -0.014  0.000
      -0.000  0.059 -0.000 -0.000  0.009
      -0.006 -0.000  0.047 -0.000 -0.000
      -0.014 -0.000 -0.000  0.064  0.000
       0.000  0.009 -0.000  0.000  0.182
     ------------------------ ATOM    6 ------------------------
     Tr[ns(  6)] (up, down, total) =   2.06572  0.44378  2.50950
     Atomic magnetic moment for atom   6 =   1.62193
     SPIN  1
     eigenvalues:
       0.324  0.367  0.433  0.461  0.481
     eigenvectors (columns):
      -0.671 -0.011  0.690  0.271 -0.004
       0.000  0.222  0.007  0.005  0.975
       0.530  0.010  0.192  0.826 -0.008
       0.517  0.020  0.698 -0.495 -0.007
      -0.024  0.975 -0.010  0.003 -0.222
     occupation matrix ns (before diag.):
       0.386  0.000  0.045  0.034 -0.001
       0.000  0.475 -0.000 -0.001 -0.025
       0.045 -0.000  0.422 -0.041  0.001
       0.034 -0.001 -0.041  0.411  0.000
      -0.001 -0.025  0.001  0.000  0.372
     SPIN  2
     eigenvalues:
       0.042  0.051  0.052  0.126  0.172
     eigenvectors (columns):
       0.814 -0.255 -0.257  0.003 -0.453
       0.002 -0.087  0.082  0.993  0.012
       0.351  0.643  0.671  0.002 -0.112
      -0.462  0.048  0.048  0.012 -0.884
       0.006  0.715 -0.688  0.120 -0.000
     occupation matrix ns (before diag.):
       0.070 -0.000  0.003  0.052  0.000
      -0.000  0.125 -0.000 -0.000  0.009
       0.003 -0.000  0.052  0.013 -0.000
       0.052 -0.000  0.013  0.144  0.000
       0.000  0.009 -0.000  0.000  0.053

     Number of occupied Hubbard levels =   27.3480

     negative rho (up, down):  7.878E-03 1.226E-02

     total cpu time spent up to now is       51.2 secs

     total energy              =   -1637.43084174 Ry
     estimated scf accuracy    <     268.09324186 Ry

     total magnetization       =    22.23 Bohr mag/cell
     absolute magnetization    =    23.94 Bohr mag/cell

     iteration #  2     ecut=    80.00 Ry     beta= 0.30
     Davidson diagonalization with overlap
     ethr =  1.00E-02,  avg # of iterations =  2.6

     negative rho (up, down):  1.744E-02 4.734E-02

     total cpu time spent up to now is       76.6 secs

     total energy              =   -1629.81799187 Ry
     estimated scf accuracy    <     152.08861385 Ry

     total magnetization       =    17.79 Bohr mag/cell
     absolute magnetization    =    24.40 Bohr mag/cell

     iteration #  3     ecut=    80.00 Ry     beta= 0.30
     Davidson diagonalization with overlap
     ethr =  1.00E-02,  avg # of iterations =  9.7

     negative rho (up, down):  1.233E-02 3.294E-02

     total cpu time spent up to now is      120.0 secs

     total energy              =   -1634.91153012 Ry
     estimated scf accuracy    <     119.39316127 Ry

     total magnetization       =     2.84 Bohr mag/cell
     absolute magnetization    =    10.23 Bohr mag/cell

     iteration #  4     ecut=    80.00 Ry     beta= 0.30
     Davidson diagonalization with overlap
     ethr =  1.00E-02,  avg # of iterations =  1.6

     negative rho (up, down):  1.319E-02 3.166E-02

     total cpu time spent up to now is      144.4 secs

     total energy              =   -1636.09928752 Ry
     estimated scf accuracy    <       8.00588024 Ry

     total magnetization       =    11.56 Bohr mag/cell
     absolute magnetization    =    18.93 Bohr mag/cell

     iteration #  5     ecut=    80.00 Ry     beta= 0.30
     Davidson diagonalization with overlap
     ethr =  4.74E-03,  avg # of iterations =  1.9

     negative rho (up, down):  2.117E-02 5.369E-02

     total cpu time spent up to now is      168.9 secs

     total energy              =   -1636.05624590 Ry
     estimated scf accuracy    <      23.03777921 Ry

     total magnetization       =    15.00 Bohr mag/cell
     absolute magnetization    =    19.77 Bohr mag/cell

     iteration #  6     ecut=    80.00 Ry     beta= 0.30
     Davidson diagonalization with overlap
     ethr =  4.74E-03,  avg # of iterations =  1.8

     negative rho (up, down):  2.077E-02 4.979E-02

     total cpu time spent up to now is      193.5 secs

     total energy              =   -1636.48332601 Ry
     estimated scf accuracy    <       3.36511918 Ry

     total magnetization       =    11.37 Bohr mag/cell
     absolute magnetization    =    19.94 Bohr mag/cell

     iteration #  7     ecut=    80.00 Ry     beta= 0.30
     Davidson diagonalization with overlap
     ethr =  1.99E-03,  avg # of iterations =  1.8

     negative rho (up, down):  2.076E-02 5.082E-02

     total cpu time spent up to now is      218.1 secs

     total energy              =   -1636.61336698 Ry
     estimated scf accuracy    <       6.59374680 Ry

     total magnetization       =    14.86 Bohr mag/cell
     absolute magnetization    =    19.57 Bohr mag/cell

     iteration #  8     ecut=    80.00 Ry     beta= 0.30
     Davidson diagonalization with overlap
     ethr =  1.99E-03,  avg # of iterations =  1.0

     negative rho (up, down):  2.027E-02 4.749E-02

     total cpu time spent up to now is      240.2 secs

     total energy              =   -1636.63206364 Ry
     estimated scf accuracy    <       1.86670696 Ry

     total magnetization       =    12.69 Bohr mag/cell
     absolute magnetization    =    20.36 Bohr mag/cell

     iteration #  9     ecut=    80.00 Ry     beta= 0.30
     Davidson diagonalization with overlap
     ethr =  1.10E-03,  avg # of iterations =  1.9

     negative rho (up, down):  1.894E-02 4.593E-02

     total cpu time spent up to now is      264.3 secs

     total energy              =   -1636.61726919 Ry
     estimated scf accuracy    <       6.51431755 Ry

     total magnetization       =    14.78 Bohr mag/cell
     absolute magnetization    =    19.62 Bohr mag/cell

     iteration # 10     ecut=    80.00 Ry     beta= 0.30
     Davidson diagonalization with overlap
     ethr =  1.10E-03,  avg # of iterations =  1.2

     negative rho (up, down):  1.694E-02 4.375E-02

     total cpu time spent up to now is      287.0 secs

     total energy              =   -1636.62574484 Ry
     estimated scf accuracy    <       1.06927930 Ry

     total magnetization       =    12.11 Bohr mag/cell
     absolute magnetization    =    20.83 Bohr mag/cell

     iteration # 11     ecut=    80.00 Ry     beta= 0.30
     Davidson diagonalization with overlap
     ethr =  6.33E-04,  avg # of iterations =  1.6

     negative rho (up, down):  1.114E-02 3.648E-02

     total cpu time spent up to now is      310.8 secs

     total energy              =   -1636.60911404 Ry
     estimated scf accuracy    <       0.54380074 Ry

     total magnetization       =    11.71 Bohr mag/cell
     absolute magnetization    =    21.06 Bohr mag/cell

     iteration # 12     ecut=    80.00 Ry     beta= 0.30
     Davidson diagonalization with overlap
     ethr =  3.22E-04,  avg # of iterations =  3.1

     negative rho (up, down):  7.973E-03 3.291E-02

     total cpu time spent up to now is      337.0 secs

     total energy              =   -1636.60742755 Ry
     estimated scf accuracy    <       0.23579357 Ry

     total magnetization       =    11.23 Bohr mag/cell
     absolute magnetization    =    21.40 Bohr mag/cell

     iteration # 13     ecut=    80.00 Ry     beta= 0.30
     Davidson diagonalization with overlap
     ethr =  1.40E-04,  avg # of iterations =  5.7

     negative rho (up, down):  1.621E-03 2.585E-02

     total cpu time spent up to now is      367.4 secs

     total energy              =   -1636.59655690 Ry
     estimated scf accuracy    <       0.20908950 Ry

     total magnetization       =    11.18 Bohr mag/cell
     absolute magnetization    =    21.39 Bohr mag/cell

     iteration # 14     ecut=    80.00 Ry     beta= 0.30
     Davidson diagonalization with overlap
     ethr =  1.24E-04,  avg # of iterations =  2.8

     negative rho (up, down):  1.504E-03 2.547E-02

     total cpu time spent up to now is      393.4 secs

     total energy              =   -1636.59177223 Ry
     estimated scf accuracy    <       0.18556153 Ry

     total magnetization       =    11.16 Bohr mag/cell
     absolute magnetization    =    21.29 Bohr mag/cell

     iteration # 15     ecut=    80.00 Ry     beta= 0.30
     Davidson diagonalization with overlap
     ethr =  1.10E-04,  avg # of iterations =  1.0

     negative rho (up, down):  6.143E-03 3.038E-02

     total cpu time spent up to now is      416.5 secs

     total energy              =   -1636.58610570 Ry
     estimated scf accuracy    <       0.10982455 Ry

     total magnetization       =    11.01 Bohr mag/cell
     absolute magnetization    =    21.34 Bohr mag/cell

     iteration # 16     ecut=    80.00 Ry     beta= 0.30
     Davidson diagonalization with overlap
     ethr =  6.50E-05,  avg # of iterations =  4.7

     negative rho (up, down):  7.423E-03 3.171E-02

     total cpu time spent up to now is      447.8 secs

     total energy              =   -1636.58318867 Ry
     estimated scf accuracy    <       0.07235585 Ry

     total magnetization       =    10.98 Bohr mag/cell
     absolute magnetization    =    21.30 Bohr mag/cell

     iteration # 17     ecut=    80.00 Ry     beta= 0.30
     Davidson diagonalization with overlap
     ethr =  4.28E-05,  avg # of iterations =  2.7

     negative rho (up, down):  9.528E-03 3.379E-02

     total cpu time spent up to now is      474.4 secs

     total energy              =   -1636.57715373 Ry
     estimated scf accuracy    <       0.05936029 Ry

     total magnetization       =    11.00 Bohr mag/cell
     absolute magnetization    =    21.28 Bohr mag/cell

     iteration # 18     ecut=    80.00 Ry     beta= 0.30
     Davidson diagonalization with overlap
     ethr =  3.51E-05,  avg # of iterations =  1.9

     negative rho (up, down):  2.139E-02 4.550E-02

     total cpu time spent up to now is      498.9 secs

     total energy              =   -1636.57300077 Ry
     estimated scf accuracy    <       0.04176972 Ry

     total magnetization       =    11.00 Bohr mag/cell
     absolute magnetization    =    21.28 Bohr mag/cell

     iteration # 19     ecut=    80.00 Ry     beta= 0.30
     Davidson diagonalization with overlap
     ethr =  2.47E-05,  avg # of iterations =  3.6

     negative rho (up, down):  2.286E-02 4.712E-02

     total cpu time spent up to now is      526.2 secs

     total energy              =   -1636.57048087 Ry
     estimated scf accuracy    <       0.02167267 Ry

     total magnetization       =    11.00 Bohr mag/cell
     absolute magnetization    =    21.26 Bohr mag/cell

     iteration # 20     ecut=    80.00 Ry     beta= 0.30
     Davidson diagonalization with overlap
     ethr =  1.28E-05,  avg # of iterations =  5.9

     negative rho (up, down):  1.245E-02 3.702E-02

     total cpu time spent up to now is      556.4 secs

     total energy              =   -1636.57018396 Ry
     estimated scf accuracy    <       0.00819786 Ry

     total magnetization       =    11.00 Bohr mag/cell
     absolute magnetization    =    21.24 Bohr mag/cell

     iteration # 21     ecut=    80.00 Ry     beta= 0.30
     Davidson diagonalization with overlap
     ethr =  4.85E-06,  avg # of iterations =  7.8

     negative rho (up, down):  6.665E-03 3.135E-02

     total cpu time spent up to now is      588.7 secs

     total energy              =   -1636.57044219 Ry
     estimated scf accuracy    <       0.01374497 Ry

     total magnetization       =    11.00 Bohr mag/cell
     absolute magnetization    =    21.15 Bohr mag/cell

     iteration # 22     ecut=    80.00 Ry     beta= 0.30
     Davidson diagonalization with overlap
     ethr =  4.85E-06,  avg # of iterations =  4.2

     negative rho (up, down):  5.195E-03 2.982E-02

     total cpu time spent up to now is      617.8 secs

     total energy              =   -1636.57020287 Ry
     estimated scf accuracy    <       0.00917661 Ry

     total magnetization       =    11.00 Bohr mag/cell
     absolute magnetization    =    21.15 Bohr mag/cell

     iteration # 23     ecut=    80.00 Ry     beta= 0.30
     Davidson diagonalization with overlap
     ethr =  4.85E-06,  avg # of iterations =  2.4

     negative rho (up, down):  3.576E-03 2.797E-02

     total cpu time spent up to now is      643.4 secs

     total energy              =   -1636.56943774 Ry
     estimated scf accuracy    <       0.00640296 Ry

     total magnetization       =    11.00 Bohr mag/cell
     absolute magnetization    =    21.17 Bohr mag/cell

     iteration # 24     ecut=    80.00 Ry     beta= 0.30
     Davidson diagonalization with overlap
     ethr =  3.79E-06,  avg # of iterations =  3.2

     negative rho (up, down):  2.681E-03 2.702E-02

     total cpu time spent up to now is      670.7 secs

     total energy              =   -1636.56953277 Ry
     estimated scf accuracy    <       0.00231258 Ry

     total magnetization       =    11.00 Bohr mag/cell
     absolute magnetization    =    21.23 Bohr mag/cell

     iteration # 25     ecut=    80.00 Ry     beta= 0.30
     Davidson diagonalization with overlap
     c_bands:  2 eigenvalues not converged
     ethr =  1.37E-06,  avg # of iterations =  3.0

     negative rho (up, down):  3.250E-03 2.765E-02

     total cpu time spent up to now is      697.1 secs

     total energy              =   -1636.56953731 Ry
     estimated scf accuracy    <       0.00089978 Ry

     total magnetization       =    11.00 Bohr mag/cell
     absolute magnetization    =    21.22 Bohr mag/cell

     iteration # 26     ecut=    80.00 Ry     beta= 0.30
     Davidson diagonalization with overlap
     c_bands:  1 eigenvalues not converged
     ethr =  5.32E-07,  avg # of iterations =  3.8

     negative rho (up, down):  2.374E-03 2.623E-02

     total cpu time spent up to now is      725.2 secs

     total energy              =   -1636.56959377 Ry
     estimated scf accuracy    <       0.00066907 Ry

     total magnetization       =    11.00 Bohr mag/cell
     absolute magnetization    =    21.22 Bohr mag/cell

     iteration # 27     ecut=    80.00 Ry     beta= 0.30
     Davidson diagonalization with overlap
     ethr =  3.96E-07,  avg # of iterations =  3.1

     negative rho (up, down):  2.547E-03 2.588E-02

     total cpu time spent up to now is      752.3 secs

     total energy              =   -1636.56969349 Ry
     estimated scf accuracy    <       0.00028374 Ry

     total magnetization       =    11.00 Bohr mag/cell
     absolute magnetization    =    21.22 Bohr mag/cell

     iteration # 28     ecut=    80.00 Ry     beta= 0.30
     Davidson diagonalization with overlap
     ethr =  1.68E-07,  avg # of iterations =  2.4

     negative rho (up, down):  2.742E-03 2.574E-02

     total cpu time spent up to now is      778.1 secs

     total energy              =   -1636.56972139 Ry
     estimated scf accuracy    <       0.00007900 Ry

     total magnetization       =    11.00 Bohr mag/cell
     absolute magnetization    =    21.22 Bohr mag/cell

     iteration # 29     ecut=    80.00 Ry     beta= 0.30
     Davidson diagonalization with overlap
     c_bands:  1 eigenvalues not converged
     ethr =  4.67E-08,  avg # of iterations =  3.1

     negative rho (up, down):  2.731E-03 2.554E-02

     total cpu time spent up to now is      804.0 secs

     total energy              =   -1636.56973282 Ry
     estimated scf accuracy    <       0.00001809 Ry

     total magnetization       =    11.00 Bohr mag/cell
     absolute magnetization    =    21.21 Bohr mag/cell

     iteration # 30     ecut=    80.00 Ry     beta= 0.30
     Davidson diagonalization with overlap
     ethr =  1.07E-08,  avg # of iterations =  2.9

     negative rho (up, down):  2.733E-03 2.552E-02

     total cpu time spent up to now is      831.2 secs

     total energy              =   -1636.56973695 Ry
     estimated scf accuracy    <       0.00000636 Ry

     total magnetization       =    11.00 Bohr mag/cell
     absolute magnetization    =    21.21 Bohr mag/cell

     iteration # 31     ecut=    80.00 Ry     beta= 0.30
     Davidson diagonalization with overlap
     c_bands:  1 eigenvalues not converged
     ethr =  3.76E-09,  avg # of iterations =  3.9

     negative rho (up, down):  2.657E-03 2.542E-02

     total cpu time spent up to now is      860.3 secs

     total energy              =   -1636.56973842 Ry
     estimated scf accuracy    <       0.00000132 Ry

     total magnetization       =    11.00 Bohr mag/cell
     absolute magnetization    =    21.20 Bohr mag/cell

     iteration # 32     ecut=    80.00 Ry     beta= 0.30
     Davidson diagonalization with overlap
     ethr =  7.79E-10,  avg # of iterations =  4.1

     negative rho (up, down):  2.532E-03 2.527E-02

     Magnetic moment per site  (integrated on atomic sphere of radius R)
     atom   1 (R=0.263)  charge= 10.5308  magn=  2.2583
     atom   2 (R=0.263)  charge= 10.4676  magn=  1.9384
     atom   3 (R=0.263)  charge= 10.4743  magn=  2.0729
     atom   4 (R=0.263)  charge= 10.4794  magn=  2.0600
     atom   5 (R=0.263)  charge= 10.5177  magn=  2.2060
     atom   6 (R=0.263)  charge= 10.4915  magn=  2.1713
     atom   7 (R=0.138)  charge=  1.9122  magn= -0.1055
     atom   8 (R=0.138)  charge=  1.8913  magn= -0.1958
     atom   9 (R=0.138)  charge=  1.9148  magn= -0.0991
     atom  10 (R=0.138)  charge=  1.9147  magn= -0.0993
     atom  11 (R=0.138)  charge=  1.9104  magn= -0.1127
     atom  12 (R=0.138)  charge=  1.9110  magn= -0.1026
     atom  13 (R=0.138)  charge=  1.9139  magn= -0.1017
     atom  14 (R=0.138)  charge=  1.9153  magn= -0.1018
     atom  15 (R=0.138)  charge=  1.9208  magn= -0.0246
     atom  16 (R=0.138)  charge=  1.9076  magn= -0.1225
     atom  17 (R=0.138)  charge=  1.9121  magn= -0.0769
     atom  18 (R=0.138)  charge=  1.9143  magn= -0.1052
     atom  19 (R=0.138)  charge=  1.8887  magn= -0.3421
     atom  20 (R=0.138)  charge=  1.8887  magn= -0.3459
     atom  21 (R=0.138)  charge=  0.3997  magn=  0.0028

     total cpu time spent up to now is      888.4 secs

     End of self-consistent calculation

     =================== HUBBARD OCCUPATIONS ===================
     ------------------------ ATOM    1 ------------------------
     Tr[ns(  1)] (up, down, total) =   3.76059  0.93131  4.69189
     Atomic magnetic moment for atom   1 =   2.82928
     SPIN  1
     eigenvalues:
       0.480  0.495  0.887  0.915  0.984
     eigenvectors (columns):
       0.999  0.002  0.003  0.000  0.042
       0.000  0.000 -0.003 -1.000  0.000
      -0.003  0.000  1.000 -0.003  0.000
      -0.042 -0.000 -0.000  0.000  0.999
      -0.002  1.000 -0.000  0.000  0.000
     occupation matrix ns (before diag.):
       0.481 -0.000  0.001  0.021  0.000
      -0.000  0.915  0.000  0.000 -0.000
       0.001  0.000  0.887 -0.000 -0.000
       0.021  0.000 -0.000  0.983  0.000
       0.000 -0.000 -0.000  0.000  0.495
     SPIN  2
     eigenvalues:
       0.100  0.100  0.114  0.251  0.367
     eigenvectors (columns):
       0.003  0.127 -0.000 -0.992  0.000
      -0.000  0.000  1.000 -0.000 -0.000
      -1.000  0.022 -0.000 -0.000  0.000
       0.022  0.992 -0.000  0.127 -0.000
       0.000 -0.000  0.000  0.000  1.000
     occupation matrix ns (before diag.):
       0.249  0.000  0.000 -0.019  0.000
       0.000  0.114 -0.000 -0.000 -0.000
       0.000 -0.000  0.100  0.000  0.000
      -0.019 -0.000  0.000  0.103 -0.000
       0.000 -0.000  0.000 -0.000  0.367
     ------------------------ ATOM    2 ------------------------
     Tr[ns(  2)] (up, down, total) =   3.60059  1.17153  4.77213
     Atomic magnetic moment for atom   2 =   2.42906
     SPIN  1
     eigenvalues:
       0.540  0.547  0.685  0.839  0.991
     eigenvectors (columns):
       0.001  0.409  0.002  0.000 -0.913
      -1.000  0.003  0.000 -0.001 -0.000
      -0.000 -0.003 -1.000  0.000 -0.003
       0.002  0.913 -0.004 -0.000  0.409
       0.001 -0.000 -0.000 -1.000 -0.000
     occupation matrix ns (before diag.):
       0.916  0.000  0.001 -0.166  0.000
       0.000  0.540 -0.000  0.000  0.000
       0.001 -0.000  0.685 -0.000 -0.000
      -0.166  0.000 -0.000  0.621 -0.000
       0.000  0.000 -0.000 -0.000  0.839
     SPIN  2
     eigenvalues:
       0.123  0.129  0.136  0.380  0.403
     eigenvectors (columns):
       0.914 -0.007 -0.000 -0.405 -0.000
      -0.000  0.000  0.001 -0.001  1.000
       0.007  1.000  0.000 -0.000 -0.000
      -0.405  0.003  0.000 -0.915 -0.001
      -0.000  0.000 -1.000  0.000  0.001
     occupation matrix ns (before diag.):
       0.165 -0.000  0.000  0.095 -0.000
      -0.000  0.403 -0.000 -0.000  0.000
       0.000 -0.000  0.129  0.000 -0.000
       0.095 -0.000  0.000  0.338 -0.000
      -0.000  0.000 -0.000 -0.000  0.136
     ------------------------ ATOM    3 ------------------------
     Tr[ns(  3)] (up, down, total) =   3.66417  1.06352  4.72769
     Atomic magnetic moment for atom   3 =   2.60065
     SPIN  1
     eigenvalues:
       0.499  0.526  0.755  0.897  0.987
     eigenvectors (columns):
       0.004  0.998 -0.038  0.005 -0.055
       0.028  0.004 -0.005 -1.000 -0.002
      -0.000 -0.037 -0.999  0.004  0.009
      -0.001 -0.055 -0.007  0.002 -0.998
       1.000 -0.005 -0.000  0.028 -0.000
     occupation matrix ns (before diag.):
       0.528 -0.002  0.008  0.025 -0.000
      -0.002  0.897 -0.001  0.000 -0.011
       0.008 -0.001  0.755 -0.003  0.000
       0.025  0.000 -0.003  0.985  0.000
      -0.000 -0.011  0.000  0.000  0.500
     SPIN  2
     eigenvalues:
       0.100  0.120  0.122  0.352  0.370
     eigenvectors (columns):
      -0.072  0.023  0.002  0.997 -0.009
       0.005 -0.044 -0.999  0.004  0.023
      -0.019  0.999 -0.045 -0.024  0.000
      -0.997 -0.021 -0.005 -0.071  0.000
      -0.000  0.001  0.023  0.009  1.000
     occupation matrix ns (before diag.):
       0.350  0.001 -0.006 -0.018 -0.000
       0.001  0.122  0.000  0.000  0.006
      -0.006  0.000  0.120  0.000  0.000
      -0.018  0.000  0.000  0.101 -0.000
      -0.000  0.006  0.000 -0.000  0.370
     ------------------------ ATOM    4 ------------------------
     Tr[ns(  4)] (up, down, total) =   3.66348  1.08471  4.74818
     Atomic magnetic moment for atom   4 =   2.57877
     SPIN  1
     eigenvalues:
       0.490  0.527  0.774  0.896  0.976
     eigenvectors (columns):
      -0.010  0.485 -0.025 -0.001 -0.874
      -0.999 -0.025  0.003 -0.021 -0.003
       0.001  0.044  0.998  0.039 -0.004
      -0.024  0.873 -0.037  0.000  0.486
      -0.021 -0.002 -0.039  0.999 -0.001
     occupation matrix ns (before diag.):
       0.870  0.001 -0.005 -0.190  0.000
       0.001  0.490  0.000 -0.002 -0.009
      -0.005  0.000  0.774 -0.010  0.005
      -0.190 -0.002 -0.010  0.634  0.000
       0.000 -0.009  0.005  0.000  0.896
     SPIN  2
     eigenvalues:
       0.094  0.128  0.135  0.355  0.373
     eigenvectors (columns):
       0.889 -0.002  0.009 -0.039 -0.456
       0.003 -0.019 -0.003 -0.996  0.091
      -0.003  0.162 -0.986 -0.002 -0.026
      -0.457 -0.003  0.024 -0.082 -0.885
       0.000  0.987  0.162 -0.019  0.002
     occupation matrix ns (before diag.):
       0.152 -0.001  0.003  0.114 -0.000
      -0.001  0.355 -0.000 -0.001  0.004
       0.003 -0.000  0.135  0.005 -0.001
       0.114 -0.001  0.005  0.315 -0.000
      -0.000  0.004 -0.001 -0.000  0.128
     ------------------------ ATOM    5 ------------------------
     Tr[ns(  5)] (up, down, total) =   3.73066  0.97738  4.70805
     Atomic magnetic moment for atom   5 =   2.75328
     SPIN  1
     eigenvalues:
       0.494  0.497  0.841  0.912  0.986
     eigenvectors (columns):
       0.742 -0.665 -0.065 -0.003 -0.060
      -0.039 -0.046  0.065 -0.996 -0.001
      -0.048  0.045 -0.996 -0.065 -0.013
      -0.045  0.039  0.017  0.003 -0.998
      -0.666 -0.744 -0.005  0.060  0.001
     occupation matrix ns (before diag.):
       0.499 -0.000  0.023  0.029  0.001
      -0.000  0.911  0.005  0.000 -0.025
       0.023  0.005  0.840  0.001  0.000
       0.029  0.000  0.001  0.984 -0.001
       0.001 -0.025  0.000 -0.001  0.497
     SPIN  2
     eigenvalues:
       0.097  0.116  0.123  0.282  0.359
     eigenvectors (columns):
      -0.117  0.058  0.008  0.991  0.007
      -0.001  0.083 -0.994  0.002  0.070
      -0.079  0.991  0.083 -0.068 -0.001
      -0.990 -0.086 -0.007 -0.112  0.000
       0.001 -0.005  0.070 -0.007  0.998
     occupation matrix ns (before diag.):
       0.279  0.000 -0.011 -0.021  0.001
       0.000  0.124 -0.001  0.000  0.016
      -0.011 -0.001  0.117 -0.000 -0.000
      -0.021  0.000 -0.000  0.100  0.000
       0.001  0.016 -0.000  0.000  0.358
     ------------------------ ATOM    6 ------------------------
     Tr[ns(  6)] (up, down, total) =   3.70433  0.98976  4.69409
     Atomic magnetic moment for atom   6 =   2.71457
     SPIN  1
     eigenvalues:
       0.465  0.507  0.818  0.925  0.990
     eigenvectors (columns):
       0.013  0.478 -0.010  0.001 -0.878
       0.999 -0.031 -0.001  0.033 -0.002
       0.005  0.074  0.996 -0.030  0.029
       0.028  0.875 -0.079  0.003  0.477
       0.033 -0.000 -0.030 -0.999 -0.001
     occupation matrix ns (before diag.):
       0.880  0.000 -0.015 -0.202 -0.000
       0.000  0.465 -0.001 -0.002 -0.015
      -0.015 -0.001  0.817 -0.018  0.003
      -0.202 -0.002 -0.018  0.619 -0.001
      -0.000 -0.015  0.003 -0.001  0.924
     SPIN  2
     eigenvalues:
       0.089  0.104  0.110  0.338  0.348
     eigenvectors (columns):
       0.860  0.042  0.213  0.057 -0.458
       0.002 -0.006  0.002  0.992  0.128
      -0.274  0.133  0.951  0.007 -0.058
      -0.430 -0.032 -0.174  0.114 -0.878
      -0.013  0.990 -0.143  0.006 -0.000
     occupation matrix ns (before diag.):
       0.145 -0.001  0.011  0.105  0.000
      -0.001  0.338 -0.000 -0.001  0.001
       0.011 -0.000  0.109  0.010 -0.001
       0.105 -0.001  0.010  0.293  0.000
       0.000  0.001 -0.001  0.000  0.104

     Number of occupied Hubbard levels =   28.3420

 ------ SPIN UP ------------


          k = 0.0000 0.0000 0.0000 ( 37133 PWs)   bands (ev):

   -72.5732 -72.4598 -72.4077 -72.3988 -72.2949 -72.2479 -43.9149 -43.9060
   -43.8827 -43.8513 -43.8173 -43.7728 -43.7688 -43.7643 -43.6726 -43.6430
   -43.6339 -43.6004 -43.5990 -43.5791 -43.5477 -43.5403 -43.4500 -43.4237
   -25.1946 -18.4812 -18.2519 -17.8889 -17.5854 -17.3034 -16.8048 -16.7207
   -16.6156 -16.5503 -16.4857 -16.4074 -15.4988 -13.0799  -7.0887  -6.8398
    -6.7179  -6.6623  -6.4271  -6.2253  -5.7912  -5.5313  -5.4599  -4.8337
    -4.5254  -4.4380  -4.3701  -4.3564  -4.3050  -4.2118  -3.9065  -3.5612
    -3.5281  -3.1239  -2.9510  -2.7331  -2.6427  -2.3918  -2.3117  -2.2532
    -2.1295  -2.0957  -1.9948  -1.8837  -1.7875  -1.7341  -1.6278  -1.6177
    -1.6028  -1.4718  -1.3939  -1.3641  -1.3064  -1.2661  -1.2411  -1.0532
    -1.0306  -0.7504  -0.6800  -0.4299  -0.4081  -0.0921  -0.0500   0.1320
     0.2270   0.5542   0.8712   1.0408   1.3122   1.3988   1.6295   1.7935
     1.8707   1.8821   2.6957   3.2342   3.8087   4.1792

          k = 0.0000 0.1166 0.0000 ( 37130 PWs)   bands (ev):

   -72.5732 -72.4598 -72.4076 -72.3988 -72.2948 -72.2478 -43.9127 -43.9060
   -43.8827 -43.8513 -43.8174 -43.7728 -43.7672 -43.7655 -43.6677 -43.6459
   -43.6339 -43.6055 -43.5990 -43.5791 -43.5477 -43.5403 -43.4501 -43.4237
   -25.1946 -18.4260 -18.1552 -17.7930 -17.5779 -17.4082 -17.0007 -16.7828
   -16.6269 -16.4986 -16.4669 -16.4583 -15.4903 -13.0757  -7.0603  -6.7221
    -6.5768  -6.4439  -6.2861  -6.1275  -5.7666  -5.5592  -5.2320  -4.6829
    -4.5134  -4.3359  -4.2804  -4.2486  -4.2195  -4.1758  -3.9068  -3.6703
    -3.5630  -3.4521  -3.3111  -3.0741  -2.9270  -2.8404  -2.6945  -2.6717
    -2.4548  -2.2897  -2.2104  -2.1949  -2.0245  -1.8600  -1.6797  -1.5514
    -1.5145  -1.4076  -1.2379  -1.1393  -0.9849  -0.9774  -0.9683  -0.6901
    -0.6424  -0.5064  -0.4222  -0.3470  -0.2465  -0.0926  -0.0407   0.1184
     0.2471   0.4001   0.8601   0.9125   1.1268   1.2526   1.4110   1.7503
     1.8038   2.1307   2.9575   3.4200   4.0272   4.2918

          k = 0.0000-0.2332 0.0000 ( 37126 PWs)   bands (ev):

   -72.5731 -72.4598 -72.4076 -72.3988 -72.2948 -72.2478 -43.9104 -43.9060
   -43.8827 -43.8513 -43.8174 -43.7727 -43.7692 -43.7630 -43.6618 -43.6490
   -43.6340 -43.6115 -43.5989 -43.5791 -43.5478 -43.5403 -43.4501 -43.4238
   -25.1945 -18.3698 -17.9747 -17.7313 -17.6505 -17.3744 -17.2551 -16.8829
   -16.6293 -16.5000 -16.4777 -16.4455 -15.4829 -13.0714  -7.1012  -6.6014
    -6.4042  -6.1545  -6.1018  -5.9615  -5.7367  -5.5849  -4.7710  -4.6135
    -4.5175  -4.2234  -4.2139  -4.2096  -4.0742  -4.0283  -3.9579  -3.9046
    -3.7330  -3.5685  -3.5008  -3.4828  -3.3735  -3.2233  -2.9296  -2.8669
    -2.8094  -2.7647  -2.6237  -2.4212  -2.0315  -1.8959  -1.6187  -1.5406
    -1.3122  -1.1346  -1.0674  -0.9254  -0.9214  -0.8005  -0.6218  -0.6111
    -0.5665  -0.5213  -0.3011  -0.2312  -0.1419   0.0841   0.1162   0.2231
     0.3088   0.5670   0.6839   0.7309   0.9652   1.0466   1.1551   1.6828
     1.8065   2.3150   3.2065   3.4458   4.3105   4.3372

          k = 0.0000-0.1166 0.0000 ( 37130 PWs)   bands (ev):

   -72.5732 -72.4598 -72.4076 -72.3988 -72.2948 -72.2478 -43.9127 -43.9060
   -43.8827 -43.8513 -43.8174 -43.7728 -43.7672 -43.7655 -43.6677 -43.6459
   -43.6339 -43.6055 -43.5990 -43.5791 -43.5477 -43.5403 -43.4501 -43.4237
   -25.1946 -18.4260 -18.1552 -17.7930 -17.5779 -17.4082 -17.0007 -16.7828
   -16.6269 -16.4986 -16.4669 -16.4583 -15.4903 -13.0757  -7.0603  -6.7221
    -6.5768  -6.4439  -6.2861  -6.1275  -5.7666  -5.5592  -5.2320  -4.6829
    -4.5134  -4.3359  -4.2804  -4.2486  -4.2195  -4.1758  -3.9068  -3.6703
    -3.5630  -3.4521  -3.3111  -3.0741  -2.9270  -2.8404  -2.6945  -2.6717
    -2.4548  -2.2897  -2.2104  -2.1949  -2.0245  -1.8600  -1.6797  -1.5514
    -1.5145  -1.4076  -1.2379  -1.1393  -0.9849  -0.9774  -0.9683  -0.6901
    -0.6424  -0.5064  -0.4222  -0.3470  -0.2465  -0.0926  -0.0407   0.1184
     0.2471   0.4001   0.8601   0.9125   1.1268   1.2526   1.4110   1.7503
     1.8038   2.1307   2.9575   3.4201   4.0271   4.3217

          k = 0.1111 0.0000 0.0000 ( 37175 PWs)   bands (ev):

   -72.5714 -72.4579 -72.4057 -72.3970 -72.2930 -72.2461 -43.9130 -43.9028
   -43.8812 -43.8504 -43.8159 -43.7915 -43.7667 -43.7617 -43.6686 -43.6534
   -43.6404 -43.6193 -43.6004 -43.5983 -43.5448 -43.5371 -43.4682 -43.4435
   -25.1751 -18.4001 -18.1516 -17.7998 -17.5117 -17.2354 -16.7519 -16.7075
   -16.6233 -16.5764 -16.5077 -16.4332 -15.5187 -13.0565  -6.9780  -6.6835
    -6.6129  -6.5080  -6.2794  -6.0751  -5.7270  -5.3970  -5.3490  -4.9233
    -4.7881  -4.6987  -4.5888  -4.4929  -4.3287  -4.2106  -3.9165  -3.6444
    -3.4057  -3.2285  -2.9281  -2.8460  -2.6840  -2.5537  -2.4915  -2.3926
    -2.3537  -2.2312  -2.1566  -2.0517  -1.9981  -1.9372  -1.8175  -1.6969
    -1.6380  -1.4916  -1.4441  -1.4310  -1.1779  -1.1622  -1.1148  -0.9599
    -0.7814  -0.7417  -0.4914  -0.3453  -0.2232  -0.0940  -0.0435   0.2209
     0.5140   0.6546   0.9037   0.9812   1.2323   1.3098   1.5386   1.7163
     1.7825   1.9914   2.7436   3.3111   3.8742   3.9967

          k = 0.1111 0.1166 0.0000 ( 37124 PWs)   bands (ev):

   -72.5713 -72.4579 -72.4057 -72.3970 -72.2930 -72.2460 -43.9111 -43.9028
   -43.8812 -43.8504 -43.8159 -43.7917 -43.7648 -43.7632 -43.6642 -43.6534
   -43.6430 -43.6192 -43.6060 -43.5972 -43.5449 -43.5371 -43.4682 -43.4435
   -25.1751 -18.3568 -18.0549 -17.7064 -17.4898 -17.3401 -16.9520 -16.7648
   -16.6429 -16.5153 -16.4861 -16.4813 -15.5109 -13.0523  -6.9971  -6.6110
    -6.4069  -6.2727  -6.1180  -5.9763  -5.7134  -5.4274  -5.1493  -4.7918
    -4.6957  -4.6594  -4.5258  -4.4671  -4.2649  -4.1462  -3.9164  -3.6715
    -3.4648  -3.3985  -3.2588  -3.0841  -2.9152  -2.8239  -2.7682  -2.6651
    -2.6336  -2.5892  -2.5158  -2.3393  -2.2488  -2.1366  -1.7600  -1.6690
    -1.5995  -1.5185  -1.4202  -1.2544  -1.0479  -0.9080  -0.7640  -0.6052
    -0.4908  -0.4057  -0.2804  -0.2074  -0.1076   0.0479   0.1297   0.1815
     0.3973   0.5396   0.8275   0.9089   1.0795   1.1719   1.3355   1.6597
     1.7190   2.2145   2.9483   3.4471   3.9840   4.0772

          k = 0.1111-0.2332 0.0000 ( 37144 PWs)   bands (ev):

   -72.5712 -72.4579 -72.4057 -72.3970 -72.2929 -72.2459 -43.9092 -43.9028
   -43.8812 -43.8504 -43.8160 -43.7918 -43.7657 -43.7618 -43.6587 -43.6533
   -43.6457 -43.6190 -43.6126 -43.5962 -43.5449 -43.5372 -43.4682 -43.4435
   -25.1750 -18.3140 -17.8747 -17.6403 -17.5608 -17.2976 -17.1958 -16.8714
   -16.6482 -16.5235 -16.4947 -16.4594 -15.5041 -13.0481  -7.0491  -6.5008
    -6.2360  -5.9714  -5.9340  -5.8012  -5.6822  -5.4603  -4.8302  -4.7358
    -4.6495  -4.4442  -4.3584  -4.3221  -4.1937  -4.0922  -3.9625  -3.9466
    -3.8554  -3.5504  -3.2988  -3.2664  -3.2081  -3.1667  -3.1187  -3.0613
    -2.9635  -2.8632  -2.7874  -2.6746  -2.2893  -2.1577  -1.6830  -1.6327
    -1.5148  -1.3734  -1.2304  -1.1466  -0.9579  -0.7835  -0.5787  -0.4374
    -0.3280  -0.2967  -0.2035  -0.0145   0.0658   0.1830   0.2493   0.4124
     0.5109   0.5148   0.6251   0.7309   0.9347   1.0490   1.0740   1.5798
     1.7213   2.3774   3.1367   3.4893   4.0710   4.1378

          k = 0.1111-0.1166 0.0000 ( 37124 PWs)   bands (ev):

   -72.5713 -72.4579 -72.4057 -72.3970 -72.2930 -72.2460 -43.9111 -43.9028
   -43.8812 -43.8504 -43.8159 -43.7917 -43.7648 -43.7632 -43.6640 -43.6534
   -43.6430 -43.6192 -43.6072 -43.5962 -43.5449 -43.5371 -43.4682 -43.4435
   -25.1751 -18.3566 -18.0550 -17.7064 -17.4896 -17.3400 -16.9520 -16.7653
   -16.6427 -16.5153 -16.4861 -16.4816 -15.5109 -13.0524  -6.9955  -6.6055
    -6.4075  -6.2733  -6.1185  -5.9817  -5.7141  -5.4276  -5.1448  -4.7845
    -4.7226  -4.6498  -4.5215  -4.4640  -4.2665  -4.1486  -3.9162  -3.6708
    -3.4646  -3.3948  -3.2570  -3.0849  -2.9175  -2.8221  -2.7723  -2.6647
    -2.6339  -2.5892  -2.5181  -2.3413  -2.2454  -2.1363  -1.7622  -1.6738
    -1.5952  -1.5208  -1.4185  -1.2537  -1.0459  -0.9058  -0.7598  -0.6067
    -0.4920  -0.4047  -0.2793  -0.2067  -0.1072   0.0444   0.1371   0.1795
     0.3950   0.5395   0.8247   0.8898   1.0844   1.1838   1.3369   1.6597
     1.7191   2.2144   2.9490   3.4461   3.9863   4.1218

          k = 0.2222 0.0000 0.0000 ( 37192 PWs)   bands (ev):

   -72.5671 -72.4536 -72.4012 -72.3926 -72.2886 -72.2418 -43.9081 -43.8950
   -43.8775 -43.8500 -43.8357 -43.8123 -43.7614 -43.7552 -43.7019 -43.6699
   -43.6587 -43.6472 -43.6338 -43.5988 -43.5377 -43.5291 -43.5131 -43.4928
   -25.1252 -18.2147 -17.8682 -17.5650 -17.3172 -17.0637 -16.7233 -16.6440
   -16.6367 -16.5948 -16.5623 -16.4981 -15.5525 -12.9975  -6.8230  -6.4328
    -6.1474  -6.0505  -5.8731  -5.7038  -5.5623  -5.2573  -5.2171  -5.1572
    -5.1142  -4.9876  -4.8042  -4.7197  -4.5082  -4.3115  -4.0023  -3.8029
    -3.5362  -3.3739  -3.2841  -3.2361  -3.0947  -3.0769  -3.0037  -2.8948
    -2.6251  -2.4391  -2.4081  -2.3386  -2.1563  -2.0286  -1.9920  -1.8853
    -1.7463  -1.5418  -1.2107  -1.0984  -0.9754  -0.9307  -0.7929  -0.7539
    -0.6814  -0.5877  -0.3354  -0.1239  -0.0753   0.0285   0.0982   0.2770
     0.6112   0.8224   0.9459   0.9837   1.0802   1.1769   1.2897   1.4839
     1.5394   2.1401   2.7123   3.2816   3.7778   3.8144

          k = 0.2222 0.1166 0.0000 ( 37137 PWs)   bands (ev):

   -72.5670 -72.4536 -72.4012 -72.3926 -72.2886 -72.2418 -43.9071 -43.8950
   -43.8775 -43.8500 -43.8358 -43.8123 -43.7606 -43.7563 -43.7015 -43.6692
   -43.6572 -43.6462 -43.6355 -43.6014 -43.5377 -43.5291 -43.5130 -43.4927
   -25.1251 -18.1962 -17.7771 -17.4798 -17.2632 -17.1676 -16.8649 -16.7273
   -16.6758 -16.5603 -16.5396 -16.5059 -15.5475 -12.9934  -6.8929  -6.3539
    -5.9323  -5.8159  -5.6900  -5.6232  -5.5310  -5.2264  -5.1867  -5.1161
    -5.0523  -4.9481  -4.8530  -4.6399  -4.4174  -4.3125  -3.9433  -3.7349
    -3.6421  -3.5520  -3.4880  -3.3377  -3.1660  -3.0999  -2.9812  -2.9304
    -2.8102  -2.6861  -2.6230  -2.5418  -2.4974  -2.3592  -2.1029  -1.8586
    -1.6643  -1.6372  -1.4196  -1.1691  -1.0008  -0.8300  -0.6588  -0.3862
    -0.2763  -0.2216  -0.1706  -0.1147  -0.0230   0.1017   0.1964   0.3869
     0.6055   0.7129   0.8092   0.8888   1.0595   1.0882   1.1795   1.4105
     1.4865   2.2827   2.8302   3.2990   3.6130   3.6877

          k = 0.2222-0.2332 0.0000 ( 37166 PWs)   bands (ev):

   -72.5670 -72.4536 -72.4012 -72.3926 -72.2885 -72.2418 -43.9062 -43.8950
   -43.8775 -43.8500 -43.8360 -43.8124 -43.7598 -43.7573 -43.7013 -43.6683
   -43.6532 -43.6481 -43.6373 -43.6037 -43.5377 -43.5291 -43.5129 -43.4925
   -25.1251 -18.1782 -17.6098 -17.4024 -17.3297 -17.1096 -17.0632 -16.8430
   -16.6963 -16.5845 -16.5299 -16.4798 -15.5429 -12.9895  -6.9470  -6.2743
    -5.7963  -5.6079  -5.5656  -5.5118  -5.3955  -5.2523  -5.2009  -4.9827
    -4.8702  -4.5914  -4.5697  -4.4725  -4.4203  -4.2511  -4.1377  -4.1241
    -4.0151  -3.7573  -3.6972  -3.4621  -3.3127  -3.1780  -3.1216  -3.0002
    -2.8626  -2.8506  -2.7964  -2.7329  -2.6423  -2.4084  -1.9420  -1.8389
    -1.7432  -1.7035  -1.4059  -1.3835  -1.0403  -0.7552  -0.6203  -0.2289
    -0.1748  -0.0037   0.0898   0.1426   0.1857   0.2409   0.3402   0.4544
     0.5112   0.6348   0.6739   0.7663   0.9758   1.0377   1.1253   1.3011
     1.4923   2.3848   2.9362   3.2712   3.3717   3.4917

          k = 0.2222-0.1166 0.0000 ( 37137 PWs)   bands (ev):

   -72.5670 -72.4536 -72.4012 -72.3926 -72.2886 -72.2418 -43.9071 -43.8950
   -43.8775 -43.8500 -43.8358 -43.8123 -43.7606 -43.7562 -43.7016 -43.6692
   -43.6548 -43.6491 -43.6355 -43.6010 -43.5377 -43.5291 -43.5130 -43.4927
   -25.1251 -18.1959 -17.7772 -17.4798 -17.2626 -17.1676 -16.8646 -16.7283
   -16.6758 -16.5601 -16.5401 -16.5059 -15.5475 -12.9936  -6.8832  -6.3607
    -5.9334  -5.8166  -5.6927  -5.6301  -5.5277  -5.2201  -5.1824  -5.1171
    -5.0510  -4.9548  -4.8493  -4.6373  -4.4225  -4.3125  -3.9471  -3.7329
    -3.6455  -3.5523  -3.4868  -3.3317  -3.1604  -3.1135  -2.9843  -2.9317
    -2.8086  -2.6834  -2.6193  -2.5405  -2.4962  -2.3601  -2.1049  -1.8613
    -1.6641  -1.6344  -1.4211  -1.1725  -0.9996  -0.8272  -0.6603  -0.3772
    -0.2730  -0.2212  -0.1682  -0.1160  -0.0217   0.1037   0.2004   0.3808
     0.6040   0.7096   0.7940   0.8612   1.0606   1.1192   1.1831   1.4107
     1.4888   2.2830   2.8323   3.2948   3.6143   3.6878

          k = 0.3333 0.0000 0.0000 ( 37184 PWs)   bands (ev):

   -72.5629 -72.4493 -72.3968 -72.3882 -72.2843 -72.2377 -43.9025 -43.8964
   -43.8826 -43.8702 -43.8439 -43.8082 -43.7555 -43.7554 -43.7477 -43.7258
   -43.7020 -43.6452 -43.6261 -43.5985 -43.5634 -43.5473 -43.5290 -43.5199
   -25.0675 -18.0416 -17.4701 -17.2696 -17.0760 -16.8916 -16.7535 -16.7213
   -16.6279 -16.6114 -16.5713 -16.4994 -15.5485 -12.9312  -6.7087  -6.2947
    -5.7953  -5.5902  -5.5327  -5.4852  -5.4712  -5.4140  -5.3333  -5.2647
    -5.1076  -4.9398  -4.8958  -4.8390  -4.6471  -4.2701  -4.1493  -4.0633
    -3.9711  -3.7607  -3.7070  -3.4583  -3.4019  -3.1688  -3.0920  -2.8602
    -2.7292  -2.6872  -2.6242  -2.4986  -2.3507  -2.1648  -2.0272  -1.7998
    -1.7033  -1.4324  -1.2536  -1.0430  -0.9810  -0.9439  -0.8318  -0.7948
    -0.6970  -0.6808  -0.2686   0.0140   0.0368   0.1751   0.2336   0.4313
     0.6382   0.7429   0.7829   0.9287   1.0264   1.1086   1.1958   1.2143
     1.5101   2.0492   2.5996   3.0629   3.7642   3.8565

          k = 0.3333 0.1166 0.0000 ( 37206 PWs)   bands (ev):

   -72.5629 -72.4494 -72.3968 -72.3883 -72.2843 -72.2377 -43.9028 -43.8965
   -43.8826 -43.8702 -43.8439 -43.8082 -43.7585 -43.7548 -43.7477 -43.7220
   -43.7033 -43.6433 -43.6271 -43.5995 -43.5629 -43.5469 -43.5290 -43.5199
   -25.0674 -18.0388 -17.4017 -17.2074 -17.0251 -16.9527 -16.8512 -16.7227
   -16.6833 -16.6405 -16.5649 -16.4829 -15.5472 -12.9274  -6.8014  -6.2114
    -5.7913  -5.6625  -5.5266  -5.4833  -5.4160  -5.3116  -5.2218  -5.1855
    -5.0927  -5.0003  -4.8938  -4.8184  -4.6198  -4.1303  -3.9503  -3.9002
    -3.8352  -3.7147  -3.6914  -3.4325  -3.3701  -3.2161  -3.1446  -2.9370
    -2.8962  -2.8391  -2.6851  -2.6113  -2.4483  -2.3378  -2.0849  -1.8879
    -1.6650  -1.5495  -1.3517  -1.1988  -1.0401  -0.9269  -0.8704  -0.5702
    -0.5071  -0.4756  -0.2983  -0.1186  -0.0860   0.0155   0.2005   0.3791
     0.5164   0.7275   0.8846   1.0164   1.0829   1.1449   1.2182   1.2598
     1.4602   2.1332   2.6951   3.0619   3.1964   3.3401

          k = 0.3333-0.2332 0.0000 ( 37216 PWs)   bands (ev):

   -72.5628 -72.4494 -72.3969 -72.3884 -72.2843 -72.2377 -43.9030 -43.8966
   -43.8827 -43.8702 -43.8439 -43.8082 -43.7611 -43.7539 -43.7481 -43.7187
   -43.7043 -43.6418 -43.6281 -43.6002 -43.5625 -43.5464 -43.5290 -43.5199
   -25.0674 -18.0358 -17.2786 -17.1309 -17.0646 -16.9882 -16.8724 -16.8136
   -16.7415 -16.6560 -16.5530 -16.4741 -15.5460 -12.9237  -6.8605  -6.1812
    -5.7660  -5.7301  -5.5641  -5.4911  -5.4235  -5.4070  -5.2519  -5.0831
    -4.8922  -4.8007  -4.5566  -4.4915  -4.4060  -4.2105  -4.1810  -4.1143
    -3.8205  -3.7698  -3.6034  -3.5161  -3.3865  -3.2140  -3.1017  -3.0036
    -2.9070  -2.7604  -2.6662  -2.6439  -2.5157  -2.4127  -2.0682  -1.9844
    -1.9224  -1.8210  -1.4341  -1.2435  -1.1335  -1.0166  -0.8447  -0.4929
    -0.3673  -0.3090  -0.2973  -0.1767  -0.1124   0.0023   0.2048   0.3449
     0.4434   0.7084   0.8590   0.9427   1.1571   1.2062   1.3058   1.3531
     1.4214   2.2016   2.7703   2.8585   2.9806   2.9915

          k = 0.3333-0.1166 0.0000 ( 37206 PWs)   bands (ev):

   -72.5629 -72.4494 -72.3968 -72.3883 -72.2843 -72.2377 -43.9028 -43.8965
   -43.8826 -43.8702 -43.8439 -43.8082 -43.7585 -43.7547 -43.7479 -43.7220
   -43.7031 -43.6437 -43.6271 -43.5992 -43.5630 -43.5469 -43.5290 -43.5199
   -25.0674 -18.0385 -17.4018 -17.2072 -17.0235 -16.9534 -16.8506 -16.7223
   -16.6853 -16.6407 -16.5652 -16.4829 -15.5472 -12.9275  -6.7837  -6.2477
    -5.7750  -5.6612  -5.5264  -5.4834  -5.3988  -5.3093  -5.2338  -5.1878
    -5.0966  -5.0002  -4.8946  -4.8138  -4.6223  -4.1310  -3.9574  -3.9024
    -3.8327  -3.7099  -3.6931  -3.4346  -3.3693  -3.2118  -3.1477  -2.9370
    -2.8960  -2.8388  -2.6909  -2.6019  -2.4451  -2.3410  -2.0919  -1.8857
    -1.6639  -1.5491  -1.3544  -1.1983  -1.0410  -0.9311  -0.8673  -0.5694
    -0.5067  -0.4740  -0.2869  -0.1191  -0.0812   0.0187   0.2001   0.3859
     0.5197   0.6764   0.8758   1.0100   1.1209   1.1470   1.2115   1.2709
     1.4601   2.1323   2.6968   3.0571   3.1960   3.3402

          k = 0.4444 0.0000 0.0000 ( 37180 PWs)   bands (ev):

   -72.5605 -72.4469 -72.3942 -72.3858 -72.2819 -72.2355 -43.9265 -43.8988
   -43.8787 -43.8670 -43.8426 -43.8055 -43.7896 -43.7615 -43.7515 -43.7427
   -43.7365 -43.6359 -43.6210 -43.5994 -43.5948 -43.5821 -43.5237 -43.5139
   -25.0293 -17.9500 -17.0900 -17.0293 -16.9118 -16.8771 -16.7731 -16.7573
   -16.6651 -16.6542 -16.6174 -16.4543 -15.5138 -12.8887  -6.5845  -6.2925
    -6.1388  -5.7666  -5.7316  -5.6351  -5.4284  -5.1443  -5.1179  -5.0903
    -5.0573  -4.9606  -4.8998  -4.8089  -4.8013  -4.4426  -4.1835  -4.0979
    -4.0069  -3.8358  -3.5487  -3.4485  -3.1996  -3.0903  -2.9709  -2.9502
    -2.8966  -2.6184  -2.5668  -2.4144  -2.2421  -2.1453  -2.1168  -1.9608
    -1.5455  -1.4668  -1.4087  -1.2066  -1.0993  -1.0177  -0.9893  -0.9635
    -0.9184  -0.7088  -0.6196  -0.5286   0.0956   0.1733   0.3755   0.6017
     0.6401   0.7152   0.8102   0.8732   0.9136   1.0590   1.1589   1.2497
     1.7629   1.9036   2.5119   2.9676   3.6433   3.9044

          k = 0.4444 0.1166 0.0000 ( 37248 PWs)   bands (ev):

   -72.5605 -72.4470 -72.3943 -72.3859 -72.2819 -72.2355 -43.9266 -43.9002
   -43.8787 -43.8670 -43.8427 -43.8055 -43.7882 -43.7701 -43.7427 -43.7424
   -43.7376 -43.6363 -43.6220 -43.5989 -43.5936 -43.5810 -43.5237 -43.5139
   -25.0292 -17.9506 -17.0680 -17.0188 -16.9175 -16.8973 -16.7860 -16.7421
   -16.7004 -16.6572 -16.5954 -16.4595 -15.5131 -12.8852  -6.7339  -6.2228
    -6.1495  -5.9680  -5.7731  -5.7174  -5.6778  -5.4186  -5.1579  -5.0836
    -4.9259  -4.7168  -4.6800  -4.6314  -4.4412  -4.2373  -4.0330  -3.9986
    -3.7468  -3.6929  -3.5758  -3.3989  -3.2542  -3.1435  -3.0763  -3.0111
    -2.8569  -2.6458  -2.4240  -2.3726  -2.2912  -2.1503  -2.0385  -1.9319
    -1.7786  -1.5496  -1.4671  -1.2728  -1.1513  -1.0786  -1.0365  -0.9141
    -0.8646  -0.7984  -0.6335  -0.5261  -0.2783  -0.1079   0.0011   0.1558
     0.3095   0.7897   0.8941   1.0080   1.1951   1.2293   1.3429   1.4426
     1.7388   1.9788   2.6003   2.9706   2.9970   3.1544

          k = 0.4444-0.2332 0.0000 ( 37264 PWs)   bands (ev):

   -72.5605 -72.4471 -72.3944 -72.3860 -72.2819 -72.2355 -43.9268 -43.9015
   -43.8787 -43.8670 -43.8427 -43.8055 -43.7867 -43.7751 -43.7422 -43.7387
   -43.7375 -43.6368 -43.6229 -43.5977 -43.5929 -43.5799 -43.5237 -43.5139
   -25.0292 -17.9511 -17.0307 -17.0168 -16.9275 -16.9183 -16.7954 -16.7276
   -16.7152 -16.6799 -16.5787 -16.4647 -15.5124 -12.8816  -6.8358  -6.2546
    -6.1396  -6.0932  -5.9653  -5.7564  -5.6875  -5.4250  -5.2463  -5.1417
    -4.6032  -4.5890  -4.5051  -4.4070  -4.4019  -4.2446  -3.9785  -3.7948
    -3.7133  -3.5659  -3.4235  -3.3259  -3.1920  -3.0547  -2.9431  -2.8363
    -2.7555  -2.6316  -2.5911  -2.5296  -2.3635  -2.2596  -2.1999  -1.9589
    -1.7259  -1.5454  -1.4695  -1.3839  -1.3605  -1.1271  -1.0382  -0.8736
    -0.8640  -0.7451  -0.6977  -0.6295  -0.5441  -0.4117  -0.3588   0.1092
     0.1322   0.7616   0.9183   1.0681   1.1255   1.4115   1.5736   1.5869
     1.7179   2.0432   2.6764   2.7767   2.8592   3.0227

          k = 0.4444-0.1166 0.0000 ( 37248 PWs)   bands (ev):

   -72.5605 -72.4470 -72.3943 -72.3859 -72.2819 -72.2355 -43.9266 -43.9002
   -43.8787 -43.8670 -43.8427 -43.8055 -43.7882 -43.7701 -43.7427 -43.7424
   -43.7376 -43.6364 -43.6220 -43.5984 -43.5940 -43.5810 -43.5237 -43.5139
   -25.0292 -17.9505 -17.0680 -17.0187 -16.9171 -16.8967 -16.7862 -16.7417
   -16.6996 -16.6595 -16.5953 -16.4595 -15.5131 -12.8852  -6.7190  -6.2941
    -6.0888  -5.9703  -5.7725  -5.7150  -5.6773  -5.4192  -5.1807  -5.0651
    -4.9255  -4.7168  -4.6824  -4.6307  -4.4409  -4.2368  -4.0321  -3.9979
    -3.7478  -3.6939  -3.5755  -3.3994  -3.2550  -3.1434  -3.0767  -3.0107
    -2.8545  -2.6475  -2.4237  -2.3740  -2.2912  -2.1502  -2.0378  -1.9334
    -1.7788  -1.5488  -1.4673  -1.2747  -1.1506  -1.0781  -1.0361  -0.9139
    -0.8657  -0.7975  -0.6313  -0.5262  -0.2747  -0.1072   0.0008   0.1569
     0.3114   0.7734   0.8785   1.0302   1.1886   1.2384   1.3438   1.4443
     1.7388   1.9778   2.5999   2.9688   2.9964   3.1545

          k =-0.4444 0.0000 0.0000 ( 37180 PWs)   bands (ev):

   -72.5605 -72.4469 -72.3942 -72.3858 -72.2819 -72.2355 -43.9265 -43.8988
   -43.8787 -43.8670 -43.8426 -43.8055 -43.7896 -43.7615 -43.7515 -43.7427
   -43.7365 -43.6359 -43.6210 -43.5994 -43.5948 -43.5821 -43.5237 -43.5139
   -25.0293 -17.9500 -17.0900 -17.0293 -16.9118 -16.8771 -16.7731 -16.7573
   -16.6651 -16.6542 -16.6174 -16.4543 -15.5138 -12.8887  -6.5845  -6.2925
    -6.1388  -5.7666  -5.7316  -5.6351  -5.4284  -5.1443  -5.1179  -5.0903
    -5.0573  -4.9606  -4.8998  -4.8089  -4.8013  -4.4426  -4.1835  -4.0979
    -4.0069  -3.8358  -3.5487  -3.4485  -3.1996  -3.0903  -2.9709  -2.9502
    -2.8966  -2.6184  -2.5668  -2.4144  -2.2421  -2.1453  -2.1168  -1.9608
    -1.5455  -1.4668  -1.4087  -1.2066  -1.0993  -1.0177  -0.9893  -0.9635
    -0.9184  -0.7088  -0.6196  -0.5286   0.0956   0.1733   0.3755   0.6017
     0.6401   0.7152   0.8102   0.8732   0.9136   1.0590   1.1589   1.2497
     1.7629   1.9036   2.5119   2.9676   3.6433   3.9044

          k =-0.4444 0.1166 0.0000 ( 37248 PWs)   bands (ev):

   -72.5605 -72.4470 -72.3943 -72.3859 -72.2819 -72.2355 -43.9266 -43.9002
   -43.8787 -43.8670 -43.8427 -43.8055 -43.7882 -43.7701 -43.7427 -43.7424
   -43.7376 -43.6364 -43.6220 -43.5984 -43.5940 -43.5810 -43.5237 -43.5139
   -25.0292 -17.9505 -17.0680 -17.0187 -16.9171 -16.8967 -16.7862 -16.7417
   -16.6996 -16.6595 -16.5953 -16.4595 -15.5131 -12.8852  -6.7190  -6.2941
    -6.0888  -5.9703  -5.7725  -5.7150  -5.6773  -5.4192  -5.1807  -5.0651
    -4.9255  -4.7168  -4.6824  -4.6307  -4.4409  -4.2368  -4.0321  -3.9979
    -3.7478  -3.6939  -3.5755  -3.3994  -3.2550  -3.1434  -3.0767  -3.0107
    -2.8545  -2.6475  -2.4237  -2.3740  -2.2912  -2.1502  -2.0378  -1.9334
    -1.7788  -1.5488  -1.4673  -1.2747  -1.1506  -1.0781  -1.0361  -0.9139
    -0.8657  -0.7975  -0.6313  -0.5262  -0.2747  -0.1072   0.0008   0.1569
     0.3114   0.7734   0.8785   1.0302   1.1886   1.2384   1.3438   1.4443
     1.7388   1.9778   2.5999   2.9692   2.9965   3.2037

          k =-0.4444-0.2332 0.0000 ( 37264 PWs)   bands (ev):

   -72.5605 -72.4471 -72.3944 -72.3860 -72.2819 -72.2355 -43.9268 -43.9015
   -43.8787 -43.8670 -43.8427 -43.8055 -43.7867 -43.7751 -43.7422 -43.7387
   -43.7375 -43.6368 -43.6229 -43.5977 -43.5929 -43.5799 -43.5237 -43.5139
   -25.0292 -17.9511 -17.0307 -17.0168 -16.9275 -16.9183 -16.7954 -16.7276
   -16.7152 -16.6799 -16.5787 -16.4647 -15.5124 -12.8816  -6.8358  -6.2546
    -6.1396  -6.0932  -5.9653  -5.7564  -5.6875  -5.4250  -5.2463  -5.1417
    -4.6032  -4.5890  -4.5051  -4.4070  -4.4019  -4.2446  -3.9785  -3.7948
    -3.7133  -3.5659  -3.4235  -3.3259  -3.1920  -3.0547  -2.9431  -2.8363
    -2.7555  -2.6316  -2.5911  -2.5296  -2.3635  -2.2596  -2.1999  -1.9589
    -1.7259  -1.5454  -1.4695  -1.3839  -1.3605  -1.1271  -1.0382  -0.8736
    -0.8640  -0.7451  -0.6977  -0.6295  -0.5441  -0.4117  -0.3588   0.1092
     0.1322   0.7616   0.9183   1.0681   1.1255   1.4115   1.5736   1.5869
     1.7179   2.0432   2.6458   2.6775   2.7768   2.8593

          k =-0.4444-0.1166 0.0000 ( 37248 PWs)   bands (ev):

   -72.5605 -72.4470 -72.3943 -72.3859 -72.2819 -72.2355 -43.9266 -43.9002
   -43.8787 -43.8670 -43.8427 -43.8055 -43.7882 -43.7701 -43.7427 -43.7424
   -43.7376 -43.6363 -43.6220 -43.5989 -43.5936 -43.5810 -43.5237 -43.5139
   -25.0292 -17.9506 -17.0680 -17.0188 -16.9175 -16.8973 -16.7860 -16.7421
   -16.7004 -16.6572 -16.5954 -16.4595 -15.5131 -12.8852  -6.7339  -6.2228
    -6.1495  -5.9680  -5.7731  -5.7174  -5.6778  -5.4186  -5.1579  -5.0836
    -4.9259  -4.7168  -4.6800  -4.6314  -4.4412  -4.2373  -4.0330  -3.9986
    -3.7468  -3.6929  -3.5758  -3.3989  -3.2542  -3.1435  -3.0763  -3.0111
    -2.8569  -2.6458  -2.4240  -2.3726  -2.2912  -2.1503  -2.0385  -1.9319
    -1.7786  -1.5496  -1.4671  -1.2728  -1.1513  -1.0786  -1.0365  -0.9141
    -0.8646  -0.7984  -0.6335  -0.5261  -0.2783  -0.1079   0.0011   0.1558
     0.3095   0.7897   0.8941   1.0080   1.1951   1.2293   1.3429   1.4426
     1.7388   1.9788   2.6003   2.9708   2.9971   3.2015

          k =-0.3333 0.0000 0.0000 ( 37184 PWs)   bands (ev):

   -72.5629 -72.4493 -72.3968 -72.3882 -72.2843 -72.2377 -43.9025 -43.8964
   -43.8826 -43.8702 -43.8439 -43.8082 -43.7555 -43.7554 -43.7477 -43.7258
   -43.7020 -43.6452 -43.6261 -43.5985 -43.5634 -43.5473 -43.5290 -43.5199
   -25.0675 -18.0416 -17.4701 -17.2696 -17.0760 -16.8916 -16.7535 -16.7213
   -16.6279 -16.6114 -16.5713 -16.4994 -15.5485 -12.9312  -6.7087  -6.2947
    -5.7953  -5.5902  -5.5327  -5.4852  -5.4712  -5.4140  -5.3333  -5.2647
    -5.1076  -4.9398  -4.8958  -4.8390  -4.6471  -4.2701  -4.1493  -4.0633
    -3.9711  -3.7607  -3.7070  -3.4583  -3.4019  -3.1688  -3.0920  -2.8602
    -2.7292  -2.6872  -2.6242  -2.4986  -2.3507  -2.1648  -2.0272  -1.7998
    -1.7033  -1.4324  -1.2536  -1.0430  -0.9810  -0.9439  -0.8318  -0.7948
    -0.6970  -0.6808  -0.2686   0.0140   0.0368   0.1751   0.2336   0.4313
     0.6382   0.7429   0.7829   0.9287   1.0264   1.1086   1.1958   1.2143
     1.5101   2.0492   2.5996   3.0629   3.7646   3.8576

          k =-0.3333 0.1166 0.0000 ( 37206 PWs)   bands (ev):

   -72.5629 -72.4494 -72.3968 -72.3883 -72.2843 -72.2377 -43.9028 -43.8965
   -43.8826 -43.8702 -43.8439 -43.8082 -43.7585 -43.7547 -43.7479 -43.7220
   -43.7031 -43.6437 -43.6271 -43.5992 -43.5630 -43.5469 -43.5290 -43.5199
   -25.0674 -18.0385 -17.4018 -17.2072 -17.0235 -16.9534 -16.8506 -16.7223
   -16.6853 -16.6407 -16.5652 -16.4829 -15.5472 -12.9275  -6.7837  -6.2477
    -5.7750  -5.6612  -5.5264  -5.4834  -5.3988  -5.3093  -5.2338  -5.1878
    -5.0966  -5.0002  -4.8946  -4.8138  -4.6223  -4.1310  -3.9574  -3.9024
    -3.8327  -3.7099  -3.6931  -3.4346  -3.3693  -3.2118  -3.1477  -2.9370
    -2.8960  -2.8388  -2.6909  -2.6019  -2.4451  -2.3410  -2.0919  -1.8857
    -1.6639  -1.5491  -1.3544  -1.1983  -1.0410  -0.9311  -0.8673  -0.5694
    -0.5067  -0.4740  -0.2869  -0.1191  -0.0812   0.0187   0.2001   0.3859
     0.5197   0.6764   0.8758   1.0100   1.1209   1.1470   1.2115   1.2709
     1.4601   2.1323   2.6968   3.0571   3.1960   3.3402

          k =-0.3333-0.2332 0.0000 ( 37216 PWs)   bands (ev):

   -72.5628 -72.4494 -72.3969 -72.3884 -72.2843 -72.2377 -43.9030 -43.8966
   -43.8827 -43.8702 -43.8439 -43.8082 -43.7611 -43.7539 -43.7481 -43.7187
   -43.7043 -43.6418 -43.6281 -43.6002 -43.5625 -43.5464 -43.5290 -43.5199
   -25.0674 -18.0358 -17.2786 -17.1309 -17.0646 -16.9882 -16.8724 -16.8136
   -16.7415 -16.6560 -16.5530 -16.4741 -15.5460 -12.9237  -6.8605  -6.1812
    -5.7660  -5.7301  -5.5641  -5.4911  -5.4235  -5.4070  -5.2519  -5.0831
    -4.8922  -4.8007  -4.5566  -4.4915  -4.4060  -4.2105  -4.1810  -4.1143
    -3.8205  -3.7698  -3.6034  -3.5161  -3.3865  -3.2140  -3.1017  -3.0036
    -2.9070  -2.7604  -2.6662  -2.6439  -2.5157  -2.4127  -2.0682  -1.9844
    -1.9224  -1.8210  -1.4341  -1.2435  -1.1335  -1.0166  -0.8447  -0.4929
    -0.3673  -0.3090  -0.2973  -0.1767  -0.1124   0.0023   0.2048   0.3449
     0.4434   0.7084   0.8590   0.9427   1.1571   1.2062   1.3058   1.3531
     1.4214   2.2016   2.7703   2.8585   2.9806   2.9915

          k =-0.3333-0.1166 0.0000 ( 37206 PWs)   bands (ev):

   -72.5629 -72.4494 -72.3968 -72.3883 -72.2843 -72.2377 -43.9028 -43.8965
   -43.8826 -43.8702 -43.8439 -43.8082 -43.7585 -43.7548 -43.7477 -43.7220
   -43.7033 -43.6433 -43.6271 -43.5995 -43.5629 -43.5469 -43.5290 -43.5199
   -25.0674 -18.0388 -17.4017 -17.2074 -17.0251 -16.9527 -16.8512 -16.7227
   -16.6833 -16.6405 -16.5649 -16.4829 -15.5472 -12.9274  -6.8014  -6.2114
    -5.7913  -5.6625  -5.5266  -5.4833  -5.4160  -5.3116  -5.2218  -5.1855
    -5.0927  -5.0003  -4.8938  -4.8184  -4.6198  -4.1303  -3.9503  -3.9002
    -3.8352  -3.7147  -3.6914  -3.4325  -3.3701  -3.2161  -3.1446  -2.9370
    -2.8962  -2.8391  -2.6851  -2.6113  -2.4483  -2.3378  -2.0849  -1.8879
    -1.6650  -1.5495  -1.3517  -1.1988  -1.0401  -0.9269  -0.8704  -0.5702
    -0.5071  -0.4756  -0.2983  -0.1186  -0.0860   0.0155   0.2005   0.3791
     0.5164   0.7275   0.8846   1.0164   1.0829   1.1449   1.2182   1.2598
     1.4602   2.1332   2.6951   3.0619   3.1964   3.3404

          k =-0.2222 0.0000 0.0000 ( 37192 PWs)   bands (ev):

   -72.5671 -72.4536 -72.4012 -72.3926 -72.2886 -72.2418 -43.9081 -43.8950
   -43.8775 -43.8500 -43.8357 -43.8123 -43.7614 -43.7552 -43.7019 -43.6699
   -43.6587 -43.6472 -43.6338 -43.5988 -43.5377 -43.5291 -43.5131 -43.4928
   -25.1252 -18.2147 -17.8682 -17.5650 -17.3172 -17.0637 -16.7233 -16.6440
   -16.6367 -16.5948 -16.5623 -16.4981 -15.5525 -12.9975  -6.8230  -6.4328
    -6.1474  -6.0505  -5.8731  -5.7038  -5.5623  -5.2573  -5.2171  -5.1572
    -5.1142  -4.9876  -4.8042  -4.7197  -4.5082  -4.3115  -4.0023  -3.8029
    -3.5362  -3.3739  -3.2841  -3.2361  -3.0947  -3.0769  -3.0037  -2.8948
    -2.6251  -2.4391  -2.4081  -2.3386  -2.1563  -2.0286  -1.9920  -1.8853
    -1.7463  -1.5418  -1.2107  -1.0984  -0.9754  -0.9307  -0.7929  -0.7539
    -0.6814  -0.5877  -0.3354  -0.1239  -0.0753   0.0285   0.0982   0.2770
     0.6112   0.8224   0.9459   0.9837   1.0802   1.1769   1.2897   1.4839
     1.5394   2.1401   2.7123   3.2815   3.7777   3.8143

          k =-0.2222 0.1166 0.0000 ( 37137 PWs)   bands (ev):

   -72.5670 -72.4536 -72.4012 -72.3926 -72.2886 -72.2418 -43.9071 -43.8950
   -43.8775 -43.8500 -43.8358 -43.8123 -43.7606 -43.7562 -43.7016 -43.6692
   -43.6548 -43.6491 -43.6355 -43.6010 -43.5377 -43.5291 -43.5130 -43.4927
   -25.1251 -18.1959 -17.7772 -17.4798 -17.2626 -17.1676 -16.8646 -16.7283
   -16.6758 -16.5601 -16.5401 -16.5059 -15.5475 -12.9936  -6.8832  -6.3607
    -5.9334  -5.8166  -5.6927  -5.6301  -5.5277  -5.2201  -5.1824  -5.1171
    -5.0510  -4.9548  -4.8493  -4.6373  -4.4225  -4.3125  -3.9471  -3.7329
    -3.6455  -3.5523  -3.4868  -3.3317  -3.1604  -3.1135  -2.9843  -2.9317
    -2.8086  -2.6834  -2.6193  -2.5405  -2.4962  -2.3601  -2.1049  -1.8613
    -1.6641  -1.6344  -1.4211  -1.1725  -0.9996  -0.8272  -0.6603  -0.3772
    -0.2730  -0.2212  -0.1682  -0.1160  -0.0217   0.1037   0.2004   0.3808
     0.6040   0.7096   0.7940   0.8612   1.0606   1.1192   1.1831   1.4107
     1.4888   2.2830   2.8323   3.2948   3.6143   3.6884

          k =-0.2222-0.2332 0.0000 ( 37166 PWs)   bands (ev):

   -72.5670 -72.4536 -72.4012 -72.3926 -72.2885 -72.2418 -43.9062 -43.8950
   -43.8775 -43.8500 -43.8360 -43.8124 -43.7598 -43.7573 -43.7013 -43.6683
   -43.6532 -43.6481 -43.6373 -43.6037 -43.5377 -43.5291 -43.5129 -43.4925
   -25.1251 -18.1782 -17.6098 -17.4024 -17.3297 -17.1096 -17.0632 -16.8430
   -16.6963 -16.5845 -16.5299 -16.4798 -15.5429 -12.9895  -6.9470  -6.2743
    -5.7963  -5.6079  -5.5656  -5.5118  -5.3955  -5.2523  -5.2009  -4.9827
    -4.8702  -4.5914  -4.5697  -4.4725  -4.4203  -4.2511  -4.1377  -4.1241
    -4.0151  -3.7573  -3.6972  -3.4621  -3.3127  -3.1780  -3.1216  -3.0002
    -2.8626  -2.8506  -2.7964  -2.7329  -2.6423  -2.4084  -1.9420  -1.8389
    -1.7432  -1.7035  -1.4059  -1.3835  -1.0403  -0.7552  -0.6203  -0.2289
    -0.1748  -0.0037   0.0898   0.1426   0.1857   0.2409   0.3402   0.4544
     0.5112   0.6348   0.6739   0.7663   0.9758   1.0377   1.1253   1.3011
     1.4923   2.3848   2.9362   3.2713   3.3718   3.4914

          k =-0.2222-0.1166 0.0000 ( 37137 PWs)   bands (ev):

   -72.5670 -72.4536 -72.4012 -72.3926 -72.2886 -72.2418 -43.9071 -43.8950
   -43.8775 -43.8500 -43.8358 -43.8123 -43.7606 -43.7563 -43.7015 -43.6692
   -43.6572 -43.6462 -43.6355 -43.6014 -43.5377 -43.5291 -43.5130 -43.4927
   -25.1251 -18.1962 -17.7771 -17.4798 -17.2632 -17.1676 -16.8649 -16.7273
   -16.6758 -16.5603 -16.5396 -16.5059 -15.5475 -12.9934  -6.8929  -6.3539
    -5.9323  -5.8159  -5.6900  -5.6232  -5.5310  -5.2264  -5.1867  -5.1161
    -5.0523  -4.9481  -4.8530  -4.6399  -4.4174  -4.3125  -3.9433  -3.7349
    -3.6421  -3.5520  -3.4880  -3.3377  -3.1660  -3.0999  -2.9812  -2.9304
    -2.8102  -2.6861  -2.6230  -2.5418  -2.4974  -2.3592  -2.1029  -1.8586
    -1.6643  -1.6372  -1.4196  -1.1691  -1.0008  -0.8300  -0.6588  -0.3862
    -0.2763  -0.2216  -0.1706  -0.1147  -0.0230   0.1017   0.1964   0.3869
     0.6055   0.7129   0.8092   0.8888   1.0595   1.0882   1.1795   1.4105
     1.4865   2.2827   2.8302   3.2990   3.6129   3.6876

          k =-0.1111 0.0000 0.0000 ( 37175 PWs)   bands (ev):

   -72.5714 -72.4579 -72.4057 -72.3970 -72.2930 -72.2461 -43.9130 -43.9028
   -43.8812 -43.8504 -43.8159 -43.7915 -43.7667 -43.7617 -43.6686 -43.6534
   -43.6404 -43.6193 -43.6004 -43.5983 -43.5448 -43.5371 -43.4682 -43.4435
   -25.1751 -18.4001 -18.1516 -17.7998 -17.5117 -17.2354 -16.7519 -16.7075
   -16.6233 -16.5764 -16.5077 -16.4332 -15.5187 -13.0565  -6.9780  -6.6835
    -6.6129  -6.5080  -6.2794  -6.0751  -5.7270  -5.3970  -5.3490  -4.9233
    -4.7881  -4.6987  -4.5888  -4.4929  -4.3287  -4.2106  -3.9165  -3.6444
    -3.4057  -3.2285  -2.9281  -2.8460  -2.6840  -2.5537  -2.4915  -2.3926
    -2.3537  -2.2312  -2.1566  -2.0517  -1.9981  -1.9372  -1.8175  -1.6969
    -1.6380  -1.4916  -1.4441  -1.4310  -1.1779  -1.1622  -1.1148  -0.9599
    -0.7814  -0.7417  -0.4914  -0.3453  -0.2232  -0.0940  -0.0435   0.2209
     0.5140   0.6546   0.9037   0.9812   1.2323   1.3098   1.5386   1.7163
     1.7825   1.9914   2.7436   3.3111   3.8745   3.9970

          k =-0.1111 0.1166 0.0000 ( 37124 PWs)   bands (ev):

   -72.5713 -72.4579 -72.4057 -72.3970 -72.2930 -72.2460 -43.9111 -43.9028
   -43.8812 -43.8504 -43.8159 -43.7917 -43.7648 -43.7632 -43.6640 -43.6534
   -43.6430 -43.6192 -43.6072 -43.5962 -43.5449 -43.5371 -43.4682 -43.4435
   -25.1751 -18.3566 -18.0550 -17.7064 -17.4896 -17.3400 -16.9520 -16.7653
   -16.6427 -16.5153 -16.4861 -16.4816 -15.5109 -13.0524  -6.9955  -6.6055
    -6.4075  -6.2733  -6.1185  -5.9817  -5.7141  -5.4276  -5.1448  -4.7845
    -4.7226  -4.6498  -4.5215  -4.4640  -4.2665  -4.1486  -3.9162  -3.6708
    -3.4646  -3.3948  -3.2570  -3.0849  -2.9175  -2.8221  -2.7723  -2.6647
    -2.6339  -2.5892  -2.5181  -2.3413  -2.2454  -2.1363  -1.7622  -1.6738
    -1.5952  -1.5208  -1.4185  -1.2537  -1.0459  -0.9058  -0.7598  -0.6067
    -0.4920  -0.4047  -0.2793  -0.2067  -0.1072   0.0444   0.1371   0.1795
     0.3950   0.5395   0.8247   0.8898   1.0844   1.1838   1.3369   1.6597
     1.7191   2.2144   2.9490   3.4461   3.9860   4.1218

          k =-0.1111-0.2332 0.0000 ( 37144 PWs)   bands (ev):

   -72.5712 -72.4579 -72.4057 -72.3970 -72.2929 -72.2459 -43.9092 -43.9028
   -43.8812 -43.8504 -43.8160 -43.7918 -43.7657 -43.7618 -43.6587 -43.6533
   -43.6457 -43.6190 -43.6126 -43.5962 -43.5449 -43.5372 -43.4682 -43.4435
   -25.1750 -18.3140 -17.8747 -17.6403 -17.5608 -17.2976 -17.1958 -16.8714
   -16.6482 -16.5235 -16.4947 -16.4594 -15.5041 -13.0481  -7.0491  -6.5008
    -6.2360  -5.9714  -5.9340  -5.8012  -5.6822  -5.4603  -4.8302  -4.7358
    -4.6495  -4.4442  -4.3584  -4.3221  -4.1937  -4.0922  -3.9625  -3.9466
    -3.8554  -3.5504  -3.2988  -3.2664  -3.2081  -3.1667  -3.1187  -3.0613
    -2.9635  -2.8632  -2.7874  -2.6746  -2.2893  -2.1577  -1.6830  -1.6327
    -1.5148  -1.3734  -1.2304  -1.1466  -0.9579  -0.7835  -0.5787  -0.4374
    -0.3280  -0.2967  -0.2035  -0.0145   0.0658   0.1830   0.2493   0.4124
     0.5109   0.5148   0.6251   0.7309   0.9347   1.0490   1.0740   1.5798
     1.7213   2.3774   3.1368   3.4892   4.0706   4.1382

          k =-0.1111-0.1166 0.0000 ( 37124 PWs)   bands (ev):

   -72.5713 -72.4579 -72.4057 -72.3970 -72.2930 -72.2460 -43.9111 -43.9028
   -43.8812 -43.8504 -43.8159 -43.7917 -43.7648 -43.7632 -43.6642 -43.6534
   -43.6430 -43.6192 -43.6060 -43.5972 -43.5449 -43.5371 -43.4682 -43.4435
   -25.1751 -18.3568 -18.0549 -17.7064 -17.4898 -17.3401 -16.9520 -16.7648
   -16.6429 -16.5153 -16.4861 -16.4813 -15.5109 -13.0523  -6.9971  -6.6110
    -6.4069  -6.2727  -6.1180  -5.9763  -5.7134  -5.4274  -5.1493  -4.7918
    -4.6957  -4.6594  -4.5258  -4.4671  -4.2649  -4.1462  -3.9164  -3.6715
    -3.4648  -3.3985  -3.2588  -3.0841  -2.9152  -2.8239  -2.7682  -2.6651
    -2.6336  -2.5892  -2.5158  -2.3393  -2.2488  -2.1366  -1.7600  -1.6690
    -1.5995  -1.5185  -1.4202  -1.2544  -1.0479  -0.9080  -0.7640  -0.6052
    -0.4908  -0.4057  -0.2804  -0.2074  -0.1076   0.0479   0.1297   0.1815
     0.3973   0.5396   0.8275   0.9089   1.0795   1.1719   1.3355   1.6597
     1.7190   2.2145   2.9483   3.4473   3.9861   4.1183

 ------ SPIN DOWN ----------


          k = 0.0000 0.0000 0.0000 ( 37133 PWs)   bands (ev):

   -69.7713 -69.6510 -69.6389 -69.4063 -69.3473 -69.3021 -41.3569 -41.3027
   -41.1738 -41.1567 -40.9952 -40.9769 -40.8956 -40.8758 -40.8731 -40.8234
   -40.7420 -40.7164 -40.6925 -40.6697 -40.6283 -40.6098 -40.6034 -40.4527
   -26.2847 -18.6518 -18.4469 -18.1025 -17.7533 -17.5483 -17.1420 -17.0346
   -16.9064 -16.8973 -16.8037 -16.7427 -16.2272 -14.6755  -7.6816  -7.2328
    -6.4021  -6.0431  -5.6102  -5.4448  -5.2511  -5.0051  -4.3848  -4.3205
    -3.9125  -3.7234  -3.6647  -3.5455  -3.5370  -3.4555  -3.2407  -3.1091
    -2.9855  -2.9770  -2.6476  -2.5187  -2.4623  -2.2698  -2.2296  -2.1773
    -1.8368  -1.7040  -1.6822  -1.5116  -1.2944  -1.0662  -0.9747  -0.9402
    -0.9057  -0.8102  -0.7071  -0.6021  -0.5135  -0.4587  -0.2979   3.4645
     3.5599   3.7373   3.8491   3.9100   3.9604   4.0033   4.0159   4.1871
     4.2734   4.3027   4.3739   4.4553   4.4819   4.5987   4.7349   4.7573
     4.9930   5.3266   5.3644   5.4768   5.6216   5.8828

          k = 0.0000 0.1166 0.0000 ( 37130 PWs)   bands (ev):

   -69.7714 -69.6511 -69.6390 -69.4063 -69.3474 -69.3022 -41.3560 -41.3008
   -41.1737 -41.1568 -40.9971 -40.9769 -40.8955 -40.8757 -40.8732 -40.8189
   -40.7420 -40.7163 -40.6969 -40.6697 -40.6291 -40.6097 -40.6035 -40.4527
   -26.2846 -18.5636 -18.3731 -18.0222 -17.8057 -17.6383 -17.3319 -17.0896
   -16.9409 -16.8142 -16.7731 -16.7512 -16.2189 -14.6718  -7.7067  -7.2158
    -6.3996  -6.0293  -5.3926  -5.1998  -5.0422  -4.9121  -4.3685  -4.2046
    -3.8477  -3.6458  -3.5801  -3.5411  -3.5236  -3.4432  -3.2389  -3.2250
    -3.0082  -2.9786  -2.9753  -2.7340  -2.5262  -2.3056  -2.1364  -2.1031
    -1.8513  -1.8041  -1.6708  -1.4283  -1.4269  -1.3834  -1.1419  -1.0777
    -1.0738  -0.8887  -0.8135  -0.7556  -0.6151  -0.4616  -0.3975   3.4540
     3.8472   4.0040   4.0627   4.1228   4.1535   4.1698   4.1808   4.1922
     4.3051   4.3172   4.4416   4.5173   4.6134   4.6496   4.7125   4.8641
     4.9549   5.1379   5.3476   5.5286   5.7297   5.8811

          k = 0.0000-0.2332 0.0000 ( 37126 PWs)   bands (ev):

   -69.7714 -69.6511 -69.6390 -69.4063 -69.3474 -69.3024 -41.3552 -41.2988
   -41.1735 -41.1570 -40.9990 -40.9768 -40.8953 -40.8757 -40.8733 -40.8141
   -40.7421 -40.7162 -40.7016 -40.6698 -40.6299 -40.6097 -40.6035 -40.4528
   -26.2845 -18.4519 -18.2398 -18.0110 -17.8895 -17.6095 -17.5660 -17.1780
   -16.9502 -16.7892 -16.7555 -16.7362 -16.2117 -14.6680  -7.7319  -7.1995
    -6.3968  -6.0145  -5.2224  -4.8757  -4.8488  -4.6399  -4.3918  -4.0163
    -3.7571  -3.6264  -3.5381  -3.5094  -3.4305  -3.3979  -3.2369  -3.1796
    -3.1212  -3.0890  -2.9757  -2.9394  -2.8745  -2.7622  -2.2803  -1.9625
    -1.9341  -1.7542  -1.7494  -1.6527  -1.5322  -1.4048  -1.2752  -1.1919
    -1.0633  -0.9676  -0.9234  -0.8043  -0.6676  -0.4881  -0.4610   3.4375
     3.9531   4.0744   4.1726   4.2864   4.3047   4.3433   4.3655   4.4248
     4.4567   4.4619   4.5107   4.5471   4.5930   4.7918   4.8906   4.9156
     5.0255   5.1168   5.2903   5.3889   5.8391   5.8702

          k = 0.0000-0.1166 0.0000 ( 37130 PWs)   bands (ev):

   -69.7714 -69.6511 -69.6390 -69.4063 -69.3474 -69.3022 -41.3560 -41.3008
   -41.1737 -41.1568 -40.9971 -40.9769 -40.8955 -40.8757 -40.8732 -40.8189
   -40.7420 -40.7163 -40.6969 -40.6697 -40.6291 -40.6097 -40.6035 -40.4527
   -26.2846 -18.5636 -18.3731 -18.0222 -17.8057 -17.6383 -17.3319 -17.0896
   -16.9409 -16.8142 -16.7731 -16.7512 -16.2189 -14.6718  -7.7067  -7.2158
    -6.3996  -6.0293  -5.3926  -5.1998  -5.0422  -4.9121  -4.3685  -4.2046
    -3.8477  -3.6458  -3.5801  -3.5411  -3.5236  -3.4432  -3.2389  -3.2250
    -3.0082  -2.9786  -2.9753  -2.7340  -2.5262  -2.3056  -2.1364  -2.1031
    -1.8513  -1.8041  -1.6708  -1.4283  -1.4269  -1.3834  -1.1419  -1.0777
    -1.0738  -0.8887  -0.8135  -0.7556  -0.6151  -0.4616  -0.3975   3.4541
     3.8472   4.0040   4.0627   4.1228   4.1535   4.1698   4.1808   4.1922
     4.3051   4.3172   4.4416   4.5173   4.6134   4.6496   4.7126   4.8641
     4.9549   5.1380   5.3476   5.5286   5.7297   5.8815

          k = 0.1111 0.0000 0.0000 ( 37175 PWs)   bands (ev):

   -69.7699 -69.6495 -69.6375 -69.4049 -69.3459 -69.3008 -41.3551 -41.3006
   -41.1720 -41.1524 -40.9914 -40.9756 -40.8997 -40.8911 -40.8689 -40.8206
   -40.7641 -40.7389 -40.6897 -40.6659 -40.6318 -40.6268 -40.6238 -40.4730
   -26.2658 -18.5556 -18.3637 -18.0256 -17.6914 -17.4933 -17.0991 -17.0247
   -16.9128 -16.9001 -16.8166 -16.7564 -16.2460 -14.6547  -7.6665  -7.2178
    -6.5486  -5.9895  -5.5063  -5.3641  -5.1750  -4.9283  -4.3248  -4.2820
    -4.1257  -4.0037  -3.8701  -3.8539  -3.5644  -3.3128  -3.2687  -3.0247
    -2.7748  -2.6370  -2.5655  -2.4210  -2.3869  -2.3154  -2.1996  -2.1211
    -2.0675  -1.9789  -1.7736  -1.5583  -1.4573  -1.2718  -1.1896  -1.0823
    -0.9428  -0.9060  -0.8750  -0.6936  -0.5852  -0.5256  -0.3706   3.5603
     3.7316   3.9086   3.9127   3.9320   3.9679   4.0712   4.1016   4.1780
     4.3213   4.3508   4.4376   4.4464   4.5910   4.6509   4.7139   4.8536
     4.9131   5.2584   5.4023   5.4139   5.6380   5.8194

          k = 0.1111 0.1166 0.0000 ( 37124 PWs)   bands (ev):

   -69.7700 -69.6496 -69.6376 -69.4049 -69.3459 -69.3009 -41.3544 -41.2990
   -41.1719 -41.1525 -40.9932 -40.9755 -40.8996 -40.8910 -40.8690 -40.8170
   -40.7641 -40.7389 -40.6933 -40.6659 -40.6318 -40.6268 -40.6245 -40.4730
   -26.2657 -18.4796 -18.2909 -17.9473 -17.7276 -17.5802 -17.2883 -17.0698
   -16.9480 -16.8261 -16.7850 -16.7667 -16.2380 -14.6510  -7.6932  -7.1998
    -6.5448  -5.9797  -5.2879  -5.1061  -4.9543  -4.8308  -4.3198  -4.2060
    -4.0229  -3.9782  -3.8924  -3.7219  -3.4993  -3.3228  -3.2663  -3.0434
    -2.8595  -2.8229  -2.7453  -2.6419  -2.5207  -2.3166  -2.2604  -2.1377
    -2.0582  -1.9898  -1.9161  -1.6854  -1.4491  -1.4075  -1.3585  -1.1558
    -1.0946  -1.0414  -0.8552  -0.7354  -0.5910  -0.5323  -0.4541   3.5532
     3.9910   4.0230   4.0374   4.1174   4.1862   4.2278   4.2468   4.2881
     4.3390   4.4610   4.5058   4.5706   4.6357   4.6727   4.7272   4.8064
     4.9597   5.1225   5.3169   5.5053   5.6635   5.8327

          k = 0.1111-0.2332 0.0000 ( 37144 PWs)   bands (ev):

   -69.7700 -69.6497 -69.6376 -69.4049 -69.3460 -69.3010 -41.3537 -41.2974
   -41.1718 -41.1527 -40.9949 -40.9755 -40.8995 -40.8908 -40.8691 -40.8129
   -40.7640 -40.7389 -40.6977 -40.6659 -40.6314 -40.6268 -40.6251 -40.4731
   -26.2656 -18.3927 -18.1484 -17.9287 -17.8110 -17.5493 -17.5012 -17.1611
   -16.9604 -16.8068 -16.7713 -16.7478 -16.2311 -14.6473  -7.7157  -7.1846
    -6.5459  -5.9639  -5.1310  -4.7598  -4.7393  -4.5324  -4.3586  -4.0845
    -4.0111  -3.8262  -3.7581  -3.6553  -3.3683  -3.3315  -3.2695  -3.1316
    -2.9892  -2.9548  -2.9010  -2.8002  -2.7563  -2.7200  -2.5553  -2.2794
    -2.0553  -2.0385  -1.9421  -1.8731  -1.5276  -1.3929  -1.3734  -1.2550
    -1.0333  -0.9980  -0.8554  -0.7794  -0.6871  -0.5374  -0.5116   3.5379
     4.0620   4.0767   4.1242   4.1546   4.3756   4.4267   4.4467   4.4523
     4.5075   4.5599   4.5946   4.6425   4.7406   4.8081   4.8569   4.8878
     5.0393   5.0450   5.3486   5.3894   5.6131   5.6568

          k = 0.1111-0.1166 0.0000 ( 37124 PWs)   bands (ev):

   -69.7700 -69.6496 -69.6376 -69.4049 -69.3459 -69.3009 -41.3544 -41.2990
   -41.1719 -41.1525 -40.9932 -40.9755 -40.8996 -40.8910 -40.8690 -40.8168
   -40.7641 -40.7389 -40.6939 -40.6659 -40.6314 -40.6269 -40.6244 -40.4730
   -26.2657 -18.4793 -18.2909 -17.9474 -17.7275 -17.5804 -17.2882 -17.0700
   -16.9480 -16.8261 -16.7851 -16.7668 -16.2380 -14.6510  -7.6894  -7.2016
    -6.5497  -5.9762  -5.2879  -5.1063  -4.9546  -4.8321  -4.3197  -4.2066
    -4.0237  -3.9742  -3.8928  -3.7213  -3.5038  -3.3200  -3.2661  -3.0434
    -2.8585  -2.8215  -2.7456  -2.6413  -2.5225  -2.3184  -2.2619  -2.1399
    -2.0626  -1.9879  -1.9124  -1.6854  -1.4463  -1.4047  -1.3574  -1.1562
    -1.0939  -1.0462  -0.8620  -0.7250  -0.5914  -0.5274  -0.4616   3.5532
     3.9910   4.0219   4.0370   4.1193   4.1866   4.2273   4.2461   4.2897
     4.3386   4.4634   4.5035   4.5701   4.6358   4.6729   4.7253   4.8068
     4.9627   5.1224   5.3162   5.5133   5.6706   5.8304

          k = 0.2222 0.0000 0.0000 ( 37192 PWs)   bands (ev):

   -69.7661 -69.6456 -69.6336 -69.4009 -69.3418 -69.2971 -41.3505 -41.2953
   -41.1677 -41.1416 -40.9818 -40.9745 -40.9491 -40.8890 -40.8585 -40.8202
   -40.8136 -40.7960 -40.6947 -40.6864 -40.6760 -40.6561 -40.6126 -40.5248
   -26.2173 -18.3201 -18.1290 -17.8203 -17.5292 -17.3524 -17.0301 -16.9940
   -16.9539 -16.8691 -16.8486 -16.7894 -16.2854 -14.6024  -7.6415  -7.1987
    -6.8656  -5.8750  -5.2207  -5.1664  -4.9822  -4.7510  -4.4682  -4.3212
    -4.2986  -4.1779  -3.9771  -3.8837  -3.6717  -3.5384  -3.1775  -3.0432
    -2.9194  -2.8836  -2.7853  -2.5760  -2.4903  -2.3891  -2.1704  -2.0410
    -2.0240  -2.0026  -1.9051  -1.8177  -1.7073  -1.5347  -1.3870  -1.3065
    -1.2031  -1.1312  -0.8923  -0.8491  -0.7070  -0.6794  -0.5923   3.7443
     3.8282   3.9260   4.0282   4.0596   4.2003   4.2192   4.2614   4.3184
     4.4211   4.4723   4.5500   4.6002   4.6512   4.7049   4.7559   4.9090
     5.0646   5.0712   5.2219   5.2919   5.6345   5.7004

          k = 0.2222 0.1166 0.0000 ( 37137 PWs)   bands (ev):

   -69.7661 -69.6456 -69.6336 -69.4009 -69.3418 -69.2972 -41.3502 -41.2945
   -41.1676 -41.1417 -40.9839 -40.9740 -40.9485 -40.8889 -40.8585 -40.8199
   -40.8123 -40.7961 -40.6931 -40.6862 -40.6789 -40.6562 -40.6129 -40.5247
   -26.2172 -18.2826 -18.0530 -17.7473 -17.5253 -17.4333 -17.1932 -17.0286
   -16.9596 -16.8603 -16.8069 -16.8028 -16.2794 -14.5988  -7.6680  -7.1818
    -6.8626  -5.8633  -5.0172  -4.8819  -4.7499  -4.6424  -4.3362  -4.2930
    -4.2340  -4.1769  -4.0740  -3.8331  -3.5679  -3.4090  -3.2631  -3.1668
    -3.0758  -2.9657  -2.8683  -2.6165  -2.5803  -2.4920  -2.3507  -2.3149
    -2.2282  -2.1797  -2.0367  -1.8724  -1.8003  -1.5778  -1.3458  -1.2083
    -1.1314  -1.0753  -0.9593  -0.7833  -0.7222  -0.6835  -0.6069   3.7511
     3.8403   3.9853   4.0513   4.1477   4.1783   4.3046   4.4209   4.4459
     4.5581   4.5634   4.6017   4.6716   4.7012   4.7636   4.8302   4.9204
     4.9814   5.0528   5.2702   5.3337   5.5990   5.6592

          k = 0.2222-0.2332 0.0000 ( 37166 PWs)   bands (ev):

   -69.7661 -69.6456 -69.6336 -69.4008 -69.3418 -69.2972 -41.3499 -41.2937
   -41.1675 -41.1417 -40.9859 -40.9738 -40.9479 -40.8888 -40.8586 -40.8197
   -40.8106 -40.7962 -40.6952 -40.6861 -40.6788 -40.6561 -40.6133 -40.5246
   -26.2172 -18.2469 -17.9035 -17.7088 -17.6074 -17.4083 -17.3364 -17.1136
   -16.9864 -16.8550 -16.8126 -16.7702 -16.2741 -14.5953  -7.6852  -7.1738
    -6.8626  -5.8465  -4.9077  -4.5138  -4.4696  -4.3080  -4.2790  -4.2376
    -4.1128  -4.0026  -3.9613  -3.8372  -3.6001  -3.4001  -3.3928  -3.3606
    -3.2282  -3.1451  -2.9672  -2.9017  -2.7769  -2.6884  -2.6390  -2.4593
    -2.3079  -2.1730  -2.0930  -2.0223  -1.9817  -1.4923  -1.2878  -1.2220
    -1.0440  -1.0079  -0.8606  -0.8072  -0.7435  -0.6700  -0.6297   3.7385
     3.9017   3.9438   4.0866   4.1403   4.1835   4.4280   4.5189   4.5840
     4.6410   4.7161   4.7557   4.8674   4.8796   4.8899   4.9042   4.9286
     5.0216   5.1293   5.1462   5.2319   5.2878   5.3991

          k = 0.2222-0.1166 0.0000 ( 37137 PWs)   bands (ev):

   -69.7661 -69.6456 -69.6336 -69.4009 -69.3418 -69.2972 -41.3502 -41.2945
   -41.1676 -41.1417 -40.9839 -40.9740 -40.9485 -40.8889 -40.8585 -40.8199
   -40.8119 -40.7961 -40.6964 -40.6862 -40.6762 -40.6561 -40.6129 -40.5247
   -26.2172 -18.2822 -18.0532 -17.7474 -17.5249 -17.4336 -17.1930 -17.0288
   -16.9599 -16.8602 -16.8077 -16.8025 -16.2794 -14.5988  -7.6594  -7.1896
    -6.8658  -5.8601  -5.0175  -4.8822  -4.7499  -4.6433  -4.3359  -4.2938
    -4.2347  -4.1747  -4.0731  -3.8321  -3.5710  -3.4084  -3.2648  -3.1683
    -3.0761  -2.9673  -2.8681  -2.6194  -2.5816  -2.4841  -2.3513  -2.3151
    -2.2288  -2.1826  -2.0350  -1.8648  -1.8000  -1.5712  -1.3486  -1.2061
    -1.1378  -1.0759  -0.9742  -0.7797  -0.7186  -0.6780  -0.6076   3.7509
     3.8392   3.9846   4.0533   4.1477   4.1791   4.3044   4.4213   4.4441
     4.5583   4.5628   4.6020   4.6713   4.7011   4.7655   4.8303   4.9215
     4.9835   5.0535   5.2712   5.3373   5.5959   5.6591

          k = 0.3333 0.0000 0.0000 ( 37184 PWs)   bands (ev):

   -69.7611 -69.6405 -69.6286 -69.3957 -69.3365 -69.2923 -41.3453 -41.2895
   -41.1629 -41.1295 -41.0165 -40.9708 -40.9644 -40.8855 -40.8845 -40.8613
   -40.8457 -40.8060 -40.7564 -40.7547 -40.6704 -40.6454 -40.5998 -40.5841
   -26.1613 -18.1030 -17.7684 -17.5511 -17.3266 -17.2038 -17.0402 -17.0039
   -16.9447 -16.8912 -16.8250 -16.8193 -16.3037 -14.5438  -7.6718  -7.3081
    -7.0016  -5.7762  -4.9954  -4.8708  -4.7477  -4.6555  -4.5780  -4.4970
    -4.2561  -4.2137  -4.0773  -3.9768  -3.8185  -3.5852  -3.5363  -3.2212
    -3.2099  -3.1343  -3.0243  -2.9121  -2.7176  -2.5467  -2.4577  -2.1816
    -2.0816  -2.0151  -1.8616  -1.8449  -1.7298  -1.5761  -1.4218  -1.3816
    -1.2325  -1.1170  -1.0588  -0.9351  -0.8962  -0.8410  -0.8214   3.7981
     3.8958   3.9286   4.0890   4.1410   4.3052   4.3300   4.4082   4.4466
     4.5852   4.6633   4.7094   4.7223   4.7489   4.8098   4.8879   4.9197
     5.0051   5.1162   5.1562   5.2268   5.6828   5.7119

          k = 0.3333 0.1166 0.0000 ( 37206 PWs)   bands (ev):

   -69.7611 -69.6405 -69.6285 -69.3956 -69.3365 -69.2923 -41.3456 -41.2897
   -41.1629 -41.1296 -41.0175 -40.9707 -40.9642 -40.8849 -40.8844 -40.8615
   -40.8457 -40.8098 -40.7543 -40.7515 -40.6723 -40.6454 -40.5999 -40.5836
   -26.1613 -18.0971 -17.7036 -17.4933 -17.3001 -17.2527 -17.1355 -17.0173
   -16.9479 -16.9139 -16.8539 -16.7965 -16.3019 -14.5404  -7.6884  -7.3142
    -6.9890  -5.7562  -4.7509  -4.7162  -4.6350  -4.5363  -4.4645  -4.4199
    -4.3045  -4.1373  -4.0680  -4.0148  -3.8713  -3.6721  -3.5392  -3.2956
    -3.2303  -3.1674  -3.1111  -2.8902  -2.8060  -2.5682  -2.5177  -2.3077
    -2.2444  -2.1739  -2.0550  -1.8217  -1.7192  -1.5839  -1.4471  -1.3256
    -1.2057  -1.1336  -1.0602  -0.9413  -0.9042  -0.7925  -0.7761   3.7390
     3.8276   3.9399   3.9940   4.0459   4.1545   4.2464   4.5180   4.5342
     4.5791   4.6660   4.7239   4.7935   4.8480   4.9340   4.9525   5.0083
     5.0430   5.1443   5.2177   5.2468   5.3655   5.5077

          k = 0.3333-0.2332 0.0000 ( 37216 PWs)   bands (ev):

   -69.7611 -69.6405 -69.6285 -69.3956 -69.3364 -69.2923 -41.3458 -41.2898
   -41.1629 -41.1296 -41.0185 -40.9705 -40.9639 -40.8846 -40.8842 -40.8617
   -40.8457 -40.8124 -40.7539 -40.7481 -40.6737 -40.6453 -40.6000 -40.5832
   -26.1612 -18.0913 -17.5885 -17.4336 -17.3651 -17.2755 -17.1588 -17.0711
   -16.9901 -16.9243 -16.8645 -16.7829 -16.3003 -14.5370  -7.6935  -7.3342
    -6.9753  -5.7336  -4.6904  -4.4973  -4.4172  -4.3824  -4.2948  -4.2764
    -4.2391  -4.1023  -4.0462  -3.9342  -3.8001  -3.7620  -3.6737  -3.6070
    -3.2342  -3.1677  -3.1381  -3.0610  -3.0104  -2.7951  -2.4898  -2.4258
    -2.2769  -2.2128  -2.1442  -2.0049  -1.7801  -1.5211  -1.3573  -1.2852
    -1.2187  -1.1420  -1.0692  -0.9415  -0.9019  -0.7537  -0.7193   3.6828
     3.6854   3.9191   3.9534   3.9841   4.1549   4.3046   4.4389   4.5751
     4.6295   4.7273   4.8284   4.8591   4.8919   5.0084   5.0572   5.0766
     5.0783   5.0928   5.1326   5.1454   5.2077   5.2892

          k = 0.3333-0.1166 0.0000 ( 37206 PWs)   bands (ev):

   -69.7611 -69.6405 -69.6285 -69.3956 -69.3365 -69.2923 -41.3456 -41.2897
   -41.1629 -41.1296 -41.0175 -40.9706 -40.9641 -40.8849 -40.8845 -40.8615
   -40.8457 -40.8090 -40.7543 -40.7527 -40.6718 -40.6453 -40.5999 -40.5836
   -26.1613 -18.0967 -17.7037 -17.4933 -17.2989 -17.2537 -17.1350 -17.0168
   -16.9487 -16.9136 -16.8550 -16.7963 -16.3019 -14.5404  -7.6762  -7.3304
    -6.9864  -5.7537  -4.7513  -4.7162  -4.6346  -4.5368  -4.4645  -4.4193
    -4.3062  -4.1335  -4.0700  -4.0102  -3.8777  -3.6750  -3.5422  -3.2966
    -3.2313  -3.1674  -3.1080  -2.8873  -2.8056  -2.5700  -2.5163  -2.3077
    -2.2472  -2.1733  -2.0449  -1.8182  -1.7186  -1.5827  -1.4435  -1.3393
    -1.2127  -1.1413  -1.0454  -0.9517  -0.9085  -0.7910  -0.7639   3.7374
     3.8280   3.9397   3.9968   4.0465   4.1538   4.2453   4.5169   4.5351
     4.5789   4.6648   4.7235   4.7936   4.8486   4.9344   4.9533   5.0098
     5.0427   5.1457   5.2193   5.2463   5.3655   5.5076

          k = 0.4444 0.0000 0.0000 ( 37180 PWs)   bands (ev):

   -69.7574 -69.6368 -69.6249 -69.3919 -69.3327 -69.2887 -41.3421 -41.2858
   -41.1599 -41.1221 -41.0559 -40.9636 -40.9624 -40.9275 -40.9041 -40.8818
   -40.8380 -40.8017 -40.7996 -40.7989 -40.6645 -40.6399 -40.6215 -40.5914
   -26.1243 -17.9962 -17.3982 -17.3184 -17.1897 -17.1658 -17.0461 -17.0377
   -17.0119 -16.9192 -16.8436 -16.7898 -16.2909 -14.5062  -7.7745  -7.3897
    -6.9803  -5.7231  -4.9971  -4.7908  -4.7030  -4.5832  -4.5427  -4.4937
    -4.4136  -4.2708  -4.1683  -4.0744  -3.7964  -3.6892  -3.5922  -3.4638
    -3.3838  -3.2383  -3.0275  -2.8217  -2.6640  -2.6334  -2.6208  -2.5300
    -2.4057  -1.9502  -1.9282  -1.7664  -1.6709  -1.5631  -1.4785  -1.3529
    -1.3162  -1.2530  -1.1453  -1.0687  -0.9314  -0.9041  -0.8220   3.8028
     3.9215   4.0546   4.0763   4.1244   4.3017   4.3777   4.4987   4.5588
     4.5749   4.6650   4.7013   4.7664   4.8650   4.8920   4.9715   5.0724
     5.0907   5.1688   5.2402   5.3327   5.6477   5.7043

          k = 0.4444 0.1166 0.0000 ( 37248 PWs)   bands (ev):

   -69.7574 -69.6368 -69.6248 -69.3918 -69.3326 -69.2887 -41.3426 -41.2866
   -41.1599 -41.1221 -41.0566 -40.9637 -40.9619 -40.9267 -40.9043 -40.8818
   -40.8380 -40.8178 -40.7990 -40.7826 -40.6662 -40.6397 -40.6204 -40.5914
   -26.1242 -17.9972 -17.3685 -17.2948 -17.1844 -17.1622 -17.0819 -17.0394
   -17.0177 -16.9229 -16.8707 -16.7940 -16.2909 -14.5030  -7.7754  -7.4181
    -6.9654  -5.7017  -4.9142  -4.8489  -4.6587  -4.5700  -4.4239  -4.4038
    -4.3476  -4.3050  -4.2008  -4.0141  -3.8059  -3.6553  -3.4975  -3.4114
    -3.2226  -3.2142  -3.1514  -2.9288  -2.9159  -2.7140  -2.6522  -2.5507
    -2.1875  -2.1449  -1.9586  -1.6730  -1.6146  -1.5498  -1.4995  -1.4361
    -1.3547  -1.2721  -1.1678  -1.0672  -1.0364  -0.9369  -0.7913   3.7174
     3.7549   3.8530   3.8831   4.0703   4.1460   4.2977   4.3510   4.5659
     4.6971   4.7169   4.7835   4.8969   4.9328   4.9674   5.0141   5.0701
     5.1064   5.1514   5.2353   5.2724   5.3316   5.4042

          k = 0.4444-0.2332 0.0000 ( 37264 PWs)   bands (ev):

   -69.7574 -69.6368 -69.6247 -69.3918 -69.3325 -69.2887 -41.3432 -41.2874
   -41.1599 -41.1222 -41.0572 -40.9637 -40.9614 -40.9259 -40.9046 -40.8818
   -40.8380 -40.8247 -40.7985 -40.7757 -40.6677 -40.6394 -40.6194 -40.5913
   -26.1242 -17.9981 -17.3268 -17.2604 -17.1902 -17.1837 -17.0866 -17.0616
   -17.0131 -16.9298 -16.9015 -16.7990 -16.2909 -14.4998  -7.7716  -7.4501
    -6.9515  -5.6788  -4.8905  -4.8756  -4.7121  -4.5069  -4.4580  -4.3145
    -4.1757  -4.1367  -4.0428  -3.8695  -3.8114  -3.6615  -3.4567  -3.4200
    -3.4138  -3.3371  -3.1811  -3.0739  -2.8722  -2.8003  -2.6965  -2.5287
    -2.2676  -2.0268  -1.9295  -1.7913  -1.6817  -1.5722  -1.4493  -1.4402
    -1.2866  -1.2579  -1.2033  -1.1440  -1.0526  -1.0199  -0.7771   3.5536
     3.5627   3.7747   3.8034   3.9631   4.1522   4.2777   4.2911   4.5690
     4.5834   4.6872   4.7724   4.8619   4.9350   4.9508   5.0234   5.1404
     5.1728   5.2079   5.2155   5.2810   5.2889   5.3480

          k = 0.4444-0.1166 0.0000 ( 37248 PWs)   bands (ev):

   -69.7574 -69.6368 -69.6248 -69.3918 -69.3326 -69.2887 -41.3426 -41.2866
   -41.1599 -41.1221 -41.0566 -40.9637 -40.9619 -40.9267 -40.9043 -40.8818
   -40.8380 -40.8174 -40.7990 -40.7832 -40.6661 -40.6396 -40.6205 -40.5914
   -26.1242 -17.9971 -17.3686 -17.2948 -17.1834 -17.1629 -17.0823 -17.0386
   -17.0174 -16.9234 -16.8714 -16.7940 -16.2909 -14.5030  -7.7707  -7.4241
    -6.9644  -5.7005  -4.9149  -4.8481  -4.6585  -4.5710  -4.4271  -4.3997
    -4.3468  -4.3064  -4.2032  -4.0140  -3.8046  -3.6556  -3.4963  -3.4125
    -3.2257  -3.2117  -3.1513  -2.9289  -2.9176  -2.7135  -2.6512  -2.5494
    -2.1889  -2.1386  -1.9624  -1.6771  -1.6061  -1.5505  -1.4977  -1.4309
    -1.3603  -1.2871  -1.1662  -1.0611  -1.0402  -0.9319  -0.7913   3.7172
     3.7539   3.8552   3.8822   4.0708   4.1465   4.2975   4.3501   4.5661
     4.6959   4.7179   4.7830   4.8952   4.9336   4.9678   5.0149   5.0689
     5.1068   5.1509   5.2351   5.2730   5.3327   5.4041

          k =-0.4444 0.0000 0.0000 ( 37180 PWs)   bands (ev):

   -69.7574 -69.6368 -69.6249 -69.3919 -69.3327 -69.2887 -41.3421 -41.2858
   -41.1599 -41.1221 -41.0559 -40.9636 -40.9624 -40.9275 -40.9041 -40.8818
   -40.8380 -40.8017 -40.7996 -40.7989 -40.6645 -40.6399 -40.6215 -40.5914
   -26.1243 -17.9962 -17.3982 -17.3184 -17.1897 -17.1658 -17.0461 -17.0377
   -17.0119 -16.9192 -16.8436 -16.7898 -16.2909 -14.5062  -7.7745  -7.3897
    -6.9803  -5.7231  -4.9971  -4.7908  -4.7030  -4.5832  -4.5427  -4.4937
    -4.4136  -4.2708  -4.1683  -4.0744  -3.7964  -3.6892  -3.5922  -3.4638
    -3.3838  -3.2383  -3.0275  -2.8217  -2.6640  -2.6334  -2.6208  -2.5300
    -2.4057  -1.9502  -1.9282  -1.7664  -1.6709  -1.5631  -1.4785  -1.3529
    -1.3162  -1.2530  -1.1453  -1.0687  -0.9314  -0.9041  -0.8220   3.8028
     3.9215   4.0546   4.0763   4.1244   4.3017   4.3777   4.4987   4.5588
     4.5750   4.6650   4.7012   4.7664   4.8650   4.8920   4.9715   5.0724
     5.0907   5.1688   5.2402   5.3329   5.6477   5.7045

          k =-0.4444 0.1166 0.0000 ( 37248 PWs)   bands (ev):

   -69.7574 -69.6368 -69.6248 -69.3918 -69.3326 -69.2887 -41.3426 -41.2866
   -41.1599 -41.1221 -41.0566 -40.9637 -40.9619 -40.9267 -40.9043 -40.8818
   -40.8380 -40.8174 -40.7990 -40.7832 -40.6661 -40.6396 -40.6205 -40.5914
   -26.1242 -17.9971 -17.3686 -17.2948 -17.1834 -17.1629 -17.0823 -17.0386
   -17.0174 -16.9234 -16.8714 -16.7940 -16.2909 -14.5030  -7.7707  -7.4241
    -6.9644  -5.7005  -4.9149  -4.8481  -4.6585  -4.5710  -4.4271  -4.3997
    -4.3468  -4.3064  -4.2032  -4.0140  -3.8046  -3.6556  -3.4963  -3.4125
    -3.2257  -3.2117  -3.1513  -2.9289  -2.9176  -2.7135  -2.6512  -2.5494
    -2.1889  -2.1386  -1.9624  -1.6771  -1.6061  -1.5505  -1.4977  -1.4309
    -1.3603  -1.2871  -1.1662  -1.0611  -1.0402  -0.9319  -0.7913   3.7172
     3.7539   3.8552   3.8822   4.0708   4.1465   4.2975   4.3501   4.5661
     4.6959   4.7179   4.7830   4.8952   4.9336   4.9678   5.0149   5.0689
     5.1068   5.1509   5.2351   5.2731   5.3328   5.4055

          k =-0.4444-0.2332 0.0000 ( 37264 PWs)   bands (ev):

   -69.7574 -69.6368 -69.6247 -69.3918 -69.3325 -69.2887 -41.3432 -41.2874
   -41.1599 -41.1222 -41.0572 -40.9637 -40.9614 -40.9259 -40.9046 -40.8818
   -40.8380 -40.8247 -40.7985 -40.7757 -40.6677 -40.6394 -40.6194 -40.5913
   -26.1242 -17.9981 -17.3268 -17.2604 -17.1902 -17.1837 -17.0866 -17.0616
   -17.0131 -16.9298 -16.9015 -16.7990 -16.2909 -14.4998  -7.7716  -7.4501
    -6.9515  -5.6788  -4.8905  -4.8756  -4.7121  -4.5069  -4.4580  -4.3145
    -4.1757  -4.1367  -4.0428  -3.8695  -3.8114  -3.6615  -3.4567  -3.4200
    -3.4138  -3.3371  -3.1811  -3.0739  -2.8722  -2.8003  -2.6965  -2.5287
    -2.2676  -2.0268  -1.9295  -1.7913  -1.6817  -1.5722  -1.4493  -1.4402
    -1.2866  -1.2579  -1.2033  -1.1440  -1.0526  -1.0199  -0.7771   3.5536
     3.5627   3.7747   3.8034   3.9631   4.1522   4.2777   4.2911   4.5690
     4.5834   4.6872   4.7724   4.8619   4.9350   4.9508   5.0234   5.1404
     5.1728   5.2079   5.2154   5.2809   5.2889   5.3480

          k =-0.4444-0.1166 0.0000 ( 37248 PWs)   bands (ev):

   -69.7574 -69.6368 -69.6248 -69.3918 -69.3326 -69.2887 -41.3426 -41.2866
   -41.1599 -41.1221 -41.0566 -40.9637 -40.9619 -40.9267 -40.9043 -40.8818
   -40.8380 -40.8178 -40.7990 -40.7826 -40.6662 -40.6397 -40.6204 -40.5914
   -26.1242 -17.9972 -17.3685 -17.2948 -17.1844 -17.1622 -17.0819 -17.0394
   -17.0177 -16.9229 -16.8707 -16.7940 -16.2909 -14.5030  -7.7754  -7.4181
    -6.9654  -5.7017  -4.9142  -4.8489  -4.6587  -4.5700  -4.4239  -4.4038
    -4.3476  -4.3050  -4.2008  -4.0141  -3.8059  -3.6553  -3.4975  -3.4114
    -3.2226  -3.2142  -3.1514  -2.9288  -2.9159  -2.7140  -2.6522  -2.5507
    -2.1875  -2.1449  -1.9586  -1.6730  -1.6146  -1.5498  -1.4995  -1.4361
    -1.3547  -1.2721  -1.1678  -1.0672  -1.0364  -0.9369  -0.7913   3.7174
     3.7549   3.8530   3.8831   4.0703   4.1460   4.2977   4.3510   4.5659
     4.6971   4.7169   4.7835   4.8969   4.9328   4.9674   5.0141   5.0701
     5.1064   5.1515   5.2353   5.2724   5.3316   5.4044

          k =-0.3333 0.0000 0.0000 ( 37184 PWs)   bands (ev):

   -69.7611 -69.6405 -69.6286 -69.3957 -69.3365 -69.2923 -41.3453 -41.2895
   -41.1629 -41.1295 -41.0165 -40.9708 -40.9644 -40.8855 -40.8845 -40.8613
   -40.8457 -40.8060 -40.7564 -40.7547 -40.6704 -40.6454 -40.5998 -40.5841
   -26.1613 -18.1030 -17.7684 -17.5511 -17.3266 -17.2038 -17.0402 -17.0039
   -16.9447 -16.8912 -16.8250 -16.8193 -16.3037 -14.5438  -7.6718  -7.3081
    -7.0016  -5.7762  -4.9954  -4.8708  -4.7477  -4.6555  -4.5780  -4.4970
    -4.2561  -4.2137  -4.0773  -3.9768  -3.8185  -3.5852  -3.5363  -3.2212
    -3.2099  -3.1343  -3.0243  -2.9121  -2.7176  -2.5467  -2.4577  -2.1816
    -2.0816  -2.0151  -1.8616  -1.8449  -1.7298  -1.5761  -1.4218  -1.3816
    -1.2325  -1.1170  -1.0588  -0.9351  -0.8962  -0.8410  -0.8214   3.7981
     3.8958   3.9286   4.0890   4.1409   4.3052   4.3300   4.4081   4.4466
     4.5852   4.6633   4.7094   4.7221   4.7489   4.8098   4.8877   4.9196
     5.0050   5.1162   5.1562   5.2268   5.6835   5.7119

          k =-0.3333 0.1166 0.0000 ( 37206 PWs)   bands (ev):

   -69.7611 -69.6405 -69.6285 -69.3956 -69.3365 -69.2923 -41.3456 -41.2897
   -41.1629 -41.1296 -41.0175 -40.9706 -40.9641 -40.8849 -40.8845 -40.8615
   -40.8457 -40.8090 -40.7543 -40.7527 -40.6718 -40.6453 -40.5999 -40.5836
   -26.1613 -18.0967 -17.7037 -17.4933 -17.2989 -17.2537 -17.1350 -17.0168
   -16.9487 -16.9136 -16.8550 -16.7963 -16.3019 -14.5404  -7.6762  -7.3304
    -6.9864  -5.7537  -4.7513  -4.7162  -4.6346  -4.5368  -4.4645  -4.4193
    -4.3062  -4.1335  -4.0700  -4.0102  -3.8777  -3.6750  -3.5422  -3.2966
    -3.2313  -3.1674  -3.1080  -2.8873  -2.8056  -2.5700  -2.5163  -2.3077
    -2.2472  -2.1733  -2.0449  -1.8182  -1.7186  -1.5827  -1.4435  -1.3393
    -1.2127  -1.1413  -1.0454  -0.9517  -0.9085  -0.7910  -0.7639   3.7374
     3.8280   3.9397   3.9968   4.0466   4.1538   4.2453   4.5169   4.5351
     4.5789   4.6648   4.7235   4.7936   4.8486   4.9345   4.9533   5.0098
     5.0427   5.1458   5.2193   5.2464   5.3657   5.5077

          k =-0.3333-0.2332 0.0000 ( 37216 PWs)   bands (ev):

   -69.7611 -69.6405 -69.6285 -69.3956 -69.3364 -69.2923 -41.3458 -41.2898
   -41.1629 -41.1296 -41.0185 -40.9705 -40.9639 -40.8846 -40.8842 -40.8617
   -40.8457 -40.8124 -40.7539 -40.7481 -40.6737 -40.6453 -40.6000 -40.5832
   -26.1612 -18.0913 -17.5885 -17.4336 -17.3651 -17.2755 -17.1588 -17.0711
   -16.9901 -16.9243 -16.8645 -16.7829 -16.3003 -14.5370  -7.6935  -7.3342
    -6.9753  -5.7336  -4.6904  -4.4973  -4.4172  -4.3824  -4.2948  -4.2764
    -4.2391  -4.1023  -4.0462  -3.9342  -3.8001  -3.7620  -3.6737  -3.6070
    -3.2342  -3.1677  -3.1381  -3.0610  -3.0104  -2.7951  -2.4898  -2.4258
    -2.2769  -2.2128  -2.1442  -2.0049  -1.7801  -1.5211  -1.3573  -1.2852
    -1.2187  -1.1420  -1.0692  -0.9415  -0.9019  -0.7537  -0.7193   3.6828
     3.6854   3.9191   3.9534   3.9841   4.1549   4.3046   4.4389   4.5751
     4.6295   4.7273   4.8284   4.8591   4.8919   5.0084   5.0572   5.0767
     5.0785   5.0928   5.1327   5.1454   5.2077   5.2890

          k =-0.3333-0.1166 0.0000 ( 37206 PWs)   bands (ev):

   -69.7611 -69.6405 -69.6285 -69.3956 -69.3365 -69.2923 -41.3456 -41.2897
   -41.1629 -41.1296 -41.0175 -40.9707 -40.9642 -40.8849 -40.8844 -40.8615
   -40.8457 -40.8098 -40.7543 -40.7515 -40.6723 -40.6454 -40.5999 -40.5836
   -26.1613 -18.0971 -17.7036 -17.4933 -17.3001 -17.2527 -17.1355 -17.0173
   -16.9479 -16.9139 -16.8539 -16.7965 -16.3019 -14.5404  -7.6884  -7.3142
    -6.9890  -5.7562  -4.7509  -4.7162  -4.6350  -4.5363  -4.4645  -4.4199
    -4.3045  -4.1373  -4.0680  -4.0148  -3.8713  -3.6721  -3.5392  -3.2956
    -3.2303  -3.1674  -3.1111  -2.8902  -2.8060  -2.5682  -2.5177  -2.3077
    -2.2444  -2.1739  -2.0550  -1.8217  -1.7192  -1.5839  -1.4471  -1.3256
    -1.2057  -1.1336  -1.0602  -0.9413  -0.9042  -0.7925  -0.7761   3.7390
     3.8276   3.9399   3.9940   4.0459   4.1545   4.2464   4.5180   4.5342
     4.5791   4.6660   4.7239   4.7935   4.8480   4.9339   4.9525   5.0084
     5.0430   5.1444   5.2178   5.2469   5.3655   5.5078

          k =-0.2222 0.0000 0.0000 ( 37192 PWs)   bands (ev):

   -69.7661 -69.6456 -69.6336 -69.4009 -69.3418 -69.2971 -41.3505 -41.2953
   -41.1677 -41.1416 -40.9818 -40.9745 -40.9491 -40.8890 -40.8585 -40.8202
   -40.8136 -40.7960 -40.6947 -40.6864 -40.6760 -40.6561 -40.6126 -40.5248
   -26.2173 -18.3201 -18.1290 -17.8203 -17.5292 -17.3524 -17.0301 -16.9940
   -16.9539 -16.8691 -16.8486 -16.7894 -16.2854 -14.6024  -7.6415  -7.1987
    -6.8656  -5.8750  -5.2207  -5.1664  -4.9822  -4.7510  -4.4682  -4.3212
    -4.2986  -4.1779  -3.9771  -3.8837  -3.6717  -3.5384  -3.1775  -3.0432
    -2.9194  -2.8836  -2.7853  -2.5760  -2.4903  -2.3891  -2.1704  -2.0410
    -2.0240  -2.0026  -1.9051  -1.8177  -1.7073  -1.5347  -1.3870  -1.3065
    -1.2031  -1.1312  -0.8923  -0.8491  -0.7070  -0.6794  -0.5923   3.7443
     3.8282   3.9260   4.0282   4.0596   4.2003   4.2192   4.2614   4.3184
     4.4211   4.4723   4.5500   4.6002   4.6512   4.7049   4.7559   4.9090
     5.0646   5.0712   5.2219   5.2919   5.6346   5.7003

          k =-0.2222 0.1166 0.0000 ( 37137 PWs)   bands (ev):

   -69.7661 -69.6456 -69.6336 -69.4009 -69.3418 -69.2972 -41.3502 -41.2945
   -41.1676 -41.1417 -40.9839 -40.9740 -40.9485 -40.8889 -40.8585 -40.8199
   -40.8119 -40.7961 -40.6964 -40.6862 -40.6762 -40.6561 -40.6129 -40.5247
   -26.2172 -18.2822 -18.0532 -17.7474 -17.5249 -17.4336 -17.1930 -17.0288
   -16.9599 -16.8602 -16.8077 -16.8025 -16.2794 -14.5988  -7.6594  -7.1896
    -6.8658  -5.8601  -5.0175  -4.8822  -4.7499  -4.6433  -4.3359  -4.2938
    -4.2347  -4.1747  -4.0731  -3.8321  -3.5710  -3.4084  -3.2648  -3.1683
    -3.0761  -2.9673  -2.8681  -2.6194  -2.5816  -2.4841  -2.3513  -2.3151
    -2.2288  -2.1826  -2.0350  -1.8648  -1.8000  -1.5712  -1.3486  -1.2061
    -1.1378  -1.0759  -0.9742  -0.7797  -0.7186  -0.6780  -0.6076   3.7509
     3.8392   3.9846   4.0533   4.1477   4.1791   4.3044   4.4213   4.4441
     4.5583   4.5628   4.6020   4.6713   4.7011   4.7655   4.8303   4.9215
     4.9835   5.0535   5.2712   5.3373   5.5959   5.6594

          k =-0.2222-0.2332 0.0000 ( 37166 PWs)   bands (ev):

   -69.7661 -69.6456 -69.6336 -69.4008 -69.3418 -69.2972 -41.3499 -41.2937
   -41.1675 -41.1417 -40.9859 -40.9738 -40.9479 -40.8888 -40.8586 -40.8197
   -40.8106 -40.7962 -40.6952 -40.6861 -40.6788 -40.6561 -40.6133 -40.5246
   -26.2172 -18.2469 -17.9035 -17.7088 -17.6074 -17.4083 -17.3364 -17.1136
   -16.9864 -16.8550 -16.8126 -16.7702 -16.2741 -14.5953  -7.6852  -7.1738
    -6.8626  -5.8465  -4.9077  -4.5138  -4.4696  -4.3080  -4.2790  -4.2376
    -4.1128  -4.0026  -3.9613  -3.8372  -3.6001  -3.4001  -3.3928  -3.3606
    -3.2282  -3.1451  -2.9672  -2.9017  -2.7769  -2.6884  -2.6390  -2.4593
    -2.3079  -2.1730  -2.0930  -2.0223  -1.9817  -1.4923  -1.2878  -1.2220
    -1.0440  -1.0079  -0.8606  -0.8072  -0.7435  -0.6700  -0.6297   3.7385
     3.9017   3.9438   4.0866   4.1403   4.1835   4.4280   4.5189   4.5840
     4.6409   4.7161   4.7557   4.8674   4.8796   4.8899   4.9042   4.9286
     5.0216   5.1293   5.1462   5.2319   5.2878   5.3991

          k =-0.2222-0.1166 0.0000 ( 37137 PWs)   bands (ev):

   -69.7661 -69.6456 -69.6336 -69.4009 -69.3418 -69.2972 -41.3502 -41.2945
   -41.1676 -41.1417 -40.9839 -40.9740 -40.9485 -40.8889 -40.8585 -40.8199
   -40.8123 -40.7961 -40.6931 -40.6862 -40.6789 -40.6562 -40.6129 -40.5247
   -26.2172 -18.2826 -18.0530 -17.7473 -17.5253 -17.4333 -17.1932 -17.0286
   -16.9596 -16.8603 -16.8069 -16.8028 -16.2794 -14.5988  -7.6680  -7.1818
    -6.8626  -5.8633  -5.0172  -4.8819  -4.7499  -4.6424  -4.3362  -4.2930
    -4.2340  -4.1769  -4.0740  -3.8331  -3.5679  -3.4090  -3.2631  -3.1668
    -3.0758  -2.9657  -2.8683  -2.6165  -2.5803  -2.4920  -2.3507  -2.3149
    -2.2282  -2.1797  -2.0367  -1.8724  -1.8003  -1.5778  -1.3458  -1.2083
    -1.1314  -1.0753  -0.9593  -0.7833  -0.7222  -0.6835  -0.6069   3.7511
     3.8403   3.9853   4.0513   4.1477   4.1783   4.3046   4.4209   4.4459
     4.5581   4.5634   4.6017   4.6716   4.7012   4.7636   4.8302   4.9203
     4.9814   5.0528   5.2702   5.3335   5.5984   5.6583

          k =-0.1111 0.0000 0.0000 ( 37175 PWs)   bands (ev):

   -69.7699 -69.6495 -69.6375 -69.4049 -69.3459 -69.3008 -41.3551 -41.3006
   -41.1720 -41.1524 -40.9914 -40.9756 -40.8997 -40.8911 -40.8689 -40.8206
   -40.7641 -40.7389 -40.6897 -40.6659 -40.6318 -40.6268 -40.6238 -40.4730
   -26.2658 -18.5556 -18.3637 -18.0256 -17.6914 -17.4933 -17.0991 -17.0247
   -16.9128 -16.9001 -16.8166 -16.7564 -16.2460 -14.6547  -7.6665  -7.2178
    -6.5486  -5.9895  -5.5063  -5.3641  -5.1750  -4.9283  -4.3248  -4.2820
    -4.1257  -4.0037  -3.8701  -3.8539  -3.5644  -3.3128  -3.2687  -3.0247
    -2.7748  -2.6370  -2.5655  -2.4210  -2.3869  -2.3154  -2.1996  -2.1211
    -2.0675  -1.9789  -1.7736  -1.5583  -1.4573  -1.2718  -1.1896  -1.0823
    -0.9428  -0.9060  -0.8750  -0.6936  -0.5852  -0.5256  -0.3706   3.5603
     3.7316   3.9086   3.9127   3.9320   3.9679   4.0712   4.1016   4.1780
     4.3213   4.3507   4.4376   4.4465   4.5910   4.6509   4.7139   4.8536
     4.9131   5.2583   5.4023   5.4139   5.6378   5.8201

          k =-0.1111 0.1166 0.0000 ( 37124 PWs)   bands (ev):

   -69.7700 -69.6496 -69.6376 -69.4049 -69.3459 -69.3009 -41.3544 -41.2990
   -41.1719 -41.1525 -40.9932 -40.9755 -40.8996 -40.8910 -40.8690 -40.8168
   -40.7641 -40.7389 -40.6939 -40.6659 -40.6314 -40.6269 -40.6244 -40.4730
   -26.2657 -18.4793 -18.2909 -17.9474 -17.7275 -17.5804 -17.2882 -17.0700
   -16.9480 -16.8261 -16.7851 -16.7668 -16.2380 -14.6510  -7.6894  -7.2016
    -6.5497  -5.9762  -5.2879  -5.1063  -4.9546  -4.8321  -4.3197  -4.2066
    -4.0237  -3.9742  -3.8928  -3.7213  -3.5038  -3.3200  -3.2661  -3.0434
    -2.8585  -2.8215  -2.7456  -2.6413  -2.5225  -2.3184  -2.2619  -2.1399
    -2.0626  -1.9879  -1.9124  -1.6854  -1.4463  -1.4047  -1.3574  -1.1562
    -1.0939  -1.0462  -0.8620  -0.7250  -0.5914  -0.5274  -0.4616   3.5532
     3.9910   4.0219   4.0370   4.1193   4.1866   4.2273   4.2461   4.2897
     4.3386   4.4634   4.5035   4.5701   4.6358   4.6729   4.7253   4.8068
     4.9627   5.1224   5.3162   5.5133   5.6706   5.8305

          k =-0.1111-0.2332 0.0000 ( 37144 PWs)   bands (ev):

   -69.7700 -69.6497 -69.6376 -69.4049 -69.3460 -69.3010 -41.3537 -41.2974
   -41.1718 -41.1527 -40.9949 -40.9755 -40.8995 -40.8908 -40.8691 -40.8129
   -40.7640 -40.7389 -40.6977 -40.6659 -40.6314 -40.6268 -40.6251 -40.4731
   -26.2656 -18.3927 -18.1484 -17.9287 -17.8110 -17.5493 -17.5012 -17.1611
   -16.9604 -16.8068 -16.7713 -16.7478 -16.2311 -14.6473  -7.7157  -7.1846
    -6.5459  -5.9639  -5.1310  -4.7598  -4.7393  -4.5324  -4.3586  -4.0845
    -4.0111  -3.8262  -3.7581  -3.6553  -3.3683  -3.3315  -3.2695  -3.1316
    -2.9892  -2.9548  -2.9010  -2.8002  -2.7563  -2.7200  -2.5553  -2.2794
    -2.0553  -2.0385  -1.9421  -1.8731  -1.5276  -1.3929  -1.3734  -1.2550
    -1.0333  -0.9980  -0.8554  -0.7794  -0.6871  -0.5374  -0.5116   3.5379
     4.0620   4.0767   4.1242   4.1546   4.3756   4.4267   4.4467   4.4523
     4.5075   4.5599   4.5946   4.6425   4.7406   4.8081   4.8569   4.8878
     5.0393   5.0450   5.3487   5.3894   5.6134   5.6571

          k =-0.1111-0.1166 0.0000 ( 37124 PWs)   bands (ev):

   -69.7700 -69.6496 -69.6376 -69.4049 -69.3459 -69.3009 -41.3544 -41.2990
   -41.1719 -41.1525 -40.9932 -40.9755 -40.8996 -40.8910 -40.8690 -40.8170
   -40.7641 -40.7389 -40.6933 -40.6659 -40.6318 -40.6268 -40.6245 -40.4730
   -26.2657 -18.4796 -18.2909 -17.9473 -17.7276 -17.5802 -17.2883 -17.0698
   -16.9480 -16.8261 -16.7850 -16.7667 -16.2380 -14.6510  -7.6932  -7.1998
    -6.5448  -5.9797  -5.2879  -5.1061  -4.9543  -4.8308  -4.3198  -4.2060
    -4.0229  -3.9782  -3.8924  -3.7219  -3.4993  -3.3228  -3.2663  -3.0434
    -2.8595  -2.8229  -2.7453  -2.6419  -2.5207  -2.3166  -2.2604  -2.1377
    -2.0582  -1.9898  -1.9161  -1.6854  -1.4491  -1.4075  -1.3585  -1.1558
    -1.0946  -1.0414  -0.8552  -0.7354  -0.5910  -0.5323  -0.4541   3.5532
     3.9910   4.0230   4.0374   4.1173   4.1862   4.2278   4.2468   4.2881
     4.3390   4.4610   4.5058   4.5706   4.6357   4.6727   4.7272   4.8064
     4.9596   5.1225   5.3169   5.5053   5.6635   5.8327

     the Fermi energy is     0.7526 ev

!    total energy              =   -1636.56973934 Ry
     estimated scf accuracy    <       0.00000050 Ry
     smearing contrib. (-TS)   =      -0.00057173 Ry
     internal energy E=F+TS    =   -1636.56916760 Ry

     The total energy is F=E-TS. E is the sum of the following terms:
     one-electron contribution =  -15363.35523962 Ry
     hartree contribution      =    7713.04647193 Ry
     xc contribution           =    -239.19209327 Ry
     ewald contribution        =    6384.97294996 Ry
     Hubbard energy            =       1.23644851 Ry
     one-center paw contrib.   =    -133.27770512 Ry

     total magnetization       =    11.00 Bohr mag/cell
     absolute magnetization    =    21.20 Bohr mag/cell

     convergence has been achieved in  32 iterations

     negative rho (up, down):  2.532E-03 2.527E-02
     force_hub    :     11.61s CPU     11.83s WALL (       1 calls)
     dndtau       :      9.92s CPU     10.15s WALL (    1134 calls)
     dprojdtau    :      0.82s CPU      0.83s WALL (    6804 calls)
     matel_dSdtau :      8.99s CPU      9.21s WALL (    1134 calls)

     Forces acting on atoms (cartesian axes, Ry/au):

     atom    1 type  1   force =     0.00009350    0.00026793    0.07392364
     atom    2 type  1   force =     0.00001744    0.00049132   -0.04680310
     atom    3 type  1   force =    -0.00054515   -0.00019686   -0.00084779
     atom    4 type  1   force =    -0.00008134   -0.00047673   -0.00002535
     atom    5 type  1   force =    -0.00047570    0.00027461   -0.00041758
     atom    6 type  1   force =     0.00129403    0.00139997    0.00016834
     atom    7 type  3   force =    -0.00013031   -0.00401360    0.04547352
     atom    8 type  3   force =    -0.00000396   -0.00020961    0.00921475
     atom    9 type  3   force =    -0.00007754   -0.00057577   -0.03812743
     atom   10 type  3   force =     0.00000881    0.00059988   -0.03807040
     atom   11 type  3   force =     0.00131820    0.00075853   -0.00114965
     atom   12 type  3   force =    -0.00121045    0.00103508   -0.00323535
     atom   13 type  3   force =    -0.00062721    0.00043516   -0.00105721
     atom   14 type  3   force =    -0.00043791   -0.00026158    0.00132525
     atom   15 type  3   force =     0.00069094    0.00066956    0.00046471
     atom   16 type  3   force =    -0.00057925    0.00073550   -0.00141296
     atom   17 type  3   force =     0.00065149    0.00028954   -0.00065813
     atom   18 type  3   force =     0.00034558   -0.00024511   -0.00088397
     atom   19 type  3   force =    -0.00100823   -0.00051677    0.00113981
     atom   20 type  3   force =     0.00097999   -0.00030475    0.00118798
     atom   21 type  2   force =    -0.00022293   -0.00015633   -0.00020908

     Total force =     0.004885     Total SCF correction =     0.001865
     SCF correction compared to forces is large: reduce conv_thr to get better values

     Writing all to output data dir ./tmp_s0_OOH__1x1_off__g1/s0_OOH__1x1_off__g1.save/ :
     XML data file, charge density, pseudopotentials, collected wavefunctions

     init_run     :     12.51s CPU     13.62s WALL (       1 calls)
     electrons    :    802.18s CPU    874.71s WALL (       1 calls)
     forces       :     16.03s CPU     16.52s WALL (       1 calls)

     Called by init_run:
     wfcinit      :     10.61s CPU     11.49s WALL (       1 calls)
     potinit      :      0.80s CPU      0.90s WALL (       1 calls)
     hinit0       :      0.69s CPU      0.72s WALL (       1 calls)

     Called by electrons:
     c_bands      :    656.76s CPU    711.81s WALL (      32 calls)
     sum_band     :    107.59s CPU    118.83s WALL (      32 calls)
     v_of_rho     :     13.69s CPU     14.77s WALL (      33 calls)
     newd         :      6.43s CPU      9.46s WALL (      33 calls)
     PAW_pot      :      2.98s CPU      2.99s WALL (      33 calls)
     mix_rho      :     13.69s CPU     15.76s WALL (      32 calls)

     Called by c_bands:
     init_us_2    :     17.10s CPU     17.24s WALL (    1224 calls)
     cegterg      :    543.74s CPU    597.92s WALL (     576 calls)

     Called by *egterg:
     cdiaghg      :     23.87s CPU     23.95s WALL (    2323 calls)
     h_psi        :    345.53s CPU    388.14s WALL (    2341 calls)
     s_psi        :     40.79s CPU     41.20s WALL (    2377 calls)
     g_psi        :      2.94s CPU      2.95s WALL (    1747 calls)

     Called by h_psi:
     h_psi:calbec :     41.76s CPU     42.79s WALL (    2341 calls)
     vloc_psi     :    243.05s CPU    277.67s WALL (    2341 calls)
                                        0.00s GPU  (    2341 calls)
     add_vuspsi   :     40.48s CPU     40.61s WALL (    2341 calls)
     vhpsi        :     17.63s CPU     17.85s WALL (    2341 calls)

     General routines
     calbec       :     86.70s CPU     88.64s WALL (   10496 calls)
     fft          :      8.62s CPU      9.64s WALL (     838 calls)
     ffts         :      7.27s CPU      8.60s WALL (    3943 calls)
     fftw         :    276.13s CPU    314.60s WALL (  311194 calls)
     interpolate  :      0.98s CPU      1.08s WALL (      66 calls)

     Parallel routines

     Hubbard U routines
     new_ns       :      7.45s CPU      7.82s WALL (      32 calls)
     vhpsi        :     17.63s CPU     17.85s WALL (    2341 calls)
     force_hub    :     11.61s CPU     11.83s WALL (       1 calls)

     PWSCF        :  13m51.36s CPU  15m 6.66s WALL


   This run was terminated on:   6:46:24  13Aug2026            

=------------------------------------------------------------------------------=
   JOB DONE.
=------------------------------------------------------------------------------=
