
     Program PWSCF v.7.5 starts on 22Aug2026 at  0:43:22 

     This program is part of the open-source Quantum ESPRESSO suite
     for quantum simulation of materials; please cite
         "P. Giannozzi et al., J. Phys.:Condens. Matter 21 395502 (2009);
         "P. Giannozzi et al., J. Phys.:Condens. Matter 29 465901 (2017);
         "P. Giannozzi et al., J. Chem. Phys. 152 154105 (2020);
          URL http://www.quantum-espresso.org", 
     in publications or presentations arising from this work. More details at
     http://www.quantum-espresso.org/quote

     Parallel version (MPI & OpenMP), running on      20 processor cores
     Number of MPI processes:                20
     Threads/MPI process:                     1

     MPI processes distributed on     1 nodes
     53112 MiB available memory on the printing compute node when the environment starts

     Reading input from slab__beefhub.run.in

     Current dimensions of program PWSCF are:
     Max number of different atomic species (ntypx) = 10
     Max number of k-points (npk) =  40000
     Max angular momentum in pseudopotentials (lmaxx) =  4
     file O.pbe-n-kjpaw_psl.0.1.UPF: wavefunction(s)  2P renormalized

     **************************************************************************
     Initializing libbeef V0.1.2 with the BEEF-vdW functional.
     Citation: Wellendorff et al., PRB 85, 235149 (2012).
     **************************************************************************


     IMPORTANT: XC functional enforced from input :
     Exchange-correlation= BEEF-VDW
                           (   1   4  43  14   2   0   0)
     Any further DFT definition will be discarded
     Please, verify this is what you really want


     K-points division:     npool     =       4
     R & G space division:  proc/nbgrp/npool/nimage =       5
     Subspace diagonalization in iterative solution of the eigenvalue problem:
     a serial algorithm will be used


     Parallelization info
     --------------------
     sticks:   dense  smooth     PW     G-vecs:    dense   smooth      PW
     Min         717     358    102               185133    65418    9922
     Max         718     359    103               185148    65425    9929
     Sum        3587    1793    513               925697   327113   49625

     Using Slab Decomposition



     bravais-lattice index     =            0
     lattice parameter (alat)  =       5.8714  a.u.
     unit-cell volume          =    3384.5999 (a.u.)^3
     number of atoms/cell      =           18
     number of atomic types    =            2
     number of electrons       =       168.00
     number of Kohn-Sham states=          101
     kinetic-energy cutoff     =      80.0000  Ry
     charge density cutoff     =     640.0000  Ry
     scf convergence threshold =      1.0E-06
     mixing beta               =       0.3000
     number of iterations used =            8  local-TF  mixing
     Exchange-correlation= BEEF-VDW
                           (   1   4  43  14   2   0   0)
     Hubbard projectors: atomic
     Hubbard parameters of DFT+U (Dudarev formulation) in eV:
     U(Ru-4d) =  3.7000

     Internal variables: lda_plus_u =T, lda_plus_u_kind = 0

     Internal variables: orbital_resolved =F, hub_pot_fix =F, apply_U = F

     celldm(1)=   5.871379  celldm(2)=   0.000000  celldm(3)=   0.000000
     celldm(4)=   0.000000  celldm(5)=   0.000000  celldm(6)=   0.000000

     crystal axes: (cart. coord. in units of alat)
               a(1) = (   1.000000   0.000000   0.000000 )  
               a(2) = (   0.000000   2.044624   0.000000 )  
               a(3) = (   0.000000   0.000000   8.178497 )  

     reciprocal axes: (cart. coord. in units 2 pi/alat)
               b(1) = (  1.000000  0.000000  0.000000 )  
               b(2) = (  0.000000  0.489087  0.000000 )  
               b(3) = (  0.000000  0.000000  0.122272 )  


     PseudoPot. # 1 for Ru read from file:
     /usr/share/espresso/pseudo/Ru_ONCV_PBE-1.0.oncvpsp.upf
     MD5 check sum: be037bb81c227cfb9b1461a9f099f4bd
     Pseudo is Norm-conserving, Zval = 16.0
     Generated using ONCVPSP code by D. R. Hamann
     Using radial grid of 1458 points,  6 beta functions with: 
                l(1) =   0
                l(2) =   0
                l(3) =   1
                l(4) =   1
                l(5) =   2
                l(6) =   2

     PseudoPot. # 2 for O  read from file:
     /usr/share/espresso/pseudo/O.pbe-n-kjpaw_psl.0.1.UPF
     MD5 check sum: 0234752ac141de4415c5fc33072bef88
     Pseudo is Projector augmented-wave + core cor, Zval =  6.0
     Generated using "atomic" code by A. Dal Corso  v.5.0.99 svn rev. 10869
     Shape of augmentation charge: BESSEL
     Using radial grid of 1095 points,  4 beta functions with: 
                l(1) =   0
                l(2) =   0
                l(3) =   1
                l(4) =   1
     Q(r) pseudized with 0 coefficients 


     atomic species   valence    mass     pseudopotential
     Ru               16.00   101.07000     Ru( 1.00)
     O                 6.00    15.99900     O ( 1.00)

     No symmetry found



   Cartesian axes

     site n.     atom                  positions (alat units)
         1        Ru     tau(   1) = (   0.0000000   0.5111560   3.0669363  )
         2        Ru     tau(   2) = (   0.5000000   1.5334681   3.0669363  )
         3        Ru     tau(   3) = (  -0.0000000   1.5334682   4.1031648  )
         4        Ru     tau(   4) = (   0.4999999   0.5111560   4.0810147  )
         5        Ru     tau(   5) = (  -0.0000001   0.5111559   5.0865401  )
         6        Ru     tau(   6) = (   0.5000000   1.5334681   5.1601732  )
         7        O      tau(   7) = (   0.0000000   1.5334681   3.4656380  )
         8        O      tau(   8) = (   0.0000000   1.5334681   2.6682346  )
         9        O      tau(   9) = (   0.5000000   0.1124543   3.0669363  )
        10        O      tau(  10) = (   0.5000000   0.9098578   3.0669363  )
        11        O      tau(  11) = (  -0.0000002   0.5111559   4.4808233  )
        12        O      tau(  12) = (   0.0000000   0.5111560   3.6905466  )
        13        O      tau(  13) = (   0.5000000   1.1379671   4.0944546  )
        14        O      tau(  14) = (   0.4999999   1.9289692   4.0944546  )
        15        O      tau(  15) = (  -0.0000000   1.5334681   5.5138311  )
        16        O      tau(  16) = (   0.0000001   1.5334681   4.7285026  )
        17        O      tau(  17) = (   0.4999999   0.1221419   5.1394925  )
        18        O      tau(  18) = (   0.4999999   0.9001701   5.1394925  )

     number of k points=    32  Marzari-Vanderbilt smearing, width (Ry)=  0.0100
                       cart. coord. in units 2pi/alat
        k(    1) = (   0.0000000   0.0000000   0.0000000), wk =   0.0625000
        k(    2) = (   0.0000000   0.1222719   0.0000000), wk =   0.0625000
        k(    3) = (   0.0000000  -0.2445437   0.0000000), wk =   0.0625000
        k(    4) = (   0.0000000  -0.1222719   0.0000000), wk =   0.0625000
        k(    5) = (   0.1250000   0.0000000   0.0000000), wk =   0.0625000
        k(    6) = (   0.1250000   0.1222719   0.0000000), wk =   0.0625000
        k(    7) = (   0.1250000  -0.2445437   0.0000000), wk =   0.0625000
        k(    8) = (   0.1250000  -0.1222719   0.0000000), wk =   0.0625000
        k(    9) = (   0.2500000   0.0000000   0.0000000), wk =   0.0625000
        k(   10) = (   0.2500000   0.1222719   0.0000000), wk =   0.0625000
        k(   11) = (   0.2500000  -0.2445437   0.0000000), wk =   0.0625000
        k(   12) = (   0.2500000  -0.1222719   0.0000000), wk =   0.0625000
        k(   13) = (   0.3750000   0.0000000   0.0000000), wk =   0.0625000
        k(   14) = (   0.3750000   0.1222719   0.0000000), wk =   0.0625000
        k(   15) = (   0.3750000  -0.2445437   0.0000000), wk =   0.0625000
        k(   16) = (   0.3750000  -0.1222719   0.0000000), wk =   0.0625000
        k(   17) = (  -0.5000000   0.0000000   0.0000000), wk =   0.0625000
        k(   18) = (  -0.5000000   0.1222719   0.0000000), wk =   0.0625000
        k(   19) = (  -0.5000000  -0.2445437   0.0000000), wk =   0.0625000
        k(   20) = (  -0.5000000  -0.1222719   0.0000000), wk =   0.0625000
        k(   21) = (  -0.3750000   0.0000000   0.0000000), wk =   0.0625000
        k(   22) = (  -0.3750000   0.1222719   0.0000000), wk =   0.0625000
        k(   23) = (  -0.3750000  -0.2445437   0.0000000), wk =   0.0625000
        k(   24) = (  -0.3750000  -0.1222719   0.0000000), wk =   0.0625000
        k(   25) = (  -0.2500000   0.0000000   0.0000000), wk =   0.0625000
        k(   26) = (  -0.2500000   0.1222719   0.0000000), wk =   0.0625000
        k(   27) = (  -0.2500000  -0.2445437   0.0000000), wk =   0.0625000
        k(   28) = (  -0.2500000  -0.1222719   0.0000000), wk =   0.0625000
        k(   29) = (  -0.1250000   0.0000000   0.0000000), wk =   0.0625000
        k(   30) = (  -0.1250000   0.1222719   0.0000000), wk =   0.0625000
        k(   31) = (  -0.1250000  -0.2445437   0.0000000), wk =   0.0625000
        k(   32) = (  -0.1250000  -0.1222719   0.0000000), wk =   0.0625000

     Dense  grid:   925697 G-vectors     FFT dimensions: (  48, 100, 400)

     Smooth grid:   327113 G-vectors     FFT dimensions: (  36,  72, 288)

     Estimated max dynamical RAM per process >     362.56 MB

     Estimated total dynamical RAM >       6.42 GB

     Initial potential from superposition of free atoms

     starting charge     167.9967, renormalised to     168.0000

     negative rho (up, down):  9.081E-05 0.000E+00


     %%%%%%%%%%%%%%%%%%%%%%%%%%%%%%%%%%%%%%%%%%%%%%%%%%%%%%%%%%%%%%%%%%%%%%%%
     %                                                                      %
     % You are using vdW-DF, which was implemented by the Thonhauser group. %
     % Please cite the following two papers that made this development      %
     % possible and the two reviews that describe the various versions:     %
     %                                                                      %
     %   T. Thonhauser et al., PRL 115, 136402 (2015).                      %
     %   T. Thonhauser et al., PRB 76, 125112 (2007).                       %
     %   K. Berland et al., Rep. Prog. Phys. 78, 066501 (2015).             %
     %   D.C. Langreth et al., J. Phys.: Condens. Matter 21, 084203 (2009). %
     %                                                                      %
     % If you are calculating stress with vdW-DF, please also cite:         %
     %                                                                      %
     %   R. Sabatini et al., J. Phys.: Condens. Matter 24, 424209 (2012).   %
     %                                                                      %
     %%%%%%%%%%%%%%%%%%%%%%%%%%%%%%%%%%%%%%%%%%%%%%%%%%%%%%%%%%%%%%%%%%%%%%%%

     %%%%%%%%%%%%%%%%%%%%%%%%%%%%%%%%%%%%%%%%%%%%%%%%%%%%%%%%%%%%%%%%%%%%%%%%
     %                                                                      %
     %  vdW-DF NEWS:                                                        %
     %                                                                      %
     %  * vdW-DF3 is now available. DOI: 10.1021/acs.jctc.0c00471           %
     %    use with input_dft = 'vdW-DF3-opt1' or 'vdW-DF3-opt2'             %
     %                                                                      %
     %  * Unscreened and range-separated hybrid vdW-DF-cx functionals       %
     %    DOI: 10.1063/1.4986522 and 10.1088/1361-648X/ac2ad2               %
     %    use with input_dft = 'vdW-DF-cx0'    and 'vdW-DF-ahcx'            %
     %  * Unscreened and range-separated hybrid vdW-DF2-b86r functionals    %
     %    DOI: 10.1063/1.4986522 and DOI: 10.1103/PhysRevX.12.041003        %
     %    use with input_dft = 'vdW-DF2-br0' and 'vdW-DF2-ahbr'             %
     %                                                                      %
     %%%%%%%%%%%%%%%%%%%%%%%%%%%%%%%%%%%%%%%%%%%%%%%%%%%%%%%%%%%%%%%%%%%%%%%%



     STARTING HUBBARD OCCUPATIONS:

     =================== HUBBARD OCCUPATIONS ===================
     ------------------------ ATOM    1 ------------------------
     Tr[ns(  1)] =   6.00000
     eigenvalues:
       0.600  0.600  0.600  0.600  0.600
     eigenvectors (columns):
       1.000  0.000  0.000  0.000  0.000
       0.000  1.000  0.000  0.000  0.000
       0.000  0.000  1.000  0.000  0.000
       0.000  0.000  0.000  1.000  0.000
       0.000  0.000  0.000  0.000  1.000
     occupation matrix ns (before diag.):
       0.600  0.000  0.000  0.000  0.000
       0.000  0.600  0.000  0.000  0.000
       0.000  0.000  0.600  0.000  0.000
       0.000  0.000  0.000  0.600  0.000
       0.000  0.000  0.000  0.000  0.600
     ------------------------ ATOM    2 ------------------------
     Tr[ns(  2)] =   6.00000
     eigenvalues:
       0.600  0.600  0.600  0.600  0.600
     eigenvectors (columns):
       1.000  0.000  0.000  0.000  0.000
       0.000  1.000  0.000  0.000  0.000
       0.000  0.000  1.000  0.000  0.000
       0.000  0.000  0.000  1.000  0.000
       0.000  0.000  0.000  0.000  1.000
     occupation matrix ns (before diag.):
       0.600  0.000  0.000  0.000  0.000
       0.000  0.600  0.000  0.000  0.000
       0.000  0.000  0.600  0.000  0.000
       0.000  0.000  0.000  0.600  0.000
       0.000  0.000  0.000  0.000  0.600
     ------------------------ ATOM    3 ------------------------
     Tr[ns(  3)] =   6.00000
     eigenvalues:
       0.600  0.600  0.600  0.600  0.600
     eigenvectors (columns):
       1.000  0.000  0.000  0.000  0.000
       0.000  1.000  0.000  0.000  0.000
       0.000  0.000  1.000  0.000  0.000
       0.000  0.000  0.000  1.000  0.000
       0.000  0.000  0.000  0.000  1.000
     occupation matrix ns (before diag.):
       0.600  0.000  0.000  0.000  0.000
       0.000  0.600  0.000  0.000  0.000
       0.000  0.000  0.600  0.000  0.000
       0.000  0.000  0.000  0.600  0.000
       0.000  0.000  0.000  0.000  0.600
     ------------------------ ATOM    4 ------------------------
     Tr[ns(  4)] =   6.00000
     eigenvalues:
       0.600  0.600  0.600  0.600  0.600
     eigenvectors (columns):
       1.000  0.000  0.000  0.000  0.000
       0.000  1.000  0.000  0.000  0.000
       0.000  0.000  1.000  0.000  0.000
       0.000  0.000  0.000  1.000  0.000
       0.000  0.000  0.000  0.000  1.000
     occupation matrix ns (before diag.):
       0.600  0.000  0.000  0.000  0.000
       0.000  0.600  0.000  0.000  0.000
       0.000  0.000  0.600  0.000  0.000
       0.000  0.000  0.000  0.600  0.000
       0.000  0.000  0.000  0.000  0.600
     ------------------------ ATOM    5 ------------------------
     Tr[ns(  5)] =   6.00000
     eigenvalues:
       0.600  0.600  0.600  0.600  0.600
     eigenvectors (columns):
       1.000  0.000  0.000  0.000  0.000
       0.000  1.000  0.000  0.000  0.000
       0.000  0.000  1.000  0.000  0.000
       0.000  0.000  0.000  1.000  0.000
       0.000  0.000  0.000  0.000  1.000
     occupation matrix ns (before diag.):
       0.600  0.000  0.000  0.000  0.000
       0.000  0.600  0.000  0.000  0.000
       0.000  0.000  0.600  0.000  0.000
       0.000  0.000  0.000  0.600  0.000
       0.000  0.000  0.000  0.000  0.600
     ------------------------ ATOM    6 ------------------------
     Tr[ns(  6)] =   6.00000
     eigenvalues:
       0.600  0.600  0.600  0.600  0.600
     eigenvectors (columns):
       1.000  0.000  0.000  0.000  0.000
       0.000  1.000  0.000  0.000  0.000
       0.000  0.000  1.000  0.000  0.000
       0.000  0.000  0.000  1.000  0.000
       0.000  0.000  0.000  0.000  1.000
     occupation matrix ns (before diag.):
       0.600  0.000  0.000  0.000  0.000
       0.000  0.600  0.000  0.000  0.000
       0.000  0.000  0.600  0.000  0.000
       0.000  0.000  0.000  0.600  0.000
       0.000  0.000  0.000  0.000  0.600

     Number of occupied Hubbard levels =   36.0000

     Atomic wfc used for Hubbard projectors are NOT orthogonalized

     Starting wfcs are  108 randomized atomic wfcs
     Checking if some PAW data can be deallocated... 

     total cpu time spent up to now is       32.1 secs

     per-process dynamical memory:   278.4 Mb

     Self-consistent Calculation

     iteration #  1     ecut=    80.00 Ry     beta= 0.30
     Davidson diagonalization with overlap
     ethr =  1.00E-02,  avg # of iterations =  2.0

     =================== HUBBARD OCCUPATIONS ===================
     ------------------------ ATOM    1 ------------------------
     Tr[ns(  1)] =   6.78500
     eigenvalues:
       0.443  0.486  0.712  0.776  0.974
     eigenvectors (columns):
       0.998 -0.002 -0.000 -0.000  0.070
       0.000 -0.000 -0.000  1.000  0.000
      -0.000  0.000 -1.000 -0.000 -0.000
      -0.070  0.000 -0.000 -0.000  0.998
       0.002  1.000  0.000  0.000  0.000
     occupation matrix ns (before diag.):
       0.446 -0.000  0.000  0.037 -0.000
      -0.000  0.776 -0.000  0.000  0.000
       0.000 -0.000  0.712 -0.000 -0.000
       0.037  0.000 -0.000  0.971  0.000
      -0.000  0.000 -0.000  0.000  0.486
     ------------------------ ATOM    2 ------------------------
     Tr[ns(  2)] =   6.77230
     eigenvalues:
       0.509  0.535  0.639  0.740  0.963
     eigenvectors (columns):
       0.000 -0.422  0.000  0.000 -0.907
      -1.000 -0.001  0.000 -0.000  0.000
      -0.000  0.000 -1.000 -0.000 -0.000
       0.001 -0.907 -0.000 -0.000  0.422
       0.000  0.000  0.000 -1.000 -0.000
     occupation matrix ns (before diag.):
       0.887  0.000  0.000 -0.164  0.000
       0.000  0.509 -0.000  0.000  0.000
       0.000 -0.000  0.639 -0.000  0.000
      -0.164  0.000 -0.000  0.611 -0.000
       0.000  0.000  0.000 -0.000  0.740
     ------------------------ ATOM    3 ------------------------
     Tr[ns(  3)] =   6.80610
     eigenvalues:
       0.491  0.516  0.659  0.764  0.973
     eigenvectors (columns):
       0.002  0.997 -0.000 -0.000 -0.073
      -0.000 -0.000  0.000 -1.000 -0.000
      -0.000 -0.000 -1.000 -0.000 -0.000
      -0.000 -0.073  0.000  0.000 -0.997
       1.000 -0.002 -0.000 -0.000 -0.000
     occupation matrix ns (before diag.):
       0.519  0.000  0.000  0.033 -0.000
       0.000  0.764  0.000  0.000  0.000
       0.000  0.000  0.659  0.000  0.000
       0.033  0.000  0.000  0.971  0.000
      -0.000  0.000  0.000  0.000  0.491
     ------------------------ ATOM    4 ------------------------
     Tr[ns(  4)] =   6.80984
     eigenvalues:
       0.492  0.519  0.686  0.766  0.942
     eigenvectors (columns):
       0.000  0.458  0.000 -0.000  0.889
      -1.000  0.000  0.000  0.000  0.000
       0.000 -0.000  1.000 -0.000 -0.000
       0.000  0.889  0.000 -0.000 -0.458
      -0.000 -0.000 -0.000 -1.000 -0.000
     occupation matrix ns (before diag.):
       0.853  0.000 -0.000 -0.172  0.000
       0.000  0.492  0.000  0.000 -0.000
      -0.000  0.000  0.686  0.000  0.000
      -0.172  0.000  0.000  0.608  0.000
       0.000 -0.000  0.000  0.000  0.766
     ------------------------ ATOM    5 ------------------------
     Tr[ns(  5)] =   6.52160
     eigenvalues:
       0.450  0.489  0.670  0.724  0.928
     eigenvectors (columns):
       0.996  0.000  0.000  0.000 -0.084
      -0.000 -0.000  0.001  1.000  0.000
       0.000 -0.000 -1.000  0.001 -0.000
      -0.084 -0.000  0.000  0.000 -0.996
      -0.000  1.000 -0.000  0.000  0.000
     occupation matrix ns (before diag.):
       0.453  0.000 -0.000  0.040  0.000
       0.000  0.724  0.000 -0.000  0.000
      -0.000  0.000  0.670  0.000  0.000
       0.040 -0.000  0.000  0.924 -0.000
       0.000  0.000  0.000 -0.000  0.489
     ------------------------ ATOM    6 ------------------------
     Tr[ns(  6)] =   6.18099
     eigenvalues:
       0.506  0.521  0.663  0.699  0.701
     eigenvectors (columns):
      -0.000  0.502  0.002 -0.865  0.010
       1.000  0.001  0.000 -0.000 -0.000
       0.000 -0.001 -1.000 -0.003  0.000
      -0.001  0.865 -0.003  0.502 -0.006
       0.000 -0.000 -0.000  0.012  1.000
     occupation matrix ns (before diag.):
       0.654  0.000  0.000 -0.077  0.000
       0.000  0.506 -0.000  0.000 -0.000
       0.000 -0.000  0.663  0.000 -0.000
      -0.077  0.000  0.000  0.566 -0.000
       0.000 -0.000 -0.000 -0.000  0.701

     Number of occupied Hubbard levels =   39.8759

     negative rho (up, down):  9.462E-07 0.000E+00

     total cpu time spent up to now is       73.3 secs

     total energy              =   -1643.18752629 Ry
     estimated scf accuracy    <       4.65157839 Ry

     iteration #  2     ecut=    80.00 Ry     beta= 0.30
     Davidson diagonalization with overlap
     ethr =  2.77E-03,  avg # of iterations =  1.0

     negative rho (up, down):  2.118E-07 0.000E+00

     total cpu time spent up to now is      104.2 secs

     total energy              =   -1643.25407702 Ry
     estimated scf accuracy    <       1.04621231 Ry

     iteration #  3     ecut=    80.00 Ry     beta= 0.30
     Davidson diagonalization with overlap
     ethr =  6.23E-04,  avg # of iterations =  2.1

     negative rho (up, down):  2.622E-08 0.000E+00

     total cpu time spent up to now is      144.1 secs

     total energy              =   -1643.38112795 Ry
     estimated scf accuracy    <       0.41550215 Ry

     iteration #  4     ecut=    80.00 Ry     beta= 0.30
     Davidson diagonalization with overlap
     ethr =  2.47E-04,  avg # of iterations =  1.0

     total cpu time spent up to now is      177.7 secs

     total energy              =   -1643.38915221 Ry
     estimated scf accuracy    <       0.42103080 Ry

     iteration #  5     ecut=    80.00 Ry     beta= 0.30
     Davidson diagonalization with overlap
     ethr =  2.47E-04,  avg # of iterations =  1.0

     total cpu time spent up to now is      210.5 secs

     total energy              =   -1643.37464805 Ry
     estimated scf accuracy    <       0.18069099 Ry

     iteration #  6     ecut=    80.00 Ry     beta= 0.30
     Davidson diagonalization with overlap
     ethr =  1.08E-04,  avg # of iterations =  1.1

     total cpu time spent up to now is      242.9 secs

     total energy              =   -1643.38014630 Ry
     estimated scf accuracy    <       0.08178067 Ry

     iteration #  7     ecut=    80.00 Ry     beta= 0.30
     Davidson diagonalization with overlap
     ethr =  4.87E-05,  avg # of iterations =  1.5

     total cpu time spent up to now is      275.8 secs

     total energy              =   -1643.37535004 Ry
     estimated scf accuracy    <       0.08300213 Ry

     iteration #  8     ecut=    80.00 Ry     beta= 0.30
     Davidson diagonalization with overlap
     ethr =  4.87E-05,  avg # of iterations =  2.0

     total cpu time spent up to now is      308.1 secs

     total energy              =   -1643.37245207 Ry
     estimated scf accuracy    <       0.02163551 Ry

     iteration #  9     ecut=    80.00 Ry     beta= 0.30
     Davidson diagonalization with overlap
     ethr =  1.29E-05,  avg # of iterations =  4.9

     total cpu time spent up to now is      342.5 secs

     total energy              =   -1643.36998329 Ry
     estimated scf accuracy    <       0.01733467 Ry

     iteration # 10     ecut=    80.00 Ry     beta= 0.30
     Davidson diagonalization with overlap
     ethr =  1.03E-05,  avg # of iterations =  2.4

     negative rho (up, down):  1.192E-05 0.000E+00

     total cpu time spent up to now is      376.3 secs

     total energy              =   -1643.37042829 Ry
     estimated scf accuracy    <       0.00942235 Ry

     iteration # 11     ecut=    80.00 Ry     beta= 0.30
     Davidson diagonalization with overlap
     ethr =  5.61E-06,  avg # of iterations =  3.1

     negative rho (up, down):  2.984E-03 0.000E+00

     total cpu time spent up to now is      411.0 secs

     total energy              =   -1643.37203279 Ry
     estimated scf accuracy    <       0.00507713 Ry

     iteration # 12     ecut=    80.00 Ry     beta= 0.30
     Davidson diagonalization with overlap
     ethr =  3.02E-06,  avg # of iterations =  3.9

     negative rho (up, down):  8.739E-03 0.000E+00

     total cpu time spent up to now is      446.6 secs

     total energy              =   -1643.37185311 Ry
     estimated scf accuracy    <       0.00584090 Ry

     iteration # 13     ecut=    80.00 Ry     beta= 0.30
     Davidson diagonalization with overlap
     ethr =  3.02E-06,  avg # of iterations =  1.5

     negative rho (up, down):  8.361E-03 0.000E+00

     total cpu time spent up to now is      477.6 secs

     total energy              =   -1643.37069939 Ry
     estimated scf accuracy    <       0.00200418 Ry

     iteration # 14     ecut=    80.00 Ry     beta= 0.30
     Davidson diagonalization with overlap
     ethr =  1.19E-06,  avg # of iterations =  2.5

     negative rho (up, down):  1.215E-02 0.000E+00

     total cpu time spent up to now is      517.0 secs

     total energy              =   -1643.36887543 Ry
     estimated scf accuracy    <       0.00132939 Ry

     iteration # 15     ecut=    80.00 Ry     beta= 0.30
     Davidson diagonalization with overlap
     ethr =  7.91E-07,  avg # of iterations =  6.0

     negative rho (up, down):  1.100E-02 0.000E+00

     total cpu time spent up to now is      563.6 secs

     total energy              =   -1643.36861290 Ry
     estimated scf accuracy    <       0.00039062 Ry

     iteration # 16     ecut=    80.00 Ry     beta= 0.30
     Davidson diagonalization with overlap
     ethr =  2.33E-07,  avg # of iterations =  1.8

     negative rho (up, down):  4.581E-03 0.000E+00

     total cpu time spent up to now is      621.1 secs

     total energy              =   -1643.36853004 Ry
     estimated scf accuracy    <       0.00017625 Ry

     iteration # 17     ecut=    80.00 Ry     beta= 0.30
     Davidson diagonalization with overlap
     ethr =  1.05E-07,  avg # of iterations =  2.3

     negative rho (up, down):  3.660E-03 0.000E+00

     total cpu time spent up to now is      694.2 secs

     total energy              =   -1643.36856334 Ry
     estimated scf accuracy    <       0.00004790 Ry

     iteration # 18     ecut=    80.00 Ry     beta= 0.30
     Davidson diagonalization with overlap
     ethr =  2.85E-08,  avg # of iterations =  1.5

     negative rho (up, down):  1.337E-03 0.000E+00

     total cpu time spent up to now is      770.0 secs

     total energy              =   -1643.36856713 Ry
     estimated scf accuracy    <       0.00001800 Ry

     iteration # 19     ecut=    80.00 Ry     beta= 0.30
     Davidson diagonalization with overlap
     ethr =  1.07E-08,  avg # of iterations =  2.5

     negative rho (up, down):  7.204E-04 0.000E+00

     total cpu time spent up to now is      852.4 secs

     total energy              =   -1643.36857144 Ry
     estimated scf accuracy    <       0.00000389 Ry

     iteration # 20     ecut=    80.00 Ry     beta= 0.30
     Davidson diagonalization with overlap
     ethr =  2.31E-09,  avg # of iterations =  2.4

     negative rho (up, down):  3.744E-04 0.000E+00

     total cpu time spent up to now is      925.9 secs

     total energy              =   -1643.36857158 Ry
     estimated scf accuracy    <       0.00000299 Ry

     iteration # 21     ecut=    80.00 Ry     beta= 0.30
     Davidson diagonalization with overlap
     ethr =  1.78E-09,  avg # of iterations =  1.9

     negative rho (up, down):  2.303E-04 0.000E+00

     total cpu time spent up to now is     1004.4 secs

     total energy              =   -1643.36857199 Ry
     estimated scf accuracy    <       0.00000101 Ry

     iteration # 22     ecut=    80.00 Ry     beta= 0.30
     Davidson diagonalization with overlap
     ethr =  6.03E-10,  avg # of iterations =  2.0

     negative rho (up, down):  1.020E-04 0.000E+00

     total cpu time spent up to now is     1085.9 secs

     End of self-consistent calculation

     =================== HUBBARD OCCUPATIONS ===================
     ------------------------ ATOM    1 ------------------------
     Tr[ns(  1)] =   7.32836
     eigenvalues:
       0.495  0.528  0.814  0.863  0.965
     eigenvectors (columns):
      -0.996 -0.000 -0.000  0.000 -0.087
      -0.000  0.000  0.000 -1.000 -0.000
       0.000  0.000 -1.000 -0.000 -0.000
       0.087 -0.000  0.000  0.000 -0.996
      -0.000  1.000  0.000  0.000 -0.000
     occupation matrix ns (before diag.):
       0.499 -0.000  0.000  0.041 -0.000
      -0.000  0.863  0.000  0.000 -0.000
       0.000  0.000  0.814  0.000 -0.000
       0.041  0.000  0.000  0.961  0.000
      -0.000 -0.000 -0.000  0.000  0.528
     ------------------------ ATOM    2 ------------------------
     Tr[ns(  2)] =   7.29206
     eigenvalues:
       0.583  0.612  0.720  0.808  0.923
     eigenvectors (columns):
       0.000 -0.409  0.000  0.000 -0.912
      -1.000 -0.000 -0.000  0.000  0.000
       0.000  0.000 -1.000 -0.000 -0.000
       0.000 -0.912 -0.000 -0.000  0.409
      -0.000 -0.000  0.000 -1.000 -0.000
     occupation matrix ns (before diag.):
       0.871 -0.000  0.000 -0.116  0.000
      -0.000  0.583  0.000  0.000 -0.000
       0.000  0.000  0.720 -0.000  0.000
      -0.116  0.000 -0.000  0.664 -0.000
       0.000 -0.000  0.000 -0.000  0.808
     ------------------------ ATOM    3 ------------------------
     Tr[ns(  3)] =   7.32330
     eigenvalues:
       0.547  0.587  0.733  0.814  0.981
     eigenvectors (columns):
       0.000  0.996 -0.000 -0.000 -0.092
      -0.000 -0.000  0.000 -1.000  0.000
       0.000  0.000  1.000  0.000  0.000
      -0.000 -0.092  0.000  0.000 -0.996
       1.000 -0.000 -0.000 -0.000 -0.000
     occupation matrix ns (before diag.):
       0.590  0.000 -0.000  0.036 -0.000
       0.000  0.814 -0.000 -0.000  0.000
      -0.000 -0.000  0.733 -0.000 -0.000
       0.036 -0.000 -0.000  0.977  0.000
      -0.000  0.000 -0.000  0.000  0.547
     ------------------------ ATOM    4 ------------------------
     Tr[ns(  4)] =   7.35471
     eigenvalues:
       0.534  0.586  0.763  0.830  0.964
     eigenvectors (columns):
      -0.000  0.442 -0.000  0.000 -0.897
      -1.000 -0.000 -0.000 -0.000 -0.000
      -0.000  0.000  1.000  0.000 -0.000
      -0.000  0.897 -0.000  0.000  0.442
      -0.000 -0.000 -0.000  1.000 -0.000
     occupation matrix ns (before diag.):
       0.890  0.000 -0.000 -0.150  0.000
       0.000  0.534 -0.000 -0.000 -0.000
      -0.000 -0.000  0.763 -0.000  0.000
      -0.150 -0.000 -0.000  0.660  0.000
       0.000 -0.000  0.000  0.000  0.830
     ------------------------ ATOM    5 ------------------------
     Tr[ns(  5)] =   7.32272
     eigenvalues:
       0.516  0.536  0.807  0.844  0.958
     eigenvectors (columns):
       0.994  0.000  0.000 -0.000  0.105
      -0.000  0.000 -0.000 -1.000 -0.000
      -0.000 -0.000  1.000 -0.000  0.000
      -0.105 -0.000 -0.000 -0.000  0.994
      -0.000  1.000  0.000  0.000 -0.000
     occupation matrix ns (before diag.):
       0.521  0.000  0.000  0.046  0.000
       0.000  0.844  0.000 -0.000 -0.000
       0.000  0.000  0.807 -0.000  0.000
       0.046 -0.000 -0.000  0.953 -0.000
       0.000 -0.000  0.000 -0.000  0.536
     ------------------------ ATOM    6 ------------------------
     Tr[ns(  6)] =   7.30750
     eigenvalues:
       0.573  0.600  0.784  0.831  0.865
     eigenvectors (columns):
      -0.000 -0.395  0.000  0.000  0.919
      -1.000  0.000  0.000 -0.000  0.000
      -0.000  0.000 -1.000  0.000  0.000
      -0.000 -0.919 -0.000 -0.000 -0.395
      -0.000 -0.000  0.000  1.000 -0.000
     occupation matrix ns (before diag.):
       0.824  0.000  0.000 -0.097 -0.000
       0.000  0.573 -0.000 -0.000 -0.000
       0.000 -0.000  0.784  0.000  0.000
      -0.097 -0.000  0.000  0.641 -0.000
      -0.000 -0.000  0.000 -0.000  0.831

     Number of occupied Hubbard levels =   43.9286

          k = 0.0000 0.0000 0.0000 ( 40831 PWs)   bands (ev):

   -72.2793 -72.1460 -72.1274 -72.0336 -71.8629 -71.5818 -42.5007 -42.4350
   -42.4275 -42.4078 -42.3582 -42.2629 -42.2425 -42.1102 -42.1023 -42.0528
   -42.0478 -41.9625 -41.9489 -41.9342 -41.8978 -41.7202 -41.5831 -41.4648
   -19.1384 -18.7843 -18.6304 -18.6022 -18.1620 -17.9508 -17.8803 -17.3279
   -17.2614 -17.1978 -17.0603 -16.3146  -7.6457  -7.6016  -7.5353  -7.4423
    -6.6156  -6.2849  -5.9629  -5.9298  -5.7161  -5.6702  -5.6113  -5.4690
    -5.4428  -5.1946  -4.3272  -4.0843  -3.6656  -3.5003  -3.4649  -3.2155
    -3.1650  -2.9545  -2.8879  -2.8638  -2.5823  -2.5235  -2.4798  -2.2422
    -2.2015  -2.0185  -1.6292  -1.4662  -1.4570  -1.3468  -1.2897  -1.0722
    -1.0624  -1.0510  -0.9871  -0.9783  -0.9033  -0.7932  -0.7852  -0.7179
    -0.2118  -0.0896   0.0563   0.5139   0.6098   0.6857   1.2917   1.7290
     2.0547   2.1540   2.4244   2.7218   3.8206   4.5773   4.7287   5.3260
     5.3387   5.5494   5.7250   5.7563   5.8150

          k = 0.0000 0.1223 0.0000 ( 40974 PWs)   bands (ev):

   -72.2789 -72.1455 -72.1269 -72.0334 -71.8627 -71.5815 -42.5003 -42.4343
   -42.4264 -42.4079 -42.3581 -42.2629 -42.2427 -42.1101 -42.1024 -42.0528
   -42.0478 -41.9627 -41.9490 -41.9362 -41.8979 -41.7216 -41.5832 -41.4661
   -19.0767 -18.6612 -18.5691 -18.4835 -18.1697 -17.9815 -17.8698 -17.4704
   -17.4184 -17.3888 -17.0592 -16.3132  -7.5187  -7.2021  -7.1993  -7.0498
    -6.6128  -6.1233  -5.9288  -5.8897  -5.6171  -5.5920  -5.5575  -5.3442
    -5.2371  -5.1906  -4.5358  -4.1551  -4.1470  -3.9549  -3.5968  -3.5116
    -3.4719  -3.3221  -3.1711  -3.1373  -2.8931  -2.8823  -2.8518  -2.5680
    -2.4508  -2.2351  -1.9881  -1.7388  -1.6291  -1.3669  -1.2696  -1.0618
    -0.9791  -0.9528  -0.5062  -0.4246  -0.2666  -0.2588  -0.1921  -0.1478
     0.0126   0.0262   0.1283   0.4982   0.6791   0.7253   1.3688   1.4396
     1.7659   2.1577   2.3837   2.9263   4.0904   4.8226   4.9848   5.3378
     5.5065   5.5157   5.5973   5.6644   5.7633

          k = 0.0000-0.2445 0.0000 ( 41014 PWs)   bands (ev):

   -72.2784 -72.1450 -72.1263 -72.0332 -71.8625 -71.5813 -42.4999 -42.4337
   -42.4252 -42.4080 -42.3581 -42.2628 -42.2430 -42.1100 -42.1025 -42.0529
   -42.0478 -41.9628 -41.9491 -41.9382 -41.8980 -41.7230 -41.5832 -41.4673
   -19.0146 -18.5339 -18.4359 -18.2479 -18.2244 -18.0682 -17.8432 -17.6385
   -17.6325 -17.5963 -17.0607 -16.3124  -7.5087  -6.6471  -6.6304  -6.6078
    -6.3861  -6.0406  -5.9275  -5.6148  -5.4441  -5.4236  -5.4021  -5.2800
    -5.2287  -5.1448  -4.7839  -4.5406  -4.4918  -4.4400  -4.4007  -4.0971
    -3.7629  -3.5770  -3.4420  -3.4212  -3.4159  -3.2210  -3.0848  -2.6351
    -2.1400  -2.1166  -1.8787  -1.8220  -1.6641  -1.4292  -1.2680  -1.2062
    -0.9694  -0.8416  -0.3734  -0.1198  -0.0087   0.0609   0.1427   0.2588
     0.3334   0.4040   0.4347   0.5983   0.7411   0.7709   1.0850   1.2698
     1.6228   1.7949   2.5853   3.1051   4.2380   5.0947   5.2190   5.3240
     5.3750   5.3816   5.5291   5.6032   5.7680

          k = 0.0000-0.1223 0.0000 ( 40974 PWs)   bands (ev):

   -72.2789 -72.1455 -72.1269 -72.0334 -71.8627 -71.5815 -42.5003 -42.4343
   -42.4264 -42.4079 -42.3581 -42.2629 -42.2427 -42.1101 -42.1024 -42.0528
   -42.0478 -41.9627 -41.9490 -41.9362 -41.8979 -41.7216 -41.5832 -41.4661
   -19.0767 -18.6612 -18.5691 -18.4835 -18.1697 -17.9815 -17.8698 -17.4704
   -17.4184 -17.3888 -17.0592 -16.3132  -7.5187  -7.2021  -7.1993  -7.0498
    -6.6128  -6.1233  -5.9288  -5.8897  -5.6171  -5.5920  -5.5575  -5.3442
    -5.2371  -5.1906  -4.5358  -4.1551  -4.1470  -3.9549  -3.5968  -3.5116
    -3.4719  -3.3221  -3.1711  -3.1373  -2.8931  -2.8823  -2.8518  -2.5680
    -2.4508  -2.2351  -1.9881  -1.7388  -1.6291  -1.3669  -1.2696  -1.0618
    -0.9791  -0.9528  -0.5062  -0.4246  -0.2666  -0.2588  -0.1921  -0.1478
     0.0126   0.0262   0.1283   0.4982   0.6791   0.7253   1.3688   1.4396
     1.7659   2.1577   2.3837   2.9263   4.0904   4.8226   4.9848   5.3378
     5.5065   5.5157   5.5973   5.6644   5.7633

          k = 0.1250 0.0000 0.0000 ( 40851 PWs)   bands (ev):

   -72.2766 -72.1432 -72.1245 -72.0306 -71.8601 -71.5789 -42.4990 -42.4331
   -42.4255 -42.4066 -42.3872 -42.2610 -42.2380 -42.1394 -42.0978 -42.0753
   -42.0486 -41.9910 -41.9476 -41.9302 -41.9270 -41.7159 -41.6117 -41.4604
   -19.0061 -18.6665 -18.5250 -18.4914 -18.0602 -17.9509 -17.8647 -17.4099
   -17.3410 -17.2790 -17.1411 -16.3663  -7.3866  -7.3603  -7.2944  -7.2123
    -6.5057  -6.1334  -5.9962  -5.8898  -5.8257  -5.7480  -5.4810  -5.2997
    -5.1177  -5.0214  -4.3797  -4.1641  -3.9430  -3.5457  -3.5292  -3.3737
    -3.3584  -3.1764  -3.1063  -2.8433  -2.8336  -2.8049  -2.5914  -2.4038
    -2.2912  -2.1571  -2.1094  -2.0668  -2.0146  -1.6548  -1.1854  -1.1176
    -1.0545  -0.8840  -0.8301  -0.6759  -0.4995  -0.4800  -0.3470  -0.0938
    -0.0257   0.2053   0.2126   0.5335   0.7145   0.9521   1.1331   1.5830
     1.9054   2.2713   2.3262   2.7377   3.9368   4.6054   4.7792   5.0556
     5.1322   5.3276   5.5065   5.5067   5.5426

          k = 0.1250 0.1223 0.0000 ( 40932 PWs)   bands (ev):

   -72.2762 -72.1428 -72.1241 -72.0306 -71.8600 -71.5788 -42.4987 -42.4326
   -42.4246 -42.4066 -42.3872 -42.2609 -42.2382 -42.1393 -42.0979 -42.0752
   -42.0487 -41.9910 -41.9477 -41.9317 -41.9269 -41.7169 -41.6117 -41.4614
   -18.9497 -18.5484 -18.4628 -18.3799 -18.0636 -17.9586 -17.8779 -17.5402
   -17.4853 -17.4560 -17.1402 -16.3650  -7.2609  -6.9708  -6.9670  -6.8299
    -6.5029  -6.0418  -5.9975  -5.7556  -5.7288  -5.6323  -5.3740  -5.2953
    -5.0604  -5.0110  -4.4819  -4.2978  -4.0697  -3.9183  -3.8750  -3.7168
    -3.5435  -3.4370  -3.3135  -3.2706  -3.1648  -3.1417  -3.0562  -2.8850
    -2.3451  -2.2229  -2.1132  -2.0761  -1.8250  -1.3884  -1.3097  -1.1594
    -1.0304  -0.6497  -0.4648  -0.3673  -0.2240  -0.0858   0.0066   0.0311
     0.1293   0.3590   0.4212   0.6492   0.7240   0.9512   1.2293   1.3366
     1.6528   2.0295   2.5065   2.9031   4.1649   4.7083   4.8679   5.0286
     5.1241   5.2757   5.3469   5.4035   5.5242

          k = 0.1250-0.2445 0.0000 ( 40974 PWs)   bands (ev):

   -72.2758 -72.1424 -72.1236 -72.0305 -71.8599 -71.5786 -42.4984 -42.4322
   -42.4238 -42.4067 -42.3871 -42.2609 -42.2384 -42.1392 -42.0980 -42.0751
   -42.0488 -41.9910 -41.9478 -41.9333 -41.9268 -41.7180 -41.6117 -41.4623
   -18.8931 -18.4164 -18.3287 -18.1603 -18.1182 -17.9970 -17.8857 -17.7069
   -17.6998 -17.6385 -17.1415 -16.3640  -7.2537  -6.5008  -6.4004  -6.3750
    -6.1349  -6.0007  -5.9919  -5.5765  -5.5690  -5.4305  -5.3194  -5.2137
    -5.1450  -4.9573  -4.8901  -4.6799  -4.3136  -4.1320  -4.1236  -4.0659
    -4.0503  -3.8827  -3.7549  -3.7248  -3.6457  -3.5172  -3.1294  -2.9057
    -2.2742  -2.0221  -1.9039  -1.8315  -1.7192  -1.5804  -1.2468  -1.1756
    -1.0289  -0.4989  -0.3359  -0.2344  -0.2222  -0.0960   0.1701   0.4962
     0.6027   0.6793   0.7186   0.7288   0.8272   0.9837   1.0222   1.2283
     1.4973   1.6635   2.6748   3.0475   4.3228   4.7176   4.7219   4.9277
     5.0713   5.1898   5.3485   5.4664   5.4881

          k = 0.1250-0.1223 0.0000 ( 40932 PWs)   bands (ev):

   -72.2762 -72.1428 -72.1241 -72.0306 -71.8600 -71.5788 -42.4987 -42.4326
   -42.4246 -42.4066 -42.3872 -42.2609 -42.2382 -42.1393 -42.0979 -42.0752
   -42.0487 -41.9910 -41.9477 -41.9317 -41.9269 -41.7169 -41.6117 -41.4614
   -18.9497 -18.5484 -18.4628 -18.3799 -18.0636 -17.9586 -17.8779 -17.5402
   -17.4853 -17.4560 -17.1402 -16.3650  -7.2609  -6.9708  -6.9670  -6.8299
    -6.5029  -6.0418  -5.9975  -5.7556  -5.7288  -5.6323  -5.3740  -5.2953
    -5.0604  -5.0110  -4.4819  -4.2978  -4.0697  -3.9183  -3.8750  -3.7168
    -3.5435  -3.4370  -3.3135  -3.2706  -3.1648  -3.1417  -3.0562  -2.8850
    -2.3451  -2.2229  -2.1132  -2.0761  -1.8250  -1.3884  -1.3097  -1.1594
    -1.0304  -0.6497  -0.4648  -0.3673  -0.2240  -0.0858   0.0066   0.0311
     0.1293   0.3590   0.4212   0.6492   0.7240   0.9512   1.2293   1.3366
     1.6528   2.0295   2.5065   2.9031   4.1649   4.7083   4.8679   5.0286
     5.1241   5.2757   5.3469   5.4035   5.5242

          k = 0.2500 0.0000 0.0000 ( 40947 PWs)   bands (ev):

   -72.2714 -72.1382 -72.1193 -72.0253 -71.8547 -71.5736 -42.4946 -42.4571
   -42.4283 -42.4203 -42.4006 -42.2582 -42.2275 -42.2040 -42.1386 -42.0873
   -42.0580 -42.0372 -41.9945 -41.9443 -41.9205 -41.7054 -41.6781 -41.4498
   -18.6787 -18.3942 -18.2963 -18.2252 -18.0801 -17.8745 -17.6499 -17.6020
   -17.5289 -17.4679 -17.3234 -16.4369  -6.7543  -6.7256  -6.6633  -6.5871
    -6.1774  -6.1012  -6.0419  -5.8877  -5.7305  -5.6078  -5.4419  -5.3509
    -4.7715  -4.5830  -4.5590  -4.3159  -4.1429  -4.0062  -3.9400  -3.7673
    -3.7318  -3.4633  -3.3211  -3.2293  -3.0503  -3.0258  -2.9799  -2.7385
    -2.4775  -2.4501  -2.4277  -2.2723  -1.9458  -1.5720  -1.3330  -1.2795
    -0.7340  -0.6600  -0.5941  -0.5111  -0.4545  -0.1680   0.2528   0.3538
     0.4164   0.5412   0.6658   0.6768   0.7434   1.0104   1.0187   1.3506
     1.5626   1.8539   2.5755   2.6843   3.9421   4.3712   4.5456   4.7185
     4.8445   4.9308   4.9872   5.0289   5.1536

          k = 0.2500 0.1223 0.0000 ( 40905 PWs)   bands (ev):

   -72.2712 -72.1379 -72.1190 -72.0255 -71.8549 -71.5737 -42.4946 -42.4569
   -42.4284 -42.4203 -42.4006 -42.2582 -42.2276 -42.2039 -42.1384 -42.0873
   -42.0575 -42.0372 -41.9940 -41.9443 -41.9210 -41.7056 -41.6777 -41.4500
   -18.6403 -18.3139 -18.2489 -18.1489 -18.0625 -17.8801 -17.7352 -17.6453
   -17.6069 -17.5804 -17.3233 -16.4358  -6.5899  -6.4130  -6.3799  -6.2999
    -6.1797  -6.0532  -6.0294  -5.8884  -5.8004  -5.6086  -5.5049  -5.1195
    -4.7876  -4.6236  -4.4824  -4.4249  -4.3807  -4.2792  -4.2401  -4.0585
    -3.6356  -3.5359  -3.4558  -3.3220  -3.0764  -3.0649  -3.0267  -2.9590
    -2.7577  -2.4020  -2.3612  -2.2873  -2.0408  -1.6050  -1.3938  -1.2521
    -0.9416  -0.6782  -0.4938  -0.2064   0.0207   0.0712   0.2252   0.2643
     0.5178   0.5428   0.6594   0.7380   0.8855   0.9270   1.1952   1.2879
     1.4560   1.7100   2.6838   2.7943   3.9972   4.1644   4.2931   4.4216
     4.6853   4.7120   5.0116   5.3961   5.5515

          k = 0.2500-0.2445 0.0000 ( 40892 PWs)   bands (ev):

   -72.2709 -72.1377 -72.1187 -72.0257 -71.8550 -71.5739 -42.4946 -42.4567
   -42.4284 -42.4202 -42.4006 -42.2581 -42.2276 -42.2037 -42.1382 -42.0873
   -42.0569 -42.0371 -41.9934 -41.9444 -41.9215 -41.7059 -41.6774 -41.4502
   -18.6014 -18.2180 -18.1707 -18.0163 -17.9868 -17.8989 -17.8829 -17.7894
   -17.7473 -17.6135 -17.3243 -16.4348  -6.5767  -6.1869  -6.0615  -6.0419
    -5.9137  -5.8901  -5.8343  -5.6346  -5.5985  -5.5973  -5.4896  -5.1516
    -5.1391  -4.9675  -4.8129  -4.7368  -4.4942  -4.4266  -4.1001  -3.9495
    -3.8606  -3.7536  -3.5328  -3.5167  -3.4382  -3.4194  -3.3716  -2.9492
    -2.5797  -2.2788  -2.1220  -2.0237  -1.9082  -1.7039  -1.6815  -1.2279
    -0.7305  -0.6835  -0.5634  -0.2743  -0.1241   0.1173   0.3850   0.4255
     0.6191   0.7004   0.7890   0.8943   0.9518   1.0035   1.1644   1.3299
     1.4684   1.5017   2.7773   2.8906   3.8924   3.8965   4.0548   4.1111
     4.6846   4.7021   5.1131   5.6721   5.7103

          k = 0.2500-0.1223 0.0000 ( 40905 PWs)   bands (ev):

   -72.2712 -72.1379 -72.1190 -72.0255 -71.8549 -71.5737 -42.4946 -42.4569
   -42.4284 -42.4203 -42.4006 -42.2582 -42.2276 -42.2039 -42.1384 -42.0873
   -42.0575 -42.0372 -41.9940 -41.9443 -41.9210 -41.7056 -41.6777 -41.4500
   -18.6403 -18.3139 -18.2489 -18.1489 -18.0625 -17.8801 -17.7352 -17.6453
   -17.6069 -17.5804 -17.3233 -16.4358  -6.5899  -6.4130  -6.3799  -6.2999
    -6.1797  -6.0532  -6.0294  -5.8884  -5.8004  -5.6086  -5.5049  -5.1195
    -4.7876  -4.6236  -4.4824  -4.4249  -4.3807  -4.2792  -4.2401  -4.0585
    -3.6356  -3.5359  -3.4558  -3.3220  -3.0764  -3.0649  -3.0267  -2.9590
    -2.7577  -2.4020  -2.3612  -2.2873  -2.0408  -1.6050  -1.3938  -1.2521
    -0.9416  -0.6782  -0.4938  -0.2064   0.0207   0.0712   0.2252   0.2643
     0.5178   0.5428   0.6594   0.7380   0.8855   0.9270   1.1952   1.2879
     1.4560   1.7100   2.6838   2.7943   3.9972   4.1644   4.2931   4.4216
     4.6853   4.7120   5.0116   5.3961   5.5515

          k = 0.3750 0.0000 0.0000 ( 40852 PWs)   bands (ev):

   -72.2681 -72.1353 -72.1164 -72.0225 -71.8515 -71.5705 -42.5216 -42.4899
   -42.4231 -42.4148 -42.3959 -42.2805 -42.2387 -42.2171 -42.1978 -42.1190
   -42.0788 -42.0557 -42.0273 -41.9409 -41.9108 -41.7405 -41.6947 -41.4391
   -18.4067 -18.2730 -18.0694 -17.9891 -17.9468 -17.8308 -17.7865 -17.7112
   -17.6478 -17.5122 -17.3663 -16.4091  -6.3961  -6.2572  -6.2517  -6.1019
    -5.9809  -5.9235  -5.9138  -5.8294  -5.7044  -5.6289  -5.5907  -5.1064
    -4.7943  -4.6954  -4.6849  -4.6183  -4.4507  -4.1014  -3.8815  -3.5855
    -3.4859  -3.4359  -3.4006  -3.3447  -3.2551  -3.0013  -2.9509  -2.8426
    -2.6004  -2.5994  -2.3958  -2.2428  -1.9979  -1.6317  -1.4312  -1.1392
    -0.7336  -0.7328  -0.4926  -0.4466  -0.1609  -0.1478  -0.0138   0.0179
     0.1615   0.5144   0.7600   0.7950   0.8750   1.1164   1.1769   1.2361
     1.6364   1.7173   2.4009   2.6465   3.4072   4.3031   4.4741   4.5280
     4.5643   4.5939   4.7849   4.8022   4.9620

          k = 0.3750 0.1223 0.0000 ( 40842 PWs)   bands (ev):

   -72.2680 -72.1353 -72.1164 -72.0229 -71.8519 -71.5709 -42.5213 -42.4902
   -42.4239 -42.4158 -42.3959 -42.2802 -42.2387 -42.2171 -42.1975 -42.1175
   -42.0786 -42.0547 -42.0273 -41.9409 -41.9102 -41.7398 -41.6942 -41.4386
   -18.4028 -18.2632 -18.1098 -18.0400 -18.0154 -17.8794 -17.7437 -17.6222
   -17.5853 -17.5138 -17.3650 -16.4079  -6.4802  -6.3855  -6.2520  -6.2379
    -6.0729  -5.9171  -5.7656  -5.7557  -5.7025  -5.6975  -5.6648  -4.9579
    -4.6547  -4.5724  -4.4958  -4.4022  -4.2919  -4.0312  -3.9804  -3.6983
    -3.5317  -3.3929  -3.3396  -3.2428  -3.2032  -2.9929  -2.9257  -2.9214
    -2.7029  -2.4895  -2.4144  -2.1953  -2.1131  -1.7766  -1.4299  -1.2574
    -0.9599  -0.6899  -0.5328  -0.3582  -0.3197  -0.2359  -0.0333   0.0191
     0.0568   0.1101   0.2023   0.7563   1.1127   1.2983   1.4589   1.5359
     1.6512   1.6630   2.4896   2.7341   3.4173   3.7325   3.7987   3.9747
     4.3508   4.5651   5.3015   5.5484   5.7082

          k = 0.3750-0.2445 0.0000 ( 40856 PWs)   bands (ev):

   -72.2680 -72.1352 -72.1163 -72.0233 -71.8523 -71.5713 -42.5210 -42.4906
   -42.4247 -42.4168 -42.3959 -42.2800 -42.2386 -42.2171 -42.1972 -42.1161
   -42.0784 -42.0537 -42.0273 -41.9409 -41.9097 -41.7391 -41.6938 -41.4381
   -18.3986 -18.2495 -18.1464 -18.1002 -18.0527 -17.8992 -17.7136 -17.5620
   -17.5404 -17.5150 -17.3636 -16.4066  -6.6161  -6.4476  -6.3725  -6.2175
    -6.2096  -5.9459  -5.7208  -5.7174  -5.6221  -5.5449  -5.5397  -4.9556
    -4.7019  -4.5186  -4.3938  -4.2536  -4.0920  -3.9708  -3.8738  -3.6346
    -3.5088  -3.4968  -3.2767  -3.2418  -3.1465  -3.1228  -3.0724  -2.8991
    -2.6328  -2.5257  -2.2887  -2.1384  -1.8726  -1.8348  -1.5169  -1.5089
    -1.1324  -0.9047  -0.7024  -0.6681  -0.6374  -0.1675  -0.1171   0.0586
     0.1319   0.1613   0.3746   0.4148   1.2089   1.2632   1.5188   1.6324
     1.8082   1.8260   2.5719   2.8142   3.3344   3.3485   3.5257   3.5857
     4.3550   4.5809   5.5165   5.9460   5.9487

          k = 0.3750-0.1223 0.0000 ( 40842 PWs)   bands (ev):

   -72.2680 -72.1353 -72.1164 -72.0229 -71.8519 -71.5709 -42.5213 -42.4902
   -42.4239 -42.4158 -42.3959 -42.2802 -42.2387 -42.2171 -42.1975 -42.1175
   -42.0786 -42.0547 -42.0273 -41.9409 -41.9102 -41.7398 -41.6942 -41.4386
   -18.4028 -18.2632 -18.1098 -18.0400 -18.0154 -17.8794 -17.7437 -17.6222
   -17.5853 -17.5138 -17.3650 -16.4079  -6.4802  -6.3855  -6.2520  -6.2379
    -6.0729  -5.9171  -5.7656  -5.7557  -5.7025  -5.6975  -5.6648  -4.9579
    -4.6547  -4.5724  -4.4958  -4.4022  -4.2919  -4.0312  -3.9804  -3.6983
    -3.5317  -3.3929  -3.3396  -3.2428  -3.2032  -2.9929  -2.9257  -2.9214
    -2.7029  -2.4895  -2.4144  -2.1953  -2.1131  -1.7766  -1.4299  -1.2574
    -0.9599  -0.6899  -0.5328  -0.3582  -0.3197  -0.2359  -0.0333   0.0191
     0.0568   0.1101   0.2023   0.7563   1.1127   1.2983   1.4589   1.5359
     1.6512   1.6630   2.4896   2.7341   3.4173   3.7325   3.7987   3.9747
     4.3508   4.5651   5.3015   5.5484   5.7079

          k =-0.5000 0.0000 0.0000 ( 40876 PWs)   bands (ev):

   -72.2672 -72.1348 -72.1159 -72.0221 -71.8509 -71.5699 -42.5473 -42.4878
   -42.4209 -42.4124 -42.3939 -42.3021 -42.2392 -42.2212 -42.2129 -42.1432
   -42.0883 -42.0668 -42.0229 -41.9394 -41.9067 -41.7653 -41.6903 -41.4346
   -18.4399 -18.1199 -17.9569 -17.8866 -17.8840 -17.8608 -17.8302 -17.7851
   -17.7199 -17.5662 -17.2592 -16.3668  -6.6373  -6.4109  -6.3105  -5.9473
    -5.9189  -5.8601  -5.6125  -5.6114  -5.5711  -5.4492  -5.4381  -5.3482
    -5.0484  -4.9214  -4.7070  -4.5423  -3.8298  -3.8131  -3.6715  -3.6593
    -3.5851  -3.5462  -3.5002  -3.4794  -3.3809  -3.0225  -2.7588  -2.5982
    -2.4617  -2.4470  -2.3652  -1.9846  -1.8191  -1.8061  -1.7085  -1.1033
    -0.8123  -0.6187  -0.5909  -0.5341  -0.4641  -0.4016  -0.3340  -0.2275
     0.2709   0.4334   0.5178   0.6975   0.9469   1.0714   1.2900   1.4473
     1.8004   1.8938   2.1949   2.6185   3.1849   4.2770   4.4048   4.4735
     4.4857   4.5669   4.6770   4.7457   4.9221

          k =-0.5000 0.1223 0.0000 ( 40858 PWs)   bands (ev):

   -72.2673 -72.1348 -72.1160 -72.0226 -71.8513 -71.5704 -42.5469 -42.4883
   -42.4220 -42.4139 -42.3939 -42.3018 -42.2392 -42.2208 -42.2128 -42.1413
   -42.0870 -42.0665 -42.0229 -41.9394 -41.9058 -41.7644 -41.6895 -41.4338
   -18.4392 -18.1183 -18.1110 -18.0708 -18.0511 -17.8908 -17.6809 -17.5679
   -17.5614 -17.5336 -17.2569 -16.3648  -6.6828  -6.6460  -6.4649  -6.4093
    -6.2584  -5.8295  -5.6273  -5.5515  -5.5244  -5.4913  -5.4012  -5.0677
    -4.7756  -4.4428  -4.3970  -4.0422  -4.0183  -3.9808  -3.6434  -3.5868
    -3.5764  -3.4716  -3.3622  -3.1906  -3.0716  -2.9178  -2.7950  -2.6085
    -2.5969  -2.4043  -2.2466  -2.2255  -1.9204  -1.7660  -1.6087  -1.3594
    -0.8117  -0.7040  -0.6683  -0.6122  -0.5312  -0.5269  -0.4056  -0.3586
    -0.2432  -0.2137   0.0108   0.3795   1.2843   1.5556   1.6441   1.6500
     1.8177   1.8347   2.2701   2.7044   3.2226   3.5501   3.6210   3.8148
     4.2832   4.5830   5.5214   5.6440   5.6799

          k =-0.5000-0.2445 0.0000 ( 40872 PWs)   bands (ev):

   -72.2673 -72.1348 -72.1161 -72.0231 -71.8518 -71.5708 -42.5466 -42.4889
   -42.4232 -42.4155 -42.3939 -42.3016 -42.2392 -42.2205 -42.2128 -42.1394
   -42.0859 -42.0662 -42.0229 -41.9394 -41.9048 -41.7635 -41.6887 -41.4330
   -18.4385 -18.2017 -18.1668 -18.1483 -18.1015 -17.8983 -17.5925 -17.5696
   -17.4551 -17.4286 -17.2546 -16.3628  -6.9021  -6.7172  -6.6555  -6.5242
    -6.4052  -5.8609  -5.6303  -5.4932  -5.4921  -5.4830  -5.3847  -5.0353
    -4.8154  -4.2888  -4.0106  -3.8250  -3.7506  -3.5605  -3.5329  -3.4725
    -3.4400  -3.3218  -3.2555  -3.1951  -2.9416  -2.9218  -2.8431  -2.7965
    -2.5147  -2.3253  -2.2646  -2.0426  -2.0338  -1.7490  -1.6360  -1.3536
    -1.3168  -1.1296  -0.9162  -0.8554  -0.8063  -0.6101  -0.5269  -0.4826
    -0.3922  -0.2337   0.0156   0.1033   1.3935   1.4083   1.7679   1.8531
     1.9791   2.0337   2.3253   2.7758   3.1940   3.2421   3.2539   3.4408
     4.2894   4.5993   5.7335   6.0120   6.0829

          k =-0.5000-0.1223 0.0000 ( 40858 PWs)   bands (ev):

   -72.2673 -72.1348 -72.1160 -72.0226 -71.8513 -71.5704 -42.5469 -42.4883
   -42.4220 -42.4139 -42.3939 -42.3018 -42.2392 -42.2208 -42.2128 -42.1413
   -42.0870 -42.0665 -42.0229 -41.9394 -41.9058 -41.7644 -41.6895 -41.4338
   -18.4392 -18.1183 -18.1110 -18.0708 -18.0511 -17.8908 -17.6809 -17.5679
   -17.5614 -17.5336 -17.2569 -16.3648  -6.6828  -6.6460  -6.4649  -6.4093
    -6.2584  -5.8295  -5.6273  -5.5515  -5.5244  -5.4913  -5.4012  -5.0677
    -4.7756  -4.4428  -4.3970  -4.0422  -4.0183  -3.9808  -3.6434  -3.5868
    -3.5764  -3.4716  -3.3622  -3.1906  -3.0716  -2.9178  -2.7950  -2.6085
    -2.5969  -2.4043  -2.2466  -2.2255  -1.9204  -1.7660  -1.6087  -1.3594
    -0.8117  -0.7040  -0.6683  -0.6122  -0.5312  -0.5269  -0.4056  -0.3586
    -0.2432  -0.2137   0.0108   0.3795   1.2843   1.5556   1.6441   1.6500
     1.8177   1.8347   2.2701   2.7044   3.2226   3.5501   3.6210   3.8148
     4.2832   4.5830   5.5214   5.6440   5.6799

          k =-0.3750 0.0000 0.0000 ( 40852 PWs)   bands (ev):

   -72.2681 -72.1353 -72.1164 -72.0225 -71.8515 -71.5705 -42.5216 -42.4899
   -42.4231 -42.4148 -42.3959 -42.2805 -42.2387 -42.2171 -42.1978 -42.1190
   -42.0788 -42.0557 -42.0273 -41.9409 -41.9108 -41.7405 -41.6947 -41.4391
   -18.4067 -18.2730 -18.0694 -17.9891 -17.9468 -17.8308 -17.7865 -17.7112
   -17.6478 -17.5122 -17.3663 -16.4091  -6.3961  -6.2572  -6.2517  -6.1019
    -5.9809  -5.9235  -5.9138  -5.8294  -5.7044  -5.6289  -5.5907  -5.1064
    -4.7943  -4.6954  -4.6849  -4.6183  -4.4507  -4.1014  -3.8815  -3.5855
    -3.4859  -3.4359  -3.4006  -3.3447  -3.2551  -3.0013  -2.9509  -2.8426
    -2.6004  -2.5994  -2.3958  -2.2428  -1.9979  -1.6317  -1.4312  -1.1392
    -0.7336  -0.7328  -0.4926  -0.4466  -0.1609  -0.1478  -0.0138   0.0179
     0.1615   0.5144   0.7600   0.7950   0.8750   1.1164   1.1769   1.2361
     1.6364   1.7173   2.4009   2.6465   3.4072   4.3031   4.4741   4.5280
     4.5643   4.5939   4.7849   4.8022   4.9620

          k =-0.3750 0.1223 0.0000 ( 40842 PWs)   bands (ev):

   -72.2680 -72.1353 -72.1164 -72.0229 -71.8519 -71.5709 -42.5213 -42.4902
   -42.4239 -42.4158 -42.3959 -42.2802 -42.2387 -42.2171 -42.1975 -42.1175
   -42.0786 -42.0547 -42.0273 -41.9409 -41.9102 -41.7398 -41.6942 -41.4386
   -18.4028 -18.2632 -18.1098 -18.0400 -18.0154 -17.8794 -17.7437 -17.6222
   -17.5853 -17.5138 -17.3650 -16.4079  -6.4802  -6.3855  -6.2520  -6.2379
    -6.0729  -5.9171  -5.7656  -5.7557  -5.7025  -5.6975  -5.6648  -4.9579
    -4.6547  -4.5724  -4.4958  -4.4022  -4.2919  -4.0312  -3.9804  -3.6983
    -3.5317  -3.3929  -3.3396  -3.2428  -3.2032  -2.9929  -2.9257  -2.9214
    -2.7029  -2.4895  -2.4144  -2.1953  -2.1131  -1.7766  -1.4299  -1.2574
    -0.9599  -0.6899  -0.5328  -0.3582  -0.3197  -0.2359  -0.0333   0.0191
     0.0568   0.1101   0.2023   0.7563   1.1127   1.2983   1.4589   1.5359
     1.6512   1.6630   2.4896   2.7341   3.4173   3.7325   3.7987   3.9747
     4.3508   4.5651   5.3015   5.5484   5.7082

          k =-0.3750-0.2445 0.0000 ( 40856 PWs)   bands (ev):

   -72.2680 -72.1352 -72.1163 -72.0233 -71.8523 -71.5713 -42.5210 -42.4906
   -42.4247 -42.4168 -42.3959 -42.2800 -42.2386 -42.2171 -42.1972 -42.1161
   -42.0784 -42.0537 -42.0273 -41.9409 -41.9097 -41.7391 -41.6938 -41.4381
   -18.3986 -18.2495 -18.1464 -18.1002 -18.0527 -17.8992 -17.7136 -17.5620
   -17.5404 -17.5150 -17.3636 -16.4066  -6.6161  -6.4476  -6.3725  -6.2175
    -6.2096  -5.9459  -5.7208  -5.7174  -5.6221  -5.5449  -5.5397  -4.9556
    -4.7019  -4.5186  -4.3938  -4.2536  -4.0920  -3.9708  -3.8738  -3.6346
    -3.5088  -3.4968  -3.2767  -3.2418  -3.1465  -3.1228  -3.0724  -2.8991
    -2.6328  -2.5257  -2.2887  -2.1384  -1.8726  -1.8348  -1.5169  -1.5089
    -1.1324  -0.9047  -0.7024  -0.6681  -0.6374  -0.1675  -0.1171   0.0586
     0.1319   0.1613   0.3746   0.4148   1.2089   1.2632   1.5188   1.6324
     1.8082   1.8260   2.5719   2.8142   3.3344   3.3485   3.5257   3.5858
     4.3550   4.5809   5.5167   5.9460   5.9513

          k =-0.3750-0.1223 0.0000 ( 40842 PWs)   bands (ev):

   -72.2680 -72.1353 -72.1164 -72.0229 -71.8519 -71.5709 -42.5213 -42.4902
   -42.4239 -42.4158 -42.3959 -42.2802 -42.2387 -42.2171 -42.1975 -42.1175
   -42.0786 -42.0547 -42.0273 -41.9409 -41.9102 -41.7398 -41.6942 -41.4386
   -18.4028 -18.2632 -18.1098 -18.0400 -18.0154 -17.8794 -17.7437 -17.6222
   -17.5853 -17.5138 -17.3650 -16.4079  -6.4802  -6.3855  -6.2520  -6.2379
    -6.0729  -5.9171  -5.7656  -5.7557  -5.7025  -5.6975  -5.6648  -4.9579
    -4.6547  -4.5724  -4.4958  -4.4022  -4.2919  -4.0312  -3.9804  -3.6983
    -3.5317  -3.3929  -3.3396  -3.2428  -3.2032  -2.9929  -2.9257  -2.9214
    -2.7029  -2.4895  -2.4144  -2.1953  -2.1131  -1.7766  -1.4299  -1.2574
    -0.9599  -0.6899  -0.5328  -0.3582  -0.3197  -0.2359  -0.0333   0.0191
     0.0568   0.1101   0.2023   0.7563   1.1127   1.2983   1.4589   1.5359
     1.6512   1.6630   2.4896   2.7341   3.4173   3.7325   3.7987   3.9747
     4.3508   4.5651   5.3015   5.5484   5.7079

          k =-0.2500 0.0000 0.0000 ( 40947 PWs)   bands (ev):

   -72.2714 -72.1382 -72.1193 -72.0253 -71.8547 -71.5736 -42.4946 -42.4571
   -42.4283 -42.4203 -42.4006 -42.2582 -42.2275 -42.2040 -42.1386 -42.0873
   -42.0580 -42.0372 -41.9945 -41.9443 -41.9205 -41.7054 -41.6781 -41.4498
   -18.6787 -18.3942 -18.2963 -18.2252 -18.0801 -17.8745 -17.6499 -17.6020
   -17.5289 -17.4679 -17.3234 -16.4369  -6.7543  -6.7256  -6.6633  -6.5871
    -6.1774  -6.1012  -6.0419  -5.8877  -5.7305  -5.6078  -5.4419  -5.3509
    -4.7715  -4.5830  -4.5590  -4.3159  -4.1429  -4.0062  -3.9400  -3.7673
    -3.7318  -3.4633  -3.3211  -3.2293  -3.0503  -3.0258  -2.9799  -2.7385
    -2.4775  -2.4501  -2.4277  -2.2723  -1.9458  -1.5720  -1.3330  -1.2795
    -0.7340  -0.6600  -0.5941  -0.5111  -0.4545  -0.1680   0.2528   0.3538
     0.4164   0.5412   0.6658   0.6768   0.7434   1.0104   1.0187   1.3506
     1.5626   1.8539   2.5755   2.6843   3.9421   4.3712   4.5456   4.7185
     4.8445   4.9308   4.9872   5.0289   5.1536

          k =-0.2500 0.1223 0.0000 ( 40905 PWs)   bands (ev):

   -72.2712 -72.1379 -72.1190 -72.0255 -71.8549 -71.5737 -42.4946 -42.4569
   -42.4284 -42.4203 -42.4006 -42.2582 -42.2276 -42.2039 -42.1384 -42.0873
   -42.0575 -42.0372 -41.9940 -41.9443 -41.9210 -41.7056 -41.6777 -41.4500
   -18.6403 -18.3139 -18.2489 -18.1489 -18.0625 -17.8801 -17.7352 -17.6453
   -17.6069 -17.5804 -17.3233 -16.4358  -6.5899  -6.4130  -6.3799  -6.2999
    -6.1797  -6.0532  -6.0294  -5.8884  -5.8004  -5.6086  -5.5049  -5.1195
    -4.7876  -4.6236  -4.4824  -4.4249  -4.3807  -4.2792  -4.2401  -4.0585
    -3.6356  -3.5359  -3.4558  -3.3220  -3.0764  -3.0649  -3.0267  -2.9590
    -2.7577  -2.4020  -2.3612  -2.2873  -2.0408  -1.6050  -1.3938  -1.2521
    -0.9416  -0.6782  -0.4938  -0.2064   0.0207   0.0712   0.2252   0.2643
     0.5178   0.5428   0.6594   0.7380   0.8855   0.9270   1.1952   1.2879
     1.4560   1.7100   2.6838   2.7943   3.9972   4.1644   4.2931   4.4216
     4.6853   4.7120   5.0116   5.3961   5.5515

          k =-0.2500-0.2445 0.0000 ( 40892 PWs)   bands (ev):

   -72.2709 -72.1377 -72.1187 -72.0257 -71.8550 -71.5739 -42.4946 -42.4567
   -42.4284 -42.4202 -42.4006 -42.2581 -42.2276 -42.2037 -42.1382 -42.0873
   -42.0569 -42.0371 -41.9934 -41.9444 -41.9215 -41.7059 -41.6774 -41.4502
   -18.6014 -18.2180 -18.1707 -18.0163 -17.9868 -17.8989 -17.8829 -17.7894
   -17.7473 -17.6135 -17.3243 -16.4348  -6.5767  -6.1869  -6.0615  -6.0419
    -5.9137  -5.8901  -5.8343  -5.6346  -5.5985  -5.5973  -5.4896  -5.1516
    -5.1391  -4.9675  -4.8129  -4.7368  -4.4942  -4.4266  -4.1001  -3.9495
    -3.8606  -3.7536  -3.5328  -3.5167  -3.4382  -3.4194  -3.3716  -2.9492
    -2.5797  -2.2788  -2.1220  -2.0237  -1.9082  -1.7039  -1.6815  -1.2279
    -0.7305  -0.6835  -0.5634  -0.2743  -0.1241   0.1173   0.3850   0.4255
     0.6191   0.7004   0.7890   0.8943   0.9518   1.0035   1.1644   1.3299
     1.4684   1.5017   2.7773   2.8906   3.8925   3.8965   4.0549   4.1112
     4.6846   4.7022   5.1132   5.6722   5.7139

          k =-0.2500-0.1223 0.0000 ( 40905 PWs)   bands (ev):

   -72.2712 -72.1379 -72.1190 -72.0255 -71.8549 -71.5737 -42.4946 -42.4569
   -42.4284 -42.4203 -42.4006 -42.2582 -42.2276 -42.2039 -42.1384 -42.0873
   -42.0575 -42.0372 -41.9940 -41.9443 -41.9210 -41.7056 -41.6777 -41.4500
   -18.6403 -18.3139 -18.2489 -18.1489 -18.0625 -17.8801 -17.7352 -17.6453
   -17.6069 -17.5804 -17.3233 -16.4358  -6.5899  -6.4130  -6.3799  -6.2999
    -6.1797  -6.0532  -6.0294  -5.8884  -5.8004  -5.6086  -5.5049  -5.1195
    -4.7876  -4.6236  -4.4824  -4.4249  -4.3807  -4.2792  -4.2401  -4.0585
    -3.6356  -3.5359  -3.4558  -3.3220  -3.0764  -3.0649  -3.0267  -2.9590
    -2.7577  -2.4020  -2.3612  -2.2873  -2.0408  -1.6050  -1.3938  -1.2521
    -0.9416  -0.6782  -0.4938  -0.2064   0.0207   0.0712   0.2252   0.2643
     0.5178   0.5428   0.6594   0.7380   0.8855   0.9270   1.1952   1.2879
     1.4560   1.7100   2.6838   2.7943   3.9972   4.1644   4.2931   4.4216
     4.6853   4.7120   5.0116   5.3961   5.5515

          k =-0.1250 0.0000 0.0000 ( 40851 PWs)   bands (ev):

   -72.2766 -72.1432 -72.1245 -72.0306 -71.8601 -71.5789 -42.4990 -42.4331
   -42.4255 -42.4066 -42.3872 -42.2610 -42.2380 -42.1394 -42.0978 -42.0753
   -42.0486 -41.9910 -41.9476 -41.9302 -41.9270 -41.7159 -41.6117 -41.4604
   -19.0061 -18.6665 -18.5250 -18.4914 -18.0602 -17.9509 -17.8647 -17.4099
   -17.3410 -17.2790 -17.1411 -16.3663  -7.3866  -7.3603  -7.2944  -7.2123
    -6.5057  -6.1334  -5.9962  -5.8898  -5.8257  -5.7480  -5.4810  -5.2997
    -5.1177  -5.0214  -4.3797  -4.1641  -3.9430  -3.5457  -3.5292  -3.3737
    -3.3584  -3.1764  -3.1063  -2.8433  -2.8336  -2.8049  -2.5914  -2.4038
    -2.2912  -2.1571  -2.1094  -2.0668  -2.0146  -1.6548  -1.1854  -1.1176
    -1.0545  -0.8840  -0.8301  -0.6759  -0.4995  -0.4800  -0.3470  -0.0938
    -0.0257   0.2053   0.2126   0.5335   0.7145   0.9521   1.1331   1.5830
     1.9054   2.2713   2.3262   2.7377   3.9368   4.6054   4.7792   5.0556
     5.1322   5.3276   5.5065   5.5067   5.5426

          k =-0.1250 0.1223 0.0000 ( 40932 PWs)   bands (ev):

   -72.2762 -72.1428 -72.1241 -72.0306 -71.8600 -71.5788 -42.4987 -42.4326
   -42.4246 -42.4066 -42.3872 -42.2609 -42.2382 -42.1393 -42.0979 -42.0752
   -42.0487 -41.9910 -41.9477 -41.9317 -41.9269 -41.7169 -41.6117 -41.4614
   -18.9497 -18.5484 -18.4628 -18.3799 -18.0636 -17.9586 -17.8779 -17.5402
   -17.4853 -17.4560 -17.1402 -16.3650  -7.2609  -6.9708  -6.9670  -6.8299
    -6.5029  -6.0418  -5.9975  -5.7556  -5.7288  -5.6323  -5.3740  -5.2953
    -5.0604  -5.0110  -4.4819  -4.2978  -4.0697  -3.9183  -3.8750  -3.7168
    -3.5435  -3.4370  -3.3135  -3.2706  -3.1648  -3.1417  -3.0562  -2.8850
    -2.3451  -2.2229  -2.1132  -2.0761  -1.8250  -1.3884  -1.3097  -1.1594
    -1.0304  -0.6497  -0.4648  -0.3673  -0.2240  -0.0858   0.0066   0.0311
     0.1293   0.3590   0.4212   0.6492   0.7240   0.9512   1.2293   1.3366
     1.6528   2.0295   2.5065   2.9031   4.1649   4.7083   4.8679   5.0286
     5.1241   5.2757   5.3469   5.4035   5.5242

          k =-0.1250-0.2445 0.0000 ( 40974 PWs)   bands (ev):

   -72.2758 -72.1424 -72.1236 -72.0305 -71.8599 -71.5786 -42.4984 -42.4322
   -42.4238 -42.4067 -42.3871 -42.2609 -42.2384 -42.1392 -42.0980 -42.0751
   -42.0488 -41.9910 -41.9478 -41.9333 -41.9268 -41.7180 -41.6117 -41.4623
   -18.8931 -18.4164 -18.3287 -18.1603 -18.1182 -17.9970 -17.8857 -17.7069
   -17.6998 -17.6385 -17.1415 -16.3640  -7.2537  -6.5008  -6.4004  -6.3750
    -6.1349  -6.0007  -5.9919  -5.5765  -5.5690  -5.4305  -5.3194  -5.2137
    -5.1450  -4.9573  -4.8901  -4.6799  -4.3136  -4.1320  -4.1236  -4.0659
    -4.0503  -3.8827  -3.7549  -3.7248  -3.6457  -3.5172  -3.1294  -2.9057
    -2.2742  -2.0221  -1.9039  -1.8315  -1.7192  -1.5804  -1.2468  -1.1756
    -1.0289  -0.4989  -0.3359  -0.2344  -0.2222  -0.0960   0.1701   0.4962
     0.6027   0.6793   0.7186   0.7288   0.8272   0.9837   1.0222   1.2283
     1.4973   1.6635   2.6748   3.0475   4.3228   4.7176   4.7219   4.9277
     5.0713   5.1898   5.3485   5.4664   5.4881

          k =-0.1250-0.1223 0.0000 ( 40932 PWs)   bands (ev):

   -72.2762 -72.1428 -72.1241 -72.0306 -71.8600 -71.5788 -42.4987 -42.4326
   -42.4246 -42.4066 -42.3872 -42.2609 -42.2382 -42.1393 -42.0979 -42.0752
   -42.0487 -41.9910 -41.9477 -41.9317 -41.9269 -41.7169 -41.6117 -41.4614
   -18.9497 -18.5484 -18.4628 -18.3799 -18.0636 -17.9586 -17.8779 -17.5402
   -17.4853 -17.4560 -17.1402 -16.3650  -7.2609  -6.9708  -6.9670  -6.8299
    -6.5029  -6.0418  -5.9975  -5.7556  -5.7288  -5.6323  -5.3740  -5.2953
    -5.0604  -5.0110  -4.4819  -4.2978  -4.0697  -3.9183  -3.8750  -3.7168
    -3.5435  -3.4370  -3.3135  -3.2706  -3.1648  -3.1417  -3.0562  -2.8850
    -2.3451  -2.2229  -2.1132  -2.0761  -1.8250  -1.3884  -1.3097  -1.1594
    -1.0304  -0.6497  -0.4648  -0.3673  -0.2240  -0.0858   0.0066   0.0311
     0.1293   0.3590   0.4212   0.6492   0.7240   0.9512   1.2293   1.3366
     1.6528   2.0295   2.5065   2.9031   4.1649   4.7083   4.8679   5.0286
     5.1241   5.2757   5.3469   5.4035   5.5242

     the Fermi energy is     0.7666 ev

!    total energy              =   -1643.36857118 Ry
     estimated scf accuracy    <       0.00000056 Ry
     smearing contrib. (-TS)   =      -0.00093535 Ry
     internal energy E=F+TS    =   -1643.36763583 Ry

     The total energy is F=E-TS. E is the sum of the following terms:
     one-electron contribution =  -16609.14139513 Ry
     hartree contribution      =    8329.95573759 Ry
     xc contribution           =    -215.56436777 Ry
     ewald contribution        =    6970.75708750 Ry
     Hubbard energy            =       1.40116595 Ry
     one-center paw contrib.   =    -120.77586397 Ry

     convergence has been achieved in  22 iterations

     negative rho (up, down):  1.020E-04 0.000E+00
     force_hub    :     49.49s CPU     49.97s WALL (       1 calls)
     dndtau       :     33.55s CPU     33.90s WALL (     432 calls)
     dprojdtau    :      4.39s CPU      4.44s WALL (    2592 calls)
     matel_dSdtau :     29.02s CPU     29.32s WALL (     432 calls)

     Forces acting on atoms (cartesian axes, Ry/au):

     atom    1 type  1   force =    -0.00000036   -0.00000024    0.06086191
     atom    2 type  1   force =     0.00000024   -0.00000003   -0.08393372
     atom    3 type  1   force =     0.00000011   -0.00000007   -0.00103096
     atom    4 type  1   force =     0.00000023    0.00000010    0.00380942
     atom    5 type  1   force =    -0.00000002    0.00000018    0.00343566
     atom    6 type  1   force =    -0.00000021   -0.00000000   -0.00015079
     atom    7 type  2   force =    -0.00000003    0.00000001    0.04203049
     atom    8 type  2   force =     0.00000007   -0.00000014    0.04603525
     atom    9 type  2   force =    -0.00000000   -0.00502991   -0.02174579
     atom   10 type  2   force =     0.00000004    0.00502999   -0.02174579
     atom   11 type  2   force =     0.00000005    0.00000012    0.01338493
     atom   12 type  2   force =    -0.00000014   -0.00000003   -0.03566811
     atom   13 type  2   force =     0.00000003   -0.01036165    0.00100156
     atom   14 type  2   force =    -0.00000001    0.01036166    0.00100150
     atom   15 type  2   force =     0.00000009    0.00000001    0.01150328
     atom   16 type  2   force =     0.00000005   -0.00000003   -0.00779563
     atom   17 type  2   force =    -0.00000011   -0.01687863   -0.00549657
     atom   18 type  2   force =    -0.00000003    0.01687867   -0.00549664

     Total force =     0.035307     Total SCF correction =     0.002040

     negative rho (up, down):  1.020E-04 0.000E+00

     negative rho (up, down):  1.020E-04 0.000E+00

     negative rho (up, down):  1.020E-04 0.000E+00

     negative rho (up, down):  1.020E-04 0.000E+00

     negative rho (up, down):  1.020E-04 0.000E+00

     negative rho (up, down):  1.020E-04 0.000E+00

     negative rho (up, down):  1.020E-04 0.000E+00

     negative rho (up, down):  1.020E-04 0.000E+00

     negative rho (up, down):  1.020E-04 0.000E+00

     negative rho (up, down):  1.020E-04 0.000E+00

     negative rho (up, down):  1.020E-04 0.000E+00

     negative rho (up, down):  1.020E-04 0.000E+00

     negative rho (up, down):  1.020E-04 0.000E+00

     negative rho (up, down):  1.020E-04 0.000E+00

     negative rho (up, down):  1.020E-04 0.000E+00

     negative rho (up, down):  1.020E-04 0.000E+00

     negative rho (up, down):  1.020E-04 0.000E+00

     negative rho (up, down):  1.020E-04 0.000E+00

     negative rho (up, down):  1.020E-04 0.000E+00

     negative rho (up, down):  1.020E-04 0.000E+00

     negative rho (up, down):  1.020E-04 0.000E+00

     negative rho (up, down):  1.020E-04 0.000E+00

     negative rho (up, down):  1.020E-04 0.000E+00

     negative rho (up, down):  1.020E-04 0.000E+00

     negative rho (up, down):  1.020E-04 0.000E+00

     negative rho (up, down):  1.020E-04 0.000E+00

     negative rho (up, down):  1.020E-04 0.000E+00

     negative rho (up, down):  1.020E-04 0.000E+00

     negative rho (up, down):  1.020E-04 0.000E+00

     negative rho (up, down):  1.020E-04 0.000E+00

     negative rho (up, down):  1.020E-04 0.000E+00

     negative rho (up, down):  1.020E-04 0.000E+00

     negative rho (up, down):  1.020E-04 0.000E+00

     negative rho (up, down):  1.020E-04 0.000E+00
 BEEFens 2000 ensemble energies
             -0.149759923658814E+02
             -0.857697073339736E+00
             -0.339354626516007E+01
              0.106198763294802E+02
             -0.513933580644952E+01
             -0.441702860393049E+01
             -0.981656889639248E+01
             -0.219602903954649E+02
             -0.990528474342580E+01
             -0.104019140581094E+02
             -0.914577061181914E+01
              0.107418944040777E+01
              0.929756782744732E+00
              0.260733638466505E+00
              0.708446480239587E+00
              0.116952481697967E+02
             -0.479996781824984E+01
             -0.406846563431710E+01
              0.507311151394740E+01
             -0.270934568312108E+02
              0.135217097850153E+02
             -0.616469183802013E+01
             -0.111410046863016E+01
             -0.244692935282065E+01
             -0.997847855883464E+00
             -0.117028152040817E+01
              0.212247421252098E+02
             -0.552696333161478E+01
             -0.195459214259856E+01
             -0.131683182818946E+02
              0.182063870990482E+02
             -0.279408906479885E+01
             -0.946441310208786E+01
              0.532013527792570E+01
             -0.724149662311774E+00
              0.533700064576172E+01
             -0.540161205062404E+00
              0.137008462838751E+01
              0.791768912267658E+01
             -0.244777437887920E+02
              0.133993447400447E+02
              0.338818082428465E+01
             -0.170169747420414E+01
             -0.800534854189986E+01
              0.299489883784133E+01
             -0.407909361686916E+01
              0.108198376419186E+02
              0.868957198849517E+01
             -0.619902666235825E+01
             -0.710652004146229E+01
             -0.772512812245969E+01
             -0.876001227284437E+01
              0.406629535812107E+01
             -0.121446999282221E+02
              0.329424906532961E+01
              0.149062609532636E+02
              0.168405998297138E+02
              0.811695493217337E+01
              0.376509679599688E+01
              0.725039890450522E+01
              0.219505589395747E+02
              0.443740045156224E+01
             -0.132346888008471E+02
             -0.298340533577286E+01
             -0.611310468833830E+01
              0.151111355831691E+02
             -0.178117750340362E+02
             -0.153669439852429E+02
             -0.711044973348827E+01
             -0.298579735142872E+01
             -0.104714695123001E+02
              0.657800227426733E+01
              0.234252041945751E+01
              0.302238560930176E+01
             -0.949372351554635E+01
             -0.846229821887670E+01
             -0.139026425566589E+02
              0.860782645556966E+01
             -0.774439523300392E+01
              0.699422636059439E+01
             -0.194126702868257E+01
             -0.714350479093456E+01
             -0.132035814882886E+02
             -0.412883782995770E+01
             -0.290042559067794E+01
             -0.322061949134721E+01
              0.972000363584036E+01
              0.177183354154248E+02
             -0.101979880423763E+02
             -0.192369595739949E+02
             -0.493523073554980E+01
              0.265675849794142E+02
             -0.140676572304285E+02
              0.809920888726147E+01
             -0.273225933080209E+01
             -0.150850421562747E+02
              0.608160765328527E+01
              0.872409055791390E+01
             -0.443654649910280E+01
              0.845378869508551E+01
             -0.649499393405483E+01
             -0.130100998295370E+02
              0.224554005010675E+02
              0.110030989685746E+02
              0.677755200140052E+01
              0.341007706483296E+01
              0.582907319953257E+01
              0.201760771713819E+02
             -0.622086230110080E+01
              0.146280090170634E+01
             -0.337798219375349E+02
              0.421507890527094E+01
             -0.167343045889579E+02
              0.339498323967395E+01
              0.515961111785133E+01
             -0.857827271948369E+01
             -0.128096539061676E+02
              0.108521193522876E+01
             -0.738341264364554E+01
              0.895968070040171E+01
             -0.121929818750383E+02
             -0.755129112477249E+00
             -0.880836334386606E+01
             -0.898303263225657E+00
              0.277122546079063E+00
              0.503182338962104E+01
              0.195175754347986E+00
             -0.132458569744570E+01
              0.151606524814185E+02
              0.221160666362797E+02
              0.119111946107051E+02
              0.181635504135392E+02
             -0.273408713928681E+01
              0.292915136363149E+01
              0.128435734242354E+02
             -0.986013486530638E+00
             -0.181397350323537E+02
             -0.976674466554626E+01
             -0.122594750279890E+02
             -0.684425048949506E+01
              0.718938375809994E+01
             -0.287992576245829E+02
             -0.414661892347908E+01
              0.106471227700458E+02
             -0.932524020202651E+01
             -0.811755432732886E+01
              0.139159537455659E+02
              0.104944223927573E+02
             -0.796296298595995E+01
              0.555278398364339E+01
             -0.627741480470635E+01
              0.848343336094353E+01
              0.104634217086570E+01
              0.379814484931174E+01
             -0.208037738012483E+02
             -0.114875729291589E+02
             -0.208372572302184E+01
              0.927816793367082E-01
             -0.959559217822405E+01
              0.263304636637814E+02
             -0.465135866606957E+01
             -0.819150781282944E+01
              0.921936596130351E+01
             -0.115585271695239E+02
             -0.886634779695512E+01
              0.781063944089249E+01
              0.312091044055160E+01
              0.347970639048413E+01
              0.342103773405713E+01
             -0.288858482249628E+01
              0.424241567283001E+01
              0.141826154148726E+02
             -0.694496546659781E+01
              0.452235121128024E+01
              0.221342413413726E+02
              0.805866365739961E+01
             -0.163095144032380E+01
             -0.486632455392254E+01
              0.374715630105801E+02
             -0.488290282373811E+01
              0.898486837558487E+01
              0.588067985585718E+01
              0.776694559563087E+01
              0.217357048803452E+02
              0.123267304875883E+02
             -0.847072419604658E+00
              0.577159716534095E+01
              0.120141856059016E+02
              0.903536751201017E+01
             -0.136230832236149E+02
              0.227246064399942E+02
             -0.202169607521976E+02
             -0.372392165954461E+01
              0.138207987086472E+02
              0.274856315271144E+01
              0.179176715356823E+01
              0.745604866493117E+01
              0.584225196591250E+01
              0.847822588367725E+01
             -0.154150746085678E+02
              0.866720756919960E+00
             -0.665293106639726E+01
             -0.192060089027610E+01
             -0.677688936271920E+00
             -0.243410406179004E+01
             -0.118646734610832E+01
              0.202885392796047E+02
             -0.194790552051212E+01
             -0.656648443585915E+01
             -0.690485033221762E+00
              0.336535219889048E+01
             -0.144150141818550E+02
             -0.114697503996370E+02
             -0.887102911456421E+01
             -0.152763539744851E+02
             -0.426393068410478E+01
             -0.104707767039552E+02
              0.417891197202946E+01
             -0.286012094648989E-01
             -0.277881935929375E+01
             -0.213573397444087E+01
              0.158849355875702E+01
             -0.451776526516763E+01
              0.164008720058983E+02
             -0.204034858701762E+02
             -0.353292102064857E+01
             -0.373244634669370E+01
              0.393965658796334E+01
              0.531908441472545E+01
             -0.115997162641254E+02
             -0.419637982906153E+01
              0.105681045611109E+02
             -0.556455995378835E+01
              0.406579779702298E+01
              0.859623312922285E+01
             -0.765934832862172E+00
              0.275665156082398E+02
             -0.433571488768538E+01
             -0.804462702726676E+01
              0.970368533500562E+00
             -0.599028013316455E+01
              0.131264131013553E+02
             -0.957870267385198E+01
              0.288010519053449E+01
              0.142491465747351E+02
             -0.305725997588743E+01
              0.289365592888012E+02
              0.308413704826146E+02
             -0.161524955235316E+02
              0.142599421135511E+02
              0.483835056056463E+01
             -0.130938562497640E+02
              0.450037396366125E+01
              0.958594445776496E+01
              0.989608571551322E+01
              0.470721623558113E+00
              0.400999706787817E+01
              0.175261507962924E+02
             -0.582760064904140E+01
              0.361239931239513E+01
              0.174270165567872E+02
             -0.885568877923644E+01
             -0.428922123054309E+01
              0.132033931819031E+02
              0.713300440503276E+01
              0.187419072170730E+02
              0.664300113334572E+01
              0.229633552874243E+01
              0.660469676934380E+01
              0.965031616802610E+01
             -0.122527649158996E+02
              0.135893008641686E+01
              0.481531843431225E+01
              0.292583571373316E+01
              0.552710107581379E+01
             -0.144616362339407E+02
              0.826120096569315E+01
             -0.106315560823353E+02
             -0.810271332159040E+01
              0.469907187276885E+01
             -0.333344061876272E+01
              0.140352267372725E+02
             -0.492643475848377E+01
              0.703428779417445E+01
              0.829020770021461E+01
              0.194906224844692E+02
              0.133032076104099E+02
              0.115886990952563E+02
             -0.145375507587285E+01
             -0.180047626842291E+01
             -0.766769435611653E+01
              0.190389512764041E+02
              0.194575690775335E+02
              0.923841129830755E+01
             -0.566883146235968E+01
              0.122842498335261E+02
             -0.209825768978220E+01
              0.457514790090762E+01
              0.156659906262179E+02
              0.471490221186031E-01
             -0.229377379711434E+01
             -0.584773233693656E+01
             -0.135752667178031E+02
              0.232534123745558E+02
              0.114927211596992E+02
             -0.143859480713483E+02
             -0.367862079947185E+01
              0.621382258663412E+01
             -0.239660723480501E+01
              0.151485730716676E+02
              0.350127512803566E+01
              0.195573113586016E+02
              0.753597222962078E+01
             -0.609892916887921E+01
              0.544618931131328E+01
             -0.138450428218044E+01
             -0.702417385049502E+01
              0.363639300963558E+01
              0.436319822915888E+01
              0.225495714499111E+02
              0.191087612188266E+02
              0.133931563860425E+02
              0.168450668007746E+02
              0.189634684415530E+01
             -0.645302886002435E+01
              0.370615582659573E+01
             -0.840998799586968E+01
             -0.125729734375431E+02
             -0.137623210291241E+02
             -0.709031151529932E+01
             -0.263316065361467E+02
             -0.793458173297221E+01
             -0.206816919572000E+02
              0.525778142599092E+01
             -0.112541776121350E+02
              0.107235978704241E+02
             -0.234960060020284E+02
             -0.770314184735918E+01
              0.114657019988564E+02
              0.523106242830732E+01
             -0.211216817696181E+02
              0.143932981949710E+02
             -0.644722289426110E+01
              0.127889944096507E+02
             -0.594011404586246E+01
             -0.187028864218393E+02
              0.325457511724720E+01
             -0.154972965612040E+02
             -0.254079022280241E+01
             -0.366966924903102E+00
              0.100323330854819E+02
              0.307143113443339E+02
             -0.107774673569260E+02
             -0.890557547861022E+01
             -0.652069299700088E+00
             -0.265269681367803E+01
             -0.198394077249872E+02
             -0.138402441930266E+02
              0.121592525793373E+02
             -0.572602617011444E+01
              0.475930530458416E+01
             -0.118869041079528E+02
             -0.372867005916224E+01
             -0.102307868765620E+02
              0.129932684343538E+02
              0.311760217561647E+01
             -0.563019725634713E+01
             -0.365391302920473E+01
              0.234500174406267E+01
             -0.173301849852267E+01
              0.103682628045166E+02
             -0.614170696744219E+01
              0.171944802460052E+01
              0.817926529169675E+01
              0.368669773873836E+01
             -0.466056105891160E+01
              0.376264109378470E+02
              0.137198946778870E+02
              0.114617953397148E+01
              0.293758048072183E+01
             -0.149227058682144E+02
              0.801914141413479E+01
             -0.182508634426195E+02
             -0.691754752845230E+01
             -0.132596668488832E+02
             -0.490651461122539E+01
              0.140432042723609E+02
             -0.134689454135164E+02
              0.499880271475075E+01
             -0.930971181304557E+00
              0.740425790908631E+00
             -0.916603391178269E+01
             -0.110068149117105E+02
             -0.107156674711510E+01
             -0.930434230289906E+01
             -0.527200537218650E+01
             -0.102552667890266E+02
             -0.233961457548386E+01
             -0.845588099998275E+01
             -0.122497584292120E+02
              0.502324558975474E+01
             -0.409443457885538E+01
              0.529203786187958E+01
              0.213572322520329E+01
             -0.180875248037608E+02
             -0.129532694611444E+02
             -0.106716082842691E+02
              0.818227486583515E+01
             -0.427504256370582E+00
             -0.150645245130345E+02
              0.142022108310896E+02
             -0.982985914986196E+01
              0.137274040254010E+02
             -0.738911337104011E+01
             -0.113387846724933E+02
              0.640760726071312E+01
             -0.165714834699485E+02
             -0.856643278890400E+01
              0.153508929876276E+02
              0.474710513407830E+01
             -0.988924110442875E+01
              0.125521713580726E+02
             -0.421457900278386E+01
             -0.855127183669632E+01
             -0.723393525977959E+01
             -0.121589174943567E+02
              0.633456042022598E+01
             -0.220702607785095E+02
             -0.196426022564792E+02
             -0.215757923879983E+01
             -0.746715344950549E+01
             -0.141024104411139E+02
              0.178175114114038E+02
              0.324893272411851E+02
             -0.725271551191112E+01
             -0.919780048341906E+00
             -0.149515366954448E+02
              0.160351913212710E+02
              0.467213126107140E+01
             -0.499091759855287E+01
             -0.941451135696292E+01
              0.366891379387360E+01
             -0.144610249397165E+02
             -0.425804364161687E+01
             -0.214539121248829E+02
              0.850477909113857E+01
              0.329140282700320E+01
             -0.277702957216093E+00
             -0.220602053629214E+01
             -0.888145931330166E+01
             -0.237014225750549E+01
              0.313920266980545E+02
             -0.460559386159491E+01
             -0.112337755832625E+02
             -0.167968699345114E+02
              0.310830770282585E+01
             -0.878955584451170E+01
              0.213765499209584E+01
              0.708307508644021E+01
              0.194666756973283E+01
              0.736536070840036E+01
              0.341462230707921E+01
              0.147238468376624E+02
              0.699672575719207E+01
             -0.840522602272622E+01
              0.108011719134414E+02
              0.876403463665797E+01
              0.298990746182301E+01
              0.105717028980295E+02
             -0.646107838310956E+01
              0.180141865098897E+02
              0.520174460671990E+01
             -0.737867923348167E+01
             -0.145429791012549E+01
             -0.444366918672317E+01
              0.533714372914754E+01
             -0.595857285340659E+01
             -0.127800924872519E+01
             -0.250632353990648E+01
              0.198734175115609E+02
              0.129281628923569E+02
             -0.160928520335974E+02
             -0.150967672378523E+01
             -0.129476630960004E+02
             -0.363685838454187E+01
             -0.587276654468935E+01
              0.170625553888414E+01
             -0.218533483504655E+00
             -0.650541289604240E+01
              0.318123489462331E+01
             -0.178703027719039E+01
             -0.242661192513255E+01
              0.211572918512621E+02
              0.400129726485850E+01
             -0.198980242062960E+02
             -0.102816174336996E+02
              0.231220819010242E+02
              0.646742601698602E+01
             -0.236653204526871E+01
              0.258260234459581E+02
             -0.431240650596271E+01
             -0.250522122510245E+01
             -0.181540815395877E+01
              0.325642911282476E+01
              0.727410486889224E+01
              0.128255188029344E+01
              0.714368565886998E+01
             -0.370244824672858E+01
             -0.832783958887750E+01
             -0.100769823158953E+02
             -0.115356895401124E+02
              0.104764227041943E+02
              0.325679929350353E+01
              0.931367201515738E+01
              0.337170525673801E+01
              0.214083398639577E+02
              0.447498514961672E+01
             -0.198711401699195E+02
             -0.816984155433828E+01
              0.208196865683215E+01
             -0.706188322242790E+01
              0.153481909887498E+02
             -0.298520217008976E+01
              0.401831478660560E+01
              0.126207117478362E+02
             -0.180958279728136E+02
              0.361918222123151E+02
              0.488269750593085E+01
              0.627873119330405E+01
              0.874309189901896E+01
              0.182590306897103E+01
             -0.265487346169479E+00
              0.843609560640272E+01
             -0.867737199966278E+01
              0.197953590301860E+02
              0.174085721328151E+02
             -0.987336075571523E+01
              0.376920884632617E+01
              0.169437009666876E+02
             -0.527954184740458E+01
              0.426962606177806E+01
              0.953643370400241E+01
              0.101368971581297E+02
             -0.186856372565414E+02
             -0.280953181687647E+01
             -0.783998756000504E+01
             -0.651835685184011E+00
             -0.172786298742987E+01
             -0.115256788914934E+00
             -0.357742213834385E+01
             -0.735289190499032E+01
              0.262016199071745E+01
              0.216464208324776E+01
              0.130070221756824E+02
             -0.102777778870700E+02
              0.100743959177174E+02
              0.111549010694891E+02
             -0.347656794919062E+01
              0.201794416876850E+02
             -0.167382917588109E+02
             -0.251392099816125E+02
             -0.189694906302108E+01
             -0.130390737981853E+01
              0.287532801492148E+00
              0.191836958597007E+02
             -0.169607683306534E+01
              0.102609633531776E+02
              0.121994064564756E+02
              0.923294976557074E+01
             -0.238293857641506E+01
              0.148381879751180E+02
             -0.373189482175718E+01
             -0.821988074268657E+01
             -0.104082237503594E+02
              0.204983424653150E+01
              0.874240075794090E+01
             -0.918422643863828E+00
              0.887205011481265E+01
             -0.189995129766629E+00
              0.150690608170804E+02
              0.431084009019875E+01
              0.226228457187752E+01
             -0.140898817221705E+01
              0.779762305200352E+01
              0.935755178304227E+01
              0.469732524785810E+01
             -0.352491509862276E+00
             -0.133103227828027E+02
              0.697218847191471E+01
              0.463496622578172E+01
              0.885056788792117E+01
              0.706582359720792E+01
              0.901594423624559E+01
             -0.191968589283778E+01
              0.707609076046327E+01
             -0.690138685345084E+01
             -0.323763486809156E+00
             -0.132577599770090E+02
             -0.777168966429727E+01
              0.964003636652463E+01
             -0.220347754879188E+02
              0.667765314993100E+01
              0.392777910263749E+01
              0.204025070924543E+02
             -0.551180479376013E+01
              0.794780949223759E+01
             -0.294016167055352E+01
             -0.116678451195915E+02
             -0.172544563863237E+02
             -0.238067173112140E+01
             -0.214201275914072E+02
              0.358041997651378E+01
             -0.536910866941685E+01
              0.767496873998559E+01
              0.564401707980988E+01
             -0.639435837515911E+01
             -0.666832195281430E+01
              0.976645604338188E+01
             -0.144470846781423E+02
             -0.294444079201577E+01
             -0.462744519247325E+01
              0.584285781170624E+01
             -0.604481483678029E+00
              0.904669110347676E+00
             -0.455032358751372E+01
              0.134552236985853E+02
             -0.123549004144390E+02
              0.171290045459850E+01
              0.143267303112903E+02
             -0.845693579586718E+01
              0.758070356606559E+00
             -0.883155891517134E+00
             -0.160181778837849E+02
             -0.104794722295996E+02
             -0.152797232527824E+01
              0.653200845604471E+01
              0.783636834356689E+01
              0.153851436749697E+01
             -0.195477389776337E+01
              0.409927420160869E+01
             -0.104075269967619E+02
             -0.416211316905901E-01
             -0.126975133346118E+02
             -0.714421058644913E+01
              0.117713183088520E+02
             -0.720019750911736E+01
              0.159515465890928E+02
             -0.544173815816463E+01
              0.828700987016763E+01
              0.602688928282975E+01
             -0.153253440361923E+02
             -0.647705871363872E+01
              0.231104614100146E+01
             -0.968728464863620E+01
             -0.877398077026593E+01
             -0.210512904752026E+02
             -0.131671399784328E+02
             -0.123073049944059E+02
             -0.105137826617299E+02
              0.113469336965224E-01
              0.378374999807806E+01
              0.125313397098942E+01
              0.518520439639585E+01
             -0.136774209049266E+02
              0.343110216526730E+01
              0.620385381191689E+01
             -0.163354667416109E+02
             -0.156870968809078E+02
             -0.101471583505775E+02
             -0.580881570094736E+01
              0.411010774647121E+01
              0.102760827643266E+00
             -0.103629396987862E+02
              0.797518575987718E+01
             -0.545197595423615E+01
              0.124544724306381E+02
             -0.215459192022577E+02
              0.150954725405209E+02
             -0.154835429823599E+01
             -0.935122749373818E+01
             -0.598262957842801E+01
              0.740253274889245E+00
              0.104256923269401E+02
             -0.178796908669906E+02
             -0.301573343254076E+01
             -0.482012449747788E+01
              0.113664209943453E+02
              0.204655612315892E+02
             -0.238326128321532E+02
              0.226223921143208E+02
              0.106254415145331E+02
             -0.179997630799744E+02
             -0.815455027158290E+01
              0.186956689127139E+02
              0.147736192079528E+02
             -0.457133403679077E+01
             -0.135755620007667E+01
              0.285160731732994E+01
              0.173031225968578E+02
             -0.132812034320332E+02
              0.339284286383120E+01
             -0.168871731299128E+01
              0.737035225487028E+01
             -0.176740935073470E+02
             -0.112533576379415E+01
             -0.765762512378702E+01
              0.114714756675566E+02
              0.105970248062455E+02
             -0.211509267427746E+02
             -0.117301707251132E+02
             -0.555418591329672E+01
             -0.958360498103772E+01
             -0.290561014836025E+01
             -0.525501029437356E+01
              0.105688543181423E+02
              0.100375585492095E+02
             -0.792204338378880E+00
             -0.107019272539238E+02
             -0.207793039774720E+02
              0.112755598149354E+02
             -0.120695590380845E+02
             -0.832031424092679E+01
              0.146794499583294E+01
             -0.837095567277625E+01
             -0.975902456086621E+01
             -0.650597779230614E+01
             -0.107304252997699E+02
             -0.636884047069878E+01
             -0.120725955331656E+02
              0.136114199096074E+02
              0.151088999582971E+02
             -0.139037966449987E+01
             -0.579940457256208E+01
             -0.384512825508637E+00
              0.106372748133956E+02
             -0.208932888809481E+02
             -0.451933644350633E+01
              0.122151818819459E+02
              0.167997566102237E+02
             -0.441642272524649E+01
              0.239049661616917E+01
              0.128277934627570E+02
              0.422712630999662E+01
             -0.100067832883128E+01
             -0.106466479541332E+02
              0.547005646097608E+01
             -0.835876210364370E+01
             -0.298083393644256E+01
             -0.452203097368547E+01
             -0.425800731630372E+01
              0.529769355705602E+01
              0.193267216804697E+02
             -0.331601046356248E+00
              0.103109053624462E+01
             -0.217824230900614E+02
             -0.423883117243474E+01
             -0.870913846918818E+01
              0.257996000465212E+00
             -0.108137584963982E+02
              0.196510383426273E+02
              0.197266555889769E+02
              0.357368083261344E+01
             -0.429295155348609E+01
              0.393114815313129E+01
              0.557913958624540E+01
             -0.116272060982702E+02
             -0.211144101790873E+01
              0.396753808009885E+01
              0.356765819562727E+01
              0.133480501775867E+02
              0.101363533277602E+02
             -0.492036331526978E+01
              0.673625315909905E+01
             -0.235759557219475E+02
             -0.299623611694297E+00
              0.210185832995311E+02
              0.293717859135775E+01
             -0.139158171891694E+00
              0.753944584650728E+01
             -0.690979112807534E+01
              0.223541574552604E+02
             -0.359683811013069E+01
              0.201562280345008E+02
              0.934646101475691E+01
             -0.985104395009552E+01
              0.772936626756131E+01
             -0.767792039600125E+01
             -0.172012979601106E+02
             -0.159709483012172E+01
             -0.133679376980276E+02
             -0.129465686719455E+02
             -0.123076702655697E+01
              0.810346655120782E+01
             -0.202874012480219E+01
             -0.805681490381633E+01
              0.225124567550705E+01
             -0.172503863291956E+02
             -0.181943796002020E+01
             -0.205442834805060E+02
              0.121135752398510E+02
             -0.149791839215411E+00
             -0.119800215605036E+02
             -0.446526557321021E+01
              0.473249774194826E+01
             -0.816290499774448E+01
             -0.110801098402526E+02
              0.222661977393415E+02
             -0.562867685482217E+01
             -0.103318833181082E+02
              0.653618027992247E+01
             -0.362802860303920E+01
              0.129084118450099E+02
             -0.699624163571741E+00
              0.213587935157688E+01
              0.256291365467424E+02
             -0.371897913122676E+01
             -0.875493334852838E+01
             -0.939595117119882E+01
             -0.127328769893688E+02
             -0.837347041152370E+01
              0.640130590298071E+01
              0.595743764384939E+01
              0.531091235984476E+01
              0.181392794750965E+02
              0.603464213200411E+00
              0.479907211057863E+01
             -0.157016922268286E+02
              0.533358367577776E+00
             -0.516509507656610E+01
             -0.684813228239406E+01
              0.389477564772562E-01
              0.807587014274512E+01
              0.926713787620960E+01
              0.245654537614239E-01
              0.267664663617862E+01
              0.705670801712962E+01
              0.899545926085813E+01
             -0.593201966090781E+01
             -0.314974194072531E+01
              0.315822275640244E+00
             -0.564961192790886E+01
             -0.156150113347420E+01
             -0.740474850746641E+01
              0.189791547799732E+02
              0.158648061690072E+02
             -0.400752840545348E+01
              0.355898016592022E+01
             -0.966592742280822E+00
             -0.635642025739814E+01
              0.818321274506195E+01
             -0.245184259329039E+01
              0.945737729591519E+01
             -0.130992982482681E+02
              0.473935400599538E+01
             -0.271048298593945E+01
             -0.134566581650776E+02
             -0.652891311236556E+01
              0.687792423555050E+01
             -0.218853490172508E+02
              0.103361107071948E+02
              0.116108478143735E+02
             -0.216601532261596E+01
             -0.158732251921955E+01
             -0.974338070164535E+00
              0.572774585016555E+01
             -0.817049653196439E+01
              0.904363576831228E+01
              0.703728521592669E+01
             -0.250529526972140E+02
             -0.832980222380848E+01
              0.588208973836565E+01
             -0.194325167656130E+01
              0.995232725510859E+01
             -0.151202247395214E+02
             -0.112558640882204E+01
             -0.102677607324227E+02
             -0.307790156678580E+02
              0.188145923917623E+02
             -0.141975535113257E+02
             -0.147275522024466E+02
              0.244179742337218E+01
              0.313090098540398E+02
              0.277133514327041E+00
             -0.617462489291356E+01
             -0.592027305839878E+00
             -0.123260292965075E+01
             -0.210608931013590E+02
             -0.149789746790463E+02
              0.199140270139285E+02
             -0.208109284804831E+01
             -0.954954159254083E+01
              0.125485686007943E+02
             -0.852856440203680E+01
              0.905025099338766E+01
              0.133306262426947E+02
             -0.143034766901583E+02
             -0.626128502251029E+01
             -0.843403892320090E+01
             -0.384172668382918E+01
             -0.441677950274208E+01
             -0.218403443640378E+01
              0.354986633589223E+01
             -0.820836335163218E+01
              0.705506577762296E+01
              0.145574790616365E+02
             -0.293028150770974E+01
             -0.468577970851736E+01
              0.335975705566173E+01
              0.135582321206290E+02
              0.123625496275639E+02
              0.150494363719533E+01
             -0.885531233068946E+00
             -0.158149989361365E+01
             -0.121470305184704E+02
              0.923906117563391E+01
             -0.552137438268108E+01
              0.449356984464566E+01
             -0.389445395686474E+01
              0.707970008659720E+01
              0.410270335546100E+01
             -0.192252755130871E+02
             -0.687062573121389E+01
             -0.190745385059784E+02
             -0.800436766526036E+01
              0.122263863203157E+01
             -0.409794559386935E+01
              0.777680579473352E+01
             -0.737108530896821E+01
              0.892926761482677E+00
              0.256469196909725E+01
              0.176594684431788E+02
              0.932084705726428E+01
             -0.669441532047068E+01
             -0.943610040635505E-01
              0.281333728741912E+01
              0.948784380745248E+01
             -0.104082265824985E+00
              0.129858929796759E+02
              0.573973616767793E+01
              0.216357860972175E+02
              0.665180087079165E+00
              0.165175688451241E+02
             -0.655290808967595E+01
             -0.929495568509247E+01
              0.155354628229138E+01
              0.172165628753231E+01
              0.667281285440637E+01
             -0.257919148270670E+01
             -0.338314185071241E+01
              0.613288102688263E+01
             -0.114638352485351E+02
             -0.130602013967646E+02
              0.188124636306401E+02
             -0.176171626823330E+01
             -0.100478559327188E+02
             -0.655065350052862E+00
             -0.329738005456920E+01
              0.940979697038860E+01
              0.793820583931218E+01
             -0.520665628112801E+01
              0.232685893393480E+00
             -0.667584871919168E+01
             -0.832863740286689E+01
             -0.648420812371478E+01
             -0.232676096257173E+02
             -0.496155818091580E+00
             -0.162003627726858E+02
             -0.134505934992387E+02
             -0.980079147378527E+01
              0.417540128964373E+01
             -0.916541705646404E+01
              0.501086233803298E+01
             -0.146566332241287E+02
              0.258604659748826E+00
             -0.983065510971392E+01
              0.202792280469217E+01
              0.241222644730025E+01
              0.777578967440377E+01
             -0.500904365702996E+01
             -0.394155190273456E+01
              0.708250074898954E+01
              0.147215493669922E+02
              0.778678272846844E+01
              0.179936431592105E+01
             -0.172988669105533E+02
             -0.377498583392973E+01
             -0.795199967115269E+01
             -0.147485922822834E+02
              0.104324866693870E+02
             -0.874597441327130E+01
             -0.876262055682744E+00
             -0.638915479637254E+01
             -0.243659674133370E+02
              0.124813593839330E+02
             -0.406445884872630E+01
              0.101825995324966E+02
             -0.173630524748995E+02
              0.163514209975931E+02
              0.987567902064256E+00
             -0.734545625306011E+01
              0.179837285683463E+01
             -0.550953325483681E+01
             -0.167134536535504E+02
              0.352049395965248E+01
              0.789896472607998E+01
              0.609611114747366E+00
             -0.868859243092899E+01
             -0.366730394764318E+01
              0.406085573127865E+01
              0.732885651216080E+01
              0.154650463885403E+02
              0.627125028974226E+01
             -0.541295801094891E+01
              0.222843489954768E+02
              0.623483666968179E+01
              0.991849806704764E+01
             -0.450626084416589E+01
              0.671040090987088E+01
              0.433668942813389E+01
             -0.153848496688214E+02
             -0.496838198967235E+01
             -0.978239162012709E+01
             -0.846474139772594E+01
             -0.279590119267675E+01
             -0.367417705809225E+01
             -0.967859481601236E+01
             -0.273856193575712E+02
             -0.709908941553655E+01
              0.330818189181971E+01
              0.180553879930582E+01
              0.277289214545356E+01
              0.114154875120215E+02
              0.351439894869369E+01
              0.798852175539062E+01
             -0.999772979848534E+01
              0.114367996910739E+02
             -0.110619458254037E+02
             -0.180415477596872E+02
              0.466132513490840E+01
             -0.997188808384826E+01
             -0.966801133840569E+01
             -0.386221030858539E+02
             -0.288636831208898E+01
              0.196928754216863E+02
              0.111709982320767E+02
             -0.280946440205170E+01
             -0.287452988898187E+01
              0.851750213931891E+01
              0.161545223390322E+02
             -0.104497155045633E+02
             -0.231710341303665E+01
             -0.800885901427097E+01
             -0.883353292121100E+01
             -0.763074287236362E+01
              0.335215055532753E+01
              0.177059528832118E+02
             -0.159622557309375E+02
             -0.132731084903194E+02
              0.539107735751585E+00
             -0.226577898912964E+01
             -0.333772547815597E+01
             -0.223451430350546E+02
              0.145679670591608E+02
              0.621051658582294E+01
              0.202670042980433E+01
              0.118568612290540E+02
             -0.781970611019159E+01
              0.733703995310728E+01
              0.670631373217434E+01
              0.104526175507948E+01
             -0.138039117474667E+01
              0.267340785025598E+01
             -0.358679483868499E+01
              0.117556088869134E+02
             -0.998870766752397E+01
              0.101915524754433E+02
              0.225773913192143E+01
              0.327052922603128E+01
              0.587507356172554E+01
             -0.211213114402607E+02
              0.199443855870901E+01
             -0.162599986305825E+02
             -0.121022864430543E+02
             -0.119949580515630E+02
             -0.116710673781275E+02
              0.400540049670241E+00
              0.372099667918021E+01
              0.120174893422250E+02
              0.223917099533146E+01
              0.353464753583220E+01
             -0.174294625341473E+02
             -0.601435896082067E+01
              0.847346926522781E+01
              0.333040906001717E+00
              0.279050721771739E+00
             -0.207239043801732E+01
              0.860449745516620E+01
             -0.223489119905384E+02
              0.253557783132038E+01
              0.548911032324794E+01
              0.105713484058133E+02
              0.892517491212671E+01
             -0.139007038306143E+02
              0.255639907236163E+01
              0.117434661436383E+01
              0.105724789967873E+01
              0.958638641944376E+00
             -0.484394651175259E+01
             -0.795074820428208E+01
              0.434231907584382E+01
              0.150009444777814E+02
             -0.201529132220477E+01
              0.244200253958357E+01
              0.407070741318179E+01
             -0.612972407181032E+01
             -0.631812586831218E+01
             -0.286117197915646E+02
             -0.917504779507702E+01
             -0.126762103304164E+02
             -0.183802609880986E+01
             -0.159992179242934E+02
              0.185566156261673E+02
             -0.753972196467720E+01
             -0.132190794874707E+02
             -0.382943757878194E+02
              0.162237178549604E+02
              0.318349879586684E+01
              0.446319162426647E+00
             -0.153949475595377E+02
              0.228938403196724E+01
             -0.484524320342904E+01
             -0.826805005383281E+01
              0.255299300321560E+01
              0.822597318342679E+01
              0.177855751731580E+01
             -0.451740260460409E+01
             -0.399661242023569E+00
              0.473901072947825E+00
              0.451295652440157E+01
             -0.153297902212521E+02
              0.174549106394344E+02
             -0.103501244085383E+02
             -0.708146836008967E+01
             -0.107650755043780E+02
             -0.246600374232931E+02
              0.209156326855747E+01
             -0.124328386695431E+02
             -0.525441165693987E+01
              0.834162459772521E+01
             -0.588294016088891E+01
             -0.282870651993647E+00
             -0.259905631516188E+01
             -0.568957662318937E+01
              0.399146469148761E+00
              0.130836779242967E+02
             -0.126305125047929E+02
              0.230850058347843E+02
             -0.532611841423497E+01
              0.857521443623516E+01
             -0.221250606310241E+01
              0.304317728354528E+01
             -0.281614973776301E+01
              0.111839089445543E+02
              0.149435313562632E+02
              0.458661741764504E+01
              0.119202583347206E+02
             -0.914235893465689E+01
             -0.135882043758783E+01
             -0.545734556557701E+01
              0.168072754829211E+02
              0.140034998571010E+02
              0.107302824738460E+02
             -0.357389745542810E+01
             -0.681802282261314E+01
              0.616142999527820E+01
             -0.683209191774316E+01
             -0.316228811872799E+01
             -0.164439371045528E+01
             -0.666588653102970E+01
              0.122719618342569E+02
             -0.173728421167245E+01
              0.908985300685496E+01
              0.423848865995732E+01
              0.447421691936571E+01
             -0.807622512549948E+01
              0.702381889225391E+01
             -0.437340745000735E+01
             -0.302258844834772E+01
             -0.713142047092731E+00
             -0.122348436828284E+02
              0.187780900093014E+02
             -0.653312686121278E+01
             -0.862119335253809E+00
              0.502102712003169E+01
              0.495517450046692E+01
              0.180795573768642E+02
             -0.382737563565065E+01
              0.184844543480658E+02
              0.164229849866814E+02
             -0.230406755442513E+02
              0.170764519797887E+01
             -0.478136419297804E+01
              0.342716881882360E+01
              0.183880376209648E+01
              0.414033704885816E+01
              0.148866808754172E+02
              0.228929113632450E+02
             -0.186819961647549E+02
              0.186176945468305E+02
             -0.231469427535427E+02
             -0.193149296053674E+02
             -0.304173770286950E+01
             -0.358152680123709E-01
              0.172082183046783E+02
              0.944651600000057E+01
             -0.384130973322840E+01
             -0.221584864713805E+02
              0.170484936131769E+02
             -0.108023718926615E+02
              0.732607635804641E-01
             -0.176414057562734E+01
              0.304560679697297E+02
             -0.640772747220912E+01
             -0.259179881990643E+02
              0.733246024014960E+01
             -0.390773830417115E+02
              0.291230497855822E+01
             -0.868534104978710E+01
             -0.449691946700956E+01
             -0.659889630405686E+01
             -0.140908957548595E+02
              0.956935448573863E+01
             -0.894722923674827E+01
             -0.232028898373055E+01
             -0.191912572180212E+02
             -0.125540225374573E+01
             -0.121971144752062E+02
             -0.183555553933652E+02
             -0.289494690538889E+02
              0.282163423405477E+01
             -0.823168928360332E+01
              0.537343490333370E+00
             -0.342456458420412E+01
             -0.197986529006859E+02
             -0.156443247449754E+02
             -0.134040887391620E+02
             -0.133883033419564E+02
              0.131780128671771E+02
              0.173602754683301E+01
             -0.117030851180525E+02
             -0.532994372326843E+01
             -0.578208576635574E+01
              0.950999905316091E+01
             -0.743701693473938E+01
             -0.259125158631851E+01
             -0.639742718525102E+01
             -0.866592947013472E+01
             -0.947017732556087E+01
              0.913721209100132E+01
             -0.404672430903275E+01
             -0.222761152900786E+02
              0.189332878961195E+02
              0.112827736226581E+02
              0.119085311655279E+01
             -0.188258724470757E+02
             -0.180553555261110E+02
              0.209163794815973E+01
              0.395582806854890E+00
             -0.750451053893769E+01
             -0.112357434360600E+02
              0.828874482025952E+01
             -0.154239280627704E+01
              0.638490816511133E+01
              0.120423324814842E+02
              0.799502313587202E+01
              0.782155767853648E+01
              0.598650706399504E+01
             -0.490343920147333E+01
             -0.334238783438175E+01
             -0.531184574893749E+01
             -0.864122846503534E+01
             -0.106658951714933E+02
             -0.157634401627288E+02
             -0.926761640620092E+01
             -0.224930015624474E+01
             -0.194895112363758E+02
             -0.252361709163543E+01
              0.852290468034777E+01
             -0.180640102242366E+02
              0.695234647493049E+01
              0.599730491645133E+01
             -0.170697572603321E+02
             -0.137760509709363E+02
             -0.400367236275913E+01
              0.472174191279466E+01
             -0.972184768209141E+01
              0.174759217719134E+02
              0.151946444106887E+02
             -0.188642042985421E+02
              0.116729773315323E+02
              0.861923521816712E+01
              0.247104003770613E+01
              0.564332202362328E+01
             -0.104159967005207E+02
             -0.320954569898815E+01
              0.153209402391991E+01
              0.454585818132099E+01
              0.106814461983594E+02
             -0.125185686234163E+02
             -0.121561457107612E+01
              0.419239921249566E+01
              0.489137764809996E+00
             -0.674393552768272E+01
              0.525744239546864E+01
             -0.642195922941276E+01
             -0.501223487563428E+01
              0.703942318650007E+00
             -0.148401217289341E+02
              0.544737000166826E+00
             -0.509462577935116E+01
             -0.291622198902431E+01
              0.123641872596536E+01
             -0.134682801774807E+02
              0.139625265080642E+02
             -0.643319028592856E+01
             -0.315000098107711E+02
             -0.208410260648198E+02
              0.924887962890532E+01
             -0.904724698689733E+01
             -0.418610122635917E+01
             -0.671800056894269E+01
             -0.444410696958342E+01
             -0.243356934490887E+02
             -0.221159476714161E+01
             -0.152647029475792E+02
             -0.824600095924458E+01
              0.550736027096399E+01
              0.187481129570794E+02
              0.470442389179246E+00
             -0.439067510536987E+00
              0.141832060324360E+02
             -0.128084124825349E+02
              0.843110198102764E+01
              0.196982706702332E+01
             -0.109825303691353E+02
             -0.519439300779351E+01
              0.548691390526895E+01
              0.166975882865508E+00
              0.299316387251325E+01
              0.262753713897331E+01
             -0.561818759447083E+01
             -0.768817793623168E+01
             -0.125521886253987E+02
              0.117926814058470E+02
             -0.155447655618758E+02
             -0.118364988478787E+02
              0.299902428471972E+01
             -0.212028057201375E+02
              0.521908628904656E+01
              0.150945096957927E+02
             -0.141141383320057E+01
              0.221771833869344E+01
             -0.659145234012009E+01
             -0.509885632378618E+01
              0.222443360665099E+01
              0.922742156331468E+01
             -0.956783993091981E+01
              0.711844026825043E+01
             -0.276868122848248E+01
             -0.498150669666813E+00
              0.628187864924971E+01
              0.411108949533780E+01
             -0.258634183787255E+01
             -0.351085504703349E+00
              0.489683848017899E+01
              0.719982528794232E+01
             -0.175809241778890E+02
              0.154342662778055E+01
              0.126967889566611E+02
             -0.230266652107387E+02
              0.761125759357568E+01
             -0.288881383932273E+02
             -0.216790779657855E+01
             -0.375318161590442E+01
             -0.205087511963239E+01
             -0.276621139722974E+01
             -0.600200275473966E+01
             -0.179263619254800E+01
              0.313466669132119E+01
             -0.635740668226320E+01
              0.297968328459824E+01
              0.212656954019816E+02
             -0.152412667157843E+02
             -0.643221603549968E+01
              0.933722373560943E+01
              0.607932656064802E+01
              0.102218769468198E+02
              0.449775383489610E+01
              0.591629758288735E+01
             -0.397564874046560E+01
             -0.115990942296842E+02
             -0.108374867744001E+02
             -0.554134410080528E+01
              0.491441515139257E+00
             -0.102313573790146E+02
             -0.355812231734250E+01
              0.177374414416519E+01
              0.553839769722060E+01
             -0.247169111066789E+01
              0.142720192046498E+02
             -0.132710176742773E+02
             -0.144505929493225E+01
             -0.713722729931424E+00
              0.660118549770506E+01
             -0.100080115977190E+02
             -0.609226125318011E+01
              0.542990334336269E+01
              0.116531506594055E+02
              0.176170028294685E+02
              0.827682516616591E+01
              0.100200738949902E+02
             -0.690160820080676E+01
              0.157303502956591E+02
              0.158964654941797E+02
             -0.108463426327856E+01
              0.881425728091126E+01
              0.914113107325171E+01
             -0.551284837611252E+01
              0.127139808348171E+01
              0.147869355140697E+02
             -0.634502545708395E+01
             -0.275629221264882E+01
             -0.148244567137178E+02
              0.612954688034068E+01
             -0.271409130739583E+01
              0.457392559277864E+01
              0.175534748195202E+01
             -0.977108719852433E+01
              0.112649342191192E+02
              0.979776936515768E+01
             -0.624961809196883E+01
              0.436544418806868E+01
             -0.145976064396820E+02
             -0.128720155389572E+02
              0.577295557492158E+01
             -0.165069384018511E+02
             -0.712260719371570E+01
              0.172942084366508E+01
              0.200236637498023E+02
             -0.591697595923732E+01
             -0.295997085612908E+01
             -0.377868590996997E+01
              0.276992035413986E+02
              0.343847835766255E+01
             -0.103201962389007E+02
              0.170362255622488E+02
              0.152838512160738E+02
              0.741903835507604E+01
              0.180606191702065E+02
              0.201463469076724E+02
             -0.222141314103410E+01
             -0.686827687289298E+01
             -0.752548269990189E+01
              0.673000362102345E+01
              0.908836238750484E+01
             -0.140517469692328E+01
             -0.544572913166526E+01
             -0.149631267599261E+02
             -0.648462996022946E+01
             -0.109303378102876E+02
              0.715664287344889E+01
              0.407423919823535E+01
              0.151480132274905E+02
              0.164567815299461E+01
             -0.621524124800285E+01
             -0.186363273479040E+01
              0.970964675918751E+01
              0.341811819085888E+01
              0.128742225268852E+02
              0.138811508095242E+02
             -0.320060772741196E+01
             -0.239231012759965E+01
             -0.238843887460397E+02
              0.125080021026278E+02
             -0.990079508155361E+00
              0.132127764727536E+02
             -0.490096512710758E+01
             -0.146530557000561E+02
              0.494922450339885E+01
              0.170626746079650E+02
             -0.611430788690264E+01
              0.161539226214615E+02
             -0.176324645522642E+02
             -0.554837132499941E+01
             -0.195152172769153E+02
              0.495173164632581E+01
              0.258874209076760E+01
              0.582735307901920E+00
             -0.149108735532487E+02
              0.215906680571863E+02
              0.128876759252718E+02
              0.230877989521478E+01
             -0.115617941560636E+02
              0.547251488653798E+01
             -0.617052302454860E+01
             -0.267440603872944E+01
             -0.532782464355103E+01
              0.463627444300119E+01
             -0.302329533828041E+01
             -0.488297514546068E+01
              0.481371184246100E+01
              0.625132649707938E+01
             -0.204660389022355E+02
              0.499912589522692E+01
              0.162636196047627E+02
              0.998398497525784E+01
             -0.284960593673463E+01
              0.736594887814743E+00
             -0.855135621839530E+01
              0.139980388002388E+02
              0.401589602024391E+01
             -0.151788275570654E+01
             -0.179090270742648E+01
              0.256908740234930E+02
             -0.111842351294428E+00
              0.635049394292386E+01
              0.177035383708978E+02
              0.234378814673601E+02
              0.148709100819900E+02
              0.102325530762530E+02
             -0.154980994266281E+02
             -0.108350900541060E+02
              0.797262697393917E+01
              0.843463640089951E+00
              0.758906815178743E+01
              0.434843444533471E+01
              0.148138176440139E+02
             -0.188078225474060E+02
             -0.116465079337052E+02
             -0.242365793071320E+01
             -0.203097984239055E+02
              0.444710671247639E+01
              0.988468865008646E+01
              0.279618455319783E+01
             -0.556059702855015E+01
              0.601175521009688E+01
              0.337323831350336E+02
              0.662042970011431E+01
              0.355534618878490E+01
             -0.114836064645499E+02
             -0.149581989105199E+02
             -0.391444988080867E+01
              0.769857455363973E+01
             -0.121998574748270E+01
              0.527248923742943E+01
              0.843151030538189E+01
             -0.141624005318413E+02
              0.591958645449643E+01
              0.118280491944647E+02
              0.135526913067294E+02
             -0.153436347147145E+01
              0.577625928846118E+00
             -0.221239349685460E+01
             -0.114643525034991E+02
             -0.168697954879270E+02
              0.190585568693060E+02
             -0.173310055204105E+01
             -0.136879490934704E+02
              0.106093305029089E+01
             -0.593092709086942E+01
              0.219128434836717E+02
             -0.555098788753315E+01
             -0.879879981637865E+01
              0.830014227870208E+01
             -0.365404539060770E+01
              0.102500531359664E+02
             -0.167044729074064E+00
              0.237871640008758E+02
              0.125056271823604E+02
              0.435223463248855E+00
             -0.863716454993226E+01
              0.623947986023990E+01
             -0.130473066110016E+02
             -0.241399077611253E+01
              0.146466924305468E+02
             -0.672204176370357E+01
             -0.107247973269536E+02
             -0.560655572378414E+01
              0.123982383755499E+02
              0.306688569254308E+01
             -0.201496243327199E+02
              0.762573587659836E+01
              0.277273414839313E+01
              0.193099360674225E+01
             -0.121672089258552E+02
              0.371752876940135E+00
              0.814337996645246E+01
              0.118334558986597E+02
              0.157332691873487E+02
              0.655694469278361E+01
              0.798922394402126E+00
             -0.126821435719122E+02
             -0.115372629299627E+02
             -0.171522976721361E+02
             -0.242088476594768E+01
              0.770585092236209E+01
             -0.563438830077310E+00
              0.128837101504047E+02
             -0.785714659250718E+01
              0.423082703353602E+01
             -0.370332943712481E+01
             -0.698546759004839E+01
              0.143042074543082E+02
              0.173068516985951E+01
              0.150042870167848E+02
              0.112238719848793E+01
              0.566695206204842E+01
             -0.448060423321553E+01
              0.145419454497261E+02
             -0.336598550670983E+01
             -0.391204753442898E-01
             -0.190073972671022E+02
             -0.245518228560876E+01
              0.173044720274828E+02
              0.158241431547186E+02
              0.633219754267019E+01
             -0.368985270295971E+01
              0.112596827028878E+01
             -0.479841353721007E+01
             -0.234392388176429E+01
              0.221049899314287E+02
              0.101501441720910E+01
             -0.583093206204870E+01
             -0.264031750533376E+02
             -0.122079357515671E+02
             -0.916001801392368E+01
             -0.156882023872952E+02
             -0.137946880741823E+02
             -0.167219366936985E+02
             -0.109886307148380E+02
             -0.864822834762242E+01
             -0.115163773079609E+02
              0.113929462507536E+02
             -0.575495888535181E+01
             -0.223981488411939E+02
              0.993577517476909E+01
             -0.699879997036143E+01
             -0.193589778014560E+02
              0.233945204020269E+02
             -0.588865536864686E+01
              0.469911236640601E+01
              0.100201560105184E+02
              0.113553069221580E+01
              0.639663328586639E+01
              0.777920569660843E+00
              0.756639050119663E-01
             -0.346548032114156E+01
             -0.176114191203117E+02
              0.295853098713543E+01
             -0.305106153134976E+02
              0.163312275822437E+02
             -0.104863120765833E+02
             -0.421935307224012E+01
             -0.442965126750357E+01
              0.301767544991467E+01
             -0.466101348488750E+01
              0.695382574625729E+01
             -0.132733991144112E+02
              0.869093601723425E+01
              0.966911846631789E+01
              0.322765367121998E+01
              0.245626587197874E+01
              0.496229473003375E+01
              0.192532101057031E+01
              0.715386252291398E+01
             -0.165776406870571E+01
             -0.160651435983123E+02
              0.217105192636306E+01
             -0.546780192365291E+01
             -0.775837132925929E+00
              0.128523382265690E+02
             -0.195512228126535E+02
              0.785155306382990E-02
              0.411327721649400E+00
              0.237658686146115E+01
              0.760423377064813E+01
             -0.297909264946871E+01
              0.204262822064331E+02
              0.107219621090620E+02
             -0.404188348490958E+01
             -0.213063075954534E+01
              0.807200595218013E+00
              0.187878318263564E+02
             -0.133125034746350E+02
             -0.251073230358338E+02
              0.728249037376526E+01
             -0.319883922324151E+01
             -0.348795341506449E+01
              0.392516867698246E+01
              0.186643923674171E+02
              0.109074373192823E+02
             -0.383541239681999E+01
             -0.126097170669662E+02
             -0.198988004132448E+01
              0.711377558917817E+01
             -0.338628102713635E+01
             -0.182436366889934E+02
             -0.125780640987357E+01
             -0.226610188927476E+02
             -0.121488546848343E+02
              0.196697267932272E+02
             -0.122515140953095E+02
             -0.161955481147010E+02
             -0.124689481766605E+02
             -0.879795012544746E+01
              0.838418522674827E+01
              0.202878729590212E+02
             -0.144468970529783E+01
              0.659814274675405E+01
             -0.470617435541731E+01
             -0.168754454475333E+02
              0.115893425782029E+02
             -0.112786309706788E+02
              0.692783764188310E+01
              0.823257284114985E+01
             -0.244775948968309E+01
              0.931408585892518E+01
              0.101880521502803E+02
              0.267114977343130E+02
             -0.314318445455547E+01
             -0.122002289231807E+02
             -0.153347944047737E+02
             -0.386217276708855E+01
             -0.725124516659169E+01
              0.237746346172305E+02
             -0.107498452291692E+02
              0.265114140566773E+01
              0.156101096833108E+01
             -0.570347642288235E+01
             -0.201526093408464E+02
             -0.160110395278323E+01
              0.239209413124292E+02
              0.362147735668359E+01
              0.190917304245065E+01
             -0.135894536911378E+02
             -0.142842474413955E+02
             -0.286617431618164E+01
              0.116083481900806E+02
             -0.579524534940897E+01
              0.255211630367737E+02
             -0.111382241037607E+02
              0.412037510438624E+01
             -0.433841696630495E+01
             -0.165333220240327E+02
              0.100737847852082E+01
             -0.127849468727016E+02
             -0.182277564191274E+02
              0.216572010374487E+01
              0.506221453600645E+00
              0.124687547672855E+02
              0.537202439212983E+01
             -0.818380529864406E+01
              0.549755267643610E+01
             -0.206828170900903E+02
             -0.122839514736522E+02
              0.220825964619438E+02
              0.250075924787516E+01
             -0.318135410350990E+01
             -0.751151541779936E+01
             -0.691899676531875E+00
             -0.213269092505234E+01
              0.211211595159377E+02
              0.100951730342391E+02
             -0.313052630851875E+01
             -0.155803426676886E+01
             -0.985797836563453E+01
             -0.426526231598004E+01
             -0.157685744045812E+02
              0.115924858722457E+02
              0.150576385000828E+01
              0.286653838931304E+01
              0.414378702666560E+01
             -0.146759032852623E+01
             -0.468464841393432E+01
              0.544214271636785E+00
             -0.258220752305604E+02
             -0.426034313594543E+01
             -0.219813896739581E+01
             -0.197504287216191E+01
              0.125867794729588E+02
              0.155682086162217E+02
              0.419417004045141E+01
             -0.233042490887595E+02
              0.156069305041460E+02
             -0.525575639467598E+01
             -0.915219084079256E+01
             -0.211836675190256E+02
             -0.794119771309113E+01
              0.146539629673153E+02
              0.687839310848287E+01
              0.208286801082428E+01
              0.774102146569399E+01
             -0.139035035429420E+02
             -0.110948587552284E+02
              0.134950451535658E+02
              0.961278019576705E+01
              0.121742469770449E+02
              0.651956958011866E+00
              0.189250865108481E+01
              0.134994970537521E+02
              0.237024522464875E+02
             -0.593357691545060E+01
              0.893843860255316E+01
             -0.503071492867872E+01
             -0.102515924726486E+02
             -0.818072101617275E+01
             -0.789054013008646E+01
             -0.335275708241812E+01
             -0.122432837202029E+02
             -0.504150950384435E+01
             -0.333834556669048E+02
              0.827485474093454E+01
              0.552919315732990E+01
             -0.968652190426965E+00
             -0.938087042058211E+01
             -0.472717849500434E+01
             -0.132638511328210E+02
              0.255788051899776E+01
              0.196701865302528E+02
             -0.540060796591214E+01
             -0.410324440300101E+01
              0.535285077855968E+01
             -0.121373080907437E+02
              0.210611808062797E+02
              0.363527166472446E+01
              0.398116634463443E+01
              0.121716529348883E+02
             -0.148302463001755E+00
              0.137025857163459E+02
              0.410662246807677E+01
             -0.155017544602119E+01
              0.220755662744526E+01
             -0.737423979973286E+00
              0.169175078275503E+02
              0.214321791329172E+01
              0.398469350648877E+01
             -0.265727476519358E+01
              0.304557600186364E+01
             -0.224651463447210E+02
             -0.831991466760113E+01
             -0.116682566423573E+02
              0.119659407978587E+02
             -0.770309100221984E+01
             -0.151141124653076E+02
              0.139170246571646E+02
             -0.297848644683257E+01
              0.103738079540082E+02
             -0.219335869436506E+02
              0.496613554677589E+01
              0.163860551215345E+01
              0.161437283003113E+01
             -0.264111270213206E+01
             -0.186001753231361E+01
              0.119444599994105E+02
              0.333555261507641E+00
             -0.121714833726413E+02
             -0.448770506395587E+01
              0.591795404748109E+01
             -0.282928830955987E+02
             -0.219063557939437E+02
              0.539210198956283E+00
              0.330857376695631E+01
             -0.109552860476415E+02
             -0.401880445008786E+00
              0.262488347634019E+02
              0.729478594808623E+01
             -0.134842611023514E+02
              0.224106464875130E+01
             -0.243385109278788E+01
              0.275122135578190E+01
             -0.847313655240802E+01
              0.517545519272480E+01
              0.648871306839553E+01
             -0.146613360419508E+01
              0.269924488878696E+02
             -0.236080869068130E+01
             -0.770497577977565E+01
              0.513760175684209E+01
              0.107892157448170E+02
             -0.825110568231487E+01
             -0.514510888653950E+00
              0.236659971741600E+02
             -0.682717451615162E+00
              0.143087748975742E+02
              0.343198737640645E+01
             -0.197027020870707E+01
             -0.599950791573136E+01
              0.130625868940705E+02
             -0.134755636757185E+02
             -0.346155065162961E+00
             -0.432411440580223E+01
             -0.976296587865124E+01
              0.380222171732345E+01
              0.600012485637370E+01
              0.156993363760448E+01
             -0.938767694279363E-01
             -0.966870392828200E+01
              0.452070385869807E+01
             -0.936504447191098E+00
             -0.581712430567566E+01
             -0.494913449006324E+01
              0.451531048591580E+01
             -0.743644359558516E+00
             -0.894612813073911E+01
             -0.259975643431510E+02
              0.231279966278315E+01
              0.505266421274082E+01
             -0.108490851503903E+02
             -0.560606994149646E+01
              0.198786127241678E+02
              0.232047099525136E+01
              0.903655642015065E+01
              0.162428446424158E+01
              0.893367076460168E+01
              0.118963001609728E+01
             -0.949840272582124E+01
             -0.174876945520660E+01
              0.173052965411196E+01
              0.725059216265150E+01
              0.186818007093059E+02
              0.121478323982389E+02
              0.450854113445445E+00
              0.385940131039598E+01
              0.148549144170101E+02
              0.623259327005591E+01
             -0.175455919881411E+02
             -0.667628061905181E+01
              0.302307394401556E+01
              0.188221569838350E+01
              0.623866404366205E+01
             -0.128370805180979E+02
              0.198659343895222E+01
              0.982739374349267E+01
              0.120043230821247E+02
             -0.106703130298202E+02
             -0.509857706392154E+00
             -0.677995326268700E+00
             -0.390910965366714E+01
             -0.771264056975174E+01
             -0.428195377536834E+01
             -0.157823648939909E+01
              0.219708428351700E+01
              0.102340974239140E+02
             -0.758705131379635E+01
              0.197532780883576E+02
              0.808474441782568E+01
              0.588865091189901E+01
              0.845705680417859E+01
              0.706226627320699E+01
              0.859399762742241E+01
              0.132768133745398E+02
             -0.109057758594143E+02
              0.151349536829518E+02
             -0.275319543231516E+02
              0.764284003273830E+01
             -0.259520927731896E+02
              0.204155172570448E+02
              0.177572103859262E+02
             -0.250136480940772E+01
             -0.118133028447789E+02
             -0.104431461987791E+02
             -0.140853261645910E+02
             -0.155932533305049E+02
              0.135283183191035E+02
              0.101439590940673E+02
              0.583596467594195E+01
              0.761279132110738E+01
              0.104265513916692E+02
             -0.956395453665331E+01
             -0.451923756415496E+01
              0.136340511598825E+02
             -0.289084562258706E+01
              0.129456727700566E+02
              0.179035126702092E+02
             -0.133336639521129E+01
             -0.176506603472174E+02
              0.556675081706118E+00
             -0.464120568581436E+00
             -0.235550684463401E+01
              0.101803498404266E+00
             -0.158853257268713E+02
             -0.376095837298494E+01
              0.202546265269858E+01
              0.265793178562520E+01
              0.118890892700108E+02
             -0.101158644416302E+02
              0.142969294956114E+02
             -0.994558406514364E+01
              0.587262480163319E+01
              0.946156490064915E+01

 BEEF-vdW xc energy contributions
           1 :   -184.08290703808541     
           2 :    164.17118593897726     
           3 :   -131.02468629572707     
           4 :    94.414409069601973     
           5 :   -62.895267550005656     
           6 :    41.088527750678281     
           7 :   -29.213142881953104     
           8 :    24.412876290382457     
           9 :   -22.825519372760368     
          10 :    21.355130740822688     
          11 :   -18.537776475116033     
          12 :    14.447214279932780     
          13 :   -10.004748057053575     
          14 :    6.1940949002193406     
          15 :   -3.5615830328050038     
          16 :    2.1292417796666996     
          17 :   -1.6119151416013437     
          18 :    1.7043702408666377     
          19 :   -2.2346630985291256     
          20 :    3.1316034136133339     
          21 :   -4.3036285119920876     
          22 :    5.5651781475456801     
          23 :   -6.6770190055620446     
          24 :    7.4605316164659712     
          25 :   -7.8848653645337663     
          26 :    8.0586983708205651     
          27 :   -8.1395602681458854     
          28 :    8.2273173551978971     
          29 :   -8.3075688250426367     
          30 :    8.2704762839079251     
          31 :   -21.213550618980435     
          32 :   -15.133562726556221     

     Writing all to output data dir ./tmp_slab__beefhub/slab__beefhub.save/ :
     XML data file, charge density, pseudopotentials, collected wavefunctions

     init_run     :     29.02s CPU     31.91s WALL (       1 calls)
     electrons    :    957.84s CPU   1053.96s WALL (       1 calls)
     forces       :     70.46s CPU     72.68s WALL (       1 calls)

     Called by init_run:
     wfcinit      :     12.82s CPU     14.28s WALL (       1 calls)
     potinit      :     13.70s CPU     14.93s WALL (       1 calls)
     hinit0       :      0.71s CPU      0.80s WALL (       1 calls)

     Called by electrons:
     c_bands      :    658.55s CPU    720.59s WALL (      22 calls)
     sum_band     :    125.47s CPU    137.51s WALL (      22 calls)
     v_of_rho     :    124.79s CPU    143.92s WALL (      23 calls)
     newd         :      4.83s CPU      5.01s WALL (      23 calls)
     PAW_pot      :     19.18s CPU     19.21s WALL (      23 calls)
     mix_rho      :     34.94s CPU     38.51s WALL (      22 calls)
     vdW_kernel   :      8.42s CPU      8.43s WALL (       1 calls)

     Called by c_bands:
     init_us_2    :     18.22s CPU     18.41s WALL (     384 calls)
     cegterg      :    579.68s CPU    641.11s WALL (     176 calls)

     Called by *egterg:
     cdiaghg      :     12.35s CPU     12.39s WALL (     709 calls)
     h_psi        :    351.48s CPU    401.94s WALL (     717 calls)
     s_psi        :     32.17s CPU     32.26s WALL (     733 calls)
     g_psi        :      1.89s CPU      1.89s WALL (     533 calls)

     Called by h_psi:
     h_psi:calbec :     41.72s CPU     42.61s WALL (     717 calls)
     vloc_psi     :    241.36s CPU    283.60s WALL (     717 calls)
                                        0.00s GPU  (     717 calls)
     add_vuspsi   :     30.31s CPU     30.46s WALL (     717 calls)
     vhpsi        :     35.51s CPU     35.79s WALL (     717 calls)

     General routines
     calbec       :    127.86s CPU    129.89s WALL (    3570 calls)
     fft          :    216.59s CPU    247.52s WALL (    3446 calls)
     ffts         :     12.28s CPU     15.74s WALL (    2586 calls)
     fftw         :    280.38s CPU    332.17s WALL (   94058 calls)
     interpolate  :      1.78s CPU      1.92s WALL (      23 calls)

     Parallel routines

     Hubbard U routines
     new_ns       :     14.26s CPU     14.49s WALL (      22 calls)
     vhpsi        :     35.51s CPU     35.79s WALL (     717 calls)
     force_hub    :     49.49s CPU     49.97s WALL (       1 calls)

     PWSCF        :  23m 0.24s CPU  25m56.48s WALL


   This run was terminated on:   1: 9:18  22Aug2026            

=------------------------------------------------------------------------------=
   JOB DONE.
=------------------------------------------------------------------------------=
Note: The following floating-point exceptions are signalling: IEEE_UNDERFLOW_FLAG IEEE_DENORMAL
Note: The following floating-point exceptions are signalling: IEEE_UNDERFLOW_FLAG IEEE_DENORMAL
Note: The following floating-point exceptions are signalling: IEEE_UNDERFLOW_FLAG IEEE_DENORMAL
Note: The following floating-point exceptions are signalling: IEEE_UNDERFLOW_FLAG IEEE_DENORMAL
Note: The following floating-point exceptions are signalling: IEEE_UNDERFLOW_FLAG IEEE_DENORMAL
Note: The following floating-point exceptions are signalling: IEEE_UNDERFLOW_FLAG IEEE_DENORMAL
Note: The following floating-point exceptions are signalling: IEEE_UNDERFLOW_FLAG IEEE_DENORMAL
Note: The following floating-point exceptions are signalling: IEEE_UNDERFLOW_FLAG IEEE_DENORMAL
Note: The following floating-point exceptions are signalling: IEEE_UNDERFLOW_FLAG IEEE_DENORMAL
Note: The following floating-point exceptions are signalling: IEEE_UNDERFLOW_FLAG IEEE_DENORMAL
Note: The following floating-point exceptions are signalling: IEEE_UNDERFLOW_FLAG IEEE_DENORMAL
Note: The following floating-point exceptions are signalling: IEEE_UNDERFLOW_FLAG IEEE_DENORMAL
Note: The following floating-point exceptions are signalling: IEEE_UNDERFLOW_FLAG IEEE_DENORMAL
Note: The following floating-point exceptions are signalling: IEEE_UNDERFLOW_FLAG IEEE_DENORMAL
Note: The following floating-point exceptions are signalling: IEEE_UNDERFLOW_FLAG IEEE_DENORMAL
Note: The following floating-point exceptions are signalling: IEEE_UNDERFLOW_FLAG IEEE_DENORMAL
Note: The following floating-point exceptions are signalling: IEEE_UNDERFLOW_FLAG IEEE_DENORMAL
Note: The following floating-point exceptions are signalling: IEEE_UNDERFLOW_FLAG IEEE_DENORMAL
Note: The following floating-point exceptions are signalling: IEEE_UNDERFLOW_FLAG IEEE_DENORMAL
Note: The following floating-point exceptions are signalling: IEEE_UNDERFLOW_FLAG IEEE_DENORMAL
