
     Program PWSCF v.7.5 starts on 28Aug2026 at  8:27:28 

     This program is part of the open-source Quantum ESPRESSO suite
     for quantum simulation of materials; please cite
         "P. Giannozzi et al., J. Phys.:Condens. Matter 21 395502 (2009);
         "P. Giannozzi et al., J. Phys.:Condens. Matter 29 465901 (2017);
         "P. Giannozzi et al., J. Chem. Phys. 152 154105 (2020);
          URL http://www.quantum-espresso.org", 
     in publications or presentations arising from this work. More details at
     http://www.quantum-espresso.org/quote

     Parallel version (MPI & OpenMP), running on     128 processor cores
     Number of MPI processes:               128
     Threads/MPI process:                     1

     MPI processes distributed on     1 nodes
     224938 MiB available memory on the printing compute node when the environment starts

     Reading input from s0_OH__u750.run.in

     Current dimensions of program PWSCF are:
     Max number of different atomic species (ntypx) = 10
     Max number of k-points (npk) =  40000
     Max angular momentum in pseudopotentials (lmaxx) =  4
     file O.pbe-n-kjpaw_psl.0.1.UPF: wavefunction(s)  2P renormalized
     Message from routine setup:
     using ibrav=0 with symmetry is DISCOURAGED, use correct ibrav instead

     K-points division:     npool     =       4
     R & G space division:  proc/nbgrp/npool/nimage =      32
     Subspace diagonalization in iterative solution of the eigenvalue problem:
     a serial algorithm will be used


     Parallelization info
     --------------------
     sticks:   dense  smooth     PW     G-vecs:    dense   smooth      PW
     Min         112      56     16                28918    10208    1540
     Max         113      57     17                28934    10234    1560
     Sum        3587    1793    513               925697   327113   49625

     Using Slab Decomposition



     bravais-lattice index     =            0
     lattice parameter (alat)  =       5.8714  a.u.
     unit-cell volume          =    3384.5999 (a.u.)^3
     number of atoms/cell      =           20
     number of atomic types    =            3
     number of electrons       =       175.00
     number of Kohn-Sham states=          106
     kinetic-energy cutoff     =      80.0000  Ry
     charge density cutoff     =     640.0000  Ry
     scf convergence threshold =      1.0E-06
     mixing beta               =       0.3000
     number of iterations used =            8  local-TF  mixing
     Exchange-correlation= SLA  PW   PBX  PBC
                           (   1   4   3   4   0   0   0)
     Hubbard projectors: atomic
     Hubbard parameters of DFT+U (Dudarev formulation) in eV:
     U(Ru-4d) =  7.5000

     Internal variables: lda_plus_u =T, lda_plus_u_kind = 0

     Internal variables: orbital_resolved =F, hub_pot_fix =F, apply_U = F

     celldm(1)=   5.871379  celldm(2)=   0.000000  celldm(3)=   0.000000
     celldm(4)=   0.000000  celldm(5)=   0.000000  celldm(6)=   0.000000

     crystal axes: (cart. coord. in units of alat)
               a(1) = (   1.000000   0.000000   0.000000 )  
               a(2) = (   0.000000   2.044624   0.000000 )  
               a(3) = (   0.000000   0.000000   8.178497 )  

     reciprocal axes: (cart. coord. in units 2 pi/alat)
               b(1) = (  1.000000  0.000000  0.000000 )  
               b(2) = (  0.000000  0.489087  0.000000 )  
               b(3) = (  0.000000  0.000000  0.122272 )  


     PseudoPot. # 1 for H  read from file:
     /anvil/projects/x-che260157/pseudo/H.pbe-rrkjus_psl.1.0.0.UPF
     MD5 check sum: f52b6d4d1c606e5624b1dc7b2218f220
     Pseudo is Ultrasoft, Zval =  1.0
     Generated using "atomic" code by A. Dal Corso  v.5.1
     Using radial grid of  929 points,  2 beta functions with: 
                l(1) =   0
                l(2) =   0
     Q(r) pseudized with 0 coefficients 


     PseudoPot. # 2 for Ru read from file:
     /anvil/projects/x-che260157/pseudo/Ru_ONCV_PBE-1.0.oncvpsp.upf
     MD5 check sum: be037bb81c227cfb9b1461a9f099f4bd
     Pseudo is Norm-conserving, Zval = 16.0
     Generated using ONCVPSP code by D. R. Hamann
     Using radial grid of 1458 points,  6 beta functions with: 
                l(1) =   0
                l(2) =   0
                l(3) =   1
                l(4) =   1
                l(5) =   2
                l(6) =   2

     PseudoPot. # 3 for O  read from file:
     /anvil/projects/x-che260157/pseudo/O.pbe-n-kjpaw_psl.0.1.UPF
     MD5 check sum: 0234752ac141de4415c5fc33072bef88
     Pseudo is Projector augmented-wave + core cor, Zval =  6.0
     Generated using "atomic" code by A. Dal Corso  v.5.0.99 svn rev. 10869
     Shape of augmentation charge: BESSEL
     Using radial grid of 1095 points,  4 beta functions with: 
                l(1) =   0
                l(2) =   0
                l(3) =   1
                l(4) =   1
     Q(r) pseudized with 0 coefficients 


     atomic species   valence    mass     pseudopotential
     H                 1.00     1.00800     H ( 1.00)
     Ru               16.00   101.07000     Ru( 1.00)
     O                 6.00    15.99900     O ( 1.00)

      2 Sym. Ops. (no inversion) found ( 1 have fractional translation)



   Cartesian axes

     site n.     atom                  positions (alat units)
         1        Ru     tau(   1) = (   0.0000000   0.5111560   3.0669363  )
         2        Ru     tau(   2) = (   0.5000000   1.5334681   3.0669363  )
         3        Ru     tau(   3) = (  -0.0006221   1.5334681   4.1058017  )
         4        Ru     tau(   4) = (   0.4990454   0.5111560   4.0846743  )
         5        Ru     tau(   5) = (  -0.0030127   0.5111560   5.1199908  )
         6        Ru     tau(   6) = (   0.4953194   1.5334681   5.1556333  )
         7        O      tau(   7) = (   0.0000000   1.5334681   3.4656380  )
         8        O      tau(   8) = (   0.0000000   1.5334681   2.6682346  )
         9        O      tau(   9) = (   0.5000000   0.1124543   3.0669363  )
        10        O      tau(  10) = (   0.5000000   0.9098578   3.0669363  )
        11        O      tau(  11) = (  -0.0020184   0.5111560   4.4919854  )
        12        O      tau(  12) = (   0.0000000   0.5111560   3.6905466  )
        13        O      tau(  13) = (   0.4993872   1.1375269   4.0986622  )
        14        O      tau(  14) = (   0.4993872   1.9294094   4.0986622  )
        15        O      tau(  15) = (  -0.0048095   1.5334681   5.5072493  )
        16        O      tau(  16) = (  -0.0034309   1.5334681   4.7292681  )
        17        O      tau(  17) = (   0.4957213   0.1173129   5.1226215  )
        18        O      tau(  18) = (   0.4957213   0.9049992   5.1226215  )
        19        O      tau(  19) = (  -0.0263874   0.5111560   5.7402711  )
        20        H      tau(  20) = (   0.2647104   0.5111560   5.8625747  )

     number of k points=    15  Marzari-Vanderbilt smearing, width (Ry)=  0.0100
                       cart. coord. in units 2pi/alat
        k(    1) = (   0.0000000   0.0000000   0.0000000), wk =   0.0625000
        k(    2) = (   0.0000000   0.1222719   0.0000000), wk =   0.1250000
        k(    3) = (   0.0000000  -0.2445437   0.0000000), wk =   0.0625000
        k(    4) = (   0.1250000   0.0000000   0.0000000), wk =   0.1250000
        k(    5) = (   0.1250000   0.1222719   0.0000000), wk =   0.2500000
        k(    6) = (   0.1250000  -0.2445437   0.0000000), wk =   0.1250000
        k(    7) = (   0.2500000   0.0000000   0.0000000), wk =   0.1250000
        k(    8) = (   0.2500000   0.1222719   0.0000000), wk =   0.2500000
        k(    9) = (   0.2500000  -0.2445437   0.0000000), wk =   0.1250000
        k(   10) = (   0.3750000   0.0000000   0.0000000), wk =   0.1250000
        k(   11) = (   0.3750000   0.1222719   0.0000000), wk =   0.2500000
        k(   12) = (   0.3750000  -0.2445437   0.0000000), wk =   0.1250000
        k(   13) = (  -0.5000000   0.0000000   0.0000000), wk =   0.0625000
        k(   14) = (  -0.5000000   0.1222719   0.0000000), wk =   0.1250000
        k(   15) = (  -0.5000000  -0.2445437   0.0000000), wk =   0.0625000

     Dense  grid:   925697 G-vectors     FFT dimensions: (  48, 100, 400)

     Smooth grid:   327113 G-vectors     FFT dimensions: (  36,  72, 288)

     Estimated max dynamical RAM per process >      56.26 MB

     Estimated total dynamical RAM >       6.37 GB

     Initial potential from superposition of free atoms

     starting charge     174.9967, renormalised to     175.0000

     negative rho (up, down):  8.199E-05 0.000E+00

     STARTING HUBBARD OCCUPATIONS:

     =================== HUBBARD OCCUPATIONS ===================
     ------------------------ ATOM    1 ------------------------
     Tr[ns(  1)] =   6.00000
     eigenvalues:
       0.600  0.600  0.600  0.600  0.600
     eigenvectors (columns):
       1.000  0.000  0.000  0.000  0.000
       0.000  1.000  0.000  0.000  0.000
       0.000  0.000  1.000  0.000  0.000
       0.000  0.000  0.000  1.000  0.000
       0.000  0.000  0.000  0.000  1.000
     occupation matrix ns (before diag.):
       0.600  0.000  0.000  0.000  0.000
       0.000  0.600  0.000  0.000  0.000
       0.000  0.000  0.600  0.000  0.000
       0.000  0.000  0.000  0.600  0.000
       0.000  0.000  0.000  0.000  0.600
     ------------------------ ATOM    2 ------------------------
     Tr[ns(  2)] =   6.00000
     eigenvalues:
       0.600  0.600  0.600  0.600  0.600
     eigenvectors (columns):
       1.000  0.000  0.000  0.000  0.000
       0.000  1.000  0.000  0.000  0.000
       0.000  0.000  1.000  0.000  0.000
       0.000  0.000  0.000  1.000  0.000
       0.000  0.000  0.000  0.000  1.000
     occupation matrix ns (before diag.):
       0.600  0.000  0.000  0.000  0.000
       0.000  0.600  0.000  0.000  0.000
       0.000  0.000  0.600  0.000  0.000
       0.000  0.000  0.000  0.600  0.000
       0.000  0.000  0.000  0.000  0.600
     ------------------------ ATOM    3 ------------------------
     Tr[ns(  3)] =   6.00000
     eigenvalues:
       0.600  0.600  0.600  0.600  0.600
     eigenvectors (columns):
       1.000  0.000  0.000  0.000  0.000
       0.000  1.000  0.000  0.000  0.000
       0.000  0.000  1.000  0.000  0.000
       0.000  0.000  0.000  1.000  0.000
       0.000  0.000  0.000  0.000  1.000
     occupation matrix ns (before diag.):
       0.600  0.000  0.000  0.000  0.000
       0.000  0.600  0.000  0.000  0.000
       0.000  0.000  0.600  0.000  0.000
       0.000  0.000  0.000  0.600  0.000
       0.000  0.000  0.000  0.000  0.600
     ------------------------ ATOM    4 ------------------------
     Tr[ns(  4)] =   6.00000
     eigenvalues:
       0.600  0.600  0.600  0.600  0.600
     eigenvectors (columns):
       1.000  0.000  0.000  0.000  0.000
       0.000  1.000  0.000  0.000  0.000
       0.000  0.000  1.000  0.000  0.000
       0.000  0.000  0.000  1.000  0.000
       0.000  0.000  0.000  0.000  1.000
     occupation matrix ns (before diag.):
       0.600  0.000  0.000  0.000  0.000
       0.000  0.600  0.000  0.000  0.000
       0.000  0.000  0.600  0.000  0.000
       0.000  0.000  0.000  0.600  0.000
       0.000  0.000  0.000  0.000  0.600
     ------------------------ ATOM    5 ------------------------
     Tr[ns(  5)] =   6.00000
     eigenvalues:
       0.600  0.600  0.600  0.600  0.600
     eigenvectors (columns):
       1.000  0.000  0.000  0.000  0.000
       0.000  1.000  0.000  0.000  0.000
       0.000  0.000  1.000  0.000  0.000
       0.000  0.000  0.000  1.000  0.000
       0.000  0.000  0.000  0.000  1.000
     occupation matrix ns (before diag.):
       0.600  0.000  0.000  0.000  0.000
       0.000  0.600  0.000  0.000  0.000
       0.000  0.000  0.600  0.000  0.000
       0.000  0.000  0.000  0.600  0.000
       0.000  0.000  0.000  0.000  0.600
     ------------------------ ATOM    6 ------------------------
     Tr[ns(  6)] =   6.00000
     eigenvalues:
       0.600  0.600  0.600  0.600  0.600
     eigenvectors (columns):
       1.000  0.000  0.000  0.000  0.000
       0.000  1.000  0.000  0.000  0.000
       0.000  0.000  1.000  0.000  0.000
       0.000  0.000  0.000  1.000  0.000
       0.000  0.000  0.000  0.000  1.000
     occupation matrix ns (before diag.):
       0.600  0.000  0.000  0.000  0.000
       0.000  0.600  0.000  0.000  0.000
       0.000  0.000  0.600  0.000  0.000
       0.000  0.000  0.000  0.600  0.000
       0.000  0.000  0.000  0.000  0.600

     Number of occupied Hubbard levels =   36.0000

     Atomic wfc used for Hubbard projectors are NOT orthogonalized

     Starting wfcs are  113 randomized atomic wfcs
     Checking if some PAW data can be deallocated... 

     total cpu time spent up to now is        2.3 secs

     per-process dynamical memory:    98.9 Mb

     Self-consistent Calculation

     iteration #  1     ecut=    80.00 Ry     beta= 0.30
     Davidson diagonalization with overlap
     ethr =  1.00E-02,  avg # of iterations =  2.0

     =================== HUBBARD OCCUPATIONS ===================
     ------------------------ ATOM    1 ------------------------
     Tr[ns(  1)] =   6.80392
     eigenvalues:
       0.465  0.505  0.687  0.778  0.968
     eigenvectors (columns):
       0.998  0.000  0.000  0.000 -0.068
       0.000 -0.000 -0.000 -1.000  0.000
       0.000  0.000 -1.000  0.000 -0.000
      -0.068  0.000  0.000 -0.000 -0.998
      -0.000  1.000  0.000 -0.000  0.000
     occupation matrix ns (before diag.):
       0.468 -0.000 -0.000  0.034  0.000
      -0.000  0.778 -0.000 -0.000  0.000
      -0.000 -0.000  0.687  0.000 -0.000
       0.034 -0.000  0.000  0.966 -0.000
       0.000  0.000 -0.000 -0.000  0.505
     ------------------------ ATOM    2 ------------------------
     Tr[ns(  2)] =   6.70455
     eigenvalues:
       0.528  0.552  0.638  0.735  0.900
     eigenvectors (columns):
       0.000  0.430  0.000 -0.000 -0.903
       1.000 -0.000 -0.000  0.000  0.000
       0.000 -0.000  1.000 -0.000  0.000
       0.000  0.903  0.000 -0.000  0.430
      -0.000  0.000  0.000  1.000 -0.000
     occupation matrix ns (before diag.):
       0.836 -0.000 -0.000 -0.135  0.000
      -0.000  0.528 -0.000  0.000  0.000
      -0.000 -0.000  0.638  0.000 -0.000
      -0.135  0.000  0.000  0.616 -0.000
       0.000  0.000 -0.000 -0.000  0.735
     ------------------------ ATOM    3 ------------------------
     Tr[ns(  3)] =   6.90412
     eigenvalues:
       0.509  0.533  0.676  0.761  0.973
     eigenvectors (columns):
      -0.000 -0.997 -0.000  0.003 -0.074
      -0.000 -0.003  0.000 -1.000  0.001
      -0.000 -0.000  1.000  0.000 -0.000
       0.000  0.074 -0.000 -0.001 -0.997
       1.000 -0.000  0.000 -0.000  0.000
     occupation matrix ns (before diag.):
       0.535 -0.001 -0.000  0.033  0.000
      -0.001  0.761 -0.000 -0.000  0.000
      -0.000 -0.000  0.676  0.000  0.000
       0.033 -0.000  0.000  0.970 -0.000
       0.000  0.000  0.000 -0.000  0.509
     ------------------------ ATOM    4 ------------------------
     Tr[ns(  4)] =   6.91586
     eigenvalues:
       0.509  0.538  0.676  0.780  0.955
     eigenvectors (columns):
       0.007  0.454 -0.000 -0.000  0.891
       1.000 -0.017  0.000  0.000  0.001
       0.000 -0.000 -1.000  0.016 -0.000
       0.016  0.891  0.000  0.000 -0.454
      -0.000  0.000  0.016  1.000  0.000
     occupation matrix ns (before diag.):
       0.869  0.000 -0.000 -0.169  0.000
       0.000  0.509 -0.000 -0.001  0.000
      -0.000 -0.000  0.676  0.000  0.002
      -0.169 -0.001  0.000  0.624 -0.000
       0.000  0.000  0.002 -0.000  0.780
     ------------------------ ATOM    5 ------------------------
     Tr[ns(  5)] =   6.84480
     eigenvalues:
       0.511  0.542  0.618  0.786  0.966
     eigenvectors (columns):
      -0.000  0.997  0.000  0.015 -0.072
      -0.000  0.015 -0.000 -1.000 -0.005
       0.003  0.000 -1.000  0.000 -0.000
       0.000 -0.072  0.000  0.004 -0.997
       1.000  0.000  0.003 -0.000  0.000
     occupation matrix ns (before diag.):
       0.544 -0.003 -0.000  0.031  0.000
      -0.003  0.786 -0.000  0.001  0.000
      -0.000 -0.000  0.618  0.000 -0.000
       0.031  0.001  0.000  0.964 -0.000
       0.000  0.000 -0.000 -0.000  0.511
     ------------------------ ATOM    6 ------------------------
     Tr[ns(  6)] =   6.19052
     eigenvalues:
       0.526  0.536  0.637  0.685  0.712
     eigenvectors (columns):
      -0.015  0.581 -0.000 -0.814  0.000
      -1.000 -0.027  0.000 -0.001  0.000
      -0.000 -0.000 -1.000  0.000  0.019
      -0.023  0.813  0.000  0.581 -0.000
       0.000  0.000  0.019  0.000  1.000
     occupation matrix ns (before diag.):
       0.635 -0.000 -0.000 -0.070  0.000
      -0.000  0.526 -0.000 -0.000  0.000
      -0.000 -0.000  0.637  0.000  0.001
      -0.070 -0.000  0.000  0.586 -0.000
       0.000  0.000  0.001 -0.000  0.712

     Number of occupied Hubbard levels =   40.3638

     negative rho (up, down):  6.626E-06 0.000E+00

     total cpu time spent up to now is        5.2 secs

     total energy              =   -1670.34771719 Ry
     estimated scf accuracy    <       3.48818438 Ry

     iteration #  2     ecut=    80.00 Ry     beta= 0.30
     Davidson diagonalization with overlap
     ethr =  1.99E-03,  avg # of iterations =  1.1

     total cpu time spent up to now is        8.8 secs

     total energy              =   -1670.53302400 Ry
     estimated scf accuracy    <       0.95951043 Ry

     iteration #  3     ecut=    80.00 Ry     beta= 0.30
     Davidson diagonalization with overlap
     ethr =  5.48E-04,  avg # of iterations =  1.9

     total cpu time spent up to now is       11.1 secs

     total energy              =   -1670.63844428 Ry
     estimated scf accuracy    <       0.71556117 Ry

     iteration #  4     ecut=    80.00 Ry     beta= 0.30
     Davidson diagonalization with overlap
     ethr =  4.09E-04,  avg # of iterations =  1.0

     negative rho (up, down):  1.021E-08 0.000E+00

     total cpu time spent up to now is       12.9 secs

     total energy              =   -1670.65480679 Ry
     estimated scf accuracy    <       0.25292878 Ry

     iteration #  5     ecut=    80.00 Ry     beta= 0.30
     Davidson diagonalization with overlap
     ethr =  1.45E-04,  avg # of iterations =  1.1

     negative rho (up, down):  1.677E-08 0.000E+00

     total cpu time spent up to now is       14.9 secs

     total energy              =   -1670.65870679 Ry
     estimated scf accuracy    <       0.13037118 Ry

     iteration #  6     ecut=    80.00 Ry     beta= 0.30
     Davidson diagonalization with overlap
     ethr =  7.45E-05,  avg # of iterations =  1.9

     total cpu time spent up to now is       16.9 secs

     total energy              =   -1670.65192730 Ry
     estimated scf accuracy    <       0.07898380 Ry

     iteration #  7     ecut=    80.00 Ry     beta= 0.30
     Davidson diagonalization with overlap
     ethr =  4.51E-05,  avg # of iterations =  2.5

     total cpu time spent up to now is       19.0 secs

     total energy              =   -1670.65146388 Ry
     estimated scf accuracy    <       0.03644774 Ry

     iteration #  8     ecut=    80.00 Ry     beta= 0.30
     Davidson diagonalization with overlap
     ethr =  2.08E-05,  avg # of iterations =  2.9

     total cpu time spent up to now is       21.2 secs

     total energy              =   -1670.65134769 Ry
     estimated scf accuracy    <       0.02946456 Ry

     iteration #  9     ecut=    80.00 Ry     beta= 0.30
     Davidson diagonalization with overlap
     ethr =  1.68E-05,  avg # of iterations =  1.1

     total cpu time spent up to now is       23.1 secs

     total energy              =   -1670.65002979 Ry
     estimated scf accuracy    <       0.01270633 Ry

     iteration # 10     ecut=    80.00 Ry     beta= 0.30
     Davidson diagonalization with overlap
     ethr =  7.26E-06,  avg # of iterations =  4.2

     negative rho (up, down):  1.850E-05 0.000E+00

     total cpu time spent up to now is       25.4 secs

     total energy              =   -1670.64915882 Ry
     estimated scf accuracy    <       0.01055901 Ry

     iteration # 11     ecut=    80.00 Ry     beta= 0.30
     Davidson diagonalization with overlap
     ethr =  6.03E-06,  avg # of iterations =  2.0

     negative rho (up, down):  2.013E-03 0.000E+00

     total cpu time spent up to now is       27.4 secs

     total energy              =   -1670.64846678 Ry
     estimated scf accuracy    <       0.00825565 Ry

     iteration # 12     ecut=    80.00 Ry     beta= 0.30
     Davidson diagonalization with overlap
     ethr =  4.72E-06,  avg # of iterations =  2.4

     negative rho (up, down):  4.112E-03 0.000E+00

     total cpu time spent up to now is       29.5 secs

     total energy              =   -1670.64844406 Ry
     estimated scf accuracy    <       0.00286797 Ry

     iteration # 13     ecut=    80.00 Ry     beta= 0.30
     Davidson diagonalization with overlap
     ethr =  1.64E-06,  avg # of iterations =  3.9

     negative rho (up, down):  4.457E-03 0.000E+00

     total cpu time spent up to now is       31.9 secs

     total energy              =   -1670.64824985 Ry
     estimated scf accuracy    <       0.00177922 Ry

     iteration # 14     ecut=    80.00 Ry     beta= 0.30
     Davidson diagonalization with overlap
     ethr =  1.02E-06,  avg # of iterations =  1.9

     negative rho (up, down):  9.006E-03 0.000E+00

     total cpu time spent up to now is       33.9 secs

     total energy              =   -1670.64808495 Ry
     estimated scf accuracy    <       0.00114024 Ry

     iteration # 15     ecut=    80.00 Ry     beta= 0.30
     Davidson diagonalization with overlap
     ethr =  6.52E-07,  avg # of iterations =  5.5

     negative rho (up, down):  6.329E-03 0.000E+00

     total cpu time spent up to now is       36.4 secs

     total energy              =   -1670.64807326 Ry
     estimated scf accuracy    <       0.00054714 Ry

     iteration # 16     ecut=    80.00 Ry     beta= 0.30
     Davidson diagonalization with overlap
     ethr =  3.13E-07,  avg # of iterations =  1.4

     negative rho (up, down):  4.910E-03 0.000E+00

     total cpu time spent up to now is       38.4 secs

     total energy              =   -1670.64813160 Ry
     estimated scf accuracy    <       0.00015332 Ry

     iteration # 17     ecut=    80.00 Ry     beta= 0.30
     Davidson diagonalization with overlap
     ethr =  8.76E-08,  avg # of iterations =  1.3

     negative rho (up, down):  2.613E-03 0.000E+00

     total cpu time spent up to now is       40.5 secs

     total energy              =   -1670.64814294 Ry
     estimated scf accuracy    <       0.00005426 Ry

     iteration # 18     ecut=    80.00 Ry     beta= 0.30
     Davidson diagonalization with overlap
     ethr =  3.10E-08,  avg # of iterations =  2.2

     negative rho (up, down):  1.069E-03 0.000E+00

     total cpu time spent up to now is       42.8 secs

     total energy              =   -1670.64815358 Ry
     estimated scf accuracy    <       0.00002608 Ry

     iteration # 19     ecut=    80.00 Ry     beta= 0.30
     Davidson diagonalization with overlap
     ethr =  1.49E-08,  avg # of iterations =  2.6

     negative rho (up, down):  5.372E-04 0.000E+00

     total cpu time spent up to now is       45.0 secs

     total energy              =   -1670.64815584 Ry
     estimated scf accuracy    <       0.00000516 Ry

     iteration # 20     ecut=    80.00 Ry     beta= 0.30
     Davidson diagonalization with overlap
     ethr =  2.95E-09,  avg # of iterations =  2.5

     negative rho (up, down):  2.687E-04 0.000E+00

     total cpu time spent up to now is       47.1 secs

     total energy              =   -1670.64815736 Ry
     estimated scf accuracy    <       0.00000184 Ry

     iteration # 21     ecut=    80.00 Ry     beta= 0.30
     Davidson diagonalization with overlap
     ethr =  1.05E-09,  avg # of iterations =  2.3

     negative rho (up, down):  1.027E-04 0.000E+00

     total cpu time spent up to now is       49.1 secs

     End of self-consistent calculation

     =================== HUBBARD OCCUPATIONS ===================
     ------------------------ ATOM    1 ------------------------
     Tr[ns(  1)] =   7.38384
     eigenvalues:
       0.452  0.519  0.829  0.910  0.982
     eigenvectors (columns):
       0.995  0.000  0.000 -0.000  0.102
       0.000 -0.000 -0.000  1.000  0.000
       0.000  0.000 -1.000 -0.000  0.000
      -0.102  0.000  0.000 -0.000  0.995
      -0.000  1.000  0.000  0.000 -0.000
     occupation matrix ns (before diag.):
       0.458 -0.000 -0.000  0.054  0.000
      -0.000  0.910 -0.000  0.000  0.000
      -0.000 -0.000  0.829  0.000 -0.000
       0.054  0.000  0.000  0.976 -0.000
       0.000  0.000 -0.000 -0.000  0.519
     ------------------------ ATOM    2 ------------------------
     Tr[ns(  2)] =   7.37820
     eigenvalues:
       0.579  0.614  0.681  0.853  0.963
     eigenvectors (columns):
       0.000  0.392 -0.000 -0.000  0.920
       1.000 -0.000  0.000  0.000  0.000
       0.000 -0.000 -1.000  0.001 -0.000
       0.000  0.920 -0.000  0.000 -0.392
      -0.000  0.000  0.001  1.000  0.000
     occupation matrix ns (before diag.):
       0.909 -0.000 -0.000 -0.126  0.000
      -0.000  0.579 -0.000 -0.000  0.000
      -0.000 -0.000  0.681  0.000  0.000
      -0.126 -0.000  0.000  0.668 -0.000
       0.000  0.000  0.000 -0.000  0.853
     ------------------------ ATOM    3 ------------------------
     Tr[ns(  3)] =   7.41459
     eigenvalues:
       0.538  0.580  0.755  0.848  0.986
     eigenvectors (columns):
      -0.000 -0.995 -0.000  0.003 -0.096
      -0.000 -0.003  0.000 -1.000  0.002
      -0.001 -0.000  1.000  0.000 -0.000
       0.000  0.096 -0.000 -0.002 -0.995
       1.000 -0.000  0.001 -0.000  0.000
     occupation matrix ns (before diag.):
       0.584 -0.001 -0.000  0.039  0.000
      -0.001  0.848 -0.000 -0.000  0.000
      -0.000 -0.000  0.755  0.000  0.000
       0.039 -0.000  0.000  0.982 -0.000
       0.000  0.000  0.000 -0.000  0.538
     ------------------------ ATOM    4 ------------------------
     Tr[ns(  4)] =   7.41120
     eigenvalues:
       0.531  0.583  0.726  0.882  0.983
     eigenvectors (columns):
       0.009  0.420 -0.000 -0.000  0.908
       1.000 -0.023  0.000  0.000  0.001
       0.000 -0.000 -1.000  0.028 -0.000
       0.022  0.907 -0.000  0.000 -0.420
      -0.000  0.000  0.028  1.000  0.000
     occupation matrix ns (before diag.):
       0.913 -0.000 -0.000 -0.152  0.000
      -0.000  0.531 -0.000 -0.001  0.000
      -0.000 -0.000  0.726  0.000  0.004
      -0.152 -0.001  0.000  0.654 -0.000
       0.000  0.000  0.004 -0.000  0.882
     ------------------------ ATOM    5 ------------------------
     Tr[ns(  5)] =   7.34480
     eigenvalues:
       0.554  0.613  0.613  0.905  0.987
     eigenvectors (columns):
      -0.000  0.000  0.992  0.012  0.129
      -0.000  0.000  0.012 -1.000  0.001
      -0.001  1.000 -0.000  0.000  0.000
       0.000 -0.000 -0.129 -0.001  0.992
       1.000  0.001  0.000 -0.000 -0.000
     occupation matrix ns (before diag.):
       0.619 -0.003 -0.000  0.048  0.000
      -0.003  0.905 -0.000  0.001  0.000
      -0.000 -0.000  0.613  0.000  0.000
       0.048  0.001  0.000  0.980 -0.000
       0.000  0.000  0.000 -0.000  0.554
     ------------------------ ATOM    6 ------------------------
     Tr[ns(  6)] =   7.40577
     eigenvalues:
       0.571  0.609  0.735  0.862  0.926
     eigenvectors (columns):
      -0.003  0.373 -0.000 -0.000 -0.928
      -1.000 -0.011  0.000  0.000 -0.001
      -0.000 -0.000 -1.000  0.014  0.000
      -0.011  0.928 -0.000  0.000  0.373
       0.000  0.000  0.014  1.000 -0.000
     occupation matrix ns (before diag.):
       0.882  0.000 -0.000 -0.110  0.000
       0.000  0.571 -0.000 -0.001  0.000
      -0.000 -0.000  0.735  0.000  0.002
      -0.110 -0.001  0.000  0.653 -0.000
       0.000  0.000  0.002 -0.000  0.862

     Number of occupied Hubbard levels =   44.3384

          k = 0.0000 0.0000 0.0000 ( 40831 PWs)   bands (ev):

   -71.5079 -71.4553 -71.2766 -71.1417 -71.1172 -70.7278 -41.7680 -41.7161
   -41.6361 -41.5109 -41.4446 -41.4416 -41.4382 -41.4078 -41.1742 -41.1249
   -41.1207 -41.0566 -41.0320 -41.0021 -40.9901 -40.9506 -40.6512 -40.5562
   -18.7087 -18.5361 -18.3690 -18.2012 -17.9926 -17.8525 -17.7138 -17.1039
   -16.9207 -16.8530 -16.8025 -16.7636 -15.9832  -8.3371  -8.1865  -8.0160
    -7.5897  -7.1015  -6.6400  -6.5221  -5.7733  -5.5922  -5.5902  -5.5820
    -5.4429  -5.3342  -5.1901  -5.0417  -4.5191  -3.7172  -3.6133  -3.2999
    -3.2134  -3.1954  -2.9015  -2.7957  -2.7945  -2.6185  -2.3946  -2.3935
    -2.1686  -2.0560  -1.9886  -1.9565  -1.8817  -1.8314  -1.6934  -1.6454
    -1.5463  -1.5227  -1.4083  -1.3949  -1.2518  -1.2177  -1.0994  -1.0589
    -1.0387  -0.7210  -0.6840  -0.4966  -0.1777  -0.0720   0.1279   0.4213
     0.5618   0.9335   1.5891   2.0145   2.3772   2.7022   2.9472   3.8042
     4.5559   5.1246   5.7698   5.9188   6.0561   6.1630   6.2565   6.3284
     6.3687   6.5495

          k = 0.0000 0.1223 0.0000 ( 40974 PWs)   bands (ev):

   -71.5066 -71.4548 -71.2756 -71.1405 -71.1167 -70.7272 -41.7682 -41.7128
   -41.6360 -41.5161 -41.4448 -41.4405 -41.4381 -41.4078 -41.1744 -41.1252
   -41.1209 -41.0567 -41.0319 -41.0019 -40.9930 -40.9510 -40.6514 -40.5580
   -18.5981 -18.3953 -18.2857 -18.1470 -17.9703 -17.8496 -17.7087 -17.1369
   -17.0853 -17.0475 -17.0074 -16.7629 -15.9831  -8.0103  -7.8290  -7.6649
    -7.4824  -7.0874  -6.6618  -6.2251  -5.6131  -5.5634  -5.4722  -5.4116
    -5.3640  -5.1580  -5.1471  -5.0388  -4.4601  -4.3570  -3.9394  -3.7137
    -3.5657  -3.4254  -3.3273  -3.2648  -3.2054  -3.0781  -2.9899  -2.9338
    -2.7643  -2.7172  -2.2953  -2.0883  -2.0357  -1.7062  -1.4706  -1.4169
    -1.3693  -1.2873  -1.0897  -0.9625  -0.8428  -0.7967  -0.6137  -0.5643
    -0.5548  -0.4453  -0.4062  -0.3086  -0.1259  -0.0493   0.2654   0.4063
     0.5624   1.0147   1.6580   1.7254   2.1206   2.4596   3.1785   4.2054
     4.9252   5.3369   5.7666   5.9037   5.9245   6.0797   6.1116   6.2671
     6.3319   6.4732

          k = 0.0000-0.2445 0.0000 ( 41014 PWs)   bands (ev):

   -71.5053 -71.4542 -71.2745 -71.1393 -71.1163 -70.7267 -41.7684 -41.7094
   -41.6358 -41.5215 -41.4449 -41.4395 -41.4380 -41.4079 -41.1745 -41.1254
   -41.1210 -41.0568 -41.0319 -41.0016 -40.9959 -40.9515 -40.6516 -40.5598
   -18.4405 -18.3138 -18.1700 -18.0232 -17.8567 -17.7984 -17.7693 -17.3264
   -17.3222 -17.2950 -17.0806 -16.7681 -15.9836  -7.7769  -7.3736  -7.3675
    -7.0653  -6.9987  -6.6934  -5.5692  -5.5196  -5.4934  -5.4259  -5.3567
    -5.2050  -5.1498  -5.0611  -4.8451  -4.6850  -4.5630  -4.3745  -4.2948
    -4.2607  -3.9746  -3.7527  -3.6795  -3.6479  -3.5840  -3.5382  -3.1980
    -2.9424  -2.7840  -2.2581  -1.9680  -1.8313  -1.6286  -1.4731  -1.3602
    -1.3203  -1.1532  -1.0640  -0.9094  -0.7580  -0.6736  -0.5390  -0.3625
    -0.1994  -0.1391  -0.1260  -0.0038   0.1744   0.2953   0.3594   0.5518
     0.8833   0.9813   1.4138   1.5437   2.0201   2.0655   3.3842   4.7013
     5.0010   5.5847   5.6846   5.8612   5.9277   6.0447   6.0628   6.1115
     6.2335   6.2708

          k = 0.1250 0.0000 0.0000 ( 40851 PWs)   bands (ev):

   -71.5035 -71.4510 -71.2723 -71.1373 -71.1126 -70.7235 -41.7666 -41.7136
   -41.6345 -41.5078 -41.4754 -41.4397 -41.4381 -41.4049 -41.1698 -41.1539
   -41.1197 -41.0639 -41.0562 -41.0351 -40.9862 -40.9825 -40.6838 -40.5518
   -18.5626 -18.3954 -18.2434 -18.0797 -17.8734 -17.8072 -17.6183 -17.1702
   -17.0131 -16.9467 -16.8877 -16.8544 -16.0475  -8.0084  -7.8682  -7.7050
    -7.3059  -6.8966  -6.4311  -6.3792  -5.9574  -5.7958  -5.7293  -5.4531
    -5.3781  -5.2526  -5.2444  -4.9272  -4.3469  -4.2536  -3.6541  -3.5032
    -3.4959  -3.3295  -3.1212  -3.0483  -2.9719  -2.9086  -2.8000  -2.7325
    -2.3996  -2.3651  -2.2870  -2.0639  -2.0404  -2.0151  -1.9593  -1.8603
    -1.6730  -1.3553  -1.2224  -1.1574  -0.9814  -0.8741  -0.8175  -0.6887
    -0.6372  -0.5390  -0.4258  -0.2008  -0.0175  -0.0157   0.3092   0.6499
     0.8740   0.8865   1.4336   1.8521   2.2281   2.5449   3.0950   3.9524
     4.6679   5.2070   5.4848   5.5833   5.8398   5.8400   5.9259   6.0173
     6.2487   6.5249

          k = 0.1250 0.1223 0.0000 ( 40932 PWs)   bands (ev):

   -71.5024 -71.4507 -71.2714 -71.1363 -71.1124 -70.7232 -41.7667 -41.7107
   -41.6344 -41.5126 -41.4747 -41.4392 -41.4379 -41.4049 -41.1700 -41.1539
   -41.1199 -41.0637 -41.0563 -41.0346 -40.9912 -40.9800 -40.6839 -40.5530
   -18.4587 -18.2629 -18.1546 -18.0363 -17.8462 -17.8047 -17.6145 -17.2080
   -17.1570 -17.1268 -17.0727 -16.8544 -16.0468  -7.6966  -7.5289  -7.3671
    -7.2026  -6.8776  -6.4672  -6.1231  -5.7986  -5.7436  -5.6351  -5.4091
    -5.3577  -5.2643  -5.0308  -4.9127  -4.3419  -4.2691  -4.1896  -3.8893
    -3.7812  -3.5986  -3.4813  -3.4151  -3.3720  -3.2184  -3.1686  -3.1181
    -3.0056  -2.8753  -2.2837  -2.1550  -2.1190  -1.9320  -1.8579  -1.5866
    -1.4670  -1.3367  -0.9252  -0.7899  -0.7398  -0.6525  -0.5503  -0.5056
    -0.3522  -0.1881  -0.1551  -0.0887   0.0234   0.1540   0.3965   0.6501
     0.8757   0.9565   1.5102   1.6132   1.9974   2.3228   3.2743   4.3023
     4.9432   5.2756   5.4424   5.5128   5.6796   5.7958   5.8538   5.8822
     6.1289   6.5877

          k = 0.1250-0.2445 0.0000 ( 40974 PWs)   bands (ev):

   -71.5013 -71.4505 -71.2705 -71.1352 -71.1122 -70.7229 -41.7669 -41.7078
   -41.6343 -41.5174 -41.4741 -41.4390 -41.4373 -41.4050 -41.1701 -41.1539
   -41.1201 -41.0635 -41.0564 -41.0340 -40.9946 -40.9791 -40.6839 -40.5542
   -18.3119 -18.1732 -18.0532 -17.8842 -17.7774 -17.7071 -17.6790 -17.3992
   -17.3970 -17.3496 -17.1445 -16.8600 -16.0466  -7.4724  -7.1035  -7.0984
    -6.8378  -6.7248  -6.5089  -5.8580  -5.5297  -5.4969  -5.4792  -5.3180
    -5.2279  -5.1621  -5.0650  -4.8875  -4.7811  -4.6940  -4.5292  -4.2786
    -4.0388  -3.9315  -3.8671  -3.8626  -3.8097  -3.6994  -3.6665  -3.2480
    -3.2217  -3.0473  -2.2541  -2.0767  -1.9598  -1.6786  -1.6232  -1.5430
    -1.3758  -1.2177  -0.9136  -0.7124  -0.6976  -0.6006  -0.4903  -0.4315
    -0.3960  -0.2307   0.0918   0.3399   0.4147   0.6245   0.6468   0.7125
     0.9806   0.9908   1.3495   1.4657   1.8825   1.9455   3.4355   4.7715
     4.9648   5.0657   5.3421   5.4256   5.6713   5.7006   5.8420   5.9573
     6.1727   6.3669

          k = 0.2500 0.0000 0.0000 ( 40947 PWs)   bands (ev):

   -71.4962 -71.4443 -71.2654 -71.1304 -71.1052 -70.7162 -41.7625 -41.7066
   -41.6301 -41.5523 -41.5004 -41.4344 -41.4277 -41.3991 -41.2268 -41.1595
   -41.1344 -41.1100 -41.1059 -41.0644 -41.0428 -40.9767 -40.7568 -40.5410
   -18.2130 -18.0720 -17.9478 -17.8419 -17.6945 -17.6309 -17.3959 -17.2901
   -17.2306 -17.1652 -17.0826 -17.0539 -16.1359  -7.1742  -7.0348  -6.8895
    -6.6965  -6.3743  -6.3695  -6.3113  -6.2911  -6.1085  -5.8607  -5.7167
    -5.5064  -5.0482  -4.8573  -4.7142  -4.5599  -4.2151  -4.1065  -3.9496
    -3.9224  -3.8691  -3.7173  -3.6854  -3.2746  -3.0959  -3.0463  -3.0447
    -2.7185  -2.7158  -2.4119  -2.3707  -2.3104  -1.9148  -1.7939  -1.6759
    -1.5182  -1.4466  -1.1661  -0.9326  -0.9078  -0.7927  -0.6311  -0.5283
    -0.4807  -0.3253   0.0232   0.3047   0.3898   0.5863   0.5921   0.7736
     0.9625   1.1412   1.1711   1.4992   1.8665   2.1175   3.2788   4.2545
     4.5401   5.0034   5.1282   5.1960   5.2406   5.3711   5.4475   5.7106
     5.9328   6.3776

          k = 0.2500 0.1223 0.0000 ( 40905 PWs)   bands (ev):

   -71.4956 -71.4447 -71.2649 -71.1298 -71.1056 -70.7166 -41.7626 -41.7051
   -41.6302 -41.5528 -41.5011 -41.4344 -41.4277 -41.3990 -41.2262 -41.1595
   -41.1339 -41.1090 -41.1056 -41.0648 -41.0433 -40.9763 -40.7564 -40.5409
   -18.1377 -17.9851 -17.8727 -17.8209 -17.7004 -17.6086 -17.4041 -17.3452
   -17.2845 -17.2755 -17.1952 -17.0572 -16.1340  -6.9743  -6.8276  -6.6731
    -6.6057  -6.3701  -6.3053  -6.2602  -6.2246  -6.1639  -5.9238  -5.8219
    -5.2731  -5.0202  -4.8075  -4.6422  -4.4265  -4.3676  -4.3127  -4.1073
    -4.0470  -3.9576  -3.6901  -3.6441  -3.4852  -3.3545  -3.2161  -3.0784
    -3.0258  -2.8294  -2.6551  -2.3799  -2.2484  -2.1473  -1.9786  -1.7466
    -1.5663  -1.3344  -1.1759  -1.0141  -0.7084  -0.5097  -0.4372  -0.2854
    -0.1694  -0.1133   0.0013   0.1856   0.4891   0.5843   0.6431   0.7245
     0.9172   1.2167   1.2863   1.4821   1.7534   1.9859   3.3745   4.4031
     4.4401   4.7393   4.8617   4.9420   5.1878   5.3783   5.6598   5.8900
     6.1391   6.4895

          k = 0.2500-0.2445 0.0000 ( 40892 PWs)   bands (ev):

   -71.4950 -71.4450 -71.2644 -71.1292 -71.1061 -70.7169 -41.7626 -41.7035
   -41.6303 -41.5534 -41.5017 -41.4344 -41.4278 -41.3990 -41.2257 -41.1595
   -41.1334 -41.1083 -41.1051 -41.0652 -41.0437 -40.9760 -40.7561 -40.5409
   -18.0275 -17.8865 -17.8596 -17.6957 -17.6051 -17.5869 -17.5412 -17.4833
   -17.3971 -17.3486 -17.2583 -17.0643 -16.1321  -6.8636  -6.7278  -6.6891
    -6.4213  -6.3981  -6.2814  -6.2793  -5.8984  -5.6170  -5.4270  -5.4050
    -5.3532  -5.2916  -5.0388  -4.9974  -4.9850  -4.5390  -4.4392  -4.3511
    -4.1014  -3.8958  -3.7754  -3.7032  -3.5550  -3.3408  -3.3372  -3.2096
    -3.1650  -3.0971  -2.5961  -2.4878  -2.2542  -1.9446  -1.9107  -1.7733
    -1.7623  -1.3889  -1.0417  -0.8351  -0.7676  -0.6205  -0.4014  -0.3053
    -0.2049   0.0416   0.2600   0.2973   0.5939   0.6212   0.6862   0.8450
     0.9351   1.2963   1.4945   1.4997   1.6722   1.7504   3.4587   4.1475
     4.4063   4.5277   4.6102   4.8483   5.1906   5.5787   5.6701   6.1557
     6.3080   6.4739

          k = 0.3750 0.0000 0.0000 ( 40852 PWs)   bands (ev):

   -71.4934 -71.4429 -71.2635 -71.1287 -71.1031 -70.7136 -41.7574 -41.6985
   -41.6247 -41.6208 -41.4929 -41.4280 -41.4161 -41.3935 -41.2909 -41.1962
   -41.1736 -41.1465 -41.1265 -41.0873 -41.0489 -40.9671 -40.8222 -40.5301
   -17.8629 -17.8386 -17.6856 -17.6458 -17.5932 -17.5678 -17.4400 -17.3713
   -17.2919 -17.2660 -17.2171 -17.0877 -16.0992  -7.2093  -6.8110  -6.7641
    -6.5518  -6.4813  -6.1074  -6.0785  -5.9901  -5.9108  -5.8788  -5.5728
    -5.2812  -4.9164  -4.7807  -4.7761  -4.6370  -4.4986  -4.2059  -4.0143
    -3.9372  -3.6774  -3.4787  -3.4596  -3.2750  -3.1671  -3.0937  -3.0209
    -2.7312  -2.7213  -2.5839  -2.3882  -2.3126  -2.1800  -1.7578  -1.7136
    -1.5279  -1.2641  -1.2232  -1.1497  -1.0299  -0.9139  -0.7479  -0.6538
    -0.6489  -0.2497  -0.0749  -0.0019   0.4755   0.6540   0.7606   0.7911
     1.0210   1.2310   1.3298   1.5096   1.7252   1.8419   3.2457   3.8640
     4.5171   4.7834   4.8282   5.0004   5.0606   5.1965   5.3626   5.3636
     5.9339   6.1006

          k = 0.3750 0.1223 0.0000 ( 40842 PWs)   bands (ev):

   -71.4933 -71.4438 -71.2634 -71.1285 -71.1041 -70.7144 -41.7574 -41.6986
   -41.6251 -41.6205 -41.4916 -41.4294 -41.4161 -41.3935 -41.2895 -41.1953
   -41.1714 -41.1463 -41.1264 -41.0873 -41.0490 -40.9653 -40.8213 -40.5288
   -17.8677 -17.8355 -17.7668 -17.7196 -17.6642 -17.6217 -17.3185 -17.2873
   -17.2747 -17.2290 -17.1895 -17.0842 -16.0957  -7.2376  -7.0795  -6.9691
    -6.8208  -6.6078  -6.4906  -5.9417  -5.7695  -5.6863  -5.6651  -5.5720
    -4.9858  -4.7334  -4.6398  -4.4876  -4.3185  -4.2223  -4.0728  -3.9254
    -3.8805  -3.7125  -3.6251  -3.5577  -3.3676  -3.2618  -3.1125  -3.0137
    -2.9418  -2.7129  -2.5399  -2.3664  -2.3081  -2.1459  -2.0345  -1.6857
    -1.6463  -1.4383  -1.2652  -1.1037  -0.9053  -0.8194  -0.7524  -0.6700
    -0.4391  -0.4157  -0.3872  -0.1329   0.0253   0.0674   0.5052   0.8758
     1.3181   1.4708   1.6069   1.6928   1.7502   1.8341   3.3099   3.8545
     4.0704   4.2751   4.4752   4.6123   4.8264   5.6524   5.9321   6.0375
     6.2370   6.2989

          k = 0.3750-0.2445 0.0000 ( 40856 PWs)   bands (ev):

   -71.4932 -71.4447 -71.2633 -71.1284 -71.1051 -70.7153 -41.7574 -41.6988
   -41.6255 -41.6202 -41.4903 -41.4307 -41.4161 -41.3934 -41.2882 -41.1945
   -41.1692 -41.1462 -41.1264 -41.0873 -41.0490 -40.9635 -40.8204 -40.5275
   -17.8690 -17.8549 -17.8224 -17.7764 -17.6956 -17.6449 -17.2618 -17.2616
   -17.2252 -17.2232 -17.1338 -17.0808 -16.0922  -7.3203  -7.2504  -7.2081
    -6.8929  -6.8138  -6.5879  -5.6554  -5.6530  -5.6152  -5.4413  -5.3659
    -4.9595  -4.7659  -4.6017  -4.2245  -4.2208  -4.1161  -4.0688  -3.9948
    -3.6990  -3.6750  -3.6449  -3.3659  -3.1807  -3.1022  -3.0220  -2.9687
    -2.9409  -2.7931  -2.7706  -2.4868  -2.3649  -2.1346  -2.1253  -1.7762
    -1.7323  -1.4360  -1.4201  -1.1466  -1.0811  -0.9891  -0.8059  -0.6622
    -0.6318  -0.5381  -0.3234  -0.2616  -0.1367   0.0407   0.4225   0.7819
     1.2271   1.6313   1.6791   1.8090   1.9527   1.9689   3.3701   3.5888
     3.8903   3.9666   4.1072   4.6443   4.8289   5.9206   5.9878   6.3882
     6.4975   6.6495

          k =-0.5000 0.0000 0.0000 ( 40876 PWs)   bands (ev):

   -71.4935 -71.4438 -71.2641 -71.1294 -71.1038 -70.7137 -41.7550 -41.6947
   -41.6469 -41.6222 -41.4898 -41.4251 -41.4109 -41.3915 -41.3150 -41.2191
   -41.1967 -41.1492 -41.1425 -41.0816 -41.0493 -40.9630 -40.8472 -40.5255
   -17.8350 -17.6947 -17.6455 -17.5828 -17.5361 -17.5243 -17.5071 -17.4533
   -17.3392 -17.3147 -17.1831 -16.9619 -16.0452  -7.4934  -7.0481  -6.9268
    -6.6847  -6.6198  -6.2335  -6.0383  -5.8010  -5.5483  -5.5098  -5.3854
    -5.3214  -5.1114  -4.8885  -4.6905  -4.3899  -4.1688  -3.8949  -3.8437
    -3.6198  -3.5486  -3.4917  -3.3032  -3.2796  -3.1896  -3.1520  -2.9518
    -2.7164  -2.5146  -2.4704  -2.3093  -2.0684  -1.8060  -1.7731  -1.6304
    -1.5546  -1.5468  -1.3904  -1.2207  -1.2108  -1.1238  -1.1125  -0.9537
    -0.8617  -0.8258  -0.5696   0.2745   0.4744   0.6465   0.7808   0.8326
     0.9281   1.0071   1.4474   1.5696   1.8554   1.9969   3.2024   3.6463
     4.5187   4.7055   4.7544   4.9470   4.9722   5.1837   5.2668   5.3553
     5.9198   6.1115

          k =-0.5000 0.1223 0.0000 ( 40858 PWs)   bands (ev):

   -71.4936 -71.4449 -71.2642 -71.1295 -71.1050 -70.7149 -41.7550 -41.6958
   -41.6464 -41.6228 -41.4875 -41.4272 -41.4109 -41.3914 -41.3132 -41.2182
   -41.1940 -41.1487 -41.1424 -41.0815 -41.0493 -40.9606 -40.8460 -40.5237
   -17.8359 -17.8189 -17.7853 -17.7233 -17.6842 -17.6488 -17.3161 -17.2260
   -17.2167 -17.1827 -17.1399 -16.9569 -16.0408  -7.5159  -7.3489  -7.2235
    -7.0554  -6.8686  -6.6995  -5.7879  -5.5500  -5.4575  -5.3458  -5.3335
    -4.8538  -4.7871  -4.6076  -4.4164  -4.3072  -4.0046  -3.9427  -3.7218
    -3.4933  -3.4757  -3.3492  -3.2198  -3.1714  -3.1197  -2.9361  -2.8404
    -2.7643  -2.5173  -2.4141  -2.2578  -2.1434  -2.0520  -1.8668  -1.7281
    -1.5838  -1.4870  -1.3990  -1.3522  -1.2304  -1.2197  -1.1168  -0.9669
    -0.9514  -0.8419  -0.7040  -0.5763  -0.3050   0.1214   0.1956   0.7334
     1.5109   1.6167   1.7552   1.7694   1.9264   1.9323   3.2667   3.6898
     3.8595   4.1153   4.3315   4.5630   4.7590   5.9584   5.9822   6.1429
     6.1648   6.3044

          k =-0.5000-0.2445 0.0000 ( 40872 PWs)   bands (ev):

   -71.4938 -71.4461 -71.2643 -71.1296 -71.1062 -70.7160 -41.7550 -41.6968
   -41.6459 -41.6234 -41.4852 -41.4294 -41.4108 -41.3913 -41.3114 -41.2173
   -41.1912 -41.1481 -41.1423 -41.0815 -41.0494 -40.9582 -40.8448 -40.5219
   -17.9365 -17.8931 -17.8343 -17.8276 -17.6660 -17.6614 -17.3176 -17.1868
   -17.1000 -17.0918 -17.0246 -16.9518 -16.0362  -7.6337  -7.5337  -7.5195
    -7.1990  -7.0547  -6.7941  -5.6583  -5.5707  -5.4266  -5.3159  -5.2975
    -4.8384  -4.6260  -4.5607  -4.0149  -3.8609  -3.6018  -3.5330  -3.4952
    -3.4448  -3.3676  -3.2446  -3.1717  -3.1012  -2.8947  -2.8139  -2.7615
    -2.6540  -2.5369  -2.3906  -2.3761  -2.1122  -2.1046  -1.9520  -1.8481
    -1.8072  -1.5307  -1.4921  -1.4795  -1.3946  -1.2356  -1.2269  -1.1997
    -1.1432  -0.9416  -0.8562  -0.8482  -0.7145  -0.5753   0.0961   0.7142
     1.4360   1.7159   1.8651   1.9648   2.1223   2.1426   3.3229   3.4680
     3.7258   3.7465   3.9729   4.6045   4.7624   6.0455   6.2155   6.4453
     6.6042   6.7693

     the Fermi energy is     0.7380 ev

!    total energy              =   -1670.64815731 Ry
     estimated scf accuracy    <       0.00000073 Ry
     smearing contrib. (-TS)   =       0.00003039 Ry
     internal energy E=F+TS    =   -1670.64818770 Ry

     The total energy is F=E-TS. E is the sum of the following terms:
     one-electron contribution =  -16979.56242708 Ry
     hartree contribution      =    8517.13282086 Ry
     xc contribution           =    -215.11286260 Ry
     ewald contribution        =    7127.96989478 Ry
     Hubbard energy            =       2.70957662 Ry
     one-center paw contrib.   =    -123.78519027 Ry

     convergence has been achieved in  21 iterations

     negative rho (up, down):  1.027E-04 0.000E+00
     force_hub    :      0.72s CPU      0.72s WALL (       1 calls)
     dndtau       :      0.59s CPU      0.60s WALL (     240 calls)
     dprojdtau    :      0.04s CPU      0.04s WALL (    1440 calls)
     matel_dSdtau :      0.54s CPU      0.54s WALL (     240 calls)

     Forces acting on atoms (cartesian axes, Ry/au):

     atom    1 type  2   force =    -0.00005069    0.00000000    0.07310063
     atom    2 type  2   force =     0.00001876    0.00000000   -0.07688031
     atom    3 type  2   force =    -0.00056348    0.00000000   -0.00413156
     atom    4 type  2   force =    -0.00046068    0.00000000    0.00290257
     atom    5 type  2   force =    -0.00134455    0.00000000    0.00025894
     atom    6 type  2   force =     0.00070569    0.00000000   -0.02887610
     atom    7 type  3   force =    -0.00006898    0.00000000    0.04717184
     atom    8 type  3   force =    -0.00000406    0.00000000    0.04897140
     atom    9 type  3   force =     0.00000193   -0.02581806   -0.02251562
     atom   10 type  3   force =     0.00000193    0.02581806   -0.02251562
     atom   11 type  3   force =     0.00045348    0.00000000    0.02187439
     atom   12 type  3   force =    -0.00039977    0.00000000   -0.03267495
     atom   13 type  3   force =    -0.00037705   -0.02159168   -0.00134279
     atom   14 type  3   force =    -0.00037705    0.02159168   -0.00134279
     atom   15 type  3   force =     0.00029364    0.00000000    0.02176928
     atom   16 type  3   force =     0.00035406    0.00000000   -0.00909646
     atom   17 type  3   force =    -0.00020322   -0.02630193    0.00072562
     atom   18 type  3   force =    -0.00020322    0.02630193    0.00072562
     atom   19 type  3   force =    -0.00069195    0.00000000   -0.01932912
     atom   20 type  1   force =     0.00291521    0.00000000    0.00120505

     Total force =     0.067844     Total SCF correction =     0.002257

     Writing all to output data dir ./tmp_s0_OH__u750/s0_OH__u750.save/ :
     XML data file, charge density, pseudopotentials, collected wavefunctions

     init_run     :      1.95s CPU      2.09s WALL (       1 calls)
     electrons    :     46.07s CPU     46.85s WALL (       1 calls)
     forces       :      1.07s CPU      1.26s WALL (       1 calls)

     Called by init_run:
     wfcinit      :      0.66s CPU      0.70s WALL (       1 calls)
     potinit      :      0.47s CPU      0.49s WALL (       1 calls)
     hinit0       :      0.42s CPU      0.48s WALL (       1 calls)

     Called by electrons:
     c_bands      :     34.95s CPU     35.42s WALL (      21 calls)
     sum_band     :      6.38s CPU      6.52s WALL (      21 calls)
     v_of_rho     :      1.18s CPU      1.21s WALL (      22 calls)
     newd         :      0.37s CPU      0.38s WALL (      22 calls)
     PAW_pot      :      0.74s CPU      0.77s WALL (      22 calls)
     mix_rho      :      2.06s CPU      2.10s WALL (      21 calls)

     Called by c_bands:
     init_us_2    :      0.79s CPU      0.84s WALL (     184 calls)
     cegterg      :     31.39s CPU     31.81s WALL (      84 calls)

     Called by *egterg:
     cdiaghg      :      4.27s CPU      4.29s WALL (     414 calls)
     h_psi        :     19.99s CPU     20.33s WALL (     418 calls)
     s_psi        :      1.44s CPU      1.46s WALL (     426 calls)
     g_psi        :      0.09s CPU      0.09s WALL (     330 calls)

     Called by h_psi:
     h_psi:calbec :      1.92s CPU      1.94s WALL (     418 calls)
     vloc_psi     :     15.75s CPU     16.05s WALL (     418 calls)
                                        0.00s GPU  (     418 calls)
     add_vuspsi   :      1.38s CPU      1.39s WALL (     418 calls)
     vhpsi        :      0.77s CPU      0.77s WALL (     418 calls)

     General routines
     calbec       :      4.15s CPU      4.27s WALL (    1992 calls)
     fft          :      1.23s CPU      1.31s WALL (     295 calls)
     ffts         :      1.66s CPU      1.69s WALL (    2455 calls)
     fftw         :     18.52s CPU     18.85s WALL (   46590 calls)
     interpolate  :      0.48s CPU      0.49s WALL (      22 calls)

     Parallel routines

     Hubbard U routines
     new_ns       :      0.31s CPU      0.32s WALL (      21 calls)
     vhpsi        :      0.77s CPU      0.77s WALL (     418 calls)
     force_hub    :      0.72s CPU      0.72s WALL (       1 calls)

     PWSCF        :     49.45s CPU     55.14s WALL


   This run was terminated on:   8:28:24  28Aug2026            

=------------------------------------------------------------------------------=
   JOB DONE.
=------------------------------------------------------------------------------=
