
     Program PWSCF v.7.5 starts on 28Aug2026 at  8:33:54 

     This program is part of the open-source Quantum ESPRESSO suite
     for quantum simulation of materials; please cite
         "P. Giannozzi et al., J. Phys.:Condens. Matter 21 395502 (2009);
         "P. Giannozzi et al., J. Phys.:Condens. Matter 29 465901 (2017);
         "P. Giannozzi et al., J. Chem. Phys. 152 154105 (2020);
          URL http://www.quantum-espresso.org", 
     in publications or presentations arising from this work. More details at
     http://www.quantum-espresso.org/quote

     Parallel version (MPI & OpenMP), running on     128 processor cores
     Number of MPI processes:               128
     Threads/MPI process:                     1

     MPI processes distributed on     1 nodes
     224703 MiB available memory on the printing compute node when the environment starts

     Reading input from s0_OOH__u150.run.in

     Current dimensions of program PWSCF are:
     Max number of different atomic species (ntypx) = 10
     Max number of k-points (npk) =  40000
     Max angular momentum in pseudopotentials (lmaxx) =  4
     file O.pbe-n-kjpaw_psl.0.1.UPF: wavefunction(s)  2P renormalized
     Message from routine setup:
     using ibrav=0 with symmetry is DISCOURAGED, use correct ibrav instead

     K-points division:     npool     =       4
     R & G space division:  proc/nbgrp/npool/nimage =      32
     Subspace diagonalization in iterative solution of the eigenvalue problem:
     a serial algorithm will be used


     Parallelization info
     --------------------
     sticks:   dense  smooth     PW     G-vecs:    dense   smooth      PW
     Min         112      56     16                28918    10208    1540
     Max         113      57     17                28934    10234    1560
     Sum        3587    1793    513               925697   327113   49625

     Using Slab Decomposition



     bravais-lattice index     =            0
     lattice parameter (alat)  =       5.8714  a.u.
     unit-cell volume          =    3384.5999 (a.u.)^3
     number of atoms/cell      =           21
     number of atomic types    =            3
     number of electrons       =       181.00
     number of Kohn-Sham states=          109
     kinetic-energy cutoff     =      80.0000  Ry
     charge density cutoff     =     640.0000  Ry
     scf convergence threshold =      1.0E-06
     mixing beta               =       0.3000
     number of iterations used =            8  local-TF  mixing
     Exchange-correlation= SLA  PW   PBX  PBC
                           (   1   4   3   4   0   0   0)
     Hubbard projectors: atomic
     Hubbard parameters of DFT+U (Dudarev formulation) in eV:
     U(Ru-4d) =  1.5000

     Internal variables: lda_plus_u =T, lda_plus_u_kind = 0

     Internal variables: orbital_resolved =F, hub_pot_fix =F, apply_U = F

     celldm(1)=   5.871379  celldm(2)=   0.000000  celldm(3)=   0.000000
     celldm(4)=   0.000000  celldm(5)=   0.000000  celldm(6)=   0.000000

     crystal axes: (cart. coord. in units of alat)
               a(1) = (   1.000000   0.000000   0.000000 )  
               a(2) = (   0.000000   2.044624   0.000000 )  
               a(3) = (   0.000000   0.000000   8.178497 )  

     reciprocal axes: (cart. coord. in units 2 pi/alat)
               b(1) = (  1.000000  0.000000  0.000000 )  
               b(2) = (  0.000000  0.489087  0.000000 )  
               b(3) = (  0.000000  0.000000  0.122272 )  


     PseudoPot. # 1 for H  read from file:
     /anvil/projects/x-che260157/pseudo/H.pbe-rrkjus_psl.1.0.0.UPF
     MD5 check sum: f52b6d4d1c606e5624b1dc7b2218f220
     Pseudo is Ultrasoft, Zval =  1.0
     Generated using "atomic" code by A. Dal Corso  v.5.1
     Using radial grid of  929 points,  2 beta functions with: 
                l(1) =   0
                l(2) =   0
     Q(r) pseudized with 0 coefficients 


     PseudoPot. # 2 for Ru read from file:
     /anvil/projects/x-che260157/pseudo/Ru_ONCV_PBE-1.0.oncvpsp.upf
     MD5 check sum: be037bb81c227cfb9b1461a9f099f4bd
     Pseudo is Norm-conserving, Zval = 16.0
     Generated using ONCVPSP code by D. R. Hamann
     Using radial grid of 1458 points,  6 beta functions with: 
                l(1) =   0
                l(2) =   0
                l(3) =   1
                l(4) =   1
                l(5) =   2
                l(6) =   2

     PseudoPot. # 3 for O  read from file:
     /anvil/projects/x-che260157/pseudo/O.pbe-n-kjpaw_psl.0.1.UPF
     MD5 check sum: 0234752ac141de4415c5fc33072bef88
     Pseudo is Projector augmented-wave + core cor, Zval =  6.0
     Generated using "atomic" code by A. Dal Corso  v.5.0.99 svn rev. 10869
     Shape of augmentation charge: BESSEL
     Using radial grid of 1095 points,  4 beta functions with: 
                l(1) =   0
                l(2) =   0
                l(3) =   1
                l(4) =   1
     Q(r) pseudized with 0 coefficients 


     atomic species   valence    mass     pseudopotential
     H                 1.00     1.00800     H ( 1.00)
     Ru               16.00   101.07000     Ru( 1.00)
     O                 6.00    15.99900     O ( 1.00)

      2 Sym. Ops. (no inversion) found ( 1 have fractional translation)



   Cartesian axes

     site n.     atom                  positions (alat units)
         1        Ru     tau(   1) = (   0.0000000   0.5111560   3.0669363  )
         2        Ru     tau(   2) = (   0.5000000   1.5334681   3.0669363  )
         3        Ru     tau(   3) = (   0.0036513   1.5334681   4.1010901  )
         4        Ru     tau(   4) = (   0.5011434   0.5111560   4.0829838  )
         5        Ru     tau(   5) = (  -0.0034005   0.5111560   5.1128160  )
         6        Ru     tau(   6) = (   0.5023911   1.5334681   5.1500971  )
         7        O      tau(   7) = (   0.0000000   1.5334681   3.4656380  )
         8        O      tau(   8) = (   0.0000000   1.5334681   2.6682346  )
         9        O      tau(   9) = (   0.5000000   0.1124543   3.0669363  )
        10        O      tau(  10) = (   0.5000000   0.9098578   3.0669363  )
        11        O      tau(  11) = (   0.0014323   0.5111560   4.4911398  )
        12        O      tau(  12) = (   0.0000000   0.5111560   3.6905466  )
        13        O      tau(  13) = (   0.5034297   1.1369455   4.0929878  )
        14        O      tau(  14) = (   0.5034297   1.9299908   4.0929878  )
        15        O      tau(  15) = (   0.0031289   1.5334681   5.5052300  )
        16        O      tau(  16) = (   0.0021555   1.5334681   4.7241012  )
        17        O      tau(  17) = (   0.5023215   0.1156519   5.1188702  )
        18        O      tau(  18) = (   0.5023215   0.9066602   5.1188702  )
        19        O      tau(  19) = (   0.0666044   0.5111560   5.7356750  )
        20        O      tau(  20) = (  -0.2099082   0.5111560   6.0861679  )
        21        H      tau(  21) = (  -0.5108953   0.5111560   5.9503934  )

     number of k points=    15  Marzari-Vanderbilt smearing, width (Ry)=  0.0100
                       cart. coord. in units 2pi/alat
        k(    1) = (   0.0000000   0.0000000   0.0000000), wk =   0.0625000
        k(    2) = (   0.0000000   0.1222719   0.0000000), wk =   0.1250000
        k(    3) = (   0.0000000  -0.2445437   0.0000000), wk =   0.0625000
        k(    4) = (   0.1250000   0.0000000   0.0000000), wk =   0.1250000
        k(    5) = (   0.1250000   0.1222719   0.0000000), wk =   0.2500000
        k(    6) = (   0.1250000  -0.2445437   0.0000000), wk =   0.1250000
        k(    7) = (   0.2500000   0.0000000   0.0000000), wk =   0.1250000
        k(    8) = (   0.2500000   0.1222719   0.0000000), wk =   0.2500000
        k(    9) = (   0.2500000  -0.2445437   0.0000000), wk =   0.1250000
        k(   10) = (   0.3750000   0.0000000   0.0000000), wk =   0.1250000
        k(   11) = (   0.3750000   0.1222719   0.0000000), wk =   0.2500000
        k(   12) = (   0.3750000  -0.2445437   0.0000000), wk =   0.1250000
        k(   13) = (  -0.5000000   0.0000000   0.0000000), wk =   0.0625000
        k(   14) = (  -0.5000000   0.1222719   0.0000000), wk =   0.1250000
        k(   15) = (  -0.5000000  -0.2445437   0.0000000), wk =   0.0625000

     Dense  grid:   925697 G-vectors     FFT dimensions: (  48, 100, 400)

     Smooth grid:   327113 G-vectors     FFT dimensions: (  36,  72, 288)

     Estimated max dynamical RAM per process >      57.20 MB

     Estimated total dynamical RAM >       6.49 GB

     Initial potential from superposition of free atoms

     starting charge     180.9967, renormalised to     181.0000

     negative rho (up, down):  7.992E-05 0.000E+00

     STARTING HUBBARD OCCUPATIONS:

     =================== HUBBARD OCCUPATIONS ===================
     ------------------------ ATOM    1 ------------------------
     Tr[ns(  1)] =   6.00000
     eigenvalues:
       0.600  0.600  0.600  0.600  0.600
     eigenvectors (columns):
       1.000  0.000  0.000  0.000  0.000
       0.000  1.000  0.000  0.000  0.000
       0.000  0.000  1.000  0.000  0.000
       0.000  0.000  0.000  1.000  0.000
       0.000  0.000  0.000  0.000  1.000
     occupation matrix ns (before diag.):
       0.600  0.000  0.000  0.000  0.000
       0.000  0.600  0.000  0.000  0.000
       0.000  0.000  0.600  0.000  0.000
       0.000  0.000  0.000  0.600  0.000
       0.000  0.000  0.000  0.000  0.600
     ------------------------ ATOM    2 ------------------------
     Tr[ns(  2)] =   6.00000
     eigenvalues:
       0.600  0.600  0.600  0.600  0.600
     eigenvectors (columns):
       1.000  0.000  0.000  0.000  0.000
       0.000  1.000  0.000  0.000  0.000
       0.000  0.000  1.000  0.000  0.000
       0.000  0.000  0.000  1.000  0.000
       0.000  0.000  0.000  0.000  1.000
     occupation matrix ns (before diag.):
       0.600  0.000  0.000  0.000  0.000
       0.000  0.600  0.000  0.000  0.000
       0.000  0.000  0.600  0.000  0.000
       0.000  0.000  0.000  0.600  0.000
       0.000  0.000  0.000  0.000  0.600
     ------------------------ ATOM    3 ------------------------
     Tr[ns(  3)] =   6.00000
     eigenvalues:
       0.600  0.600  0.600  0.600  0.600
     eigenvectors (columns):
       1.000  0.000  0.000  0.000  0.000
       0.000  1.000  0.000  0.000  0.000
       0.000  0.000  1.000  0.000  0.000
       0.000  0.000  0.000  1.000  0.000
       0.000  0.000  0.000  0.000  1.000
     occupation matrix ns (before diag.):
       0.600  0.000  0.000  0.000  0.000
       0.000  0.600  0.000  0.000  0.000
       0.000  0.000  0.600  0.000  0.000
       0.000  0.000  0.000  0.600  0.000
       0.000  0.000  0.000  0.000  0.600
     ------------------------ ATOM    4 ------------------------
     Tr[ns(  4)] =   6.00000
     eigenvalues:
       0.600  0.600  0.600  0.600  0.600
     eigenvectors (columns):
       1.000  0.000  0.000  0.000  0.000
       0.000  1.000  0.000  0.000  0.000
       0.000  0.000  1.000  0.000  0.000
       0.000  0.000  0.000  1.000  0.000
       0.000  0.000  0.000  0.000  1.000
     occupation matrix ns (before diag.):
       0.600  0.000  0.000  0.000  0.000
       0.000  0.600  0.000  0.000  0.000
       0.000  0.000  0.600  0.000  0.000
       0.000  0.000  0.000  0.600  0.000
       0.000  0.000  0.000  0.000  0.600
     ------------------------ ATOM    5 ------------------------
     Tr[ns(  5)] =   6.00000
     eigenvalues:
       0.600  0.600  0.600  0.600  0.600
     eigenvectors (columns):
       1.000  0.000  0.000  0.000  0.000
       0.000  1.000  0.000  0.000  0.000
       0.000  0.000  1.000  0.000  0.000
       0.000  0.000  0.000  1.000  0.000
       0.000  0.000  0.000  0.000  1.000
     occupation matrix ns (before diag.):
       0.600  0.000  0.000  0.000  0.000
       0.000  0.600  0.000  0.000  0.000
       0.000  0.000  0.600  0.000  0.000
       0.000  0.000  0.000  0.600  0.000
       0.000  0.000  0.000  0.000  0.600
     ------------------------ ATOM    6 ------------------------
     Tr[ns(  6)] =   6.00000
     eigenvalues:
       0.600  0.600  0.600  0.600  0.600
     eigenvectors (columns):
       1.000  0.000  0.000  0.000  0.000
       0.000  1.000  0.000  0.000  0.000
       0.000  0.000  1.000  0.000  0.000
       0.000  0.000  0.000  1.000  0.000
       0.000  0.000  0.000  0.000  1.000
     occupation matrix ns (before diag.):
       0.600  0.000  0.000  0.000  0.000
       0.000  0.600  0.000  0.000  0.000
       0.000  0.000  0.600  0.000  0.000
       0.000  0.000  0.000  0.600  0.000
       0.000  0.000  0.000  0.000  0.600

     Number of occupied Hubbard levels =   36.0000

     Atomic wfc used for Hubbard projectors are NOT orthogonalized

     Starting wfcs are  117 randomized atomic wfcs
     Checking if some PAW data can be deallocated... 

     total cpu time spent up to now is        2.6 secs

     per-process dynamical memory:    99.7 Mb

     Self-consistent Calculation

     iteration #  1     ecut=    80.00 Ry     beta= 0.30
     Davidson diagonalization with overlap
     ethr =  1.00E-02,  avg # of iterations =  2.0

     =================== HUBBARD OCCUPATIONS ===================
     ------------------------ ATOM    1 ------------------------
     Tr[ns(  1)] =   6.58625
     eigenvalues:
       0.439  0.483  0.636  0.763  0.973
     eigenvectors (columns):
      -0.998  0.000 -0.000  0.000 -0.062
      -0.000 -0.000  0.000 -1.000 -0.001
      -0.000 -0.000  1.000  0.000 -0.000
       0.062  0.000 -0.000  0.001 -0.998
       0.000  1.000  0.000 -0.000  0.000
     occupation matrix ns (before diag.):
       0.441 -0.000 -0.000  0.033  0.000
      -0.000  0.763 -0.000  0.000  0.000
      -0.000 -0.000  0.636  0.000  0.000
       0.033  0.000  0.000  0.971 -0.000
       0.000  0.000  0.000 -0.000  0.483
     ------------------------ ATOM    2 ------------------------
     Tr[ns(  2)] =   6.59690
     eigenvalues:
       0.503  0.531  0.614  0.732  0.918
     eigenvectors (columns):
      -0.001  0.428  0.000 -0.000 -0.904
       1.000  0.003 -0.000  0.000  0.000
       0.000 -0.000  1.000 -0.002  0.000
      -0.003  0.904  0.000 -0.000  0.428
      -0.000  0.000  0.002  1.000 -0.000
     occupation matrix ns (before diag.):
       0.847 -0.000 -0.000 -0.150  0.000
      -0.000  0.503 -0.000  0.000  0.000
      -0.000 -0.000  0.614  0.000 -0.000
      -0.150  0.000  0.000  0.602 -0.000
       0.000  0.000 -0.000 -0.000  0.732
     ------------------------ ATOM    3 ------------------------
     Tr[ns(  3)] =   6.75152
     eigenvalues:
       0.487  0.515  0.651  0.748  0.975
     eigenvectors (columns):
      -0.000  0.997  0.000 -0.003 -0.071
      -0.000 -0.003 -0.000 -1.000  0.002
       0.001  0.000 -1.000  0.000 -0.000
       0.000 -0.071  0.000 -0.002 -0.997
       1.000  0.000  0.001 -0.000  0.000
     occupation matrix ns (before diag.):
       0.517  0.001 -0.000  0.033  0.000
       0.001  0.748 -0.000 -0.001  0.000
      -0.000 -0.000  0.651  0.000 -0.000
       0.033 -0.001  0.000  0.973 -0.000
       0.000  0.000 -0.000 -0.000  0.487
     ------------------------ ATOM    4 ------------------------
     Tr[ns(  4)] =   6.79720
     eigenvalues:
       0.486  0.517  0.655  0.787  0.954
     eigenvectors (columns):
      -0.003  0.456  0.000 -0.000 -0.890
       1.000  0.009 -0.000  0.000  0.001
       0.000 -0.000  1.000 -0.008  0.000
      -0.008  0.890  0.000  0.000  0.456
      -0.000  0.000  0.008  1.000 -0.000
     occupation matrix ns (before diag.):
       0.863 -0.000 -0.000 -0.177  0.000
      -0.000  0.486 -0.000  0.000  0.000
      -0.000 -0.000  0.655  0.000 -0.001
      -0.177  0.000  0.000  0.608 -0.000
       0.000  0.000 -0.001 -0.000  0.787
     ------------------------ ATOM    5 ------------------------
     Tr[ns(  5)] =   6.64527
     eigenvalues:
       0.487  0.524  0.555  0.790  0.967
     eigenvectors (columns):
      -0.000  0.997  0.000  0.001 -0.077
      -0.000  0.001 -0.000 -1.000  0.007
       0.039  0.000 -0.999  0.000 -0.000
       0.000 -0.077 -0.000 -0.007 -0.997
       0.999  0.000  0.039 -0.000  0.000
     occupation matrix ns (before diag.):
       0.527 -0.000 -0.000  0.034  0.000
      -0.000  0.790 -0.000 -0.001  0.000
      -0.000 -0.000  0.555  0.000 -0.003
       0.034 -0.001  0.000  0.964 -0.000
       0.000  0.000 -0.003 -0.000  0.487
     ------------------------ ATOM    6 ------------------------
     Tr[ns(  6)] =   6.00183
     eigenvalues:
       0.503  0.519  0.594  0.685  0.701
     eigenvectors (columns):
      -0.017  0.553  0.000 -0.833  0.000
       1.000  0.025 -0.000 -0.004  0.000
       0.000 -0.000  1.000  0.000 -0.031
      -0.019  0.832 -0.000  0.554 -0.000
      -0.000  0.000  0.031  0.000  1.000
     occupation matrix ns (before diag.):
       0.634  0.001 -0.000 -0.077  0.000
       0.001  0.503 -0.000 -0.000  0.000
      -0.000 -0.000  0.594  0.000 -0.003
      -0.077 -0.000  0.000  0.570 -0.000
       0.000  0.000 -0.003 -0.000  0.701

     Number of occupied Hubbard levels =   39.3790

     negative rho (up, down):  8.360E-05 0.000E+00

     total cpu time spent up to now is        5.6 secs

     total energy              =   -1714.26802591 Ry
     estimated scf accuracy    <       4.21708558 Ry

     iteration #  2     ecut=    80.00 Ry     beta= 0.30
     Davidson diagonalization with overlap
     ethr =  2.33E-03,  avg # of iterations =  1.0

     negative rho (up, down):  1.781E-07 0.000E+00

     total cpu time spent up to now is        8.6 secs

     total energy              =   -1714.31774024 Ry
     estimated scf accuracy    <       0.99982683 Ry

     iteration #  3     ecut=    80.00 Ry     beta= 0.30
     Davidson diagonalization with overlap
     ethr =  5.52E-04,  avg # of iterations =  2.0

     total cpu time spent up to now is       11.2 secs

     total energy              =   -1714.41039862 Ry
     estimated scf accuracy    <       0.27635661 Ry

     iteration #  4     ecut=    80.00 Ry     beta= 0.30
     Davidson diagonalization with overlap
     ethr =  1.53E-04,  avg # of iterations =  1.1

     total cpu time spent up to now is       13.2 secs

     total energy              =   -1714.40712899 Ry
     estimated scf accuracy    <       0.15557563 Ry

     iteration #  5     ecut=    80.00 Ry     beta= 0.30
     Davidson diagonalization with overlap
     ethr =  8.60E-05,  avg # of iterations =  2.3

     total cpu time spent up to now is       15.9 secs

     total energy              =   -1714.40819485 Ry
     estimated scf accuracy    <       0.07480815 Ry

     iteration #  6     ecut=    80.00 Ry     beta= 0.30
     Davidson diagonalization with overlap
     ethr =  4.13E-05,  avg # of iterations =  1.5

     total cpu time spent up to now is       18.0 secs

     total energy              =   -1714.40684912 Ry
     estimated scf accuracy    <       0.02579644 Ry

     iteration #  7     ecut=    80.00 Ry     beta= 0.30
     Davidson diagonalization with overlap
     ethr =  1.43E-05,  avg # of iterations =  6.9

     total cpu time spent up to now is       20.4 secs

     total energy              =   -1714.40671136 Ry
     estimated scf accuracy    <       0.01982750 Ry

     iteration #  8     ecut=    80.00 Ry     beta= 0.30
     Davidson diagonalization with overlap
     ethr =  1.10E-05,  avg # of iterations =  1.1

     total cpu time spent up to now is       22.4 secs

     total energy              =   -1714.40544984 Ry
     estimated scf accuracy    <       0.01007824 Ry

     iteration #  9     ecut=    80.00 Ry     beta= 0.30
     Davidson diagonalization with overlap
     ethr =  5.57E-06,  avg # of iterations =  3.5

     total cpu time spent up to now is       24.8 secs

     total energy              =   -1714.40530681 Ry
     estimated scf accuracy    <       0.00496566 Ry

     iteration # 10     ecut=    80.00 Ry     beta= 0.30
     Davidson diagonalization with overlap
     ethr =  2.74E-06,  avg # of iterations =  1.7

     negative rho (up, down):  1.399E-04 0.000E+00

     total cpu time spent up to now is       26.9 secs

     total energy              =   -1714.40500356 Ry
     estimated scf accuracy    <       0.00358398 Ry

     iteration # 11     ecut=    80.00 Ry     beta= 0.30
     Davidson diagonalization with overlap
     ethr =  1.98E-06,  avg # of iterations =  1.5

     negative rho (up, down):  1.339E-03 0.000E+00

     total cpu time spent up to now is       29.0 secs

     total energy              =   -1714.40488167 Ry
     estimated scf accuracy    <       0.00174708 Ry

     iteration # 12     ecut=    80.00 Ry     beta= 0.30
     Davidson diagonalization with overlap
     ethr =  9.65E-07,  avg # of iterations =  2.6

     negative rho (up, down):  2.594E-03 0.000E+00

     total cpu time spent up to now is       31.3 secs

     total energy              =   -1714.40480565 Ry
     estimated scf accuracy    <       0.00112260 Ry

     iteration # 13     ecut=    80.00 Ry     beta= 0.30
     Davidson diagonalization with overlap
     ethr =  6.20E-07,  avg # of iterations =  1.7

     negative rho (up, down):  3.135E-03 0.000E+00

     total cpu time spent up to now is       33.3 secs

     total energy              =   -1714.40471804 Ry
     estimated scf accuracy    <       0.00078845 Ry

     iteration # 14     ecut=    80.00 Ry     beta= 0.30
     Davidson diagonalization with overlap
     ethr =  4.36E-07,  avg # of iterations =  2.7

     negative rho (up, down):  4.324E-03 0.000E+00

     total cpu time spent up to now is       35.8 secs

     total energy              =   -1714.40475565 Ry
     estimated scf accuracy    <       0.00032095 Ry

     iteration # 15     ecut=    80.00 Ry     beta= 0.30
     Davidson diagonalization with overlap
     ethr =  1.77E-07,  avg # of iterations =  2.4

     negative rho (up, down):  2.238E-03 0.000E+00

     total cpu time spent up to now is       37.9 secs

     total energy              =   -1714.40479407 Ry
     estimated scf accuracy    <       0.00013355 Ry

     iteration # 16     ecut=    80.00 Ry     beta= 0.30
     Davidson diagonalization with overlap
     ethr =  7.38E-08,  avg # of iterations =  1.3

     negative rho (up, down):  1.061E-03 0.000E+00

     total cpu time spent up to now is       39.9 secs

     total energy              =   -1714.40483000 Ry
     estimated scf accuracy    <       0.00004475 Ry

     iteration # 17     ecut=    80.00 Ry     beta= 0.30
     Davidson diagonalization with overlap
     ethr =  2.47E-08,  avg # of iterations =  2.1

     negative rho (up, down):  7.242E-04 0.000E+00

     total cpu time spent up to now is       42.2 secs

     total energy              =   -1714.40483868 Ry
     estimated scf accuracy    <       0.00001003 Ry

     iteration # 18     ecut=    80.00 Ry     beta= 0.30
     Davidson diagonalization with overlap
     ethr =  5.54E-09,  avg # of iterations =  1.4

     negative rho (up, down):  3.626E-04 0.000E+00

     total cpu time spent up to now is       44.3 secs

     total energy              =   -1714.40484083 Ry
     estimated scf accuracy    <       0.00000585 Ry

     iteration # 19     ecut=    80.00 Ry     beta= 0.30
     Davidson diagonalization with overlap
     ethr =  3.23E-09,  avg # of iterations =  1.4

     negative rho (up, down):  1.326E-04 0.000E+00

     total cpu time spent up to now is       46.4 secs

     total energy              =   -1714.40484192 Ry
     estimated scf accuracy    <       0.00000303 Ry

     iteration # 20     ecut=    80.00 Ry     beta= 0.30
     Davidson diagonalization with overlap
     ethr =  1.67E-09,  avg # of iterations =  1.8

     negative rho (up, down):  9.684E-05 0.000E+00

     total cpu time spent up to now is       48.4 secs

     End of self-consistent calculation

     =================== HUBBARD OCCUPATIONS ===================
     ------------------------ ATOM    1 ------------------------
     Tr[ns(  1)] =   7.26637
     eigenvalues:
       0.537  0.544  0.778  0.833  0.942
     eigenvectors (columns):
      -0.997  0.000 -0.000  0.000  0.073
       0.000 -0.000  0.000  1.000 -0.000
      -0.000 -0.000  1.000 -0.000  0.000
       0.073 -0.000 -0.000  0.000  0.997
       0.000  1.000  0.000  0.000 -0.000
     occupation matrix ns (before diag.):
       0.540  0.000 -0.000  0.030  0.000
       0.000  0.833 -0.000 -0.000  0.000
      -0.000 -0.000  0.778  0.000  0.000
       0.030 -0.000  0.000  0.939 -0.000
       0.000  0.000  0.000 -0.000  0.544
     ------------------------ ATOM    2 ------------------------
     Tr[ns(  2)] =   7.22440
     eigenvalues:
       0.592  0.616  0.727  0.801  0.877
     eigenvectors (columns):
      -0.002  0.416  0.000 -0.000 -0.909
       1.000  0.005 -0.000  0.000  0.000
       0.000 -0.000  1.000 -0.006  0.000
      -0.005  0.909 -0.000  0.000  0.416
      -0.000  0.000  0.006  1.000 -0.000
     occupation matrix ns (before diag.):
       0.831  0.000 -0.000 -0.099  0.000
       0.000  0.592 -0.000  0.000  0.000
      -0.000 -0.000  0.727  0.000 -0.000
      -0.099  0.000  0.000  0.661 -0.000
       0.000  0.000 -0.000 -0.000  0.801
     ------------------------ ATOM    3 ------------------------
     Tr[ns(  3)] =   7.27119
     eigenvalues:
       0.557  0.594  0.724  0.792  0.968
     eigenvectors (columns):
      -0.000  0.997  0.000 -0.002 -0.081
      -0.000 -0.002 -0.000 -1.000 -0.000
       0.000  0.000 -1.000  0.000 -0.000
       0.000 -0.081  0.000  0.000 -0.997
       1.000  0.000  0.000 -0.000  0.000
     occupation matrix ns (before diag.):
       0.596  0.000 -0.000  0.030  0.000
       0.000  0.792 -0.000 -0.000  0.000
      -0.000 -0.000  0.724  0.000 -0.000
       0.030 -0.000  0.000  0.966 -0.000
       0.000  0.000 -0.000 -0.000  0.557
     ------------------------ ATOM    4 ------------------------
     Tr[ns(  4)] =   7.28444
     eigenvalues:
       0.549  0.593  0.731  0.817  0.952
     eigenvectors (columns):
      -0.002  0.446  0.000 -0.000 -0.895
       1.000  0.005 -0.000  0.000  0.001
       0.000 -0.000  1.000 -0.014  0.000
      -0.005  0.895  0.000  0.000  0.446
      -0.000  0.000  0.014  1.000 -0.000
     occupation matrix ns (before diag.):
       0.880 -0.000 -0.000 -0.143  0.000
      -0.000  0.549 -0.000  0.000  0.000
      -0.000 -0.000  0.731  0.000 -0.001
      -0.143  0.000  0.000  0.665 -0.000
       0.000  0.000 -0.001 -0.000  0.817
     ------------------------ ATOM    5 ------------------------
     Tr[ns(  5)] =   7.28814
     eigenvalues:
       0.559  0.594  0.698  0.831  0.962
     eigenvectors (columns):
      -0.000  0.995  0.000 -0.007 -0.104
      -0.000 -0.006 -0.000 -1.000  0.009
       0.010  0.000 -1.000  0.000 -0.000
       0.000 -0.104  0.000 -0.008 -0.995
       1.000  0.000  0.010 -0.000  0.000
     occupation matrix ns (before diag.):
       0.598  0.001 -0.000  0.038  0.000
       0.001  0.831 -0.000 -0.001  0.000
      -0.000 -0.000  0.698  0.000 -0.001
       0.038 -0.001  0.000  0.958 -0.000
       0.000  0.000 -0.001 -0.000  0.559
     ------------------------ ATOM    6 ------------------------
     Tr[ns(  6)] =   7.22708
     eigenvalues:
       0.590  0.619  0.735  0.811  0.859
     eigenvectors (columns):
       0.003  0.393  0.000 -0.000  0.919
      -1.000  0.005 -0.000  0.000  0.001
      -0.000 -0.000  1.000 -0.031 -0.000
       0.004  0.919 -0.000  0.000 -0.393
       0.000  0.000  0.031  1.000  0.000
     occupation matrix ns (before diag.):
       0.822  0.000 -0.000 -0.087  0.000
       0.000  0.590 -0.000  0.000  0.000
      -0.000 -0.000  0.735  0.000 -0.002
      -0.087  0.000  0.000  0.656 -0.000
       0.000  0.000 -0.002 -0.000  0.811

     Number of occupied Hubbard levels =   43.5616

          k = 0.0000 0.0000 0.0000 ( 40831 PWs)   bands (ev):

   -72.2472 -71.9906 -71.8268 -71.8012 -71.7975 -71.4897 -42.3659 -42.2042
   -42.1736 -42.1503 -42.1415 -42.0986 -42.0528 -41.8534 -41.8337 -41.7541
   -41.6964 -41.6949 -41.6489 -41.6371 -41.6316 -41.6130 -41.3870 -41.3331
   -22.3374 -18.5833 -18.2907 -18.1536 -18.0005 -17.6388 -17.4923 -17.1190
   -16.8213 -16.7547 -16.6892 -16.4962 -15.8132 -14.3426  -7.3831  -7.0519
    -7.0431  -7.0280  -6.5779  -6.1483  -5.6363  -5.3922  -5.3875  -5.3483
    -5.3417  -5.3360  -5.2675  -5.0282  -4.9556  -4.1332  -4.1269  -3.6337
    -3.4121  -3.0419  -2.9050  -2.8051  -2.7854  -2.6793  -2.6047  -2.4872
    -2.3647  -2.2444  -2.1417  -2.0682  -1.8714  -1.7328  -1.7022  -1.5731
    -1.2236  -1.1084  -1.0006  -0.8652  -0.5436  -0.4846  -0.3320  -0.2603
    -0.2518  -0.1083  -0.0795  -0.0361   0.0028   0.2399   0.3288   0.6124
     0.7198   0.8548   1.1706   1.3022   1.4940   2.0324   2.3887   2.5834
     2.6769   3.0272   3.6662   4.4740   5.0869   5.5558   5.6716   5.8765
     6.1035   6.1562   6.1639   6.2139   6.2688

          k = 0.0000 0.1223 0.0000 ( 40974 PWs)   bands (ev):

   -72.2470 -71.9904 -71.8267 -71.8007 -71.7977 -71.4896 -42.3650 -42.2034
   -42.1736 -42.1500 -42.1419 -42.0987 -42.0511 -41.8534 -41.8336 -41.7542
   -41.6978 -41.6949 -41.6472 -41.6386 -41.6319 -41.6151 -41.3870 -41.3343
   -22.3373 -18.4779 -18.1561 -18.0295 -18.0082 -17.6412 -17.5271 -17.1256
   -16.9753 -16.9051 -16.8645 -16.4950 -15.8107 -14.3426  -7.3741  -6.6482
    -6.5961  -6.5724  -6.5480  -6.1457  -5.4829  -5.3821  -5.3460  -5.3016
    -5.2798  -5.2479  -5.1713  -4.9532  -4.8322  -4.1447  -4.0640  -3.9158
    -3.6489  -3.5208  -3.4028  -3.2251  -2.9734  -2.8577  -2.7871  -2.6119
    -2.5542  -2.5173  -2.4310  -2.2963  -2.2318  -2.0511  -1.8359  -1.6765
    -1.4587  -1.2861  -1.1468  -0.9151  -0.7241  -0.5667  -0.0200   0.0011
     0.2607   0.3761   0.4635   0.4874   0.5244   0.5269   0.6011   0.6574
     0.7402   0.9284   1.1578   1.2963   1.5536   2.0597   2.1376   2.4168
     2.7114   2.9084   4.0604   4.7947   5.2930   5.5899   5.6680   5.8279
     5.9173   5.9528   5.9811   6.1206   6.3326

          k = 0.0000-0.2445 0.0000 ( 41014 PWs)   bands (ev):

   -72.2468 -71.9902 -71.8266 -71.8002 -71.7979 -71.4895 -42.3640 -42.2026
   -42.1735 -42.1496 -42.1424 -42.0987 -42.0494 -41.8534 -41.8336 -41.7543
   -41.6992 -41.6949 -41.6441 -41.6416 -41.6321 -41.6173 -41.3871 -41.3356
   -22.3372 -18.3243 -18.1097 -17.8781 -17.7602 -17.7480 -17.6241 -17.1640
   -17.1577 -17.0571 -17.0468 -16.4957 -15.8089 -14.3427  -7.3725  -6.5966
    -6.1608  -5.9363  -5.9122  -5.8255  -5.4290  -5.3711  -5.3549  -5.1734
    -5.1465  -5.0675  -4.9421  -4.8465  -4.6946  -4.3944  -4.2168  -4.2133
    -4.1499  -4.1373  -4.0578  -3.6604  -3.4603  -3.2146  -2.9562  -2.8618
    -2.8477  -2.7468  -2.4880  -2.4814  -2.4213  -2.1546  -1.7649  -1.5628
    -1.3415  -1.2535  -1.1388  -0.8426  -0.7978  -0.7325  -0.0015   0.0402
     0.5593   0.6845   0.7029   0.7115   0.7456   0.8372   0.9005   1.0080
     1.0605   1.0989   1.2516   1.4218   1.4574   1.8534   1.9086   2.3648
     2.4199   3.0550   4.6691   4.6739   5.5546   5.6291   5.6403   5.6706
     5.7056   5.8783   5.9134   6.1187   6.1977

          k = 0.1250 0.0000 0.0000 ( 40851 PWs)   bands (ev):

   -72.2452 -71.9886 -71.8248 -71.7991 -71.7954 -71.4876 -42.3638 -42.2025
   -42.2022 -42.1483 -42.1372 -42.0969 -42.0506 -41.8607 -41.8491 -41.7513
   -41.6926 -41.6921 -41.6762 -41.6649 -41.6597 -41.6089 -41.4153 -41.3286
   -22.2599 -18.4527 -18.1705 -18.0386 -17.9018 -17.5546 -17.4021 -17.1818
   -16.8999 -16.8368 -16.7740 -16.5775 -15.8608 -14.5036  -7.5007  -6.8594
    -6.8418  -6.8246  -6.3808  -6.1072  -5.5624  -5.4998  -5.4882  -5.3542
    -5.3374  -5.2183  -4.8914  -4.7791  -4.7203  -4.4091  -3.9638  -3.5388
    -3.3947  -3.3206  -3.1086  -2.9313  -2.7854  -2.7591  -2.7126  -2.6520
    -2.4403  -2.4112  -2.3995  -2.0843  -1.9750  -1.8533  -1.7534  -1.7205
    -1.6826  -1.5942  -1.5339  -1.0462  -0.7500  -0.5234  -0.2259  -0.0197
     0.0426   0.2158   0.2352   0.3469   0.4523   0.4825   0.6763   0.7299
     0.8332   0.9158   1.3673   1.4619   1.5879   1.8880   2.2380   2.5402
     2.7264   2.8801   3.8204   4.5872   5.1464   5.2418   5.3936   5.6721
     5.7278   5.8348   5.8449   5.9023   6.3244

          k = 0.1250 0.1223 0.0000 ( 40932 PWs)   bands (ev):

   -72.2450 -71.9884 -71.8247 -71.7987 -71.7956 -71.4876 -42.3631 -42.2025
   -42.2016 -42.1481 -42.1375 -42.0970 -42.0493 -41.8607 -41.8491 -41.7514
   -41.6933 -41.6926 -41.6746 -41.6664 -41.6599 -41.6104 -41.4153 -41.3296
   -22.2598 -18.3541 -18.0424 -17.9293 -17.8968 -17.5486 -17.4405 -17.1879
   -17.0418 -16.9746 -16.9362 -16.5765 -15.8587 -14.5036  -7.4992  -6.4655
    -6.4114  -6.3888  -6.3520  -6.1029  -5.5024  -5.4826  -5.3771  -5.3366
    -5.2161  -5.0473  -4.9107  -4.7223  -4.6325  -4.4042  -3.9755  -3.8156
    -3.6273  -3.4777  -3.3870  -3.2972  -3.1702  -3.0867  -2.9710  -2.8456
    -2.7897  -2.7638  -2.5598  -2.4597  -2.2901  -1.9487  -1.8750  -1.7200
    -1.6415  -1.5067  -1.3053  -0.8281  -0.8006  -0.6689   0.0417   0.1261
     0.3494   0.4193   0.4966   0.6129   0.6282   0.7831   0.8262   0.8831
     0.9716   1.0781   1.3675   1.5237   1.5856   1.9513   2.0189   2.3145
     2.6422   2.9364   4.1494   4.8206   5.1700   5.2258   5.3483   5.5158
     5.5973   5.7100   5.7303   5.8650   6.3824

          k = 0.1250-0.2445 0.0000 ( 40974 PWs)   bands (ev):

   -72.2448 -71.9883 -71.8246 -71.7982 -71.7959 -71.4875 -42.3624 -42.2024
   -42.2010 -42.1478 -42.1378 -42.0970 -42.0480 -41.8606 -41.8491 -41.7514
   -41.6944 -41.6927 -41.6718 -41.6691 -41.6600 -41.6119 -41.4152 -41.3306
   -22.2597 -18.2118 -17.9968 -17.7654 -17.6511 -17.6488 -17.5444 -17.2331
   -17.2150 -17.1195 -17.1002 -16.5772 -15.8571 -14.5036  -7.4994  -6.4006
    -6.1146  -5.7096  -5.6876  -5.5917  -5.4976  -5.4691  -5.3316  -5.2935
    -5.2613  -4.9210  -4.7584  -4.6363  -4.5469  -4.3921  -4.3187  -4.2025
    -3.9219  -3.8195  -3.7939  -3.7436  -3.6426  -3.6178  -3.3207  -3.1332
    -3.0521  -2.9899  -2.8100  -2.5975  -2.2741  -1.9814  -1.9086  -1.5667
    -1.3610  -1.1713  -1.1503  -1.0498  -0.7548  -0.7362   0.1143   0.2940
     0.3927   0.4902   0.6257   0.6302   0.6713   0.9540   1.2699   1.2712
     1.3560   1.3746   1.3874   1.4822   1.6644   1.8203   1.8547   2.2416
     2.3090   3.0901   4.6186   4.7294   5.0084   5.0856   5.1525   5.4376
     5.5204   5.7042   5.8392   5.9765   6.2887

          k = 0.2500 0.0000 0.0000 ( 40947 PWs)   bands (ev):

   -72.2408 -71.9844 -71.8204 -71.7947 -71.7911 -71.4833 -42.3588 -42.2710
   -42.1974 -42.1437 -42.1253 -42.0938 -42.0450 -41.9242 -41.8389 -41.7527
   -41.7387 -41.7284 -41.7245 -41.6840 -41.6818 -41.5990 -41.4823 -41.3178
   -22.0599 -18.1258 -17.8781 -17.7595 -17.6860 -17.4239 -17.2950 -17.1733
   -17.0849 -17.0294 -16.9727 -16.7523 -15.9243 -14.9144  -7.6973  -6.3604
    -6.3255  -6.2904  -5.8852  -5.8340  -5.6022  -5.5996  -5.4850  -5.2271
    -5.1874  -4.8872  -4.8744  -4.4367  -4.3172  -4.2992  -4.1059  -3.8226
    -3.6850  -3.5975  -3.5847  -3.5387  -3.2828  -3.1080  -2.9611  -2.7890
    -2.6118  -2.5459  -2.4685  -2.3283  -2.3027  -2.0730  -1.9834  -1.9264
    -1.7084  -1.5505  -1.0292  -0.9930  -0.9382  -0.8074  -0.2034   0.0724
     0.4276   0.4686   0.5112   0.6480   0.6724   0.9385   1.1340   1.1903
     1.2129   1.3546   1.3750   1.6129   1.6752   1.6790   1.9592   2.2367
     2.4792   2.8702   4.0881   4.3991   4.7887   4.9957   5.0543   5.2380
     5.2513   5.3240   5.3313   5.6332   6.1741

          k = 0.2500 0.1223 0.0000 ( 40905 PWs)   bands (ev):

   -72.2407 -71.9843 -71.8205 -71.7944 -71.7914 -71.4833 -42.3586 -42.2710
   -42.1973 -42.1436 -42.1254 -42.0938 -42.0449 -41.9242 -41.8389 -41.7524
   -41.7377 -41.7282 -41.7251 -41.6841 -41.6822 -41.5996 -41.4820 -41.3182
   -22.0599 -18.0538 -17.7863 -17.7146 -17.6407 -17.4281 -17.3095 -17.2099
   -17.1725 -17.1101 -17.0748 -16.7520 -15.9235 -14.9143  -7.6985  -6.0602
    -5.9917  -5.9510  -5.8613  -5.8327  -5.5949  -5.4717  -5.3969  -5.2990
    -5.1339  -4.9349  -4.6244  -4.4656  -4.3592  -4.2738  -4.1611  -4.1068
    -4.0177  -3.9441  -3.7667  -3.5581  -3.4195  -3.1001  -3.0152  -2.8820
    -2.7515  -2.6395  -2.6181  -2.4653  -2.3637  -2.1520  -1.9147  -1.8591
    -1.7244  -1.5983  -1.0873  -0.9848  -0.9419  -0.7812  -0.2781   0.1472
     0.5146   0.5477   0.6465   0.8869   0.9209   0.9684   1.0641   1.1700
     1.2683   1.3743   1.4251   1.5768   1.7764   1.8172   1.9417   2.1390
     2.3529   2.9858   4.2394   4.3635   4.5727   4.6220   4.6780   5.0368
     5.1907   5.4147   5.7941   5.9246   6.2995

          k = 0.2500-0.2445 0.0000 ( 40892 PWs)   bands (ev):

   -72.2406 -71.9842 -71.8205 -71.7940 -71.7917 -71.4834 -42.3584 -42.2710
   -42.1972 -42.1435 -42.1255 -42.0938 -42.0447 -41.9242 -41.8389 -41.7522
   -41.7367 -41.7280 -41.7256 -41.6841 -41.6827 -41.6001 -41.4816 -41.3186
   -22.0598 -17.9519 -17.7561 -17.5457 -17.5396 -17.4104 -17.3907 -17.3657
   -17.2662 -17.2205 -17.1236 -16.7523 -15.9228 -14.9141  -7.6998  -5.8862
    -5.8734  -5.5923  -5.4717  -5.4514  -5.4286  -5.3692  -5.2334  -5.2229
    -5.0610  -4.9598  -4.7313  -4.7109  -4.6546  -4.4382  -4.4114  -4.3078
    -4.0686  -4.0000  -3.8672  -3.6087  -3.3507  -3.1997  -3.1909  -3.1481
    -3.1335  -3.0019  -2.9078  -2.7219  -2.3555  -2.0136  -1.7884  -1.5977
    -1.5522  -1.2816  -1.2096  -1.1005  -0.9514  -0.8289   0.0230   0.0252
     0.3779   0.4844   0.5651   0.7560   1.0194   1.1578   1.2397   1.3231
     1.4016   1.4649   1.5615   1.6388   1.8583   1.9687   2.0038   2.0384
     2.1924   3.0793   4.1106   4.1917   4.2773   4.4259   4.4389   5.0376
     5.3003   5.4904   6.0897   6.1058   6.3642

          k = 0.3750 0.0000 0.0000 ( 40852 PWs)   bands (ev):

   -72.2371 -71.9810 -71.8170 -71.7911 -71.7880 -71.4798 -42.3535 -42.3376
   -42.1925 -42.1392 -42.1117 -42.0926 -42.0393 -41.9855 -41.8296 -41.8048
   -41.7993 -41.7923 -41.7306 -41.6772 -41.6713 -41.5891 -41.5472 -41.3069
   -21.8374 -17.8105 -17.6261 -17.5294 -17.4558 -17.3856 -17.2929 -17.2635
   -17.2149 -17.1637 -17.0488 -16.7828 -15.8969 -15.3550  -7.7557  -5.9120
    -5.8522  -5.8015  -5.6653  -5.6162  -5.6128  -5.4572  -5.4080  -5.2321
    -5.1593  -5.0561  -4.7747  -4.4919  -4.4608  -4.3159  -4.2273  -4.0761
    -3.9762  -3.7598  -3.7389  -3.2369  -3.1542  -3.0881  -3.0754  -3.0063
    -2.8444  -2.6117  -2.5091  -2.4751  -2.2263  -2.0832  -1.9830  -1.9093
    -1.7201  -1.3420  -1.2152  -1.0428  -0.7078  -0.4021  -0.2616   0.2472
     0.4677   0.5667   0.5740   0.6241   0.7178   0.7910   0.9700   1.0533
     1.2534   1.4123   1.4230   1.5486   1.8374   1.8717   1.9425   2.2826
     2.3471   2.7660   3.7222   4.1568   4.6416   4.8246   4.8371   4.9007
     4.9441   5.1395   5.3128   5.5012   5.9937

          k = 0.3750 0.1223 0.0000 ( 40842 PWs)   bands (ev):

   -72.2371 -71.9810 -71.8172 -71.7910 -71.7883 -71.4799 -42.3540 -42.3375
   -42.1930 -42.1392 -42.1117 -42.0926 -42.0407 -41.9854 -41.8294 -41.8037
   -41.7988 -41.7915 -41.7307 -41.6772 -41.6712 -41.5887 -41.5464 -41.3067
   -21.8374 -17.7970 -17.6343 -17.5996 -17.5266 -17.4358 -17.3270 -17.1829
   -17.1352 -17.1038 -17.0512 -16.7830 -15.8965 -15.3544  -7.7565  -5.8519
    -5.8325  -5.8100  -5.7669  -5.6771  -5.5955  -5.4063  -5.3858  -5.3175
    -5.2441  -5.1365  -4.6614  -4.4021  -4.3212  -4.1977  -4.1778  -4.0592
    -4.0074  -3.8348  -3.4846  -3.3181  -3.2038  -3.0301  -2.9525  -2.8484
    -2.7762  -2.6141  -2.4890  -2.4554  -2.3522  -2.1838  -1.9906  -1.7362
    -1.6458  -1.5776  -1.3471  -1.0196  -0.8344  -0.4624  -0.3143   0.0970
     0.2960   0.4179   0.5701   0.6511   0.7038   0.7552   0.8066   0.8969
     0.9952   1.1209   1.4800   1.8526   2.0398   2.0957   2.2005   2.2628
     2.3066   2.8652   3.7287   4.0433   4.0893   4.1748   4.2237   4.6638
     5.3597   5.7112   5.9626   6.0610   6.1706

          k = 0.3750-0.2445 0.0000 ( 40856 PWs)   bands (ev):

   -72.2371 -71.9810 -71.8173 -71.7908 -71.7885 -71.4800 -42.3544 -42.3374
   -42.1934 -42.1391 -42.1118 -42.0926 -42.0420 -41.9854 -41.8293 -41.8031
   -41.7979 -41.7908 -41.7307 -41.6772 -41.6710 -41.5884 -41.5457 -41.3065
   -21.8374 -17.7747 -17.6827 -17.6051 -17.6020 -17.4633 -17.3418 -17.1286
   -17.0795 -17.0692 -17.0482 -16.7835 -15.8962 -15.3539  -7.7573  -5.8827
    -5.8620  -5.8352  -5.7253  -5.6658  -5.5564  -5.4858  -5.3854  -5.3280
    -5.2551  -5.1513  -4.7098  -4.4057  -4.2633  -4.1399  -3.9701  -3.9584
    -3.8975  -3.7490  -3.4393  -3.2755  -3.2090  -2.9880  -2.8929  -2.8689
    -2.7556  -2.6945  -2.5935  -2.5463  -2.2584  -2.1038  -1.9865  -1.8176
    -1.6982  -1.3272  -1.2970  -1.0554  -1.0339  -0.6058  -0.2565  -0.1839
    -0.0806  -0.0057   0.5391   0.6062   0.7576   0.8525   0.8753   0.9680
     0.9823   1.0591   1.3912   1.8047   2.0819   2.1861   2.3675   2.3750
     2.4774   2.9545   3.5534   3.6606   3.7651   3.8586   4.2428   4.6656
     5.4344   5.9182   6.3509   6.3735   6.4918

          k =-0.5000 0.0000 0.0000 ( 40876 PWs)   bands (ev):

   -72.2358 -71.9798 -71.8159 -71.7897 -71.7871 -71.4786 -42.3645 -42.3513
   -42.1904 -42.1374 -42.1047 -42.0939 -42.0369 -42.0099 -41.8331 -41.8276
   -41.8194 -41.8185 -41.7280 -41.6742 -41.6670 -41.5849 -41.5733 -41.3023
   -21.7370 -17.7690 -17.4745 -17.4479 -17.3814 -17.3358 -17.3273 -17.2898
   -17.2737 -17.2407 -17.0843 -16.6996 -15.8569 -15.5459  -7.7373  -6.0784
    -5.9038  -5.7420  -5.6031  -5.5588  -5.3616  -5.3397  -5.3091  -5.1731
    -5.0932  -4.9767  -4.9582  -4.7433  -4.5554  -4.4612  -4.2876  -3.9904
    -3.7962  -3.3949  -3.3422  -3.3001  -3.2780  -3.2649  -3.1947  -3.0495
    -2.8421  -2.7733  -2.4461  -2.2606  -2.1014  -2.0222  -1.8876  -1.8369
    -1.4962  -1.4256  -1.2737  -1.2017  -0.6778  -0.1769  -0.1624   0.1841
     0.2597   0.4983   0.5244   0.5482   0.5629   0.7353   0.8477   0.9460
     1.0429   1.2801   1.3643   1.5579   1.7219   2.0665   2.1074   2.4428
     2.5201   2.6714   3.4992   4.1136   4.5869   4.6979   4.7149   4.8308
     4.9154   5.1502   5.2957   5.4561   6.0119

          k =-0.5000 0.1223 0.0000 ( 40858 PWs)   bands (ev):

   -72.2359 -71.9799 -71.8161 -71.7898 -71.7873 -71.4788 -42.3645 -42.3521
   -42.1911 -42.1374 -42.1047 -42.0939 -42.0391 -42.0098 -41.8315 -41.8278
   -41.8186 -41.8176 -41.7280 -41.6742 -41.6666 -41.5842 -41.5724 -41.3019
   -21.7370 -17.7658 -17.6282 -17.5721 -17.5510 -17.4704 -17.2792 -17.1161
   -17.0882 -17.0688 -17.0587 -16.6986 -15.8558 -15.5450  -7.7375  -6.0811
    -5.9753  -5.9140  -5.8771  -5.7805  -5.6984  -5.3138  -5.2789  -5.2603
    -5.2418  -4.8598  -4.6608  -4.4934  -4.3738  -4.1233  -4.0396  -3.8308
    -3.5599  -3.4503  -3.4221  -3.3645  -3.2652  -3.2544  -3.1022  -2.7289
    -2.5985  -2.5033  -2.3810  -2.3397  -2.1641  -2.1102  -1.8955  -1.7771
    -1.5493  -1.4790  -1.3820  -1.1707  -0.9075  -0.2803  -0.2249   0.1003
     0.1935   0.2334   0.2864   0.5058   0.5376   0.5439   0.5659   0.6706
     0.7506   0.8070   1.3021   2.0148   2.1978   2.2698   2.3067   2.4132
     2.4743   2.7819   3.5525   3.8340   3.9101   4.0194   4.1626   4.5915
     5.4801   5.9268   6.0462   6.0765   6.1390

          k =-0.5000-0.2445 0.0000 ( 40872 PWs)   bands (ev):

   -72.2359 -71.9799 -71.8163 -71.7898 -71.7875 -71.4789 -42.3644 -42.3528
   -42.1918 -42.1374 -42.1047 -42.0938 -42.0412 -42.0098 -41.8301 -41.8280
   -41.8176 -41.8166 -41.7281 -41.6742 -41.6662 -41.5835 -41.5715 -41.3015
   -21.7370 -17.7625 -17.7236 -17.6667 -17.6462 -17.4664 -17.2823 -17.0917
   -17.0110 -16.9645 -16.9579 -16.6977 -15.8547 -15.5440  -7.7377  -6.1602
    -6.1572  -6.0847  -6.0223  -5.8496  -5.6367  -5.3947  -5.2836  -5.2687
    -5.1877  -4.8415  -4.7266  -4.5645  -4.3743  -3.8754  -3.5958  -3.5640
    -3.5576  -3.4116  -3.2537  -3.1301  -3.0863  -2.9855  -2.8844  -2.8191
    -2.5671  -2.5521  -2.3524  -2.2983  -2.2068  -2.1075  -1.7709  -1.7659
    -1.5669  -1.5239  -1.4224  -1.2207  -0.9497  -0.6844  -0.4886  -0.3403
    -0.0844   0.0437   0.2328   0.2700   0.5138   0.5442   0.5533   0.5620
     0.6834   0.7636   1.2756   1.9822   2.1784   2.3532   2.5235   2.6257
     2.6283   2.8486   3.4561   3.5158   3.5926   3.6352   4.2005   4.5955
     5.5224   6.1378   6.4490   6.4869   6.6078

     the Fermi energy is     1.4114 ev

!    total energy              =   -1714.40484203 Ry
     estimated scf accuracy    <       0.00000093 Ry
     smearing contrib. (-TS)   =      -0.00137900 Ry
     internal energy E=F+TS    =   -1714.40346302 Ry

     The total energy is F=E-TS. E is the sum of the following terms:
     one-electron contribution =  -17071.21874987 Ry
     hartree contribution      =    8563.84473966 Ry
     xc contribution           =    -222.28926456 Ry
     ewald contribution        =    7147.97059655 Ry
     Hubbard energy            =       0.59472224 Ry
     one-center paw contrib.   =    -133.30550703 Ry

     convergence has been achieved in  20 iterations

     negative rho (up, down):  9.684E-05 0.000E+00
     force_hub    :      0.61s CPU      0.63s WALL (       1 calls)
     dndtau       :      0.47s CPU      0.48s WALL (     252 calls)
     dprojdtau    :      0.05s CPU      0.05s WALL (    1512 calls)
     matel_dSdtau :      0.41s CPU      0.42s WALL (     252 calls)

     Forces acting on atoms (cartesian axes, Ry/au):

     atom    1 type  2   force =     0.00002160    0.00000000    0.07185690
     atom    2 type  2   force =     0.00012416    0.00000000   -0.08596890
     atom    3 type  2   force =    -0.00118403    0.00000000    0.00053338
     atom    4 type  2   force =     0.00068650    0.00000000    0.00234505
     atom    5 type  2   force =    -0.00072961    0.00000000   -0.00236307
     atom    6 type  2   force =     0.00149529    0.00000000   -0.00359067
     atom    7 type  3   force =     0.00112437    0.00000000    0.02987577
     atom    8 type  3   force =     0.00017884    0.00000000    0.06007869
     atom    9 type  3   force =    -0.00006916    0.01604839   -0.02387061
     atom   10 type  3   force =    -0.00006916   -0.01604839   -0.02387061
     atom   11 type  3   force =    -0.00004414    0.00000000    0.00239546
     atom   12 type  3   force =     0.00178322    0.00000000   -0.02702920
     atom   13 type  3   force =    -0.00134781   -0.00378493    0.00111629
     atom   14 type  3   force =    -0.00134781    0.00378493    0.00111629
     atom   15 type  3   force =     0.00040064    0.00000000    0.00171113
     atom   16 type  3   force =     0.00004837    0.00000000   -0.00222978
     atom   17 type  3   force =    -0.00050434   -0.00626585    0.00046973
     atom   18 type  3   force =    -0.00050434    0.00626585    0.00046973
     atom   19 type  3   force =    -0.00122650    0.00000000   -0.00088425
     atom   20 type  3   force =     0.00092082    0.00000000   -0.00268897
     atom   21 type  1   force =     0.00024308    0.00000000    0.00052764

     Total force =     0.012948     Total SCF correction =     0.004001
     SCF correction compared to forces is large: reduce conv_thr to get better values

     Writing all to output data dir ./tmp_s0_OOH__u150/s0_OOH__u150.save/ :
     XML data file, charge density, pseudopotentials, collected wavefunctions

     init_run     :      2.22s CPU      2.37s WALL (       1 calls)
     electrons    :     45.26s CPU     45.98s WALL (       1 calls)
     forces       :      1.20s CPU      1.22s WALL (       1 calls)

     Called by init_run:
     wfcinit      :      0.73s CPU      0.78s WALL (       1 calls)
     potinit      :      0.75s CPU      0.77s WALL (       1 calls)
     hinit0       :      0.42s CPU      0.47s WALL (       1 calls)

     Called by electrons:
     c_bands      :     34.17s CPU     34.59s WALL (      20 calls)
     sum_band     :      6.79s CPU      6.92s WALL (      20 calls)
     v_of_rho     :      1.14s CPU      1.17s WALL (      21 calls)
     newd         :      0.31s CPU      0.31s WALL (      21 calls)
     PAW_pot      :      0.74s CPU      0.76s WALL (      21 calls)
     mix_rho      :      1.95s CPU      1.98s WALL (      20 calls)

     Called by c_bands:
     init_us_2    :      0.72s CPU      0.73s WALL (     176 calls)
     cegterg      :     30.70s CPU     31.08s WALL (      80 calls)

     Called by *egterg:
     cdiaghg      :      3.73s CPU      3.75s WALL (     324 calls)
     h_psi        :     19.83s CPU     20.14s WALL (     328 calls)
     s_psi        :      1.40s CPU      1.41s WALL (     336 calls)
     g_psi        :      0.09s CPU      0.09s WALL (     244 calls)

     Called by h_psi:
     h_psi:calbec :      1.87s CPU      1.89s WALL (     328 calls)
     vloc_psi     :     15.69s CPU     15.95s WALL (     328 calls)
                                        0.00s GPU  (     328 calls)
     add_vuspsi   :      1.33s CPU      1.34s WALL (     328 calls)
     vhpsi        :      0.80s CPU      0.80s WALL (     328 calls)

     General routines
     calbec       :      4.22s CPU      4.27s WALL (    1852 calls)
     fft          :      1.23s CPU      1.28s WALL (     282 calls)
     ffts         :      1.55s CPU      1.57s WALL (    2368 calls)
     fftw         :     18.53s CPU     18.81s WALL (   45528 calls)
     interpolate  :      0.46s CPU      0.46s WALL (      21 calls)

     Parallel routines

     Hubbard U routines
     new_ns       :      0.51s CPU      0.53s WALL (      20 calls)
     vhpsi        :      0.80s CPU      0.80s WALL (     328 calls)
     force_hub    :      0.61s CPU      0.63s WALL (       1 calls)

     PWSCF        :     49.09s CPU     50.54s WALL


   This run was terminated on:   8:34:45  28Aug2026            

=------------------------------------------------------------------------------=
   JOB DONE.
=------------------------------------------------------------------------------=
