
     Program PWSCF v.7.5 starts on 28Aug2026 at  8:22:30 

     This program is part of the open-source Quantum ESPRESSO suite
     for quantum simulation of materials; please cite
         "P. Giannozzi et al., J. Phys.:Condens. Matter 21 395502 (2009);
         "P. Giannozzi et al., J. Phys.:Condens. Matter 29 465901 (2017);
         "P. Giannozzi et al., J. Chem. Phys. 152 154105 (2020);
          URL http://www.quantum-espresso.org", 
     in publications or presentations arising from this work. More details at
     http://www.quantum-espresso.org/quote

     Parallel version (MPI & OpenMP), running on     128 processor cores
     Number of MPI processes:               128
     Threads/MPI process:                     1

     MPI processes distributed on     1 nodes
     225198 MiB available memory on the printing compute node when the environment starts

     Reading input from s0_OH__u450.run.in

     Current dimensions of program PWSCF are:
     Max number of different atomic species (ntypx) = 10
     Max number of k-points (npk) =  40000
     Max angular momentum in pseudopotentials (lmaxx) =  4
     file O.pbe-n-kjpaw_psl.0.1.UPF: wavefunction(s)  2P renormalized
     Message from routine setup:
     using ibrav=0 with symmetry is DISCOURAGED, use correct ibrav instead

     K-points division:     npool     =       4
     R & G space division:  proc/nbgrp/npool/nimage =      32
     Subspace diagonalization in iterative solution of the eigenvalue problem:
     a serial algorithm will be used


     Parallelization info
     --------------------
     sticks:   dense  smooth     PW     G-vecs:    dense   smooth      PW
     Min         112      56     16                28918    10208    1540
     Max         113      57     17                28934    10234    1560
     Sum        3587    1793    513               925697   327113   49625

     Using Slab Decomposition



     bravais-lattice index     =            0
     lattice parameter (alat)  =       5.8714  a.u.
     unit-cell volume          =    3384.5999 (a.u.)^3
     number of atoms/cell      =           20
     number of atomic types    =            3
     number of electrons       =       175.00
     number of Kohn-Sham states=          106
     kinetic-energy cutoff     =      80.0000  Ry
     charge density cutoff     =     640.0000  Ry
     scf convergence threshold =      1.0E-06
     mixing beta               =       0.3000
     number of iterations used =            8  local-TF  mixing
     Exchange-correlation= SLA  PW   PBX  PBC
                           (   1   4   3   4   0   0   0)
     Hubbard projectors: atomic
     Hubbard parameters of DFT+U (Dudarev formulation) in eV:
     U(Ru-4d) =  4.5000

     Internal variables: lda_plus_u =T, lda_plus_u_kind = 0

     Internal variables: orbital_resolved =F, hub_pot_fix =F, apply_U = F

     celldm(1)=   5.871379  celldm(2)=   0.000000  celldm(3)=   0.000000
     celldm(4)=   0.000000  celldm(5)=   0.000000  celldm(6)=   0.000000

     crystal axes: (cart. coord. in units of alat)
               a(1) = (   1.000000   0.000000   0.000000 )  
               a(2) = (   0.000000   2.044624   0.000000 )  
               a(3) = (   0.000000   0.000000   8.178497 )  

     reciprocal axes: (cart. coord. in units 2 pi/alat)
               b(1) = (  1.000000  0.000000  0.000000 )  
               b(2) = (  0.000000  0.489087  0.000000 )  
               b(3) = (  0.000000  0.000000  0.122272 )  


     PseudoPot. # 1 for H  read from file:
     /anvil/projects/x-che260157/pseudo/H.pbe-rrkjus_psl.1.0.0.UPF
     MD5 check sum: f52b6d4d1c606e5624b1dc7b2218f220
     Pseudo is Ultrasoft, Zval =  1.0
     Generated using "atomic" code by A. Dal Corso  v.5.1
     Using radial grid of  929 points,  2 beta functions with: 
                l(1) =   0
                l(2) =   0
     Q(r) pseudized with 0 coefficients 


     PseudoPot. # 2 for Ru read from file:
     /anvil/projects/x-che260157/pseudo/Ru_ONCV_PBE-1.0.oncvpsp.upf
     MD5 check sum: be037bb81c227cfb9b1461a9f099f4bd
     Pseudo is Norm-conserving, Zval = 16.0
     Generated using ONCVPSP code by D. R. Hamann
     Using radial grid of 1458 points,  6 beta functions with: 
                l(1) =   0
                l(2) =   0
                l(3) =   1
                l(4) =   1
                l(5) =   2
                l(6) =   2

     PseudoPot. # 3 for O  read from file:
     /anvil/projects/x-che260157/pseudo/O.pbe-n-kjpaw_psl.0.1.UPF
     MD5 check sum: 0234752ac141de4415c5fc33072bef88
     Pseudo is Projector augmented-wave + core cor, Zval =  6.0
     Generated using "atomic" code by A. Dal Corso  v.5.0.99 svn rev. 10869
     Shape of augmentation charge: BESSEL
     Using radial grid of 1095 points,  4 beta functions with: 
                l(1) =   0
                l(2) =   0
                l(3) =   1
                l(4) =   1
     Q(r) pseudized with 0 coefficients 


     atomic species   valence    mass     pseudopotential
     H                 1.00     1.00800     H ( 1.00)
     Ru               16.00   101.07000     Ru( 1.00)
     O                 6.00    15.99900     O ( 1.00)

      2 Sym. Ops. (no inversion) found ( 1 have fractional translation)



   Cartesian axes

     site n.     atom                  positions (alat units)
         1        Ru     tau(   1) = (   0.0000000   0.5111560   3.0669363  )
         2        Ru     tau(   2) = (   0.5000000   1.5334681   3.0669363  )
         3        Ru     tau(   3) = (  -0.0006221   1.5334681   4.1058017  )
         4        Ru     tau(   4) = (   0.4990454   0.5111560   4.0846743  )
         5        Ru     tau(   5) = (  -0.0030127   0.5111560   5.1199908  )
         6        Ru     tau(   6) = (   0.4953194   1.5334681   5.1556333  )
         7        O      tau(   7) = (   0.0000000   1.5334681   3.4656380  )
         8        O      tau(   8) = (   0.0000000   1.5334681   2.6682346  )
         9        O      tau(   9) = (   0.5000000   0.1124543   3.0669363  )
        10        O      tau(  10) = (   0.5000000   0.9098578   3.0669363  )
        11        O      tau(  11) = (  -0.0020184   0.5111560   4.4919854  )
        12        O      tau(  12) = (   0.0000000   0.5111560   3.6905466  )
        13        O      tau(  13) = (   0.4993872   1.1375269   4.0986622  )
        14        O      tau(  14) = (   0.4993872   1.9294094   4.0986622  )
        15        O      tau(  15) = (  -0.0048095   1.5334681   5.5072493  )
        16        O      tau(  16) = (  -0.0034309   1.5334681   4.7292681  )
        17        O      tau(  17) = (   0.4957213   0.1173129   5.1226215  )
        18        O      tau(  18) = (   0.4957213   0.9049992   5.1226215  )
        19        O      tau(  19) = (  -0.0263874   0.5111560   5.7402711  )
        20        H      tau(  20) = (   0.2647104   0.5111560   5.8625747  )

     number of k points=    15  Marzari-Vanderbilt smearing, width (Ry)=  0.0100
                       cart. coord. in units 2pi/alat
        k(    1) = (   0.0000000   0.0000000   0.0000000), wk =   0.0625000
        k(    2) = (   0.0000000   0.1222719   0.0000000), wk =   0.1250000
        k(    3) = (   0.0000000  -0.2445437   0.0000000), wk =   0.0625000
        k(    4) = (   0.1250000   0.0000000   0.0000000), wk =   0.1250000
        k(    5) = (   0.1250000   0.1222719   0.0000000), wk =   0.2500000
        k(    6) = (   0.1250000  -0.2445437   0.0000000), wk =   0.1250000
        k(    7) = (   0.2500000   0.0000000   0.0000000), wk =   0.1250000
        k(    8) = (   0.2500000   0.1222719   0.0000000), wk =   0.2500000
        k(    9) = (   0.2500000  -0.2445437   0.0000000), wk =   0.1250000
        k(   10) = (   0.3750000   0.0000000   0.0000000), wk =   0.1250000
        k(   11) = (   0.3750000   0.1222719   0.0000000), wk =   0.2500000
        k(   12) = (   0.3750000  -0.2445437   0.0000000), wk =   0.1250000
        k(   13) = (  -0.5000000   0.0000000   0.0000000), wk =   0.0625000
        k(   14) = (  -0.5000000   0.1222719   0.0000000), wk =   0.1250000
        k(   15) = (  -0.5000000  -0.2445437   0.0000000), wk =   0.0625000

     Dense  grid:   925697 G-vectors     FFT dimensions: (  48, 100, 400)

     Smooth grid:   327113 G-vectors     FFT dimensions: (  36,  72, 288)

     Estimated max dynamical RAM per process >      56.26 MB

     Estimated total dynamical RAM >       6.37 GB

     Initial potential from superposition of free atoms

     starting charge     174.9967, renormalised to     175.0000

     negative rho (up, down):  8.199E-05 0.000E+00

     STARTING HUBBARD OCCUPATIONS:

     =================== HUBBARD OCCUPATIONS ===================
     ------------------------ ATOM    1 ------------------------
     Tr[ns(  1)] =   6.00000
     eigenvalues:
       0.600  0.600  0.600  0.600  0.600
     eigenvectors (columns):
       1.000  0.000  0.000  0.000  0.000
       0.000  1.000  0.000  0.000  0.000
       0.000  0.000  1.000  0.000  0.000
       0.000  0.000  0.000  1.000  0.000
       0.000  0.000  0.000  0.000  1.000
     occupation matrix ns (before diag.):
       0.600  0.000  0.000  0.000  0.000
       0.000  0.600  0.000  0.000  0.000
       0.000  0.000  0.600  0.000  0.000
       0.000  0.000  0.000  0.600  0.000
       0.000  0.000  0.000  0.000  0.600
     ------------------------ ATOM    2 ------------------------
     Tr[ns(  2)] =   6.00000
     eigenvalues:
       0.600  0.600  0.600  0.600  0.600
     eigenvectors (columns):
       1.000  0.000  0.000  0.000  0.000
       0.000  1.000  0.000  0.000  0.000
       0.000  0.000  1.000  0.000  0.000
       0.000  0.000  0.000  1.000  0.000
       0.000  0.000  0.000  0.000  1.000
     occupation matrix ns (before diag.):
       0.600  0.000  0.000  0.000  0.000
       0.000  0.600  0.000  0.000  0.000
       0.000  0.000  0.600  0.000  0.000
       0.000  0.000  0.000  0.600  0.000
       0.000  0.000  0.000  0.000  0.600
     ------------------------ ATOM    3 ------------------------
     Tr[ns(  3)] =   6.00000
     eigenvalues:
       0.600  0.600  0.600  0.600  0.600
     eigenvectors (columns):
       1.000  0.000  0.000  0.000  0.000
       0.000  1.000  0.000  0.000  0.000
       0.000  0.000  1.000  0.000  0.000
       0.000  0.000  0.000  1.000  0.000
       0.000  0.000  0.000  0.000  1.000
     occupation matrix ns (before diag.):
       0.600  0.000  0.000  0.000  0.000
       0.000  0.600  0.000  0.000  0.000
       0.000  0.000  0.600  0.000  0.000
       0.000  0.000  0.000  0.600  0.000
       0.000  0.000  0.000  0.000  0.600
     ------------------------ ATOM    4 ------------------------
     Tr[ns(  4)] =   6.00000
     eigenvalues:
       0.600  0.600  0.600  0.600  0.600
     eigenvectors (columns):
       1.000  0.000  0.000  0.000  0.000
       0.000  1.000  0.000  0.000  0.000
       0.000  0.000  1.000  0.000  0.000
       0.000  0.000  0.000  1.000  0.000
       0.000  0.000  0.000  0.000  1.000
     occupation matrix ns (before diag.):
       0.600  0.000  0.000  0.000  0.000
       0.000  0.600  0.000  0.000  0.000
       0.000  0.000  0.600  0.000  0.000
       0.000  0.000  0.000  0.600  0.000
       0.000  0.000  0.000  0.000  0.600
     ------------------------ ATOM    5 ------------------------
     Tr[ns(  5)] =   6.00000
     eigenvalues:
       0.600  0.600  0.600  0.600  0.600
     eigenvectors (columns):
       1.000  0.000  0.000  0.000  0.000
       0.000  1.000  0.000  0.000  0.000
       0.000  0.000  1.000  0.000  0.000
       0.000  0.000  0.000  1.000  0.000
       0.000  0.000  0.000  0.000  1.000
     occupation matrix ns (before diag.):
       0.600  0.000  0.000  0.000  0.000
       0.000  0.600  0.000  0.000  0.000
       0.000  0.000  0.600  0.000  0.000
       0.000  0.000  0.000  0.600  0.000
       0.000  0.000  0.000  0.000  0.600
     ------------------------ ATOM    6 ------------------------
     Tr[ns(  6)] =   6.00000
     eigenvalues:
       0.600  0.600  0.600  0.600  0.600
     eigenvectors (columns):
       1.000  0.000  0.000  0.000  0.000
       0.000  1.000  0.000  0.000  0.000
       0.000  0.000  1.000  0.000  0.000
       0.000  0.000  0.000  1.000  0.000
       0.000  0.000  0.000  0.000  1.000
     occupation matrix ns (before diag.):
       0.600  0.000  0.000  0.000  0.000
       0.000  0.600  0.000  0.000  0.000
       0.000  0.000  0.600  0.000  0.000
       0.000  0.000  0.000  0.600  0.000
       0.000  0.000  0.000  0.000  0.600

     Number of occupied Hubbard levels =   36.0000

     Atomic wfc used for Hubbard projectors are NOT orthogonalized

     Starting wfcs are  113 randomized atomic wfcs
     Checking if some PAW data can be deallocated... 

     total cpu time spent up to now is        2.8 secs

     per-process dynamical memory:    98.8 Mb

     Self-consistent Calculation

     iteration #  1     ecut=    80.00 Ry     beta= 0.30
     Davidson diagonalization with overlap
     ethr =  1.00E-02,  avg # of iterations =  2.0

     =================== HUBBARD OCCUPATIONS ===================
     ------------------------ ATOM    1 ------------------------
     Tr[ns(  1)] =   6.69744
     eigenvalues:
       0.452  0.493  0.667  0.767  0.969
     eigenvectors (columns):
       0.998  0.000  0.000  0.000 -0.065
       0.000 -0.000 -0.000 -1.000  0.000
       0.000  0.000 -1.000  0.000 -0.000
      -0.065  0.000  0.000 -0.000 -0.998
      -0.000  1.000  0.000 -0.000  0.000
     occupation matrix ns (before diag.):
       0.454 -0.000 -0.000  0.033  0.000
      -0.000  0.767 -0.000 -0.000  0.000
      -0.000 -0.000  0.667  0.000 -0.000
       0.033 -0.000  0.000  0.967 -0.000
       0.000  0.000 -0.000 -0.000  0.493
     ------------------------ ATOM    2 ------------------------
     Tr[ns(  2)] =   6.59860
     eigenvalues:
       0.515  0.542  0.623  0.726  0.893
     eigenvectors (columns):
       0.000  0.431  0.000 -0.000 -0.903
       1.000 -0.000 -0.000  0.000  0.000
       0.000 -0.000  1.000 -0.000  0.000
       0.000  0.903  0.000 -0.000  0.431
      -0.000  0.000  0.000  1.000 -0.000
     occupation matrix ns (before diag.):
       0.828 -0.000 -0.000 -0.136  0.000
      -0.000  0.515 -0.000  0.000  0.000
      -0.000 -0.000  0.623  0.000 -0.000
      -0.136  0.000  0.000  0.607 -0.000
       0.000  0.000 -0.000 -0.000  0.726
     ------------------------ ATOM    3 ------------------------
     Tr[ns(  3)] =   6.81769
     eigenvalues:
       0.498  0.522  0.663  0.753  0.974
     eigenvectors (columns):
      -0.000 -0.997 -0.000  0.003 -0.073
      -0.000 -0.003  0.000 -1.000  0.000
      -0.000 -0.000  1.000  0.000 -0.000
       0.000  0.073 -0.000 -0.001 -0.997
       1.000 -0.000  0.000 -0.000  0.000
     occupation matrix ns (before diag.):
       0.524 -0.001 -0.000  0.033  0.000
      -0.001  0.753 -0.000 -0.000  0.000
      -0.000 -0.000  0.663  0.000  0.000
       0.033 -0.000  0.000  0.971 -0.000
       0.000  0.000  0.000 -0.000  0.498
     ------------------------ ATOM    4 ------------------------
     Tr[ns(  4)] =   6.83337
     eigenvalues:
       0.497  0.527  0.663  0.774  0.955
     eigenvectors (columns):
       0.007  0.455 -0.000 -0.000  0.891
       1.000 -0.017  0.000  0.000  0.001
       0.000 -0.000 -1.000  0.015 -0.000
       0.016  0.890 -0.000  0.000 -0.455
      -0.000  0.000  0.015  1.000  0.000
     occupation matrix ns (before diag.):
       0.866  0.000 -0.000 -0.173  0.000
       0.000  0.497 -0.000 -0.001  0.000
      -0.000 -0.000  0.663  0.000  0.002
      -0.173 -0.001  0.000  0.616 -0.000
       0.000  0.000  0.002 -0.000  0.774
     ------------------------ ATOM    5 ------------------------
     Tr[ns(  5)] =   6.75667
     eigenvalues:
       0.499  0.531  0.602  0.780  0.966
     eigenvectors (columns):
      -0.000  0.997  0.000  0.015 -0.071
      -0.000  0.014 -0.000 -1.000 -0.005
       0.003  0.000 -1.000  0.000 -0.000
       0.000 -0.072  0.000  0.004 -0.997
       1.000  0.000  0.003 -0.000  0.000
     occupation matrix ns (before diag.):
       0.534 -0.003 -0.000  0.031  0.000
      -0.003  0.780 -0.000  0.001  0.000
      -0.000 -0.000  0.602  0.000 -0.000
       0.031  0.001  0.000  0.964 -0.000
       0.000  0.000 -0.000 -0.000  0.499
     ------------------------ ATOM    6 ------------------------
     Tr[ns(  6)] =   6.07533
     eigenvalues:
       0.514  0.525  0.621  0.675  0.702
     eigenvectors (columns):
       0.015  0.586 -0.000  0.811  0.000
       1.000 -0.027  0.000  0.001  0.000
       0.000 -0.000 -1.000 -0.000  0.018
       0.022  0.810  0.000 -0.586 -0.000
      -0.000  0.000  0.018 -0.000  1.000
     occupation matrix ns (before diag.):
       0.623 -0.000 -0.000 -0.071  0.000
      -0.000  0.514 -0.000 -0.000  0.000
      -0.000 -0.000  0.621  0.000  0.001
      -0.071 -0.000  0.000  0.577 -0.000
       0.000  0.000  0.001 -0.000  0.702

     Number of occupied Hubbard levels =   39.7791

     negative rho (up, down):  1.167E-05 0.000E+00

     total cpu time spent up to now is        8.4 secs

     total energy              =   -1671.55363869 Ry
     estimated scf accuracy    <       3.90175774 Ry

     iteration #  2     ecut=    80.00 Ry     beta= 0.30
     Davidson diagonalization with overlap
     ethr =  2.23E-03,  avg # of iterations =  1.3

     negative rho (up, down):  4.099E-07 0.000E+00

     total cpu time spent up to now is       10.6 secs

     total energy              =   -1671.62781211 Ry
     estimated scf accuracy    <       0.95341446 Ry

     iteration #  3     ecut=    80.00 Ry     beta= 0.30
     Davidson diagonalization with overlap
     ethr =  5.45E-04,  avg # of iterations =  2.0

     total cpu time spent up to now is       12.7 secs

     total energy              =   -1671.75818011 Ry
     estimated scf accuracy    <       0.73464817 Ry

     iteration #  4     ecut=    80.00 Ry     beta= 0.30
     Davidson diagonalization with overlap
     ethr =  4.20E-04,  avg # of iterations =  1.0

     total cpu time spent up to now is       14.6 secs

     total energy              =   -1671.76475508 Ry
     estimated scf accuracy    <       0.24715427 Ry

     iteration #  5     ecut=    80.00 Ry     beta= 0.30
     Davidson diagonalization with overlap
     ethr =  1.41E-04,  avg # of iterations =  1.1

     total cpu time spent up to now is       16.5 secs

     total energy              =   -1671.76531020 Ry
     estimated scf accuracy    <       0.10060151 Ry

     iteration #  6     ecut=    80.00 Ry     beta= 0.30
     Davidson diagonalization with overlap
     ethr =  5.75E-05,  avg # of iterations =  2.3

     total cpu time spent up to now is       18.6 secs

     total energy              =   -1671.76231592 Ry
     estimated scf accuracy    <       0.04785156 Ry

     iteration #  7     ecut=    80.00 Ry     beta= 0.30
     Davidson diagonalization with overlap
     ethr =  2.73E-05,  avg # of iterations =  2.1

     total cpu time spent up to now is       21.6 secs

     total energy              =   -1671.76204315 Ry
     estimated scf accuracy    <       0.03197589 Ry

     iteration #  8     ecut=    80.00 Ry     beta= 0.30
     Davidson diagonalization with overlap
     ethr =  1.83E-05,  avg # of iterations =  2.5

     total cpu time spent up to now is       23.8 secs

     total energy              =   -1671.76059108 Ry
     estimated scf accuracy    <       0.01737114 Ry

     iteration #  9     ecut=    80.00 Ry     beta= 0.30
     Davidson diagonalization with overlap
     ethr =  9.93E-06,  avg # of iterations =  2.8

     total cpu time spent up to now is       25.9 secs

     total energy              =   -1671.76021900 Ry
     estimated scf accuracy    <       0.00798368 Ry

     iteration # 10     ecut=    80.00 Ry     beta= 0.30
     Davidson diagonalization with overlap
     ethr =  4.56E-06,  avg # of iterations =  4.0

     negative rho (up, down):  4.223E-05 0.000E+00

     total cpu time spent up to now is       28.2 secs

     total energy              =   -1671.75929263 Ry
     estimated scf accuracy    <       0.00628050 Ry

     iteration # 11     ecut=    80.00 Ry     beta= 0.30
     Davidson diagonalization with overlap
     ethr =  3.59E-06,  avg # of iterations =  2.0

     negative rho (up, down):  2.988E-03 0.000E+00

     total cpu time spent up to now is       30.7 secs

     total energy              =   -1671.75882577 Ry
     estimated scf accuracy    <       0.00369384 Ry

     iteration # 12     ecut=    80.00 Ry     beta= 0.30
     Davidson diagonalization with overlap
     ethr =  2.11E-06,  avg # of iterations =  4.4

     negative rho (up, down):  5.269E-03 0.000E+00

     total cpu time spent up to now is       33.1 secs

     total energy              =   -1671.75873187 Ry
     estimated scf accuracy    <       0.00200056 Ry

     iteration # 13     ecut=    80.00 Ry     beta= 0.30
     Davidson diagonalization with overlap
     ethr =  1.14E-06,  avg # of iterations =  3.1

     negative rho (up, down):  4.922E-03 0.000E+00

     total cpu time spent up to now is       35.3 secs

     total energy              =   -1671.75856691 Ry
     estimated scf accuracy    <       0.00130020 Ry

     iteration # 14     ecut=    80.00 Ry     beta= 0.30
     Davidson diagonalization with overlap
     ethr =  7.43E-07,  avg # of iterations =  2.2

     negative rho (up, down):  7.773E-03 0.000E+00

     total cpu time spent up to now is       37.4 secs

     total energy              =   -1671.75852471 Ry
     estimated scf accuracy    <       0.00066907 Ry

     iteration # 15     ecut=    80.00 Ry     beta= 0.30
     Davidson diagonalization with overlap
     ethr =  3.82E-07,  avg # of iterations =  4.7

     negative rho (up, down):  5.751E-03 0.000E+00

     total cpu time spent up to now is       40.3 secs

     total energy              =   -1671.75855446 Ry
     estimated scf accuracy    <       0.00025497 Ry

     iteration # 16     ecut=    80.00 Ry     beta= 0.30
     Davidson diagonalization with overlap
     ethr =  1.46E-07,  avg # of iterations =  1.3

     negative rho (up, down):  4.473E-03 0.000E+00

     total cpu time spent up to now is       42.2 secs

     total energy              =   -1671.75858696 Ry
     estimated scf accuracy    <       0.00008674 Ry

     iteration # 17     ecut=    80.00 Ry     beta= 0.30
     Davidson diagonalization with overlap
     ethr =  4.96E-08,  avg # of iterations =  1.1

     negative rho (up, down):  1.367E-03 0.000E+00

     total cpu time spent up to now is       44.1 secs

     total energy              =   -1671.75858662 Ry
     estimated scf accuracy    <       0.00004210 Ry

     iteration # 18     ecut=    80.00 Ry     beta= 0.30
     Davidson diagonalization with overlap
     ethr =  2.41E-08,  avg # of iterations =  3.2

     negative rho (up, down):  9.313E-04 0.000E+00

     total cpu time spent up to now is       46.3 secs

     total energy              =   -1671.75859421 Ry
     estimated scf accuracy    <       0.00000824 Ry

     iteration # 19     ecut=    80.00 Ry     beta= 0.30
     Davidson diagonalization with overlap
     ethr =  4.71E-09,  avg # of iterations =  1.5

     negative rho (up, down):  5.522E-04 0.000E+00

     total cpu time spent up to now is       48.2 secs

     total energy              =   -1671.75859424 Ry
     estimated scf accuracy    <       0.00000671 Ry

     iteration # 20     ecut=    80.00 Ry     beta= 0.30
     Davidson diagonalization with overlap
     ethr =  3.84E-09,  avg # of iterations =  2.6

     negative rho (up, down):  2.580E-04 0.000E+00

     total cpu time spent up to now is       50.4 secs

     total energy              =   -1671.75859509 Ry
     estimated scf accuracy    <       0.00000161 Ry

     iteration # 21     ecut=    80.00 Ry     beta= 0.30
     Davidson diagonalization with overlap
     ethr =  9.22E-10,  avg # of iterations =  2.5

     negative rho (up, down):  1.027E-04 0.000E+00

     total cpu time spent up to now is       52.5 secs

     End of self-consistent calculation

     =================== HUBBARD OCCUPATIONS ===================
     ------------------------ ATOM    1 ------------------------
     Tr[ns(  1)] =   7.33486
     eigenvalues:
       0.499  0.532  0.792  0.873  0.972
     eigenvectors (columns):
       0.995  0.000  0.000 -0.000  0.096
       0.000 -0.000 -0.000  1.000  0.000
       0.000  0.000 -1.000 -0.000  0.000
      -0.096 -0.000  0.000 -0.000  0.995
      -0.000  1.000  0.000  0.000 -0.000
     occupation matrix ns (before diag.):
       0.503 -0.000 -0.000  0.045  0.000
      -0.000  0.873 -0.000  0.000  0.000
      -0.000 -0.000  0.792  0.000 -0.000
       0.045  0.000  0.000  0.968 -0.000
       0.000  0.000 -0.000 -0.000  0.532
     ------------------------ ATOM    2 ------------------------
     Tr[ns(  2)] =   7.30937
     eigenvalues:
       0.585  0.614  0.701  0.823  0.931
     eigenvectors (columns):
      -0.000  0.403 -0.000 -0.000  0.915
       1.000  0.000  0.000  0.000  0.000
       0.000 -0.000 -1.000  0.000 -0.000
      -0.000  0.915  0.000  0.000 -0.403
      -0.000  0.000  0.000  1.000  0.000
     occupation matrix ns (before diag.):
       0.880  0.000 -0.000 -0.117  0.000
       0.000  0.585 -0.000  0.000  0.000
      -0.000 -0.000  0.701  0.000  0.000
      -0.117  0.000  0.000  0.666 -0.000
       0.000  0.000  0.000 -0.000  0.823
     ------------------------ ATOM    3 ------------------------
     Tr[ns(  3)] =   7.34176
     eigenvalues:
       0.549  0.588  0.737  0.816  0.981
     eigenvectors (columns):
      -0.000 -0.996 -0.000  0.003 -0.090
      -0.000 -0.004  0.000 -1.000  0.002
      -0.000 -0.000  1.000  0.000 -0.000
       0.000  0.090 -0.000 -0.002 -0.996
       1.000 -0.000  0.000 -0.000  0.000
     occupation matrix ns (before diag.):
       0.591 -0.001 -0.000  0.035  0.000
      -0.001  0.816 -0.000 -0.000  0.000
      -0.000 -0.000  0.737  0.000  0.000
       0.035 -0.000  0.000  0.978 -0.000
       0.000  0.000  0.000 -0.000  0.549
     ------------------------ ATOM    4 ------------------------
     Tr[ns(  4)] =   7.35166
     eigenvalues:
       0.541  0.588  0.725  0.850  0.973
     eigenvectors (columns):
       0.008  0.431 -0.000 -0.000  0.902
       1.000 -0.020  0.000  0.000  0.001
       0.000 -0.000 -1.000  0.024 -0.000
       0.019  0.902  0.000  0.000 -0.431
      -0.000  0.000  0.024  1.000  0.000
     occupation matrix ns (before diag.):
       0.901 -0.000 -0.000 -0.150  0.000
      -0.000  0.541 -0.000 -0.001  0.000
      -0.000 -0.000  0.725  0.000  0.003
      -0.150 -0.001  0.000  0.659 -0.000
       0.000  0.000  0.003 -0.000  0.850
     ------------------------ ATOM    5 ------------------------
     Tr[ns(  5)] =   7.30327
     eigenvalues:
       0.557  0.611  0.643  0.859  0.981
     eigenvectors (columns):
      -0.000  0.993  0.000  0.014 -0.115
      -0.000  0.014 -0.000 -1.000 -0.003
       0.001  0.000 -1.000  0.000 -0.000
       0.000 -0.115 -0.000  0.001 -0.993
       1.000  0.000  0.001 -0.000  0.000
     occupation matrix ns (before diag.):
       0.616 -0.003 -0.000  0.042  0.000
      -0.003  0.859 -0.000  0.001  0.000
      -0.000 -0.000  0.643  0.000 -0.000
       0.042  0.001  0.000  0.976 -0.000
       0.000  0.000 -0.000 -0.000  0.557
     ------------------------ ATOM    6 ------------------------
     Tr[ns(  6)] =   7.32051
     eigenvalues:
       0.581  0.614  0.740  0.832  0.894
     eigenvectors (columns):
      -0.003  0.384 -0.000 -0.000 -0.923
      -1.000 -0.010  0.000  0.000 -0.001
      -0.000 -0.000 -1.000  0.018  0.000
      -0.010  0.923 -0.000  0.000  0.384
       0.000  0.000  0.018  1.000 -0.000
     occupation matrix ns (before diag.):
       0.852  0.000 -0.000 -0.099  0.000
       0.000  0.581 -0.000 -0.000  0.000
      -0.000 -0.000  0.740  0.000  0.002
      -0.099 -0.000  0.000  0.655 -0.000
       0.000  0.000  0.002 -0.000  0.832

     Number of occupied Hubbard levels =   43.9614

          k = 0.0000 0.0000 0.0000 ( 40831 PWs)   bands (ev):

   -71.9477 -71.6875 -71.6731 -71.5301 -71.5091 -71.1741 -42.1056 -41.9955
   -41.9826 -41.8890 -41.8590 -41.8257 -41.7983 -41.6573 -41.5375 -41.5001
   -41.4662 -41.4323 -41.4074 -41.3940 -41.3634 -41.3270 -41.0680 -41.0036
   -18.6968 -18.4658 -18.3358 -18.1589 -17.8984 -17.6879 -17.6512 -17.1226
   -16.9211 -16.8646 -16.8047 -16.7111 -15.9541  -7.6426  -7.5955  -7.5226
    -7.1509  -6.6158  -6.0829  -5.9747  -5.6033  -5.5718  -5.5168  -5.4002
    -5.3516  -5.2646  -5.0422  -5.0029  -4.1947  -3.5317  -3.3743  -3.1052
    -3.0323  -2.9932  -2.7744  -2.7663  -2.6521  -2.5080  -2.3484  -2.3020
    -2.1081  -1.9863  -1.9553  -1.8510  -1.5298  -1.4149  -1.2847  -1.2241
    -1.1930  -1.0812  -1.0118  -0.9963  -0.9831  -0.8543  -0.7156  -0.6753
    -0.6499  -0.5157  -0.4012  -0.2825   0.2514   0.3082   0.3103   0.7163
     0.8855   1.1082   1.7341   2.1391   2.4471   2.6360   2.7949   3.7135
     4.4793   5.0401   5.7007   5.7445   5.9152   6.1255   6.1395   6.1782
     6.3051   6.3579

          k = 0.0000 0.1223 0.0000 ( 40974 PWs)   bands (ev):

   -71.9470 -71.6872 -71.6725 -71.5298 -71.5084 -71.1738 -42.1044 -41.9956
   -41.9822 -41.8889 -41.8592 -41.8257 -41.7968 -41.6596 -41.5376 -41.5004
   -41.4661 -41.4324 -41.4075 -41.3938 -41.3660 -41.3273 -41.0681 -41.0051
   -18.5887 -18.3330 -18.2160 -18.1475 -17.8943 -17.6953 -17.6472 -17.1459
   -17.0862 -17.0294 -16.9952 -16.7114 -15.9527  -7.2736  -7.1955  -7.1332
    -7.0389  -6.6120  -6.0269  -5.7810  -5.5722  -5.4719  -5.4028  -5.3904
    -5.2166  -5.1174  -5.0352  -4.9303  -4.2484  -4.0391  -3.7955  -3.4939
    -3.4221  -3.2625  -3.1344  -3.0503  -2.9613  -2.8264  -2.7204  -2.6856
    -2.5521  -2.3953  -2.0527  -2.0258  -1.9031  -1.5836  -1.4156  -1.2642
    -1.2234  -0.9870  -0.8494  -0.6299  -0.4603  -0.4442  -0.3176  -0.1969
    -0.1770  -0.0414   0.0137   0.0606   0.2727   0.3254   0.4746   0.7011
     0.8726   1.1978   1.8052   1.8515   2.1836   2.5354   2.8885   4.1162
     4.8661   5.2462   5.7018   5.7424   5.8443   5.9432   5.9772   6.0760
     6.1413   6.4064

          k = 0.0000-0.2445 0.0000 ( 41014 PWs)   bands (ev):

   -71.9462 -71.6868 -71.6718 -71.5296 -71.5078 -71.1735 -42.1032 -41.9957
   -41.9818 -41.8889 -41.8593 -41.8258 -41.7953 -41.6620 -41.5376 -41.5006
   -41.4661 -41.4325 -41.4075 -41.3935 -41.3685 -41.3276 -41.0683 -41.0066
   -18.4303 -18.2682 -18.0967 -17.9546 -17.8732 -17.7692 -17.6354 -17.3004
   -17.2999 -17.2169 -17.0943 -16.7154 -15.9520  -7.1883  -6.6490  -6.6340
    -6.5744  -6.4191  -6.0223  -5.5683  -5.4066  -5.3095  -5.2345  -5.1687
    -5.1151  -5.0802  -5.0025  -4.9975  -4.4709  -4.3775  -4.3445  -4.2350
    -4.1581  -3.7690  -3.3580  -3.3168  -3.2897  -3.2363  -3.1907  -2.9307
    -2.7334  -2.4809  -1.9936  -1.8841  -1.7995  -1.5430  -1.4514  -1.2810
    -1.0220  -0.9808  -0.8856  -0.5868  -0.5285  -0.3941   0.0036   0.0786
     0.2136   0.2642   0.2918   0.3441   0.5675   0.6033   0.6540   0.8509
     1.1127   1.1441   1.5821   1.6223   2.1181   2.1531   3.0840   4.5971
     4.9742   5.5061   5.6365   5.6838   5.7513   5.8200   5.9526   5.9969
     6.1279   6.1411

          k = 0.1250 0.0000 0.0000 ( 40851 PWs)   bands (ev):

   -71.9446 -71.6843 -71.6700 -71.5268 -71.5059 -71.1709 -42.1035 -41.9939
   -41.9809 -41.9209 -41.8551 -41.8229 -41.7962 -41.6534 -41.5332 -41.4975
   -41.4955 -41.4387 -41.4287 -41.4244 -41.3594 -41.3567 -41.0985 -40.9992
   -18.5589 -18.3370 -18.2143 -18.0461 -17.7892 -17.6544 -17.5677 -17.1795
   -17.0057 -16.9507 -16.8967 -16.7999 -16.0112  -7.3736  -7.3353  -7.2677
    -6.9079  -6.4992  -5.9683  -5.8698  -5.7344  -5.5712  -5.5525  -5.3724
    -5.2399  -5.0405  -4.9805  -4.8613  -4.0377  -3.9181  -3.4445  -3.3232
    -3.2570  -3.0223  -2.9970  -2.9496  -2.8781  -2.6925  -2.6275  -2.6273
    -2.2291  -2.2250  -2.1185  -1.9528  -1.9213  -1.8664  -1.8157  -1.5652
    -1.4350  -1.0585  -0.9198  -0.6973  -0.6675  -0.5855  -0.4502  -0.4454
    -0.2705  -0.2325   0.0174   0.2101   0.2437   0.4341   0.5282   0.9415
     1.0806   1.1761   1.5808   1.9809   2.3025   2.6423   2.7704   3.8783
     4.5936   5.1196   5.3438   5.4408   5.7132   5.8152   5.8349   5.8616
     5.9988   6.4816

          k = 0.1250 0.1223 0.0000 ( 40932 PWs)   bands (ev):

   -71.9440 -71.6841 -71.6695 -71.5267 -71.5053 -71.1708 -42.1025 -41.9940
   -41.9805 -41.9209 -41.8553 -41.8229 -41.7950 -41.6552 -41.5332 -41.4977
   -41.4954 -41.4386 -41.4287 -41.4239 -41.3642 -41.3542 -41.0985 -41.0002
   -18.4573 -18.2111 -18.0954 -18.0387 -17.7820 -17.6487 -17.5741 -17.2060
   -17.1547 -17.0993 -17.0732 -16.8008 -16.0098  -7.0074  -6.9469  -6.8863
    -6.8057  -6.4947  -5.9350  -5.7407  -5.6025  -5.5540  -5.4315  -5.2657
    -5.2314  -5.0975  -4.8657  -4.7685  -4.1171  -3.9964  -3.9247  -3.6794
    -3.5337  -3.4021  -3.3126  -3.1848  -3.1742  -3.0471  -3.0056  -2.8841
    -2.8325  -2.6480  -2.0743  -2.0493  -1.9720  -1.8594  -1.6969  -1.3745
    -1.1955  -1.1059  -0.8708  -0.5517  -0.4046  -0.3508  -0.1418  -0.0865
     0.0167   0.1844   0.2287   0.2833   0.3869   0.5202   0.6636   0.9363
     1.1392   1.1917   1.6655   1.7427   2.0686   2.4142   2.9603   4.2242
     4.8722   5.1826   5.3105   5.3831   5.5885   5.6376   5.7284   5.7459
     5.9570   6.5121

          k = 0.1250-0.2445 0.0000 ( 40974 PWs)   bands (ev):

   -71.9433 -71.6839 -71.6689 -71.5266 -71.5047 -71.1706 -42.1015 -41.9940
   -41.9802 -41.9208 -41.8554 -41.8230 -41.7939 -41.6570 -41.5332 -41.4979
   -41.4953 -41.4386 -41.4288 -41.4235 -41.3673 -41.3533 -41.0985 -41.0013
   -18.3095 -18.1402 -17.9865 -17.8298 -17.7592 -17.6912 -17.5904 -17.3759
   -17.3578 -17.2811 -17.1516 -16.8051 -16.0088  -6.9317  -6.5035  -6.3739
    -6.3396  -6.1568  -5.9396  -5.6333  -5.4572  -5.3904  -5.2932  -5.2394
    -5.2164  -5.0229  -4.8098  -4.7544  -4.5058  -4.4136  -4.1748  -3.9873
    -3.9009  -3.8937  -3.8399  -3.6409  -3.5483  -3.4158  -3.3811  -3.0927
    -2.9852  -2.7599  -2.0521  -2.0007  -1.7923  -1.5977  -1.4590  -1.3205
    -1.1818  -1.0002  -0.8901  -0.5552  -0.3670  -0.1818  -0.0562  -0.0111
    -0.0035   0.1707   0.5009   0.7181   0.7716   0.9274   0.9313   0.9908
     1.1786   1.2658   1.5144   1.5665   1.9860   2.0381   3.1207   4.6670
     4.8988   4.9903   5.2062   5.2235   5.5421   5.5520   5.7181   5.8265
     6.0962   6.2451

          k = 0.2500 0.0000 0.0000 ( 40947 PWs)   bands (ev):

   -71.9387 -71.6787 -71.6645 -71.5210 -71.5002 -71.1652 -42.0981 -41.9941
   -41.9896 -41.9763 -41.8453 -41.8167 -41.7907 -41.6438 -41.5625 -41.5231
   -41.5082 -41.4945 -41.4907 -41.4297 -41.4154 -41.3497 -41.1685 -40.9883
   -18.2196 -18.0342 -17.9197 -17.8011 -17.6268 -17.5671 -17.3544 -17.2605
   -17.2051 -17.1512 -17.1105 -16.9948 -16.0895  -6.6948  -6.6566  -6.6019
    -6.3405  -6.1282  -5.9628  -5.9160  -5.8690  -5.6393  -5.5190  -5.3581
    -5.1731  -4.7829  -4.5937  -4.4441  -4.3851  -4.0230  -3.8804  -3.8503
    -3.7830  -3.6503  -3.5462  -3.3459  -3.0814  -2.8916  -2.8323  -2.8129
    -2.5846  -2.5703  -2.2621  -2.2557  -2.2156  -1.8450  -1.7739  -1.4819
    -1.3682  -1.2434  -1.0959  -0.8386  -0.3523  -0.3381  -0.2856  -0.0825
    -0.0635  -0.0337   0.4341   0.6899   0.7897   0.8447   0.9055   1.0187
     1.2593   1.3219   1.3576   1.6620   1.9667   2.2264   2.9213   4.1713
     4.4482   4.8458   5.0305   5.0672   5.2134   5.2763   5.2889   5.4429
     5.8516   6.2872

          k = 0.2500 0.1223 0.0000 ( 40905 PWs)   bands (ev):

   -71.9384 -71.6789 -71.6642 -71.5212 -71.4999 -71.1653 -42.0977 -41.9938
   -41.9896 -41.9763 -41.8454 -41.8167 -41.7906 -41.6444 -41.5623 -41.5231
   -41.5077 -41.4933 -41.4909 -41.4301 -41.4157 -41.3497 -41.1681 -40.9885
   -18.1444 -17.9463 -17.8237 -17.8104 -17.6326 -17.5529 -17.3688 -17.3052
   -17.2781 -17.2304 -17.2235 -16.9986 -16.0881  -6.3872  -6.3408  -6.2684
    -6.2366  -6.1300  -5.9261  -5.9074  -5.8564  -5.7113  -5.5423  -5.4802
    -4.9337  -4.7958  -4.5562  -4.4649  -4.2953  -4.2493  -4.1680  -4.1498
    -3.9348  -3.7725  -3.4357  -3.3498  -3.2440  -3.0958  -2.8970  -2.8840
    -2.8155  -2.6911  -2.4893  -2.2177  -2.1492  -2.0015  -1.8983  -1.5557
    -1.3404  -1.1233  -1.0391  -0.9521  -0.4384  -0.1262  -0.0316   0.1450
     0.2333   0.2674   0.4140   0.5237   0.8083   0.8727   0.9470   1.0142
     1.1896   1.4418   1.4804   1.6443   1.8611   2.0992   3.0279   4.3004
     4.3614   4.6123   4.7022   4.7833   5.0566   5.2631   5.5501   5.7801
     6.0148   6.3894

          k = 0.2500-0.2445 0.0000 ( 40892 PWs)   bands (ev):

   -71.9381 -71.6791 -71.6639 -71.5214 -71.4996 -71.1655 -42.0973 -41.9936
   -41.9897 -41.9762 -41.8455 -41.8167 -41.7905 -41.6449 -41.5620 -41.5230
   -41.5073 -41.4921 -41.4911 -41.4306 -41.4160 -41.3497 -41.1678 -40.9886
   -18.0324 -17.8707 -17.7879 -17.6785 -17.5669 -17.5600 -17.4731 -17.4342
   -17.4307 -17.3043 -17.2405 -17.0042 -16.0868  -6.3388  -6.1432  -5.9917
    -5.9231  -5.8773  -5.8557  -5.7272  -5.5561  -5.5503  -5.4618  -5.4284
    -5.0535  -5.0111  -4.9012  -4.7677  -4.6915  -4.3648  -4.2362  -4.1290
    -3.9692  -3.6218  -3.5381  -3.4787  -3.3277  -3.3125  -3.2743  -3.2490
    -3.0673  -2.8459  -2.3382  -2.2600  -2.0033  -1.8061  -1.6110  -1.5930
    -1.5212  -1.2167  -0.9943  -0.7055  -0.4099  -0.2825  -0.0241   0.1055
     0.1201   0.4829   0.6092   0.6636   0.8989   0.9315   1.0079   1.1228
     1.2315   1.5237   1.6402   1.7019   1.7753   1.9007   3.1188   4.0827
     4.2300   4.3584   4.4176   4.7308   5.0572   5.4593   5.5987   6.0557
     6.2101   6.3403

          k = 0.3750 0.0000 0.0000 ( 40852 PWs)   bands (ev):

   -71.9354 -71.6762 -71.6617 -71.5183 -71.4976 -71.1622 -42.0921 -42.0621
   -41.9849 -41.9712 -41.8354 -41.8104 -41.7847 -41.6341 -41.6244 -41.5725
   -41.5588 -41.5108 -41.5034 -41.4698 -41.4119 -41.3399 -41.2336 -40.9773
   -17.8823 -17.7867 -17.6378 -17.6306 -17.5569 -17.5151 -17.3979 -17.3436
   -17.3123 -17.2518 -17.1752 -17.0366 -16.0587  -6.5011  -6.2382  -6.1448
    -6.1041  -5.9362  -5.8282  -5.8147  -5.7858  -5.6013  -5.5400  -5.4256
    -5.1154  -4.7419  -4.6786  -4.5244  -4.4506  -4.3364  -4.0709  -3.9112
    -3.7727  -3.3427  -3.3312  -3.2466  -3.1977  -3.1552  -2.9592  -2.8215
    -2.6622  -2.5173  -2.3235  -2.2887  -2.1772  -2.0368  -1.6638  -1.5496
    -1.4274  -1.1935  -1.1549  -0.8463  -0.4134  -0.3663  -0.3112  -0.1702
    -0.0278   0.1574   0.2103   0.3695   0.6811   0.9353   0.9963   1.1396
     1.1447   1.5181   1.5339   1.6674   1.9397   2.0430   2.8517   3.7067
     4.4004   4.6497   4.7978   4.8713   4.8883   5.0735   5.1146   5.2774
     5.8870   5.9669

          k = 0.3750 0.1223 0.0000 ( 40842 PWs)   bands (ev):

   -71.9354 -71.6767 -71.6617 -71.5188 -71.4976 -71.1626 -42.0925 -42.0617
   -41.9849 -41.9716 -41.8354 -41.8104 -41.7861 -41.6335 -41.6240 -41.5715
   -41.5566 -41.5107 -41.5036 -41.4699 -41.4119 -41.3388 -41.2328 -40.9766
   -17.8739 -17.7892 -17.7271 -17.6907 -17.6174 -17.5757 -17.2869 -17.2601
   -17.2482 -17.2315 -17.1853 -17.0369 -16.0569  -6.5233  -6.3779  -6.2948
    -6.2147  -6.0549  -6.0086  -5.6768  -5.6259  -5.6045  -5.5907  -5.3991
    -4.9892  -4.5693  -4.4708  -4.3571  -4.2498  -4.1657  -4.0424  -3.8053
    -3.6941  -3.4834  -3.3436  -3.2695  -3.1553  -3.0712  -2.9007  -2.7841
    -2.7404  -2.6315  -2.4344  -2.2387  -2.1078  -1.9814  -1.8922  -1.5738
    -1.5144  -1.2266  -1.1790  -1.0260  -0.4422  -0.2547  -0.2078  -0.1291
    -0.0911  -0.0417   0.1275   0.2490   0.3163   0.4116   0.7240   1.1213
     1.5479   1.7222   1.7820   1.8895   1.9525   2.0141   2.9320   3.7085
     4.0101   4.1062   4.2604   4.4653   4.6867   5.5687   5.8380   5.9528
     6.1050   6.1737

          k = 0.3750-0.2445 0.0000 ( 40856 PWs)   bands (ev):

   -71.9354 -71.6772 -71.6616 -71.5192 -71.4976 -71.1631 -42.0929 -42.0614
   -41.9849 -41.9720 -41.8354 -41.8104 -41.7875 -41.6328 -41.6236 -41.5705
   -41.5544 -41.5106 -41.5037 -41.4700 -41.4119 -41.3377 -41.2320 -40.9759
   -17.8541 -17.8082 -17.7770 -17.7704 -17.6362 -17.6029 -17.2238 -17.2170
   -17.2123 -17.2028 -17.1768 -17.0376 -16.0551  -6.5688  -6.5005  -6.4911
    -6.2727  -6.1912  -6.0108  -5.6185  -5.5239  -5.4568  -5.4515  -5.3599
    -4.9940  -4.6108  -4.4680  -4.2221  -4.1312  -3.9993  -3.9225  -3.7551
    -3.5325  -3.4407  -3.2900  -3.1253  -3.0826  -2.9780  -2.9257  -2.9091
    -2.7799  -2.7200  -2.5304  -2.3015  -2.1342  -1.9529  -1.8369  -1.5997
    -1.5410  -1.2589  -1.2530  -0.9823  -0.7856  -0.6261  -0.4373  -0.1471
    -0.1244  -0.0095   0.0890   0.2453   0.2662   0.4156   0.6501   1.0130
     1.4711   1.7905   1.8862   2.0664   2.0924   2.1704   3.0057   3.5188
     3.7003   3.8220   3.8730   4.4925   4.6892   5.8663   5.8876   6.3097
     6.3795   6.5013

          k =-0.5000 0.0000 0.0000 ( 40876 PWs)   bands (ev):

   -71.9348 -71.6761 -71.6614 -71.5180 -71.4974 -71.1617 -42.0895 -42.0889
   -41.9828 -41.9689 -41.8313 -41.8077 -41.7820 -41.6486 -41.6300 -41.5976
   -41.5835 -41.5234 -41.5063 -41.4715 -41.4087 -41.3357 -41.2592 -40.9727
   -17.8476 -17.6322 -17.5740 -17.5644 -17.5181 -17.4758 -17.4626 -17.4217
   -17.3922 -17.2772 -17.1471 -16.9262 -16.0118  -6.7351  -6.4124  -6.2195
    -6.1359  -5.9796  -5.7677  -5.5584  -5.5446  -5.4712  -5.4160  -5.3157
    -5.2272  -4.9712  -4.8154  -4.6033  -4.4321  -4.0842  -3.6619  -3.6338
    -3.4286  -3.3540  -3.3337  -3.3068  -3.2940  -3.2612  -3.0887  -2.7584
    -2.4289  -2.3806  -2.2843  -2.2410  -2.0594  -1.7372  -1.6565  -1.5771
    -1.5128  -1.3806  -1.0477  -0.7922  -0.5692  -0.5285  -0.4443  -0.4045
    -0.2372  -0.2181  -0.1270   0.5047   0.6345   0.7787   0.9807   1.0204
     1.1630   1.3304   1.7429   1.7816   2.0914   2.2131   2.7855   3.4787
     4.3720   4.6116   4.6735   4.7499   4.8840   4.9682   5.0980   5.2621
     5.8732   5.9834

          k =-0.5000 0.1223 0.0000 ( 40858 PWs)   bands (ev):

   -71.9349 -71.6767 -71.6614 -71.5186 -71.4975 -71.1623 -42.0903 -42.0885
   -41.9828 -41.9695 -41.8313 -41.8077 -41.7843 -41.6481 -41.6289 -41.5964
   -41.5806 -41.5233 -41.5063 -41.4716 -41.4087 -41.3342 -41.2582 -40.9717
   -17.8451 -17.7582 -17.7474 -17.7220 -17.6243 -17.5673 -17.2759 -17.2111
   -17.2019 -17.1786 -17.1471 -16.9245 -16.0092  -6.7534  -6.6099  -6.5247
    -6.4114  -6.2810  -6.1318  -5.5718  -5.4479  -5.3800  -5.3703  -5.2245
    -4.8694  -4.6879  -4.4376  -4.3254  -4.2061  -3.8176  -3.7737  -3.5676
    -3.4524  -3.3726  -3.3652  -3.2249  -3.0732  -2.9653  -2.7508  -2.6323
    -2.5803  -2.3956  -2.3408  -2.1134  -2.0567  -1.9663  -1.7351  -1.5923
    -1.5554  -1.3016  -1.2762  -0.8977  -0.5997  -0.5306  -0.4431  -0.4111
    -0.3315  -0.2797  -0.2316  -0.1285  -0.0855   0.3265   0.4275   0.9393
     1.7271   1.8793   1.9500   1.9783   2.1295   2.1494   2.8684   3.5255
     3.8051   3.9346   4.1055   4.4090   4.6168   5.8860   5.9449   6.0193
     6.0367   6.1518

          k =-0.5000-0.2445 0.0000 ( 40872 PWs)   bands (ev):

   -71.9350 -71.6773 -71.6615 -71.5192 -71.4976 -71.1629 -42.0910 -42.0880
   -41.9828 -41.9701 -41.8313 -41.8077 -41.7866 -41.6477 -41.6278 -41.5951
   -41.5779 -41.5232 -41.5062 -41.4716 -41.4087 -41.3327 -41.2571 -40.9707
   -17.8577 -17.8533 -17.8426 -17.8281 -17.6148 -17.5738 -17.2743 -17.1579
   -17.0968 -17.0899 -17.0558 -16.9228 -16.0065  -6.8543  -6.7923  -6.7586
    -6.5777  -6.4064  -6.1688  -5.5459  -5.4087  -5.3584  -5.3496  -5.2510
    -4.8116  -4.7318  -4.4745  -3.8377  -3.7134  -3.6431  -3.4789  -3.3793
    -3.3293  -3.2039  -3.1520  -3.1225  -3.0174  -2.8298  -2.7085  -2.6282
    -2.6265  -2.4987  -2.2964  -2.1223  -2.0641  -1.8866  -1.7506  -1.6851
    -1.5100  -1.4251  -1.3619  -1.1318  -1.0131  -0.6993  -0.6201  -0.5347
    -0.4634  -0.3850  -0.3695  -0.3144  -0.2232  -0.1373   0.3311   0.9198
     1.6670   1.8919   2.0650   2.2265   2.3091   2.3239   2.9341   3.4157
     3.5536   3.5629   3.7309   4.4431   4.6210   6.0212   6.0832   6.3811
     6.4795   6.6203

     the Fermi energy is     1.0109 ev

!    total energy              =   -1671.75859471 Ry
     estimated scf accuracy    <       0.00000040 Ry
     smearing contrib. (-TS)   =      -0.00095147 Ry
     internal energy E=F+TS    =   -1671.75764325 Ry

     The total energy is F=E-TS. E is the sum of the following terms:
     one-electron contribution =  -16977.66855874 Ry
     hartree contribution      =    8515.03337734 Ry
     xc contribution           =    -215.02305167 Ry
     ewald contribution        =    7127.96989478 Ry
     Hubbard energy            =       1.70620540 Ry
     one-center paw contrib.   =    -123.77551035 Ry

     convergence has been achieved in  21 iterations

     negative rho (up, down):  1.027E-04 0.000E+00
     force_hub    :      0.54s CPU      0.55s WALL (       1 calls)
     dndtau       :      0.43s CPU      0.43s WALL (     240 calls)
     dprojdtau    :      0.05s CPU      0.05s WALL (    1440 calls)
     matel_dSdtau :      0.36s CPU      0.37s WALL (     240 calls)

     Forces acting on atoms (cartesian axes, Ry/au):

     atom    1 type  2   force =    -0.00001234    0.00000000    0.07987273
     atom    2 type  2   force =    -0.00000583    0.00000000   -0.07978829
     atom    3 type  2   force =    -0.00050838    0.00000000   -0.00360456
     atom    4 type  2   force =     0.00010228    0.00000000    0.00352361
     atom    5 type  2   force =    -0.00114963    0.00000000   -0.00068799
     atom    6 type  2   force =     0.00079310    0.00000000   -0.01904253
     atom    7 type  3   force =    -0.00003940    0.00000000    0.04140375
     atom    8 type  3   force =    -0.00001708    0.00000000    0.05405744
     atom    9 type  3   force =    -0.00000613   -0.00256111   -0.02300367
     atom   10 type  3   force =    -0.00000613    0.00256111   -0.02300367
     atom   11 type  3   force =     0.00063142    0.00000000    0.01303577
     atom   12 type  3   force =    -0.00117815    0.00000000   -0.03596743
     atom   13 type  3   force =    -0.00040942   -0.01262515   -0.00168282
     atom   14 type  3   force =    -0.00040942    0.01262515   -0.00168282
     atom   15 type  3   force =     0.00028315    0.00000000    0.01274969
     atom   16 type  3   force =     0.00030326    0.00000000   -0.00603215
     atom   17 type  3   force =    -0.00021338   -0.01398222    0.00091636
     atom   18 type  3   force =    -0.00021338    0.01398222    0.00091636
     atom   19 type  3   force =     0.00007644    0.00000000   -0.01319178
     atom   20 type  1   force =     0.00197902    0.00000000    0.00121202

     Total force =     0.040708     Total SCF correction =     0.001715

     Writing all to output data dir ./tmp_s0_OH__u450/s0_OH__u450.save/ :
     XML data file, charge density, pseudopotentials, collected wavefunctions

     init_run     :      2.19s CPU      2.29s WALL (       1 calls)
     electrons    :     48.97s CPU     50.33s WALL (       1 calls)
     forces       :      0.93s CPU      0.95s WALL (       1 calls)

     Called by init_run:
     wfcinit      :      0.75s CPU      0.79s WALL (       1 calls)
     potinit      :      0.48s CPU      0.49s WALL (       1 calls)
     hinit0       :      0.45s CPU      0.46s WALL (       1 calls)

     Called by electrons:
     c_bands      :     36.90s CPU     37.40s WALL (      21 calls)
     sum_band     :      7.68s CPU      7.83s WALL (      21 calls)
     v_of_rho     :      1.15s CPU      1.18s WALL (      22 calls)
     newd         :      0.27s CPU      0.27s WALL (      22 calls)
     PAW_pot      :      0.61s CPU      0.64s WALL (      22 calls)
     mix_rho      :      2.03s CPU      2.08s WALL (      21 calls)

     Called by c_bands:
     init_us_2    :      1.00s CPU      1.02s WALL (     184 calls)
     cegterg      :     32.79s CPU     33.23s WALL (      84 calls)

     Called by *egterg:
     cdiaghg      :      4.45s CPU      4.47s WALL (     431 calls)
     h_psi        :     21.27s CPU     21.61s WALL (     435 calls)
     s_psi        :      1.49s CPU      1.51s WALL (     443 calls)
     g_psi        :      0.09s CPU      0.09s WALL (     347 calls)

     Called by h_psi:
     h_psi:calbec :      1.94s CPU      1.96s WALL (     435 calls)
     vloc_psi     :     16.93s CPU     17.22s WALL (     435 calls)
                                        0.00s GPU  (     435 calls)
     add_vuspsi   :      1.43s CPU      1.44s WALL (     435 calls)
     vhpsi        :      0.74s CPU      0.75s WALL (     435 calls)

     General routines
     calbec       :      3.93s CPU      3.97s WALL (    2026 calls)
     fft          :      1.21s CPU      1.23s WALL (     295 calls)
     ffts         :      1.66s CPU      1.69s WALL (    2469 calls)
     fftw         :     19.58s CPU     19.90s WALL (   46674 calls)
     interpolate  :      0.47s CPU      0.47s WALL (      22 calls)

     Parallel routines

     Hubbard U routines
     new_ns       :      0.50s CPU      0.52s WALL (      21 calls)
     vhpsi        :      0.74s CPU      0.75s WALL (     435 calls)
     force_hub    :      0.54s CPU      0.55s WALL (       1 calls)

     PWSCF        :     52.64s CPU     54.83s WALL


   This run was terminated on:   8:23:24  28Aug2026            

=------------------------------------------------------------------------------=
   JOB DONE.
=------------------------------------------------------------------------------=
