
     Program PWSCF v.7.5 starts on  6Aug2026 at 23:51:56 

     This program is part of the open-source Quantum ESPRESSO suite
     for quantum simulation of materials; please cite
         "P. Giannozzi et al., J. Phys.:Condens. Matter 21 395502 (2009);
         "P. Giannozzi et al., J. Phys.:Condens. Matter 29 465901 (2017);
         "P. Giannozzi et al., J. Chem. Phys. 152 154105 (2020);
          URL http://www.quantum-espresso.org", 
     in publications or presentations arising from this work. More details at
     http://www.quantum-espresso.org/quote

     Parallel version (MPI & OpenMP), running on       4 processor cores
     Number of MPI processes:                 4
     Threads/MPI process:                     1

     MPI processes distributed on     1 nodes
     46022 MiB available memory on the printing compute node when the environment starts

     Reading input from s0_OOH__yaw270.run.in

     Current dimensions of program PWSCF are:
     Max number of different atomic species (ntypx) = 10
     Max number of k-points (npk) =  40000
     Max angular momentum in pseudopotentials (lmaxx) =  4
     file O.pbe-n-kjpaw_psl.0.1.UPF: wavefunction(s)  2P renormalized

     K-points division:     npool     =       4
     Subspace diagonalization in iterative solution of the eigenvalue problem:
     a serial algorithm will be used


     G-vector sticks info
     --------------------
     sticks:   dense  smooth     PW     G-vecs:    dense   smooth      PW
     Sum        3639    1825    519               941385   332621   50331

     Using Slab Decomposition



     bravais-lattice index     =            0
     lattice parameter (alat)  =       5.9602  a.u.
     unit-cell volume          =    3444.9838 (a.u.)^3
     number of atoms/cell      =           21
     number of atomic types    =            3
     number of electrons       =       175.00
     number of Kohn-Sham states=          106
     kinetic-energy cutoff     =      80.0000  Ry
     charge density cutoff     =     640.0000  Ry
     scf convergence threshold =      1.0E-06
     mixing beta               =       0.3000
     number of iterations used =            8  local-TF  mixing
     energy convergence thresh.=      1.0E-04
     force convergence thresh. =      2.0E-03
     Exchange-correlation= SLA  PW   PBX  PBC
                           (   1   4   3   4   0   0   0)
     nstep                     =          200


     celldm(1)=   5.960196  celldm(2)=   0.000000  celldm(3)=   0.000000
     celldm(4)=   0.000000  celldm(5)=   0.000000  celldm(6)=   0.000000

     crystal axes: (cart. coord. in units of alat)
               a(1) = (   1.000000   0.000000   0.000000 )  
               a(2) = (   0.000000   2.016846   0.000000 )  
               a(3) = (   0.000000   0.000000   8.067384 )  

     reciprocal axes: (cart. coord. in units 2 pi/alat)
               b(1) = (  1.000000  0.000000  0.000000 )  
               b(2) = (  0.000000  0.495824  0.000000 )  
               b(3) = (  0.000000  0.000000  0.123956 )  


     PseudoPot. # 1 for H  read from file:
     /usr/share/espresso/pseudo/H.pbe-rrkjus_psl.1.0.0.UPF
     MD5 check sum: f52b6d4d1c606e5624b1dc7b2218f220
     Pseudo is Ultrasoft, Zval =  1.0
     Generated using "atomic" code by A. Dal Corso  v.5.1
     Using radial grid of  929 points,  2 beta functions with: 
                l(1) =   0
                l(2) =   0
     Q(r) pseudized with 0 coefficients 


     PseudoPot. # 2 for Ir read from file:
     /usr/share/espresso/pseudo/Ir_pbe_v1.2.uspp.F.UPF
     MD5 check sum: 8836f839c3459d2b385c504ce6d91f2c
     Pseudo is Ultrasoft + core correction, Zval = 15.0
     Generated by new atomic code, or converted to UPF format
     Using radial grid of  983 points,  7 beta functions with: 
                l(1) =   0
                l(2) =   0
                l(3) =   1
                l(4) =   1
                l(5) =   1
                l(6) =   2
                l(7) =   2
     Q(r) pseudized with  8 coefficients,  rinner =    1.400   1.400   1.400
                                                       1.400   1.400

     PseudoPot. # 3 for O  read from file:
     /usr/share/espresso/pseudo/O.pbe-n-kjpaw_psl.0.1.UPF
     MD5 check sum: 0234752ac141de4415c5fc33072bef88
     Pseudo is Projector augmented-wave + core cor, Zval =  6.0
     Generated using "atomic" code by A. Dal Corso  v.5.0.99 svn rev. 10869
     Shape of augmentation charge: BESSEL
     Using radial grid of 1095 points,  4 beta functions with: 
                l(1) =   0
                l(2) =   0
                l(3) =   1
                l(4) =   1
     Q(r) pseudized with 0 coefficients 


     atomic species   valence    mass     pseudopotential
     H                 1.00     1.00800     H ( 1.00)
     Ir               15.00   192.21700     Ir( 1.00)
     O                 6.00    15.99900     O ( 1.00)

     No symmetry found



   Cartesian axes

     site n.     atom                  positions (alat units)
         1        Ir     tau(   1) = (   0.0000000   1.5126346   3.0252692  )
         2        Ir     tau(   2) = (   0.5000000   0.5042115   3.0252692  )
         3        Ir     tau(   3) = (  -0.0023840   0.5042115   4.0424363  )
         4        Ir     tau(   4) = (   0.4990610   1.5126346   4.0354930  )
         5        Ir     tau(   5) = (   0.0012848   1.5126346   5.0614101  )
         6        Ir     tau(   6) = (   0.4948989   0.5042115   5.0639483  )
         7        O      tau(   7) = (   0.0000000   0.5042115   3.4185541  )
         8        O      tau(   8) = (   0.0000000   0.5042115   2.6319842  )
         9        O      tau(   9) = (   0.5000000   1.1193496   3.0252692  )
        10        O      tau(  10) = (   0.5000000   1.9059196   3.0252692  )
        11        O      tau(  11) = (  -0.0006886   1.5126346   4.4334117  )
        12        O      tau(  12) = (   0.0000000   1.5126346   3.6404072  )
        13        O      tau(  13) = (   0.4978055   0.1177569   4.0372497  )
        14        O      tau(  14) = (   0.4978055   0.8906661   4.0372497  )
        15        O      tau(  15) = (  -0.0045322   0.5042115   5.4396437  )
        16        O      tau(  16) = (  -0.0052389   0.5042115   4.6686027  )
        17        O      tau(  17) = (   0.4950664   1.1230207   5.0499889  )
        18        O      tau(  18) = (   0.4950664   1.9022485   5.0499889  )
        19        O      tau(  19) = (  -0.1157108   1.5126346   5.6562437  )
        20        O      tau(  20) = (  -0.1157108   1.2286068   6.0083143  )
        21        H      tau(  21) = (  -0.1157108   1.4491820   6.2279178  )

     number of k points=    32  Marzari-Vanderbilt smearing, width (Ry)=  0.0100
                       cart. coord. in units 2pi/alat
        k(    1) = (   0.0000000   0.0000000   0.0000000), wk =   0.0625000
        k(    2) = (   0.0000000   0.1239559   0.0000000), wk =   0.0625000
        k(    3) = (   0.0000000  -0.2479118   0.0000000), wk =   0.0625000
        k(    4) = (   0.0000000  -0.1239559   0.0000000), wk =   0.0625000
        k(    5) = (   0.1250000   0.0000000   0.0000000), wk =   0.0625000
        k(    6) = (   0.1250000   0.1239559   0.0000000), wk =   0.0625000
        k(    7) = (   0.1250000  -0.2479118   0.0000000), wk =   0.0625000
        k(    8) = (   0.1250000  -0.1239559   0.0000000), wk =   0.0625000
        k(    9) = (   0.2500000   0.0000000   0.0000000), wk =   0.0625000
        k(   10) = (   0.2500000   0.1239559   0.0000000), wk =   0.0625000
        k(   11) = (   0.2500000  -0.2479118   0.0000000), wk =   0.0625000
        k(   12) = (   0.2500000  -0.1239559   0.0000000), wk =   0.0625000
        k(   13) = (   0.3750000   0.0000000   0.0000000), wk =   0.0625000
        k(   14) = (   0.3750000   0.1239559   0.0000000), wk =   0.0625000
        k(   15) = (   0.3750000  -0.2479118   0.0000000), wk =   0.0625000
        k(   16) = (   0.3750000  -0.1239559   0.0000000), wk =   0.0625000
        k(   17) = (  -0.5000000   0.0000000   0.0000000), wk =   0.0625000
        k(   18) = (  -0.5000000   0.1239559   0.0000000), wk =   0.0625000
        k(   19) = (  -0.5000000  -0.2479118   0.0000000), wk =   0.0625000
        k(   20) = (  -0.5000000  -0.1239559   0.0000000), wk =   0.0625000
        k(   21) = (  -0.3750000   0.0000000   0.0000000), wk =   0.0625000
        k(   22) = (  -0.3750000   0.1239559   0.0000000), wk =   0.0625000
        k(   23) = (  -0.3750000  -0.2479118   0.0000000), wk =   0.0625000
        k(   24) = (  -0.3750000  -0.1239559   0.0000000), wk =   0.0625000
        k(   25) = (  -0.2500000   0.0000000   0.0000000), wk =   0.0625000
        k(   26) = (  -0.2500000   0.1239559   0.0000000), wk =   0.0625000
        k(   27) = (  -0.2500000  -0.2479118   0.0000000), wk =   0.0625000
        k(   28) = (  -0.2500000  -0.1239559   0.0000000), wk =   0.0625000
        k(   29) = (  -0.1250000   0.0000000   0.0000000), wk =   0.0625000
        k(   30) = (  -0.1250000   0.1239559   0.0000000), wk =   0.0625000
        k(   31) = (  -0.1250000  -0.2479118   0.0000000), wk =   0.0625000
        k(   32) = (  -0.1250000  -0.1239559   0.0000000), wk =   0.0625000

     Dense  grid:   941385 G-vectors     FFT dimensions: (  48, 100, 400)

     Smooth grid:   332621 G-vectors     FFT dimensions: (  36,  72, 288)

     Estimated max dynamical RAM per process >       2.32 GB

     Estimated total dynamical RAM >       8.61 GB

     Initial potential from superposition of free atoms

     starting charge     171.9998, renormalised to     175.0000

     negative rho (up, down):  2.222E+00 0.000E+00
     Starting wfcs are  129 randomized atomic wfcs
     Checking if some PAW data can be deallocated... 

     total cpu time spent up to now is       53.3 secs

     per-process dynamical memory:  1166.3 Mb

     Self-consistent Calculation

     iteration #  1     ecut=    80.00 Ry     beta= 0.30
     Davidson diagonalization with overlap
     ethr =  1.00E-02,  avg # of iterations =  3.3

     negative rho (up, down):  2.068E+00 0.000E+00

     total cpu time spent up to now is      176.7 secs

     total energy              =   -1674.57607114 Ry
     estimated scf accuracy    <      68.88470611 Ry

     iteration #  2     ecut=    80.00 Ry     beta= 0.30
     Davidson diagonalization with overlap
     ethr =  1.00E-02,  avg # of iterations =  1.0

     negative rho (up, down):  1.939E+00 0.000E+00

     total cpu time spent up to now is      278.0 secs

     total energy              =   -1673.96126327 Ry
     estimated scf accuracy    <      13.28736123 Ry

     iteration #  3     ecut=    80.00 Ry     beta= 0.30
     Davidson diagonalization with overlap
     ethr =  7.59E-03,  avg # of iterations =  1.1

     negative rho (up, down):  1.877E+00 0.000E+00

     total cpu time spent up to now is      379.9 secs

     total energy              =   -1673.96490811 Ry
     estimated scf accuracy    <       2.52674402 Ry

     iteration #  4     ecut=    80.00 Ry     beta= 0.30
     Davidson diagonalization with overlap
     ethr =  1.44E-03,  avg # of iterations =  5.6

     negative rho (up, down):  1.903E+00 0.000E+00

     total cpu time spent up to now is      499.2 secs

     total energy              =   -1674.09023809 Ry
     estimated scf accuracy    <       0.50238032 Ry

     iteration #  5     ecut=    80.00 Ry     beta= 0.30
     Davidson diagonalization with overlap
     ethr =  2.87E-04,  avg # of iterations =  5.5

     negative rho (up, down):  1.904E+00 0.000E+00

     total cpu time spent up to now is      631.3 secs

     total energy              =   -1674.11927684 Ry
     estimated scf accuracy    <       1.23984663 Ry

     iteration #  6     ecut=    80.00 Ry     beta= 0.30
     Davidson diagonalization with overlap
     ethr =  2.87E-04,  avg # of iterations =  1.0

     negative rho (up, down):  1.944E+00 0.000E+00

     total cpu time spent up to now is      743.0 secs

     total energy              =   -1674.05753818 Ry
     estimated scf accuracy    <       1.08839619 Ry

     iteration #  7     ecut=    80.00 Ry     beta= 0.30
     Davidson diagonalization with overlap
     ethr =  2.87E-04,  avg # of iterations =  4.4

     negative rho (up, down):  1.956E+00 0.000E+00

     total cpu time spent up to now is      869.4 secs

     total energy              =   -1674.06624744 Ry
     estimated scf accuracy    <       0.12309493 Ry

     iteration #  8     ecut=    80.00 Ry     beta= 0.30
     Davidson diagonalization with overlap
     ethr =  7.03E-05,  avg # of iterations =  5.1

     negative rho (up, down):  1.960E+00 0.000E+00

     total cpu time spent up to now is     1004.3 secs

     total energy              =   -1674.06107601 Ry
     estimated scf accuracy    <       0.16653305 Ry

     iteration #  9     ecut=    80.00 Ry     beta= 0.30
     Davidson diagonalization with overlap
     ethr =  7.03E-05,  avg # of iterations =  4.5

     negative rho (up, down):  1.955E+00 0.000E+00

     total cpu time spent up to now is     1132.0 secs

     total energy              =   -1674.05928129 Ry
     estimated scf accuracy    <       0.01984533 Ry

     iteration # 10     ecut=    80.00 Ry     beta= 0.30
     Davidson diagonalization with overlap
     ethr =  1.13E-05,  avg # of iterations = 10.2

     negative rho (up, down):  1.944E+00 0.000E+00

     total cpu time spent up to now is     1273.1 secs

     total energy              =   -1674.05798204 Ry
     estimated scf accuracy    <       0.02848572 Ry

     iteration # 11     ecut=    80.00 Ry     beta= 0.30
     Davidson diagonalization with overlap
     ethr =  1.13E-05,  avg # of iterations =  5.8

     negative rho (up, down):  1.926E+00 0.000E+00

     total cpu time spent up to now is     1402.2 secs

     total energy              =   -1674.05743821 Ry
     estimated scf accuracy    <       0.00703637 Ry

     iteration # 12     ecut=    80.00 Ry     beta= 0.30
     Davidson diagonalization with overlap
     ethr =  4.02E-06,  avg # of iterations =  8.2

     negative rho (up, down):  1.914E+00 0.000E+00

     total cpu time spent up to now is     1540.7 secs

     total energy              =   -1674.05719866 Ry
     estimated scf accuracy    <       0.00344281 Ry

     iteration # 13     ecut=    80.00 Ry     beta= 0.30
     Davidson diagonalization with overlap
     ethr =  1.97E-06,  avg # of iterations =  5.5

     negative rho (up, down):  1.902E+00 0.000E+00

     total cpu time spent up to now is     1670.0 secs

     total energy              =   -1674.05690658 Ry
     estimated scf accuracy    <       0.00188478 Ry

     iteration # 14     ecut=    80.00 Ry     beta= 0.30
     Davidson diagonalization with overlap
     ethr =  1.08E-06,  avg # of iterations =  6.3

     negative rho (up, down):  1.905E+00 0.000E+00

     total cpu time spent up to now is     1811.9 secs

     total energy              =   -1674.05690852 Ry
     estimated scf accuracy    <       0.00096282 Ry

     iteration # 15     ecut=    80.00 Ry     beta= 0.30
     Davidson diagonalization with overlap
     ethr =  5.50E-07,  avg # of iterations =  6.2

     negative rho (up, down):  1.911E+00 0.000E+00

     total cpu time spent up to now is     1974.7 secs

     total energy              =   -1674.05689357 Ry
     estimated scf accuracy    <       0.00059033 Ry

     iteration # 16     ecut=    80.00 Ry     beta= 0.30
     Davidson diagonalization with overlap
     ethr =  3.37E-07,  avg # of iterations =  6.5

     negative rho (up, down):  1.914E+00 0.000E+00

     total cpu time spent up to now is     2150.2 secs

     total energy              =   -1674.05691793 Ry
     estimated scf accuracy    <       0.00036466 Ry

     iteration # 17     ecut=    80.00 Ry     beta= 0.30
     Davidson diagonalization with overlap
     ethr =  2.08E-07,  avg # of iterations =  4.7

     negative rho (up, down):  1.913E+00 0.000E+00

     total cpu time spent up to now is     2310.1 secs

     total energy              =   -1674.05693957 Ry
     estimated scf accuracy    <       0.00026234 Ry

     iteration # 18     ecut=    80.00 Ry     beta= 0.30
     Davidson diagonalization with overlap
     ethr =  1.50E-07,  avg # of iterations =  2.8

     negative rho (up, down):  1.912E+00 0.000E+00

     total cpu time spent up to now is     2457.8 secs

     total energy              =   -1674.05698799 Ry
     estimated scf accuracy    <       0.00022969 Ry

     iteration # 19     ecut=    80.00 Ry     beta= 0.30
     Davidson diagonalization with overlap
     ethr =  1.31E-07,  avg # of iterations =  3.7

     negative rho (up, down):  1.913E+00 0.000E+00

     total cpu time spent up to now is     2625.5 secs

     total energy              =   -1674.05702364 Ry
     estimated scf accuracy    <       0.00006723 Ry

     iteration # 20     ecut=    80.00 Ry     beta= 0.30
     Davidson diagonalization with overlap
     ethr =  3.84E-08,  avg # of iterations =  3.1

     negative rho (up, down):  1.911E+00 0.000E+00

     total cpu time spent up to now is     2773.7 secs

     total energy              =   -1674.05702567 Ry
     estimated scf accuracy    <       0.00002194 Ry

     iteration # 21     ecut=    80.00 Ry     beta= 0.30
     Davidson diagonalization with overlap
     ethr =  1.25E-08,  avg # of iterations =  5.1

     negative rho (up, down):  1.910E+00 0.000E+00

     total cpu time spent up to now is     2930.8 secs

     total energy              =   -1674.05702316 Ry
     estimated scf accuracy    <       0.00000962 Ry

     iteration # 22     ecut=    80.00 Ry     beta= 0.30
     Davidson diagonalization with overlap
     c_bands:  1 eigenvalues not converged
     ethr =  5.50E-09,  avg # of iterations =  7.1

     negative rho (up, down):  1.909E+00 0.000E+00

     total cpu time spent up to now is     3111.7 secs

     total energy              =   -1674.05702020 Ry
     estimated scf accuracy    <       0.00000157 Ry

     iteration # 23     ecut=    80.00 Ry     beta= 0.30
     Davidson diagonalization with overlap
     ethr =  8.95E-10,  avg # of iterations =  3.4

     negative rho (up, down):  1.909E+00 0.000E+00

     total cpu time spent up to now is     3268.9 secs

     End of self-consistent calculation

          k = 0.0000 0.0000 0.0000 ( 41611 PWs)   bands (ev):

   -48.1777 -48.1579 -48.0926 -48.0498 -48.0193 -48.0159 -47.9336 -47.8951
   -47.8883 -47.8404 -47.7800 -47.7175 -47.7125 -47.6870 -47.6582 -47.6068
   -47.5941 -47.3976 -20.8899 -18.6830 -18.3388 -18.2238 -17.8869 -17.3614
   -17.1694 -16.9113 -16.7472 -16.6760 -16.5989 -15.4958 -15.2820 -14.4781
    -7.4181  -7.3795  -7.3591  -6.9170  -6.1824  -6.1157  -5.7477  -5.6179
    -5.5279  -5.4981  -5.2167  -5.0182  -5.0107  -4.8313  -4.7659  -4.2862
    -3.5424  -3.3438  -2.8460  -2.7799  -2.6266  -2.3785  -2.3369  -2.3280
    -2.1598  -2.0143  -1.9881  -1.9210  -1.8405  -1.7061  -1.4925  -1.4853
    -1.4142  -1.0659  -0.7886  -0.6818  -0.4660  -0.3070  -0.2043  -0.1237
    -0.0849  -0.0467  -0.0294  -0.0120   0.0262   0.0779   0.0791   0.4370
     0.6504   0.8481   0.8866   1.4441   1.5820   1.7216   2.2126   2.3962
     2.5916   2.6952   3.1333   3.4574   3.8378   4.4693   5.0360   5.4473
     5.8557   6.0443   6.3974   6.4767   6.5147   6.5240   6.5850   6.9121
     7.1394   7.3720

          k = 0.0000 0.1240 0.0000 ( 41688 PWs)   bands (ev):

   -48.1773 -48.1577 -48.0923 -48.0498 -48.0182 -48.0159 -47.9334 -47.8953
   -47.8883 -47.8404 -47.7813 -47.7174 -47.7131 -47.6870 -47.6583 -47.6068
   -47.5941 -47.3981 -20.8895 -18.5509 -18.1894 -18.0949 -17.9251 -17.3977
   -17.2741 -16.9348 -16.8741 -16.8308 -16.7443 -15.4926 -15.2787 -14.4765
    -6.9597  -6.8847  -6.8420  -6.8084  -6.1798  -6.1075  -5.6687  -5.5437
    -5.5221  -5.4081  -5.1275  -5.0169  -4.9327  -4.8298  -4.6991  -4.1518
    -3.7101  -3.5168  -3.4001  -3.2618  -3.1653  -2.9462  -2.9046  -2.6282
    -2.5474  -2.5045  -2.4008  -2.0927  -1.9964  -1.6609  -1.6299  -1.5072
    -1.3324  -1.1176  -0.9290  -0.6201  -0.5014  -0.3435  -0.2348  -0.0849
     0.0164   0.3378   0.4434   0.4639   0.5529   0.5779   0.6070   0.6450
     0.7272   0.8714   1.0142   1.4421   1.5940   1.7887   2.2384   2.3630
     2.4416   2.7069   2.8945   3.2594   4.2700   4.8892   5.4928   5.7213
     5.8619   6.1467   6.1699   6.2218   6.2309   6.5819   6.5906   6.9146
     7.1134   7.4845

          k = 0.0000-0.2479 0.0000 ( 41774 PWs)   bands (ev):

   -48.1770 -48.1574 -48.0919 -48.0499 -48.0170 -48.0158 -47.9332 -47.8954
   -47.8884 -47.8405 -47.7825 -47.7173 -47.7137 -47.6870 -47.6583 -47.6069
   -47.5941 -47.3985 -20.8891 -18.3033 -18.1703 -17.9239 -17.7412 -17.5507
   -17.5315 -17.0779 -16.9914 -16.8760 -16.8600 -15.4903 -15.2760 -14.4751
    -6.9269  -6.1906  -6.1105  -6.0582  -5.9816  -5.8875  -5.5798  -5.5258
    -5.4548  -5.3055  -5.0999  -5.0139  -4.8279  -4.7614  -4.5221  -4.4386
    -4.4129  -4.3762  -4.1919  -3.8421  -3.4678  -3.4321  -2.9931  -2.9227
    -2.8784  -2.7303  -2.6172  -2.5187  -2.0644  -1.6730  -1.6565  -1.2500
    -1.2259  -0.9721  -0.8915  -0.6967  -0.4400  -0.3067  -0.2783  -0.2147
     0.0820   0.3816   0.6333   0.6979   0.7546   0.8167   0.8699   1.0834
     1.1248   1.2411   1.3983   1.5239   1.6778   1.6939   2.0215   2.2672
     2.4194   2.6045   2.7408   3.1073   4.6455   5.0494   5.8268   5.8579
     5.8905   5.9194   5.9894   6.2392   6.3965   6.5911   6.7690   6.9161
     7.1377   7.2392

          k = 0.0000-0.1240 0.0000 ( 41688 PWs)   bands (ev):

   -48.1773 -48.1577 -48.0923 -48.0498 -48.0182 -48.0159 -47.9334 -47.8953
   -47.8883 -47.8404 -47.7813 -47.7174 -47.7131 -47.6870 -47.6583 -47.6068
   -47.5941 -47.3981 -20.8895 -18.5509 -18.1894 -18.0949 -17.9251 -17.3977
   -17.2741 -16.9348 -16.8741 -16.8308 -16.7443 -15.4926 -15.2787 -14.4765
    -6.9597  -6.8847  -6.8420  -6.8084  -6.1798  -6.1075  -5.6687  -5.5437
    -5.5221  -5.4081  -5.1275  -5.0169  -4.9327  -4.8298  -4.6991  -4.1518
    -3.7101  -3.5168  -3.4001  -3.2618  -3.1653  -2.9462  -2.9046  -2.6282
    -2.5474  -2.5045  -2.4008  -2.0927  -1.9964  -1.6609  -1.6299  -1.5072
    -1.3324  -1.1176  -0.9290  -0.6201  -0.5014  -0.3435  -0.2348  -0.0849
     0.0164   0.3378   0.4434   0.4639   0.5529   0.5779   0.6070   0.6450
     0.7272   0.8714   1.0142   1.4421   1.5940   1.7887   2.2384   2.3630
     2.4416   2.7069   2.8945   3.2594   4.2700   4.8892   5.4928   5.7213
     5.8619   6.1467   6.1699   6.2218   6.2309   6.5819   6.5906   6.9146
     7.1134   7.4845

          k = 0.1250 0.0000 0.0000 ( 41611 PWs)   bands (ev):

   -48.1819 -48.1569 -48.0915 -48.0597 -48.0179 -48.0148 -47.9502 -47.9103
   -47.8867 -47.8566 -47.7779 -47.7332 -47.7111 -47.6860 -47.6559 -47.6232
   -47.5918 -47.3952 -20.8733 -18.5436 -18.2163 -18.1039 -17.7872 -17.2962
   -17.0796 -16.9732 -16.8271 -16.7558 -16.6820 -15.5466 -15.3242 -14.4621
    -7.2320  -7.1986  -7.1807  -6.7762  -6.1389  -6.0769  -5.7184  -5.5905
    -5.5406  -5.4563  -5.1147  -5.0077  -4.7115  -4.5547  -4.5137  -4.1188
    -3.6540  -3.2665  -3.2230  -2.8455  -2.8156  -2.7030  -2.6745  -2.6615
    -2.4929  -2.4614  -2.1087  -2.0840  -1.8177  -1.7883  -1.6698  -1.5842
    -1.4831  -1.4233  -1.3054  -1.2549  -0.8577  -0.3588  -0.2156   0.0129
     0.0657   0.1243   0.1940   0.2793   0.3843   0.4065   0.5259   0.7769
     0.9135   0.9936   1.2457   1.6244   1.7806   2.0024   2.0908   2.2893
     2.5329   2.7590   2.9796   3.2972   4.0221   4.6715   5.2195   5.3734
     5.7242   5.9467   6.0964   6.1237   6.1567   6.2550   6.4799   6.5893
     7.2952   7.6276

          k = 0.1250 0.1240 0.0000 ( 41692 PWs)   bands (ev):

   -48.1813 -48.1570 -48.0912 -48.0597 -48.0173 -48.0148 -47.9497 -47.9105
   -47.8868 -47.8567 -47.7789 -47.7331 -47.7115 -47.6860 -47.6559 -47.6232
   -47.5918 -47.3956 -20.8729 -18.4173 -18.0728 -17.9747 -17.8254 -17.3280
   -17.1988 -16.9960 -16.9345 -16.8995 -16.8048 -15.5442 -15.3215 -14.4605
    -6.8080  -6.7318  -6.6853  -6.6646  -6.1318  -6.0748  -5.6242  -5.5557
    -5.4853  -5.3646  -5.1971  -4.8068  -4.6613  -4.5458  -4.4920  -4.0880
    -3.6141  -3.5330  -3.4473  -3.3289  -3.2227  -3.1622  -3.0897  -3.0162
    -2.9438  -2.7735  -2.6221  -2.3751  -2.2731  -1.9599  -1.8026  -1.5073
    -1.3557  -1.2740  -1.1718  -0.8324  -0.5558  -0.3543  -0.2273  -0.1447
     0.1455   0.3216   0.5125   0.5510   0.6940   0.7775   0.8711   0.9061
     0.9794   1.1532   1.3284   1.6744   1.7994   1.9913   2.1449   2.2652
     2.3483   2.6855   2.8647   3.1484   4.3609   4.9944   5.4213   5.4648
     5.6336   5.6983   5.9367   6.0502   6.0959   6.3391   6.4900   6.7413
     7.2832   7.5534

          k = 0.1250-0.2479 0.0000 ( 41706 PWs)   bands (ev):

   -48.1819 -48.1561 -48.0909 -48.0594 -48.0167 -48.0148 -47.9492 -47.9107
   -47.8868 -47.8567 -47.7799 -47.7331 -47.7121 -47.6860 -47.6559 -47.6232
   -47.5918 -47.3960 -20.8725 -18.1830 -18.0418 -17.8030 -17.6323 -17.4965
   -17.4728 -17.1497 -17.0337 -16.9339 -16.8846 -15.5423 -15.3192 -14.4592
    -6.7826  -6.1422  -6.0731  -5.8397  -5.7621  -5.6826  -5.6505  -5.5949
    -5.5342  -5.5143  -5.2181  -4.7570  -4.5523  -4.5158  -4.2632  -4.2304
    -4.0995  -4.0871  -3.9758  -3.9417  -3.8195  -3.6759  -3.5911  -3.2860
    -3.0702  -2.9215  -2.7450  -2.7199  -2.2680  -2.1204  -1.8518  -1.3769
    -1.1316  -1.0453  -0.8677  -0.7807  -0.5962  -0.3178  -0.2274  -0.1912
     0.2290   0.5224   0.5681   0.6321   0.7163   0.7802   1.0172   1.3483
     1.4369   1.5466   1.5799   1.7708   1.7872   1.9430   2.0456   2.1614
     2.3732   2.5040   2.6543   3.1292   4.6293   5.1426   5.2607   5.3006
     5.3440   5.5619   6.0895   6.1294   6.3604   6.4631   6.5769   6.8321
     7.2647   7.4162

          k = 0.1250-0.1240 0.0000 ( 41692 PWs)   bands (ev):

   -48.1824 -48.1561 -48.0912 -48.0594 -48.0173 -48.0148 -47.9496 -47.9105
   -47.8868 -47.8567 -47.7789 -47.7331 -47.7116 -47.6860 -47.6559 -47.6232
   -47.5918 -47.3956 -20.8729 -18.4174 -18.0731 -17.9750 -17.8256 -17.3278
   -17.1986 -16.9961 -16.9344 -16.8996 -16.8038 -15.5441 -15.3215 -14.4606
    -6.8030  -6.7304  -6.6952  -6.6666  -6.1374  -6.0741  -5.6259  -5.5638
    -5.4656  -5.3634  -5.1984  -4.8281  -4.6428  -4.5497  -4.4995  -4.0765
    -3.6088  -3.5345  -3.4485  -3.3208  -3.2228  -3.1575  -3.0917  -3.0137
    -2.9355  -2.7830  -2.6050  -2.3712  -2.2818  -1.9459  -1.7939  -1.5067
    -1.3543  -1.2897  -1.1791  -0.8979  -0.6502  -0.3548  -0.2187  -0.0560
     0.2074   0.3994   0.4655   0.5426   0.6924   0.7627   0.8593   0.9104
     0.9616   1.1568   1.3271   1.6761   1.8071   1.9914   2.1206   2.2663
     2.3396   2.7011   2.8578   3.1542   4.3527   4.9869   5.4190   5.4670
     5.6834   5.7126   5.9408   6.0026   6.0926   6.3379   6.4961   6.7232
     7.2845   7.5592

          k = 0.2500 0.0000 0.0000 ( 41623 PWs)   bands (ev):

   -48.1966 -48.1543 -48.0888 -48.0792 -48.0148 -48.0125 -47.9898 -47.9486
   -47.8956 -47.8811 -47.7728 -47.7708 -47.7074 -47.6836 -47.6626 -47.6502
   -47.5863 -47.3896 -20.8329 -18.1815 -17.9098 -17.8044 -17.5665 -17.1860
   -17.0948 -17.0156 -16.9415 -16.8947 -16.8747 -15.6216 -15.3750 -14.4228
    -6.7466  -6.7140  -6.7032  -6.5151  -5.9150  -5.8829  -5.6147  -5.5126
    -5.4101  -5.2318  -5.0264  -4.8002  -4.5861  -4.4037  -4.1982  -4.0010
    -3.8537  -3.7914  -3.7496  -3.6804  -3.3283  -3.0820  -2.9293  -2.8608
    -2.6789  -2.5536  -2.4066  -2.3185  -2.3010  -2.2291  -2.0651  -1.8408
    -1.8285  -1.5318  -1.2977  -1.1056  -0.7581  -0.5080  -0.4119  -0.1264
     0.3109   0.3631   0.4774   0.5173   0.6629   0.7591   0.8354   1.2033
     1.3989   1.5158   1.7954   1.8294   1.8650   1.9264   2.1403   2.1843
     2.3516   2.6177   2.8533   2.9225   4.2881   4.8278   5.0464   5.2396
     5.3880   5.3941   5.4750   5.6272   5.6806   5.8917   6.5281   6.8753
     7.6635   7.7621

          k = 0.2500 0.1240 0.0000 ( 41653 PWs)   bands (ev):

   -48.1968 -48.1542 -48.0888 -48.0789 -48.0169 -48.0124 -47.9872 -47.9487
   -47.8957 -47.8811 -47.7733 -47.7709 -47.7075 -47.6836 -47.6625 -47.6503
   -47.5863 -47.3897 -20.8327 -18.0795 -17.7958 -17.6894 -17.6024 -17.2477
   -17.1513 -17.0796 -17.0572 -17.0115 -16.8596 -15.6212 -15.3742 -14.4215
    -6.5281  -6.3632  -6.3243  -6.3153  -5.9062  -5.8820  -5.4945  -5.4575
    -5.2693  -5.1321  -5.0962  -4.8351  -4.6276  -4.3806  -4.3386  -4.3016
    -4.1951  -4.0690  -3.9270  -3.4506  -3.3870  -3.1534  -2.9944  -2.8779
    -2.8023  -2.7672  -2.7206  -2.6407  -2.5330  -2.3146  -2.1117  -1.7989
    -1.5867  -1.5665  -1.2391  -1.0739  -0.7290  -0.4721  -0.3461  -0.2641
     0.0851   0.4689   0.5170   0.8103   0.9421   0.9756   1.0537   1.1661
     1.4550   1.5843   1.7434   1.7895   1.8791   1.9664   2.1839   2.2138
     2.3060   2.5115   2.6625   3.0732   4.3954   4.7257   4.7860   4.8646
     4.9019   5.2344   5.6533   5.7271   6.1144   6.3136   6.6650   7.0033
     7.6334   7.8319

          k = 0.2500-0.2479 0.0000 ( 41680 PWs)   bands (ev):

   -48.1980 -48.1531 -48.0887 -48.0784 -48.0188 -48.0123 -47.9846 -47.9489
   -47.8958 -47.8812 -47.7738 -47.7709 -47.7078 -47.6836 -47.6624 -47.6503
   -47.5863 -47.3899 -20.8325 -17.8961 -17.7343 -17.5217 -17.4768 -17.3980
   -17.3712 -17.2914 -17.0852 -17.0412 -16.8600 -15.6207 -15.3735 -14.4204
    -6.5165  -5.9247  -5.8857  -5.7038  -5.6767  -5.6665  -5.4820  -5.2069
    -5.1950  -5.1262  -5.0512  -5.0320  -4.9166  -4.8885  -4.7433  -4.5678
    -4.2167  -3.9499  -3.7708  -3.6529  -3.4994  -3.3968  -3.3524  -3.1520
    -3.0668  -2.9520  -2.8782  -2.7771  -2.7200  -2.3928  -2.1986  -1.4497
    -1.4191  -1.1666  -1.0989  -1.0044  -0.8835  -0.7604  -0.3097  -0.1899
     0.2417   0.2969   0.5804   0.7465   0.8244   1.1547   1.3097   1.3666
     1.5813   1.7153   1.8311   1.8628   1.9211   2.0125   2.0900   2.2064
     2.3627   2.4223   2.5770   3.1603   4.2639   4.2999   4.4101   4.5356
     4.9311   5.3238   5.6609   5.9640   6.3026   6.6502   6.8936   7.0944
     7.5631   7.9509

          k = 0.2500-0.1240 0.0000 ( 41653 PWs)   bands (ev):

   -48.1979 -48.1532 -48.0888 -48.0786 -48.0171 -48.0124 -47.9869 -47.9488
   -47.8956 -47.8811 -47.7733 -47.7709 -47.7077 -47.6836 -47.6625 -47.6502
   -47.5863 -47.3897 -20.8327 -18.0796 -17.7964 -17.6905 -17.6025 -17.2475
   -17.1518 -17.0795 -17.0575 -17.0088 -16.8594 -15.6210 -15.3742 -14.4217
    -6.5184  -6.3630  -6.3366  -6.3241  -5.9147  -5.8822  -5.5030  -5.4521
    -5.2581  -5.1319  -5.1005  -4.8421  -4.6252  -4.3743  -4.3278  -4.2987
    -4.1841  -4.0714  -3.9260  -3.4445  -3.3796  -3.1647  -2.9958  -2.8757
    -2.8118  -2.7556  -2.7209  -2.6476  -2.5294  -2.3059  -2.0750  -1.7754
    -1.5915  -1.5542  -1.3072  -1.0652  -0.8606  -0.4815  -0.3316  -0.2671
     0.1525   0.4397   0.6881   0.7390   0.9367   0.9782   1.0465   1.1659
     1.4474   1.5868   1.7199   1.8255   1.8987   1.9760   2.1096   2.1962
     2.2892   2.5375   2.6727   3.0804   4.3845   4.7295   4.7663   4.8646
     4.9027   5.2949   5.6549   5.7133   6.1113   6.2905   6.6579   7.0051
     7.6425   7.8321

          k = 0.3750 0.0000 0.0000 ( 41645 PWs)   bands (ev):

   -48.2180 -48.1516 -48.0923 -48.0861 -48.0297 -48.0121 -48.0099 -47.9861
   -47.9340 -47.8754 -47.8083 -47.7677 -47.7034 -47.7018 -47.6813 -47.6446
   -47.5808 -47.3839 -20.7923 -17.7586 -17.5873 -17.4927 -17.4470 -17.1980
   -17.1423 -17.1310 -17.1182 -17.0598 -16.7867 -15.5966 -15.3398 -14.3828
    -6.4055  -6.1822  -6.1473  -6.1103  -5.6684  -5.5887  -5.4998  -5.4386
    -5.4127  -5.1903  -5.0911  -4.8842  -4.7947  -4.7085  -4.6928  -4.5566
    -4.1454  -3.8308  -3.7159  -3.6539  -3.3038  -3.2518  -3.1423  -3.0779
    -2.9052  -2.6015  -2.4625  -2.4343  -2.2588  -2.0696  -1.9942  -1.8356
    -1.7583  -1.7011  -1.1364  -0.9315  -0.6721  -0.5414  -0.4930  -0.1606
     0.3529   0.4339   0.5238   0.6357   0.8445   0.8793   0.9927   1.1500
     1.3010   1.3940   1.4768   1.6784   1.8143   1.9934   2.1826   2.2173
     2.3608   2.7035   2.7635   2.8604   4.1739   4.3326   4.8241   4.8454
     4.9681   5.2153   5.2431   5.3735   5.7725   5.8513   6.4355   7.4262
     8.0816   8.5659

          k = 0.3750 0.1240 0.0000 ( 41549 PWs)   bands (ev):

   -48.2189 -48.1512 -48.0918 -48.0863 -48.0349 -48.0101 -48.0066 -47.9861
   -47.9342 -47.8754 -47.8083 -47.7677 -47.7032 -47.7015 -47.6813 -47.6446
   -47.5808 -47.3839 -20.7922 -17.7283 -17.5758 -17.5232 -17.4694 -17.2550
   -17.1802 -17.1118 -17.0805 -17.0248 -16.7900 -15.5971 -15.3399 -14.3819
    -6.4017  -6.0590  -6.0073  -5.9787  -5.7044  -5.6239  -5.5477  -5.5157
    -5.3885  -5.3610  -5.2313  -5.1245  -4.6612  -4.5830  -4.5024  -4.2952
    -4.2228  -3.8901  -3.8152  -3.5122  -3.3347  -3.1741  -2.9812  -2.8837
    -2.7635  -2.6077  -2.5461  -2.3762  -2.2649  -2.2450  -2.2060  -1.9090
    -1.5882  -1.4386  -1.3585  -0.9151  -0.8434  -0.6257  -0.5226  -0.2974
     0.1897   0.3382   0.5152   0.6375   0.7101   0.7396   0.9148   1.0104
     1.1944   1.3065   1.4046   1.4630   1.8484   2.2089   2.3521   2.4880
     2.5472   2.6420   2.7736   2.9307   4.0606   4.1039   4.2627   4.3002
     4.3787   5.2251   5.3828   6.0399   6.3931   6.5336   6.6183   7.4944
     8.1506   8.6698

          k = 0.3750-0.2479 0.0000 ( 41514 PWs)   bands (ev):

   -48.2203 -48.1503 -48.0911 -48.0866 -48.0387 -48.0101 -48.0027 -47.9861
   -47.9343 -47.8754 -47.8084 -47.7677 -47.7032 -47.7011 -47.6812 -47.6446
   -47.5808 -47.3838 -20.7921 -17.6763 -17.6026 -17.5213 -17.5076 -17.2900
   -17.2138 -17.0922 -17.0564 -17.0026 -16.7933 -15.5975 -15.3399 -14.3812
    -6.3936  -5.9320  -5.8077  -5.7660  -5.6663  -5.6519  -5.6306  -5.6148
    -5.5471  -5.4780  -5.4018  -5.1678  -4.7108  -4.5645  -4.2778  -4.1064
    -3.9946  -3.9163  -3.8160  -3.4309  -3.3358  -3.0987  -3.0595  -2.8465
    -2.7085  -2.6157  -2.5547  -2.3966  -2.3791  -2.3256  -2.1952  -1.8274
    -1.5144  -1.4893  -1.1823  -0.9464  -0.8226  -0.6860  -0.6639  -0.4173
    -0.2439   0.0835   0.2815   0.4946   0.6714   0.8428   0.8666   1.1346
     1.2809   1.3086   1.3872   1.4468   1.6655   2.2510   2.3490   2.5383
     2.7223   2.7553   2.8723   3.0675   3.6557   3.6628   3.8205   4.2882
     4.3782   5.2251   5.4406   6.4094   6.5732   6.9684   7.0247   7.5583
     8.2313   8.7799

          k = 0.3750-0.1240 0.0000 ( 41549 PWs)   bands (ev):

   -48.2194 -48.1507 -48.0916 -48.0863 -48.0350 -48.0101 -48.0063 -47.9862
   -47.9342 -47.8754 -47.8083 -47.7677 -47.7034 -47.7015 -47.6813 -47.6446
   -47.5808 -47.3839 -20.7922 -17.7283 -17.5761 -17.5241 -17.4703 -17.2550
   -17.1807 -17.1118 -17.0804 -17.0220 -16.7900 -15.5969 -15.3399 -14.3821
    -6.3978  -6.0624  -6.0035  -5.9960  -5.7102  -5.6251  -5.5447  -5.5316
    -5.3912  -5.3491  -5.2370  -5.0994  -4.6910  -4.5789  -4.4762  -4.2802
    -4.2210  -3.8902  -3.8179  -3.5130  -3.3287  -3.1790  -2.9789  -2.9013
    -2.7724  -2.6052  -2.5253  -2.3904  -2.2629  -2.2389  -2.1642  -1.8811
    -1.5842  -1.4708  -1.3879  -0.9189  -0.8494  -0.7059  -0.5222  -0.2894
     0.2157   0.3453   0.5532   0.6437   0.7077   0.7453   0.9085   1.0099
     1.1812   1.3111   1.4136   1.5334   1.7647   2.2109   2.3522   2.4681
     2.5405   2.6672   2.7619   2.9442   4.0775   4.1210   4.2466   4.2724
     4.3843   5.2252   5.4028   6.0368   6.3882   6.5237   6.6158   7.5014
     8.1508   8.6698

          k =-0.5000 0.0000 0.0000 ( 41440 PWs)   bands (ev):

   -48.2286 -48.1504 -48.0961 -48.0849 -48.0458 -48.0123 -48.0092 -48.0001
   -47.9497 -47.8730 -47.8236 -47.7656 -47.7180 -47.7016 -47.6803 -47.6422
   -47.5785 -47.3815 -20.7755 -17.5620 -17.4725 -17.4055 -17.3389 -17.2714
   -17.2040 -17.1893 -17.1329 -17.0821 -16.7736 -15.5498 -15.2978 -14.3660
    -6.3756  -6.0841  -5.8067  -5.7785  -5.6581  -5.6398  -5.5490  -5.4850
    -5.3345  -5.2732  -5.0360  -4.9796  -4.9148  -4.8100  -4.7378  -4.5963
    -4.5075  -3.7697  -3.4915  -3.4434  -3.4294  -3.4122  -3.1505  -3.1037
    -3.0143  -2.6330  -2.5674  -2.4991  -2.2146  -1.9287  -1.8687  -1.8089
    -1.6077  -1.2057  -0.9561  -0.9265  -0.9203  -0.5531  -0.4478  -0.1301
     0.4136   0.4885   0.5198   0.5274   0.7481   0.7997   0.8905   0.9521
     1.0640   1.2095   1.4037   1.5281   1.6158   1.8660   2.1686   2.4010
     2.5222   2.5782   2.9128   3.0771   4.0516   4.1733   4.6389   4.6607
     4.7965   5.1318   5.2889   5.4451   5.7327   5.7856   6.4805   7.5537
     8.8775   9.2026

          k =-0.5000 0.1240 0.0000 ( 41518 PWs)   bands (ev):

   -48.2299 -48.1498 -48.0954 -48.0853 -48.0496 -48.0098 -48.0089 -47.9994
   -47.9499 -47.8730 -47.8237 -47.7654 -47.7175 -47.7014 -47.6803 -47.6422
   -47.5785 -47.3814 -20.7754 -17.5816 -17.5590 -17.5527 -17.4794 -17.1913
   -17.1166 -17.0951 -17.0581 -17.0026 -16.7766 -15.5494 -15.2971 -14.3655
    -6.3737  -6.0511  -6.0115  -5.8858  -5.8426  -5.7438  -5.6851  -5.6363
    -5.5372  -5.3285  -5.1274  -4.9269  -4.8766  -4.6024  -4.2438  -4.0902
    -3.9120  -3.6746  -3.5411  -3.4992  -3.4613  -3.3530  -3.3164  -3.1419
    -2.7605  -2.3778  -2.3362  -2.2590  -2.1521  -2.1343  -2.0461  -1.8393
    -1.4452  -1.3745  -0.9671  -0.9016  -0.8521  -0.7664  -0.6848  -0.2505
     0.1712   0.3861   0.4278   0.5249   0.5396   0.5655   0.7480   0.8315
     0.8384   0.9116   1.0003   1.3075   1.5520   2.3758   2.5506   2.5655
     2.7021   2.7623   2.8888   3.0123   3.8593   3.9027   4.0612   4.1200
     4.2090   5.1337   5.4792   6.2055   6.5436   6.5581   6.6274   7.6112
     8.9355   9.3590

          k =-0.5000-0.2479 0.0000 ( 41524 PWs)   bands (ev):

   -48.2311 -48.1492 -48.0948 -48.0857 -48.0528 -48.0094 -48.0074 -47.9982
   -47.9500 -47.8730 -47.8238 -47.7652 -47.7171 -47.7013 -47.6803 -47.6422
   -47.5785 -47.3813 -20.7753 -17.6515 -17.6383 -17.5581 -17.5561 -17.1735
   -17.1130 -17.0332 -16.9714 -16.9190 -16.7797 -15.5491 -15.2964 -14.3650
    -6.3655  -6.2618  -6.1258  -6.0811  -5.9289  -5.7163  -5.6251  -5.5713
    -5.5482  -5.3657  -5.1356  -5.0208  -4.8773  -4.7265  -4.0437  -3.7127
    -3.5788  -3.4908  -3.4579  -3.4180  -3.2959  -3.1372  -2.9683  -2.7925
    -2.7801  -2.7147  -2.5401  -2.1911  -2.1096  -2.0793  -2.0220  -1.7729
    -1.3243  -1.2565  -1.2234  -0.9061  -0.8640  -0.8496  -0.7773  -0.4780
    -0.3289  -0.1080   0.1004   0.3049   0.5241   0.5452   0.5539   0.7511
     0.8596   0.8973   1.0468   1.1802   1.5564   2.4027   2.5314   2.6469
     2.9328   2.9588   2.9826   3.0850   3.4670   3.4801   3.6526   4.1673
     4.2230   5.1354   5.5130   6.6194   6.7203   7.0599   7.1628   7.6673
     8.9970   9.5187

          k =-0.5000-0.1240 0.0000 ( 41518 PWs)   bands (ev):

   -48.2299 -48.1498 -48.0954 -48.0853 -48.0496 -48.0098 -48.0089 -47.9994
   -47.9499 -47.8730 -47.8237 -47.7654 -47.7175 -47.7014 -47.6803 -47.6422
   -47.5785 -47.3814 -20.7754 -17.5816 -17.5590 -17.5527 -17.4794 -17.1913
   -17.1166 -17.0951 -17.0581 -17.0026 -16.7766 -15.5494 -15.2971 -14.3655
    -6.3737  -6.0511  -6.0115  -5.8858  -5.8426  -5.7438  -5.6851  -5.6363
    -5.5372  -5.3285  -5.1274  -4.9269  -4.8766  -4.6024  -4.2438  -4.0902
    -3.9120  -3.6746  -3.5411  -3.4992  -3.4613  -3.3530  -3.3164  -3.1419
    -2.7605  -2.3778  -2.3362  -2.2590  -2.1521  -2.1343  -2.0461  -1.8393
    -1.4452  -1.3745  -0.9671  -0.9016  -0.8521  -0.7664  -0.6848  -0.2505
     0.1712   0.3861   0.4278   0.5249   0.5396   0.5655   0.7480   0.8315
     0.8384   0.9116   1.0003   1.3075   1.5520   2.3758   2.5506   2.5655
     2.7021   2.7623   2.8888   3.0123   3.8593   3.9027   4.0612   4.1200
     4.2090   5.1337   5.4792   6.2055   6.5436   6.5581   6.6274   7.6112
     8.9355   9.3590

          k =-0.3750 0.0000 0.0000 ( 41645 PWs)   bands (ev):

   -48.2180 -48.1516 -48.0923 -48.0861 -48.0297 -48.0121 -48.0099 -47.9861
   -47.9340 -47.8754 -47.8083 -47.7677 -47.7034 -47.7018 -47.6813 -47.6446
   -47.5808 -47.3839 -20.7923 -17.7586 -17.5873 -17.4927 -17.4470 -17.1980
   -17.1423 -17.1310 -17.1182 -17.0598 -16.7867 -15.5966 -15.3398 -14.3828
    -6.4055  -6.1822  -6.1473  -6.1103  -5.6684  -5.5887  -5.4998  -5.4386
    -5.4127  -5.1903  -5.0911  -4.8842  -4.7947  -4.7085  -4.6928  -4.5566
    -4.1454  -3.8308  -3.7159  -3.6539  -3.3038  -3.2518  -3.1423  -3.0779
    -2.9052  -2.6015  -2.4625  -2.4343  -2.2588  -2.0696  -1.9942  -1.8356
    -1.7583  -1.7011  -1.1364  -0.9315  -0.6721  -0.5414  -0.4930  -0.1606
     0.3529   0.4339   0.5238   0.6357   0.8445   0.8793   0.9927   1.1500
     1.3010   1.3940   1.4768   1.6784   1.8143   1.9934   2.1826   2.2173
     2.3608   2.7035   2.7635   2.8604   4.1739   4.3326   4.8241   4.8454
     4.9681   5.2153   5.2431   5.3735   5.7725   5.8513   6.4355   7.4262
     8.0816   8.5659

          k =-0.3750 0.1240 0.0000 ( 41549 PWs)   bands (ev):

   -48.2194 -48.1507 -48.0916 -48.0863 -48.0350 -48.0101 -48.0063 -47.9862
   -47.9342 -47.8754 -47.8083 -47.7677 -47.7034 -47.7015 -47.6813 -47.6446
   -47.5808 -47.3839 -20.7922 -17.7283 -17.5761 -17.5241 -17.4703 -17.2550
   -17.1807 -17.1118 -17.0804 -17.0220 -16.7900 -15.5969 -15.3399 -14.3821
    -6.3978  -6.0624  -6.0035  -5.9960  -5.7102  -5.6251  -5.5447  -5.5316
    -5.3912  -5.3491  -5.2370  -5.0994  -4.6910  -4.5789  -4.4762  -4.2802
    -4.2210  -3.8902  -3.8179  -3.5130  -3.3287  -3.1790  -2.9789  -2.9013
    -2.7724  -2.6052  -2.5253  -2.3904  -2.2629  -2.2389  -2.1642  -1.8811
    -1.5842  -1.4708  -1.3879  -0.9189  -0.8494  -0.7059  -0.5222  -0.2894
     0.2157   0.3453   0.5532   0.6437   0.7077   0.7453   0.9085   1.0099
     1.1812   1.3111   1.4136   1.5334   1.7647   2.2109   2.3522   2.4681
     2.5405   2.6672   2.7619   2.9442   4.0775   4.1210   4.2466   4.2724
     4.3843   5.2252   5.4028   6.0368   6.3882   6.5237   6.6158   7.5014
     8.1508   8.6698

          k =-0.3750-0.2479 0.0000 ( 41514 PWs)   bands (ev):

   -48.2203 -48.1503 -48.0911 -48.0866 -48.0387 -48.0101 -48.0027 -47.9861
   -47.9343 -47.8754 -47.8084 -47.7677 -47.7032 -47.7011 -47.6812 -47.6446
   -47.5808 -47.3838 -20.7921 -17.6763 -17.6026 -17.5213 -17.5076 -17.2900
   -17.2138 -17.0922 -17.0564 -17.0026 -16.7933 -15.5975 -15.3399 -14.3812
    -6.3936  -5.9320  -5.8077  -5.7660  -5.6663  -5.6519  -5.6306  -5.6148
    -5.5471  -5.4780  -5.4018  -5.1678  -4.7108  -4.5645  -4.2778  -4.1064
    -3.9946  -3.9163  -3.8160  -3.4309  -3.3358  -3.0987  -3.0595  -2.8465
    -2.7085  -2.6157  -2.5547  -2.3966  -2.3791  -2.3256  -2.1952  -1.8274
    -1.5144  -1.4893  -1.1823  -0.9464  -0.8226  -0.6860  -0.6639  -0.4173
    -0.2439   0.0835   0.2815   0.4946   0.6714   0.8428   0.8666   1.1346
     1.2809   1.3086   1.3872   1.4468   1.6655   2.2510   2.3490   2.5383
     2.7223   2.7553   2.8723   3.0675   3.6557   3.6628   3.8205   4.2882
     4.3782   5.2251   5.4406   6.4094   6.5732   6.9684   7.0247   7.5583
     8.2313   8.7799

          k =-0.3750-0.1240 0.0000 ( 41549 PWs)   bands (ev):

   -48.2189 -48.1512 -48.0918 -48.0863 -48.0349 -48.0101 -48.0066 -47.9861
   -47.9342 -47.8754 -47.8083 -47.7677 -47.7032 -47.7015 -47.6813 -47.6446
   -47.5808 -47.3839 -20.7922 -17.7283 -17.5758 -17.5232 -17.4694 -17.2550
   -17.1802 -17.1118 -17.0805 -17.0248 -16.7900 -15.5971 -15.3399 -14.3819
    -6.4017  -6.0590  -6.0073  -5.9787  -5.7044  -5.6239  -5.5477  -5.5157
    -5.3885  -5.3610  -5.2313  -5.1245  -4.6612  -4.5830  -4.5024  -4.2952
    -4.2228  -3.8901  -3.8152  -3.5122  -3.3347  -3.1741  -2.9812  -2.8837
    -2.7635  -2.6077  -2.5461  -2.3762  -2.2649  -2.2450  -2.2060  -1.9090
    -1.5882  -1.4386  -1.3585  -0.9151  -0.8434  -0.6257  -0.5226  -0.2974
     0.1897   0.3382   0.5152   0.6375   0.7101   0.7396   0.9148   1.0104
     1.1944   1.3065   1.4046   1.4630   1.8484   2.2089   2.3521   2.4880
     2.5472   2.6420   2.7736   2.9307   4.0606   4.1039   4.2627   4.3002
     4.3787   5.2251   5.3828   6.0399   6.3931   6.5336   6.6183   7.4944
     8.1506   8.6698

          k =-0.2500 0.0000 0.0000 ( 41623 PWs)   bands (ev):

   -48.1966 -48.1543 -48.0888 -48.0792 -48.0148 -48.0125 -47.9898 -47.9486
   -47.8956 -47.8811 -47.7728 -47.7708 -47.7074 -47.6836 -47.6626 -47.6502
   -47.5863 -47.3896 -20.8329 -18.1815 -17.9098 -17.8044 -17.5665 -17.1860
   -17.0948 -17.0156 -16.9415 -16.8947 -16.8747 -15.6216 -15.3750 -14.4228
    -6.7466  -6.7140  -6.7032  -6.5151  -5.9150  -5.8829  -5.6147  -5.5126
    -5.4101  -5.2318  -5.0264  -4.8002  -4.5861  -4.4037  -4.1982  -4.0010
    -3.8537  -3.7914  -3.7496  -3.6804  -3.3283  -3.0820  -2.9293  -2.8608
    -2.6789  -2.5536  -2.4066  -2.3185  -2.3010  -2.2291  -2.0651  -1.8408
    -1.8285  -1.5318  -1.2977  -1.1056  -0.7581  -0.5080  -0.4119  -0.1264
     0.3109   0.3631   0.4774   0.5173   0.6629   0.7591   0.8354   1.2033
     1.3989   1.5158   1.7954   1.8294   1.8650   1.9264   2.1403   2.1843
     2.3516   2.6177   2.8533   2.9225   4.2881   4.8278   5.0464   5.2396
     5.3880   5.3941   5.4750   5.6272   5.6806   5.8917   6.5281   6.8753
     7.6635   7.7621

          k =-0.2500 0.1240 0.0000 ( 41653 PWs)   bands (ev):

   -48.1979 -48.1532 -48.0888 -48.0786 -48.0171 -48.0124 -47.9869 -47.9488
   -47.8956 -47.8811 -47.7733 -47.7709 -47.7077 -47.6836 -47.6625 -47.6502
   -47.5863 -47.3897 -20.8327 -18.0796 -17.7964 -17.6905 -17.6025 -17.2475
   -17.1518 -17.0795 -17.0575 -17.0088 -16.8594 -15.6210 -15.3742 -14.4217
    -6.5184  -6.3630  -6.3366  -6.3241  -5.9147  -5.8822  -5.5030  -5.4521
    -5.2581  -5.1319  -5.1005  -4.8421  -4.6252  -4.3743  -4.3278  -4.2987
    -4.1841  -4.0714  -3.9260  -3.4445  -3.3796  -3.1647  -2.9958  -2.8757
    -2.8118  -2.7556  -2.7209  -2.6476  -2.5294  -2.3059  -2.0750  -1.7754
    -1.5915  -1.5542  -1.3072  -1.0652  -0.8606  -0.4815  -0.3316  -0.2671
     0.1525   0.4397   0.6881   0.7390   0.9367   0.9782   1.0465   1.1659
     1.4474   1.5868   1.7199   1.8255   1.8987   1.9760   2.1096   2.1962
     2.2892   2.5375   2.6727   3.0804   4.3845   4.7295   4.7663   4.8646
     4.9027   5.2949   5.6549   5.7133   6.1113   6.2905   6.6579   7.0051
     7.6425   7.8321

          k =-0.2500-0.2479 0.0000 ( 41680 PWs)   bands (ev):

   -48.1980 -48.1531 -48.0887 -48.0784 -48.0188 -48.0123 -47.9846 -47.9489
   -47.8958 -47.8812 -47.7738 -47.7709 -47.7078 -47.6836 -47.6624 -47.6503
   -47.5863 -47.3899 -20.8325 -17.8961 -17.7343 -17.5217 -17.4768 -17.3980
   -17.3712 -17.2914 -17.0852 -17.0412 -16.8600 -15.6207 -15.3735 -14.4204
    -6.5165  -5.9247  -5.8857  -5.7038  -5.6767  -5.6665  -5.4820  -5.2069
    -5.1950  -5.1262  -5.0512  -5.0320  -4.9166  -4.8885  -4.7433  -4.5678
    -4.2167  -3.9499  -3.7708  -3.6529  -3.4994  -3.3968  -3.3524  -3.1520
    -3.0668  -2.9520  -2.8782  -2.7771  -2.7200  -2.3928  -2.1986  -1.4497
    -1.4191  -1.1666  -1.0989  -1.0044  -0.8835  -0.7604  -0.3097  -0.1899
     0.2417   0.2969   0.5804   0.7465   0.8244   1.1547   1.3097   1.3666
     1.5813   1.7153   1.8311   1.8628   1.9211   2.0125   2.0900   2.2064
     2.3627   2.4223   2.5770   3.1603   4.2639   4.2999   4.4101   4.5356
     4.9311   5.3238   5.6609   5.9640   6.3026   6.6502   6.8936   7.0944
     7.5631   7.9509

          k =-0.2500-0.1240 0.0000 ( 41653 PWs)   bands (ev):

   -48.1968 -48.1542 -48.0888 -48.0789 -48.0169 -48.0124 -47.9872 -47.9487
   -47.8957 -47.8811 -47.7733 -47.7709 -47.7075 -47.6836 -47.6625 -47.6503
   -47.5863 -47.3897 -20.8327 -18.0795 -17.7958 -17.6894 -17.6024 -17.2477
   -17.1513 -17.0796 -17.0572 -17.0115 -16.8596 -15.6212 -15.3742 -14.4215
    -6.5281  -6.3632  -6.3243  -6.3153  -5.9062  -5.8820  -5.4945  -5.4575
    -5.2693  -5.1321  -5.0962  -4.8351  -4.6276  -4.3806  -4.3386  -4.3016
    -4.1951  -4.0690  -3.9270  -3.4506  -3.3870  -3.1534  -2.9944  -2.8779
    -2.8023  -2.7672  -2.7206  -2.6407  -2.5330  -2.3146  -2.1117  -1.7989
    -1.5867  -1.5665  -1.2391  -1.0739  -0.7290  -0.4721  -0.3461  -0.2641
     0.0851   0.4689   0.5170   0.8103   0.9421   0.9756   1.0537   1.1661
     1.4550   1.5843   1.7434   1.7895   1.8791   1.9664   2.1839   2.2138
     2.3060   2.5115   2.6625   3.0732   4.3954   4.7257   4.7860   4.8646
     4.9019   5.2344   5.6533   5.7271   6.1144   6.3136   6.6650   7.0033
     7.6334   7.8319

          k =-0.1250 0.0000 0.0000 ( 41611 PWs)   bands (ev):

   -48.1819 -48.1569 -48.0915 -48.0597 -48.0179 -48.0148 -47.9502 -47.9103
   -47.8867 -47.8566 -47.7779 -47.7332 -47.7111 -47.6860 -47.6559 -47.6232
   -47.5918 -47.3952 -20.8733 -18.5436 -18.2163 -18.1039 -17.7872 -17.2962
   -17.0796 -16.9732 -16.8271 -16.7558 -16.6820 -15.5466 -15.3242 -14.4621
    -7.2320  -7.1986  -7.1807  -6.7762  -6.1389  -6.0769  -5.7184  -5.5905
    -5.5406  -5.4563  -5.1147  -5.0077  -4.7115  -4.5547  -4.5137  -4.1188
    -3.6540  -3.2665  -3.2230  -2.8455  -2.8156  -2.7030  -2.6745  -2.6615
    -2.4929  -2.4614  -2.1087  -2.0840  -1.8177  -1.7883  -1.6698  -1.5842
    -1.4831  -1.4233  -1.3054  -1.2549  -0.8577  -0.3588  -0.2156   0.0129
     0.0657   0.1243   0.1940   0.2793   0.3843   0.4065   0.5259   0.7769
     0.9135   0.9936   1.2457   1.6244   1.7806   2.0024   2.0908   2.2893
     2.5329   2.7590   2.9796   3.2972   4.0221   4.6715   5.2195   5.3734
     5.7242   5.9467   6.0964   6.1237   6.1567   6.2550   6.4799   6.5893
     7.2952   7.6277

          k =-0.1250 0.1240 0.0000 ( 41692 PWs)   bands (ev):

   -48.1824 -48.1561 -48.0912 -48.0594 -48.0173 -48.0148 -47.9496 -47.9105
   -47.8868 -47.8567 -47.7789 -47.7331 -47.7116 -47.6860 -47.6559 -47.6232
   -47.5918 -47.3956 -20.8729 -18.4174 -18.0731 -17.9750 -17.8256 -17.3278
   -17.1986 -16.9961 -16.9344 -16.8996 -16.8038 -15.5441 -15.3215 -14.4606
    -6.8030  -6.7304  -6.6952  -6.6666  -6.1374  -6.0741  -5.6259  -5.5638
    -5.4656  -5.3634  -5.1984  -4.8281  -4.6428  -4.5497  -4.4995  -4.0765
    -3.6088  -3.5345  -3.4485  -3.3208  -3.2228  -3.1575  -3.0917  -3.0137
    -2.9355  -2.7830  -2.6050  -2.3712  -2.2818  -1.9459  -1.7939  -1.5067
    -1.3543  -1.2897  -1.1791  -0.8979  -0.6502  -0.3548  -0.2187  -0.0560
     0.2074   0.3994   0.4655   0.5426   0.6924   0.7627   0.8593   0.9104
     0.9616   1.1568   1.3271   1.6761   1.8071   1.9914   2.1206   2.2663
     2.3396   2.7011   2.8578   3.1542   4.3527   4.9869   5.4190   5.4670
     5.6834   5.7126   5.9408   6.0026   6.0926   6.3379   6.4961   6.7232
     7.2845   7.5592

          k =-0.1250-0.2479 0.0000 ( 41706 PWs)   bands (ev):

   -48.1819 -48.1561 -48.0909 -48.0594 -48.0167 -48.0148 -47.9492 -47.9107
   -47.8868 -47.8567 -47.7799 -47.7331 -47.7121 -47.6860 -47.6559 -47.6232
   -47.5918 -47.3960 -20.8725 -18.1830 -18.0418 -17.8030 -17.6323 -17.4965
   -17.4728 -17.1497 -17.0337 -16.9339 -16.8846 -15.5423 -15.3192 -14.4592
    -6.7826  -6.1422  -6.0731  -5.8397  -5.7621  -5.6826  -5.6505  -5.5949
    -5.5342  -5.5143  -5.2181  -4.7570  -4.5523  -4.5158  -4.2632  -4.2304
    -4.0995  -4.0871  -3.9758  -3.9417  -3.8195  -3.6759  -3.5911  -3.2860
    -3.0702  -2.9215  -2.7450  -2.7199  -2.2680  -2.1204  -1.8518  -1.3769
    -1.1316  -1.0453  -0.8677  -0.7807  -0.5962  -0.3178  -0.2274  -0.1912
     0.2290   0.5224   0.5681   0.6321   0.7163   0.7802   1.0172   1.3483
     1.4369   1.5466   1.5799   1.7708   1.7872   1.9430   2.0456   2.1614
     2.3732   2.5040   2.6543   3.1292   4.6293   5.1426   5.2607   5.3006
     5.3440   5.5619   6.0895   6.1294   6.3604   6.4631   6.5769   6.8321
     7.2647   7.4162

          k =-0.1250-0.1240 0.0000 ( 41692 PWs)   bands (ev):

   -48.1813 -48.1570 -48.0912 -48.0597 -48.0173 -48.0148 -47.9497 -47.9105
   -47.8868 -47.8567 -47.7789 -47.7331 -47.7115 -47.6860 -47.6559 -47.6232
   -47.5918 -47.3956 -20.8729 -18.4173 -18.0728 -17.9747 -17.8254 -17.3280
   -17.1988 -16.9960 -16.9345 -16.8995 -16.8048 -15.5442 -15.3215 -14.4605
    -6.8080  -6.7318  -6.6853  -6.6646  -6.1318  -6.0748  -5.6242  -5.5557
    -5.4853  -5.3646  -5.1971  -4.8068  -4.6613  -4.5458  -4.4920  -4.0880
    -3.6141  -3.5330  -3.4473  -3.3289  -3.2227  -3.1622  -3.0897  -3.0162
    -2.9438  -2.7735  -2.6221  -2.3751  -2.2731  -1.9599  -1.8026  -1.5073
    -1.3557  -1.2740  -1.1718  -0.8324  -0.5558  -0.3543  -0.2273  -0.1447
     0.1455   0.3216   0.5125   0.5510   0.6940   0.7775   0.8711   0.9061
     0.9794   1.1532   1.3284   1.6744   1.7994   1.9913   2.1449   2.2652
     2.3483   2.6855   2.8647   3.1484   4.3609   4.9944   5.4213   5.4648
     5.6336   5.6983   5.9367   6.0502   6.0959   6.3391   6.4900   6.7413
     7.2832   7.5534

     the Fermi energy is     2.3335 ev

!    total energy              =   -1674.05701866 Ry
     estimated scf accuracy    <       0.00000060 Ry
     smearing contrib. (-TS)   =      -0.00066704 Ry
     internal energy E=F+TS    =   -1674.05635162 Ry

     The total energy is F=E-TS. E is the sum of the following terms:
     one-electron contribution =  -15400.28105042 Ry
     hartree contribution      =    7752.23712735 Ry
     xc contribution           =    -405.83516326 Ry
     ewald contribution        =    6513.09318697 Ry
     one-center paw contrib.   =    -133.27045226 Ry

     convergence has been achieved in  23 iterations

     negative rho (up, down):  1.909E+00 0.000E+00

     Forces acting on atoms (cartesian axes, Ry/au):

     atom    1 type  2   force =    -0.00010477   -0.00119750    0.03611056
     atom    2 type  2   force =    -0.00007621   -0.00132847   -0.03916497
     atom    3 type  2   force =     0.00000903    0.00038705    0.00008761
     atom    4 type  2   force =    -0.00001895    0.00191069   -0.00341560
     atom    5 type  2   force =    -0.01378665   -0.05412593    0.01342394
     atom    6 type  2   force =    -0.00082832    0.00096901    0.00276860
     atom    7 type  3   force =    -0.00048728    0.00034932   -0.00250036
     atom    8 type  3   force =    -0.00016081    0.00019548    0.03253704
     atom    9 type  3   force =     0.00025611    0.02166624   -0.02500429
     atom   10 type  3   force =    -0.00001425   -0.02039279   -0.02449441
     atom   11 type  3   force =     0.00263023    0.00696455   -0.01129465
     atom   12 type  3   force =    -0.00127435    0.00055063    0.01789973
     atom   13 type  3   force =     0.00047668   -0.00389114    0.00082376
     atom   14 type  3   force =     0.00100511    0.00413627    0.00150058
     atom   15 type  3   force =    -0.00000167   -0.00247987   -0.00453037
     atom   16 type  3   force =     0.00065650   -0.00119039   -0.00124512
     atom   17 type  3   force =     0.00821346   -0.00193478   -0.01355848
     atom   18 type  3   force =    -0.00806090   -0.00481191    0.00003225
     atom   19 type  3   force =    -0.01182382    0.08350994    0.03733112
     atom   20 type  3   force =     0.02688316   -0.02408554   -0.01600871
     atom   21 type  1   force =    -0.00349231   -0.00520087   -0.00129821

     Total force =     0.118426     Total SCF correction =     0.003600

     BFGS Geometry Optimization
     Energy error            =      1.2E-02 Ry
     Gradient error          =      8.4E-02 Ry/Bohr

     number of scf cycles    =   1
     number of bfgs steps    =   0

     energy             new  =   -1674.0570186565 Ry

     new trust radius        =       0.0922351612 bohr
     new conv_thr            =       0.0000010000 Ry


ATOMIC_POSITIONS (angstrom)
Ir               0.0000000000        4.7708494500        9.5416989100    0   0   0
Ir               1.5770000000        1.5902831500        9.5416989100    0   0   0
Ir              -0.0075144009        1.5904879676       12.7498905586
Ir               1.5740284011        4.7718605427       12.7261376019
Ir              -0.0032432799        4.7422072390       15.9707911030
Ir               1.5604727833        1.5907959277       15.9731581110
O                0.0000000000        1.5902831500       10.7821197600    0   0   0
O                0.0000000000        1.5902831500        8.3012780500    0   0   0
O                1.5770000000        3.5304285900        9.5416989100    0   0   0
O                1.5770000000        6.0112703100        9.5416989100    0   0   0
O               -0.0007798702        4.7745349307       13.9770034979
O                0.0000000000        4.7708494500       11.4818443500    0   0   0
O                1.5703308360        0.3693462486       12.7339215933
O                1.5706104732        2.8113497704       12.7342797531
O               -0.0142955816        1.5889708614       17.1542387525
O               -0.0161759636        1.5896532252       14.7241138989
O                1.5657857984        3.5409834081       15.9204902195
O                1.5571737730        5.9971452967       15.9276821273
O               -0.3712088481        4.8150410053       17.8595473188
O               -0.3507259968        3.8622804404       18.9417519434
H               -0.3667999992        4.5679678904       19.6421656894



     Writing config-only to output data dir ./tmp_s0_OOH__yaw270/s0_OOH__yaw270.save/ :
     XML data file
     NEW-OLD atomic charge density approx. for the potential

     negative rho (up, down):  1.909E+00 0.000E+00

     total cpu time spent up to now is     3306.5 secs

     per-process dynamical memory:  1181.3 Mb

     Self-consistent Calculation

     iteration #  1     ecut=    80.00 Ry     beta= 0.30
     Davidson diagonalization with overlap
     c_bands:  1 eigenvalues not converged
     ethr =  1.00E-06,  avg # of iterations =  8.7

     negative rho (up, down):  1.908E+00 0.000E+00

     total cpu time spent up to now is     3627.2 secs

     total energy              =   -1674.06842532 Ry
     estimated scf accuracy    <       0.00686313 Ry

     iteration #  2     ecut=    80.00 Ry     beta= 0.30
     Davidson diagonalization with overlap
     ethr =  3.92E-06,  avg # of iterations =  1.0

     negative rho (up, down):  1.909E+00 0.000E+00

     total cpu time spent up to now is     3762.7 secs

     total energy              =   -1674.06818962 Ry
     estimated scf accuracy    <       0.00214893 Ry

     iteration #  3     ecut=    80.00 Ry     beta= 0.30
     Davidson diagonalization with overlap
     ethr =  1.23E-06,  avg # of iterations =  1.0

     negative rho (up, down):  1.908E+00 0.000E+00

     total cpu time spent up to now is     3905.6 secs

     total energy              =   -1674.06789440 Ry
     estimated scf accuracy    <       0.00199844 Ry

     iteration #  4     ecut=    80.00 Ry     beta= 0.30
     Davidson diagonalization with overlap
     ethr =  1.14E-06,  avg # of iterations =  1.4

     negative rho (up, down):  1.908E+00 0.000E+00

     total cpu time spent up to now is     4045.3 secs

     total energy              =   -1674.06787154 Ry
     estimated scf accuracy    <       0.00027673 Ry

     iteration #  5     ecut=    80.00 Ry     beta= 0.30
     Davidson diagonalization with overlap
     ethr =  1.58E-07,  avg # of iterations =  2.0

     negative rho (up, down):  1.908E+00 0.000E+00

     total cpu time spent up to now is     4197.5 secs

     total energy              =   -1674.06788873 Ry
     estimated scf accuracy    <       0.00019220 Ry

     iteration #  6     ecut=    80.00 Ry     beta= 0.30
     Davidson diagonalization with overlap
     ethr =  1.10E-07,  avg # of iterations =  1.0

     negative rho (up, down):  1.909E+00 0.000E+00

     total cpu time spent up to now is     4334.1 secs

     total energy              =   -1674.06788574 Ry
     estimated scf accuracy    <       0.00008240 Ry

     iteration #  7     ecut=    80.00 Ry     beta= 0.30
     Davidson diagonalization with overlap
     ethr =  4.71E-08,  avg # of iterations =  1.0

     negative rho (up, down):  1.909E+00 0.000E+00

     total cpu time spent up to now is     4474.7 secs

     total energy              =   -1674.06788568 Ry
     estimated scf accuracy    <       0.00002516 Ry

     iteration #  8     ecut=    80.00 Ry     beta= 0.30
     Davidson diagonalization with overlap
     ethr =  1.44E-08,  avg # of iterations =  1.0

     negative rho (up, down):  1.909E+00 0.000E+00

     total cpu time spent up to now is     4617.0 secs

     total energy              =   -1674.06788520 Ry
     estimated scf accuracy    <       0.00000244 Ry

     iteration #  9     ecut=    80.00 Ry     beta= 0.30
     Davidson diagonalization with overlap
     ethr =  1.39E-09,  avg # of iterations =  1.9

     negative rho (up, down):  1.908E+00 0.000E+00

     total cpu time spent up to now is     4763.8 secs

     total energy              =   -1674.06788424 Ry
     estimated scf accuracy    <       0.00000115 Ry

     iteration # 10     ecut=    80.00 Ry     beta= 0.30
     Davidson diagonalization with overlap
     ethr =  6.57E-10,  avg # of iterations =  2.0

     negative rho (up, down):  1.908E+00 0.000E+00

     total cpu time spent up to now is     4939.4 secs

     End of self-consistent calculation

          k = 0.0000 0.0000 0.0000 ( 41611 PWs)   bands (ev):

   -48.1774 -48.1212 -48.1087 -48.0471 -48.0305 -48.0083 -47.9460 -47.9175
   -47.9115 -47.8639 -47.7940 -47.7339 -47.7066 -47.6807 -47.6672 -47.6240
   -47.6111 -47.4165 -20.6810 -18.6935 -18.3520 -18.2373 -17.8940 -17.3764
   -17.1847 -16.8737 -16.7642 -16.6916 -16.5910 -15.5296 -15.2985 -14.3995
    -7.4342  -7.3805  -7.3734  -6.8461  -6.1292  -5.9819  -5.7521  -5.6012
    -5.5439  -5.5151  -5.2037  -5.0393  -5.0254  -4.8484  -4.7664  -4.2943
    -3.5279  -3.3492  -2.8360  -2.7903  -2.6313  -2.3929  -2.3498  -2.2546
    -2.1596  -2.0243  -1.9984  -1.9172  -1.8192  -1.7333  -1.5203  -1.5007
    -1.3677  -1.0699  -0.8051  -0.7067  -0.5276  -0.3244  -0.2119  -0.0934
    -0.0676  -0.0568  -0.0434  -0.0261   0.0228   0.0615   0.0630   0.4044
     0.6449   0.8358   0.8542   1.4278   1.5821   1.6714   2.1875   2.3726
     2.5766   2.6863   3.1180   3.4424   3.8521   4.4879   5.0223   5.4542
     5.8767   6.0291   6.3528   6.4803   6.4875   6.5055   6.5694   6.8996
     7.0971   7.3860

          k = 0.0000 0.1240 0.0000 ( 41688 PWs)   bands (ev):

   -48.1768 -48.1213 -48.1084 -48.0460 -48.0304 -48.0083 -47.9457 -47.9177
   -47.9115 -47.8639 -47.7952 -47.7338 -47.7066 -47.6807 -47.6678 -47.6241
   -47.6111 -47.4170 -20.6805 -18.5608 -18.2043 -18.1073 -17.9341 -17.4121
   -17.2870 -16.9313 -16.8825 -16.8296 -16.7290 -15.5266 -15.2952 -14.3979
    -6.9293  -6.8788  -6.8444  -6.8032  -6.1316  -5.9586  -5.6723  -5.5437
    -5.5234  -5.4252  -5.1354  -5.0376  -4.9250  -4.8470  -4.7202  -4.1532
    -3.7108  -3.5242  -3.4114  -3.2724  -3.1703  -2.9439  -2.9044  -2.6107
    -2.5489  -2.5144  -2.3539  -2.0819  -1.9388  -1.6864  -1.6520  -1.5219
    -1.3404  -1.1079  -0.9485  -0.6809  -0.5063  -0.3738  -0.2313  -0.0730
    -0.0043   0.3098   0.4296   0.4985   0.5427   0.5650   0.5878   0.6411
     0.7134   0.8584   0.9886   1.4255   1.5897   1.7388   2.2119   2.3521
     2.4186   2.6933   2.8760   3.2425   4.3018   4.9098   5.4869   5.7094
     5.8827   6.1228   6.1861   6.1953   6.2051   6.5319   6.5752   6.9026
     7.0528   7.4556

          k = 0.0000-0.2479 0.0000 ( 41774 PWs)   bands (ev):

   -48.1761 -48.1213 -48.1080 -48.0450 -48.0304 -48.0083 -47.9455 -47.9179
   -47.9116 -47.8640 -47.7964 -47.7338 -47.7066 -47.6807 -47.6683 -47.6241
   -47.6112 -47.4174 -20.6800 -18.3109 -18.1805 -17.9422 -17.7628 -17.5614
   -17.5331 -17.1013 -17.0032 -16.8733 -16.8191 -15.5246 -15.2925 -14.3964
    -6.8550  -6.1348  -6.0795  -6.0176  -5.9199  -5.9038  -5.5828  -5.5394
    -5.4408  -5.3227  -5.1155  -5.0342  -4.8450  -4.7699  -4.5385  -4.4439
    -4.4423  -4.3819  -4.2009  -3.8478  -3.4794  -3.3810  -2.9958  -2.9447
    -2.8793  -2.7454  -2.5968  -2.4554  -1.9848  -1.6965  -1.6826  -1.2602
    -1.2428  -0.9918  -0.9052  -0.7184  -0.4755  -0.3230  -0.2953  -0.2056
     0.0557   0.3705   0.6237   0.6771   0.8046   0.8179   0.8520   1.0715
     1.1040   1.2248   1.3829   1.5190   1.6576   1.6741   1.9674   2.2611
     2.3974   2.5757   2.7217   3.0931   4.7144   5.0329   5.8307   5.8730
     5.8801   5.8935   6.0043   6.2222   6.3689   6.5759   6.7478   6.9042
     6.9886   7.2232

          k = 0.0000-0.1240 0.0000 ( 41688 PWs)   bands (ev):

   -48.1768 -48.1213 -48.1084 -48.0460 -48.0304 -48.0083 -47.9457 -47.9177
   -47.9115 -47.8639 -47.7952 -47.7338 -47.7066 -47.6807 -47.6678 -47.6241
   -47.6111 -47.4170 -20.6805 -18.5608 -18.2043 -18.1073 -17.9341 -17.4121
   -17.2870 -16.9313 -16.8825 -16.8296 -16.7290 -15.5266 -15.2952 -14.3979
    -6.9293  -6.8788  -6.8444  -6.8032  -6.1316  -5.9586  -5.6723  -5.5437
    -5.5234  -5.4252  -5.1354  -5.0376  -4.9250  -4.8470  -4.7202  -4.1532
    -3.7108  -3.5242  -3.4114  -3.2724  -3.1703  -2.9439  -2.9044  -2.6107
    -2.5489  -2.5144  -2.3539  -2.0819  -1.9388  -1.6864  -1.6520  -1.5219
    -1.3404  -1.1079  -0.9485  -0.6809  -0.5063  -0.3738  -0.2313  -0.0730
    -0.0043   0.3098   0.4296   0.4985   0.5427   0.5650   0.5878   0.6411
     0.7134   0.8584   0.9886   1.4255   1.5897   1.7388   2.2119   2.3521
     2.4186   2.6933   2.8760   3.2425   4.3018   4.9098   5.4869   5.7094
     5.8827   6.1228   6.1861   6.1953   6.2051   6.5319   6.5752   6.9026
     7.0528   7.4556

          k = 0.1250 0.0000 0.0000 ( 41611 PWs)   bands (ev):

   -48.1762 -48.1278 -48.1076 -48.0458 -48.0294 -48.0160 -47.9624 -47.9323
   -47.9104 -47.8802 -47.7919 -47.7496 -47.7056 -47.6784 -47.6657 -47.6404
   -47.6088 -47.4142 -20.6639 -18.5546 -18.2299 -18.1181 -17.7955 -17.3111
   -17.0947 -16.9349 -16.8436 -16.7713 -16.6715 -15.5816 -15.3406 -14.3832
    -7.2493  -7.1997  -7.1948  -6.6796  -6.0921  -5.9643  -5.7247  -5.5901
    -5.5376  -5.4678  -5.1314  -4.9925  -4.7293  -4.5701  -4.5226  -4.1214
    -3.6464  -3.2713  -3.2084  -2.8526  -2.8031  -2.7139  -2.6815  -2.6508
    -2.4948  -2.4487  -2.1203  -2.0648  -1.8260  -1.7966  -1.6882  -1.5833
    -1.4945  -1.4081  -1.3275  -1.2525  -0.8602  -0.4023  -0.2322   0.0045
     0.0589   0.0807   0.1971   0.2918   0.3700   0.4013   0.5068   0.7672
     0.9194   0.9807   1.2237   1.5650   1.7659   1.9975   2.0571   2.2671
     2.5238   2.7440   2.9629   3.2806   4.0482   4.6918   5.2112   5.3726
     5.7297   5.9325   6.0933   6.1101   6.1395   6.2389   6.4637   6.5457
     7.2410   7.6205

          k = 0.1250 0.1240 0.0000 ( 41692 PWs)   bands (ev):

   -48.1756 -48.1280 -48.1073 -48.0451 -48.0294 -48.0161 -47.9620 -47.9326
   -47.9104 -47.8802 -47.7929 -47.7496 -47.7056 -47.6784 -47.6661 -47.6404
   -47.6089 -47.4145 -20.6635 -18.4278 -18.0876 -17.9881 -17.8349 -17.3426
   -17.2093 -16.9971 -16.9385 -16.8959 -16.7904 -15.5794 -15.3378 -14.3817
    -6.7663  -6.7176  -6.6903  -6.6483  -6.0937  -5.9466  -5.6302  -5.5549
    -5.4808  -5.3790  -5.2101  -4.8056  -4.6748  -4.5634  -4.5061  -4.0799
    -3.6077  -3.5497  -3.4518  -3.3309  -3.2131  -3.1774  -3.1004  -3.0057
    -2.9654  -2.7714  -2.6218  -2.3610  -2.2217  -1.9558  -1.8085  -1.5229
    -1.3656  -1.2894  -1.1664  -0.8376  -0.5754  -0.3748  -0.2507  -0.2069
     0.1715   0.3213   0.4959   0.5366   0.6877   0.7763   0.8662   0.9121
     0.9711   1.1404   1.3057   1.6178   1.7816   1.9829   2.1158   2.2633
     2.3231   2.6635   2.8454   3.1302   4.4025   5.0097   5.4221   5.4565
     5.6384   5.6845   5.9210   6.0473   6.0840   6.3192   6.4718   6.6942
     7.2155   7.4711

          k = 0.1250-0.2479 0.0000 ( 41706 PWs)   bands (ev):

   -48.1757 -48.1276 -48.1070 -48.0445 -48.0294 -48.0159 -47.9615 -47.9328
   -47.9104 -47.8803 -47.7938 -47.7495 -47.7056 -47.6784 -47.6666 -47.6404
   -47.6089 -47.4149 -20.6630 -18.1914 -18.0528 -17.8244 -17.6576 -17.5118
   -17.4611 -17.1724 -17.0434 -16.9116 -16.8649 -15.5777 -15.3356 -14.3803
    -6.6856  -6.0955  -5.9539  -5.8457  -5.7752  -5.6960  -5.6646  -5.5837
    -5.5319  -5.5217  -5.2331  -4.7729  -4.5696  -4.5269  -4.2757  -4.2454
    -4.1216  -4.1000  -3.9767  -3.9577  -3.8191  -3.6635  -3.6011  -3.2795
    -3.0519  -2.9025  -2.7803  -2.6526  -2.1950  -2.1281  -1.8689  -1.3995
    -1.1407  -1.0589  -0.8807  -0.7642  -0.6144  -0.3426  -0.2872  -0.2425
     0.2457   0.5290   0.5504   0.6147   0.7050   0.8130   1.0130   1.3329
     1.4314   1.5286   1.5651   1.7534   1.7696   1.8856   2.0311   2.1550
     2.3519   2.4767   2.6343   3.1146   4.6955   5.1311   5.2439   5.2992
     5.3303   5.5824   6.0742   6.1308   6.3483   6.4498   6.5449   6.8123
     7.0939   7.4023

          k = 0.1250-0.1240 0.0000 ( 41692 PWs)   bands (ev):

   -48.1763 -48.1274 -48.1073 -48.0452 -48.0294 -48.0159 -47.9619 -47.9326
   -47.9104 -47.8802 -47.7929 -47.7496 -47.7056 -47.6784 -47.6662 -47.6404
   -47.6089 -47.4145 -20.6635 -18.4279 -18.0889 -17.9893 -17.8352 -17.3423
   -17.2089 -16.9974 -16.9381 -16.8965 -16.7867 -15.5793 -15.3378 -14.3817
    -6.7653  -6.7179  -6.6954  -6.6556  -6.0938  -5.9507  -5.6325  -5.5654
    -5.4598  -5.3772  -5.2115  -4.8234  -4.6618  -4.5670  -4.5125  -4.0856
    -3.5982  -3.5463  -3.4536  -3.3326  -3.2235  -3.1664  -3.1040  -3.0070
    -2.9252  -2.7803  -2.5818  -2.3304  -2.2506  -1.9499  -1.8000  -1.5220
    -1.3642  -1.2967  -1.1725  -0.9222  -0.6737  -0.3712  -0.2394  -0.1140
     0.2071   0.3745   0.4664   0.5363   0.6906   0.7651   0.8556   0.8987
     0.9634   1.1455   1.3083   1.6221   1.7891   1.9832   2.0810   2.2552
     2.3189   2.6884   2.8412   3.1387   4.3945   5.0014   5.4259   5.4591
     5.6675   5.7187   5.9209   5.9830   6.0778   6.3201   6.4809   6.6752
     7.2227   7.4817

          k = 0.2500 0.0000 0.0000 ( 41623 PWs)   bands (ev):

   -48.1734 -48.1488 -48.1049 -48.0426 -48.0299 -48.0270 -48.0020 -47.9706
   -47.9191 -47.9049 -47.7873 -47.7868 -47.7032 -47.6799 -47.6727 -47.6617
   -47.6034 -47.4085 -20.6225 -18.1945 -17.9247 -17.8220 -17.5813 -17.1977
   -17.0575 -17.0299 -16.9569 -16.9112 -16.8503 -15.6594 -15.3912 -14.3435
    -6.7647  -6.7206  -6.7113  -6.3058  -5.9001  -5.8551  -5.6272  -5.4961
    -5.4142  -5.2429  -5.0362  -4.7962  -4.5745  -4.4264  -4.2122  -4.0036
    -3.8370  -3.8044  -3.7582  -3.6794  -3.2924  -3.1011  -2.9339  -2.8223
    -2.6973  -2.5714  -2.4163  -2.3313  -2.2977  -2.2343  -2.0774  -1.8519
    -1.7936  -1.5474  -1.2662  -1.1345  -0.7506  -0.5232  -0.4322  -0.1706
     0.2914   0.3674   0.4586   0.5008   0.6496   0.7477   0.8325   1.1894
     1.3931   1.4715   1.7553   1.8164   1.8477   1.9150   2.1254   2.1645
     2.3391   2.5984   2.8345   2.9064   4.3342   4.8179   5.0627   5.2450
     5.3659   5.3867   5.4577   5.6127   5.6672   5.8926   6.5085   6.8388
     7.4480   7.7519

          k = 0.2500 0.1240 0.0000 ( 41653 PWs)   bands (ev):

   -48.1741 -48.1480 -48.1049 -48.0438 -48.0298 -48.0270 -48.0002 -47.9707
   -47.9193 -47.9049 -47.7873 -47.7872 -47.7032 -47.6797 -47.6727 -47.6618
   -47.6034 -47.4087 -20.6222 -18.0923 -17.8118 -17.7093 -17.6149 -17.2585
   -17.1491 -17.0957 -17.0566 -16.9816 -16.8612 -15.6591 -15.3904 -14.3421
    -6.3828  -6.3493  -6.3409  -6.2767  -5.8992  -5.8406  -5.4783  -5.4629
    -5.2829  -5.1453  -5.1033  -4.8352  -4.6356  -4.3850  -4.3466  -4.3020
    -4.2054  -4.0670  -3.9357  -3.4531  -3.3518  -3.1762  -2.9851  -2.8904
    -2.8096  -2.7703  -2.7380  -2.6331  -2.5369  -2.3004  -2.0942  -1.8035
    -1.5994  -1.5642  -1.2335  -1.1013  -0.7094  -0.4909  -0.3703  -0.2964
     0.0359   0.4699   0.5181   0.7851   0.9255   0.9859   1.0600   1.1487
     1.4491   1.5455   1.7251   1.7530   1.8627   1.9531   2.1716   2.2029
     2.2860   2.4872   2.6373   3.0565   4.4359   4.7138   4.7900   4.8499
     4.8899   5.2710   5.6370   5.7228   6.1083   6.2966   6.6376   6.9554
     7.4255   7.8205

          k = 0.2500-0.2479 0.0000 ( 41680 PWs)   bands (ev):

   -48.1764 -48.1456 -48.1048 -48.0450 -48.0296 -48.0270 -47.9983 -47.9710
   -47.9193 -47.9049 -47.7877 -47.7873 -47.7032 -47.6796 -47.6727 -47.6621
   -47.6034 -47.4088 -20.6220 -17.9090 -17.7489 -17.5704 -17.4829 -17.4347
   -17.3206 -17.3105 -17.0957 -16.9942 -16.8652 -15.6587 -15.3897 -14.3409
    -6.3039  -5.9039  -5.8648  -5.7258  -5.6865  -5.6678  -5.4539  -5.2153
    -5.2075  -5.1310  -5.0646  -5.0474  -4.9166  -4.8998  -4.7477  -4.5766
    -4.2335  -3.9541  -3.7771  -3.6526  -3.5167  -3.4077  -3.3619  -3.1275
    -3.0585  -2.9689  -2.8944  -2.7702  -2.6632  -2.3478  -2.1910  -1.4692
    -1.4133  -1.1713  -1.1164  -1.0236  -0.8840  -0.7772  -0.3412  -0.2466
     0.2372   0.2681   0.5973   0.7425   0.7926   1.1791   1.2893   1.3498
     1.5712   1.6752   1.8124   1.8476   1.9034   1.9969   2.0496   2.1905
     2.3480   2.4079   2.5628   3.1442   4.2678   4.2879   4.3932   4.5799
     4.9156   5.3662   5.6455   5.9471   6.3063   6.6332   6.8746   7.0069
     7.3907   7.9371

          k = 0.2500-0.1240 0.0000 ( 41653 PWs)   bands (ev):

   -48.1759 -48.1463 -48.1049 -48.0439 -48.0297 -48.0270 -48.0000 -47.9708
   -47.9192 -47.9049 -47.7873 -47.7873 -47.7032 -47.6797 -47.6727 -47.6620
   -47.6034 -47.4087 -20.6222 -18.0925 -17.8146 -17.7125 -17.6151 -17.2582
   -17.1492 -17.0952 -17.0557 -16.9776 -16.8588 -15.6589 -15.3904 -14.3422
    -6.3832  -6.3458  -6.3411  -6.3000  -5.8990  -5.8518  -5.4911  -5.4539
    -5.2723  -5.1466  -5.1056  -4.8420  -4.6373  -4.3826  -4.3382  -4.2835
    -4.1996  -4.0806  -3.9342  -3.4607  -3.3392  -3.1665  -2.9935  -2.8869
    -2.8232  -2.7417  -2.7373  -2.6310  -2.5187  -2.2932  -2.0576  -1.7746
    -1.5926  -1.5524  -1.3058  -1.0919  -0.8689  -0.5026  -0.3431  -0.2982
     0.0958   0.4354   0.6663   0.7401   0.9229   0.9827   1.0449   1.1484
     1.4369   1.5520   1.6991   1.7926   1.8762   1.9596   2.0820   2.1805
     2.2772   2.5267   2.6594   3.0645   4.4282   4.7144   4.7716   4.8486
     4.8898   5.3215   5.6384   5.7098   6.1004   6.2661   6.6248   6.9720
     7.4468   7.8206

          k = 0.3750 0.0000 0.0000 ( 41645 PWs)   bands (ev):

   -48.1766 -48.1697 -48.1022 -48.0417 -48.0400 -48.0381 -48.0245 -48.0079
   -47.9576 -47.8993 -47.8247 -47.7816 -47.7191 -47.7008 -47.6671 -47.6575
   -47.5979 -47.4028 -20.5810 -17.7763 -17.6050 -17.5185 -17.4698 -17.2122
   -17.1580 -17.1339 -17.0911 -17.0151 -16.7955 -15.6354 -15.3560 -14.3030
    -6.1963  -6.1882  -6.1286  -6.0814  -5.6786  -5.5960  -5.5009  -5.4550
    -5.4115  -5.1972  -5.0933  -4.9130  -4.7725  -4.7303  -4.6778  -4.5527
    -4.1586  -3.8374  -3.7231  -3.6391  -3.2832  -3.2483  -3.1484  -3.0937
    -2.9022  -2.6003  -2.4763  -2.4315  -2.2722  -2.0607  -2.0032  -1.8335
    -1.7526  -1.6724  -1.1242  -0.9611  -0.6681  -0.5702  -0.4992  -0.1824
     0.3009   0.4401   0.5353   0.6346   0.8190   0.8481   0.9830   1.0730
     1.2827   1.3751   1.4619   1.6611   1.7923   1.9758   2.1625   2.2090
     2.3408   2.6913   2.7474   2.8449   4.2024   4.3208   4.8121   4.8380
     4.9506   5.2005   5.2525   5.4060   5.7622   5.8453   6.4214   7.2073
     7.9886   8.5528

          k = 0.3750 0.1240 0.0000 ( 41549 PWs)   bands (ev):

   -48.1825 -48.1639 -48.1024 -48.0516 -48.0384 -48.0297 -48.0243 -48.0079
   -47.9578 -47.8992 -47.8248 -47.7816 -47.7187 -47.7008 -47.6670 -47.6574
   -47.5979 -47.4028 -20.5808 -17.7466 -17.5933 -17.5466 -17.4934 -17.2696
   -17.1393 -17.1257 -17.0923 -16.9875 -16.7990 -15.6361 -15.3560 -14.3020
    -6.1331  -6.0707  -6.0183  -5.9696  -5.7032  -5.6365  -5.5515  -5.5248
    -5.4001  -5.3701  -5.2438  -5.0993  -4.6692  -4.5884  -4.5061  -4.3044
    -4.2380  -3.9070  -3.7912  -3.5005  -3.3299  -3.1808  -2.9851  -2.8867
    -2.7587  -2.6230  -2.5344  -2.3848  -2.2804  -2.2426  -2.1884  -1.9108
    -1.5888  -1.4444  -1.3449  -0.9418  -0.8563  -0.6190  -0.5211  -0.3146
     0.1361   0.3337   0.4952   0.6150   0.7079   0.7502   0.9012   0.9937
     1.1110   1.2895   1.3860   1.4491   1.8257   2.1851   2.3348   2.4714
     2.5329   2.6304   2.7613   2.9142   4.0582   4.1086   4.2493   4.3124
     4.3692   5.2068   5.4381   6.0362   6.3835   6.5162   6.6032   7.2575
     8.0670   8.6559

          k = 0.3750-0.2479 0.0000 ( 41514 PWs)   bands (ev):

   -48.1873 -48.1592 -48.1027 -48.0563 -48.0382 -48.0259 -48.0234 -48.0080
   -47.9579 -47.8992 -47.8248 -47.7816 -47.7184 -47.7008 -47.6670 -47.6574
   -47.5979 -47.4028 -20.5807 -17.6965 -17.6192 -17.5562 -17.5227 -17.3066
   -17.1626 -17.1089 -17.0694 -16.9653 -16.8026 -15.6367 -15.3561 -14.3012
    -6.1072  -5.9457  -5.8228  -5.7818  -5.6830  -5.6578  -5.6345  -5.5921
    -5.5619  -5.4880  -5.4214  -5.1352  -4.7202  -4.5777  -4.2739  -4.1225
    -4.0102  -3.9301  -3.8018  -3.4300  -3.3380  -3.1079  -3.0585  -2.8416
    -2.7221  -2.6060  -2.5536  -2.3955  -2.3638  -2.3003  -2.1685  -1.8396
    -1.5329  -1.4921  -1.1959  -0.9596  -0.8265  -0.6998  -0.6731  -0.4391
    -0.2367   0.0629   0.2719   0.4323   0.6429   0.8545   0.8689   1.1173
     1.2395   1.2900   1.3464   1.4152   1.6435   2.2299   2.3335   2.5223
     2.7086   2.7378   2.8717   3.0521   3.6372   3.6755   3.8037   4.3169
     4.3611   5.2067   5.4961   6.3928   6.5772   6.9461   7.0081   7.3133
     8.1602   8.7646

          k = 0.3750-0.1240 0.0000 ( 41549 PWs)   bands (ev):

   -48.1843 -48.1621 -48.1024 -48.0519 -48.0383 -48.0294 -48.0243 -48.0080
   -47.9577 -47.8992 -47.8248 -47.7816 -47.7187 -47.7008 -47.6671 -47.6575
   -47.5979 -47.4028 -20.5808 -17.7467 -17.5953 -17.5501 -17.4949 -17.2701
   -17.1372 -17.1253 -17.0924 -16.9811 -16.7990 -15.6359 -15.3560 -14.3021
    -6.1251  -6.0794  -6.0123  -5.9928  -5.7125  -5.6361  -5.5595  -5.5365
    -5.4053  -5.3580  -5.2451  -5.0771  -4.6911  -4.5863  -4.4818  -4.2888
    -4.2335  -3.9044  -3.8132  -3.4880  -3.3307  -3.1802  -2.9881  -2.9016
    -2.7493  -2.6224  -2.5201  -2.3939  -2.2792  -2.2458  -2.1311  -1.8744
    -1.5624  -1.4703  -1.3905  -0.9456  -0.8644  -0.7065  -0.5360  -0.3070
     0.1650   0.3425   0.5396   0.6134   0.7071   0.7496   0.8988   0.9933
     1.1001   1.2922   1.3948   1.5055   1.7366   2.1891   2.3351   2.4537
     2.5281   2.6638   2.7513   2.9284   4.0624   4.1233   4.2510   4.2775
     4.3713   5.2068   5.4537   6.0339   6.3765   6.5029   6.5987   7.2803
     8.0688   8.6559

          k =-0.5000 0.0000 0.0000 ( 41440 PWs)   bands (ev):

   -48.1885 -48.1690 -48.1010 -48.0578 -48.0424 -48.0382 -48.0239 -48.0219
   -47.9733 -47.8969 -47.8401 -47.7795 -47.7352 -47.6999 -47.6647 -47.6556
   -47.5956 -47.4004 -20.5637 -17.5789 -17.4925 -17.4300 -17.3944 -17.2836
   -17.2047 -17.2017 -17.0753 -17.0418 -16.7828 -15.5882 -15.3140 -14.2860
    -6.1376  -6.0304  -5.8231  -5.7937  -5.6646  -5.6471  -5.5610  -5.4795
    -5.3569  -5.2790  -5.0563  -4.9652  -4.9251  -4.8064  -4.7291  -4.6030
    -4.5253  -3.7450  -3.4667  -3.4559  -3.4395  -3.4264  -3.1653  -3.1210
    -3.0279  -2.5898  -2.5775  -2.4734  -2.2293  -1.9237  -1.8831  -1.7614
    -1.6172  -1.1836  -0.9676  -0.9524  -0.9372  -0.5420  -0.4792  -0.1569
     0.4292   0.4849   0.4995   0.5121   0.7252   0.7820   0.8590   0.8739
     1.0534   1.1953   1.3743   1.4858   1.5916   1.8451   2.1569   2.3885
     2.5080   2.5654   2.9019   3.0619   4.0459   4.1950   4.6215   4.6530
     4.7789   5.1118   5.2966   5.4985   5.7245   5.7712   6.4634   7.2827
     8.7872   9.1854

          k =-0.5000 0.1240 0.0000 ( 41518 PWs)   bands (ev):

   -48.1933 -48.1644 -48.1014 -48.0636 -48.0419 -48.0332 -48.0239 -48.0217
   -47.9734 -47.8969 -47.8402 -47.7793 -47.7348 -47.6999 -47.6647 -47.6555
   -47.5956 -47.4003 -20.5636 -17.6005 -17.5758 -17.5699 -17.5120 -17.1942
   -17.1315 -17.0746 -17.0490 -16.9725 -16.7864 -15.5880 -15.3133 -14.2853
    -6.1287  -6.0581  -5.9683  -5.8825  -5.8582  -5.7512  -5.7097  -5.6480
    -5.5307  -5.3425  -5.1457  -4.8976  -4.8806  -4.6208  -4.2533  -4.0961
    -3.8879  -3.6713  -3.5318  -3.5131  -3.4800  -3.3734  -3.3198  -3.1552
    -2.7210  -2.3919  -2.3138  -2.2598  -2.1663  -2.1438  -2.0090  -1.8454
    -1.4460  -1.3599  -0.9829  -0.9165  -0.8649  -0.7517  -0.7038  -0.2761
     0.1729   0.3458   0.4281   0.5025   0.5280   0.5803   0.7256   0.8139
     0.8208   0.8886   0.9172   1.2562   1.5155   2.3614   2.5331   2.5481
     2.6914   2.7510   2.8828   2.9985   3.8436   3.9166   4.0441   4.1035
     4.2298   5.1137   5.5342   6.2086   6.5272   6.5409   6.6108   7.3372
     8.8438   9.3419

          k =-0.5000-0.2479 0.0000 ( 41524 PWs)   bands (ev):

   -48.1968 -48.1610 -48.1018 -48.0677 -48.0416 -48.0297 -48.0239 -48.0212
   -47.9735 -47.8969 -47.8403 -47.7791 -47.7343 -47.6999 -47.6647 -47.6554
   -47.5956 -47.4002 -20.5635 -17.6710 -17.6549 -17.5828 -17.5727 -17.1859
   -17.0571 -17.0473 -16.9880 -16.8974 -16.7900 -15.5879 -15.3126 -14.2846
    -6.2780  -6.1304  -6.0976  -6.0877  -5.8923  -5.7280  -5.6413  -5.5794
    -5.5582  -5.3807  -5.1539  -4.9900  -4.8840  -4.7431  -4.0168  -3.6902
    -3.5929  -3.5058  -3.4725  -3.4370  -3.3095  -3.1452  -2.9814  -2.8131
    -2.7568  -2.6840  -2.5380  -2.1791  -2.1328  -2.0959  -1.9347  -1.7939
    -1.3355  -1.2792  -1.2374  -0.9006  -0.8773  -0.8687  -0.7691  -0.4554
    -0.3461  -0.1168   0.0856   0.2328   0.5076   0.5410   0.5698   0.7277
     0.8419   0.8805   1.0081   1.0787   1.5253   2.3898   2.5163   2.6324
     2.9143   2.9457   2.9714   3.0832   3.4483   3.4964   3.6355   4.1448
     4.2516   5.1154   5.5680   6.6039   6.7265   7.0362   7.1443   7.3915
     8.9037   9.5015

          k =-0.5000-0.1240 0.0000 ( 41518 PWs)   bands (ev):

   -48.1933 -48.1644 -48.1014 -48.0636 -48.0419 -48.0332 -48.0239 -48.0217
   -47.9734 -47.8969 -47.8402 -47.7793 -47.7348 -47.6999 -47.6647 -47.6555
   -47.5956 -47.4003 -20.5636 -17.6005 -17.5758 -17.5699 -17.5120 -17.1942
   -17.1315 -17.0746 -17.0490 -16.9725 -16.7864 -15.5880 -15.3133 -14.2853
    -6.1287  -6.0581  -5.9683  -5.8825  -5.8582  -5.7512  -5.7097  -5.6480
    -5.5307  -5.3425  -5.1457  -4.8976  -4.8806  -4.6208  -4.2533  -4.0961
    -3.8879  -3.6713  -3.5318  -3.5131  -3.4800  -3.3734  -3.3198  -3.1552
    -2.7210  -2.3919  -2.3138  -2.2598  -2.1663  -2.1438  -2.0090  -1.8454
    -1.4460  -1.3599  -0.9829  -0.9165  -0.8649  -0.7517  -0.7038  -0.2761
     0.1729   0.3458   0.4281   0.5025   0.5280   0.5803   0.7256   0.8139
     0.8208   0.8886   0.9172   1.2562   1.5155   2.3614   2.5331   2.5481
     2.6914   2.7510   2.8828   2.9985   3.8436   3.9166   4.0441   4.1035
     4.2298   5.1137   5.5342   6.2086   6.5272   6.5409   6.6108   7.3372
     8.8438   9.3419

          k =-0.3750 0.0000 0.0000 ( 41645 PWs)   bands (ev):

   -48.1766 -48.1697 -48.1022 -48.0417 -48.0400 -48.0381 -48.0245 -48.0079
   -47.9576 -47.8993 -47.8247 -47.7816 -47.7191 -47.7008 -47.6671 -47.6575
   -47.5979 -47.4028 -20.5810 -17.7763 -17.6050 -17.5185 -17.4698 -17.2122
   -17.1580 -17.1339 -17.0911 -17.0151 -16.7955 -15.6354 -15.3560 -14.3030
    -6.1963  -6.1882  -6.1286  -6.0814  -5.6786  -5.5960  -5.5009  -5.4550
    -5.4115  -5.1972  -5.0933  -4.9130  -4.7725  -4.7303  -4.6778  -4.5527
    -4.1586  -3.8374  -3.7231  -3.6391  -3.2832  -3.2483  -3.1484  -3.0937
    -2.9022  -2.6003  -2.4763  -2.4315  -2.2722  -2.0607  -2.0032  -1.8335
    -1.7526  -1.6724  -1.1242  -0.9611  -0.6681  -0.5702  -0.4992  -0.1824
     0.3009   0.4401   0.5353   0.6346   0.8190   0.8481   0.9830   1.0730
     1.2827   1.3751   1.4619   1.6611   1.7923   1.9758   2.1625   2.2090
     2.3408   2.6913   2.7474   2.8449   4.2024   4.3208   4.8121   4.8380
     4.9506   5.2005   5.2525   5.4060   5.7622   5.8453   6.4214   7.2073
     7.9886   8.5528

          k =-0.3750 0.1240 0.0000 ( 41549 PWs)   bands (ev):

   -48.1843 -48.1621 -48.1024 -48.0519 -48.0383 -48.0294 -48.0243 -48.0080
   -47.9577 -47.8992 -47.8248 -47.7816 -47.7187 -47.7008 -47.6671 -47.6575
   -47.5979 -47.4028 -20.5808 -17.7467 -17.5953 -17.5501 -17.4949 -17.2701
   -17.1372 -17.1253 -17.0924 -16.9811 -16.7990 -15.6359 -15.3560 -14.3021
    -6.1251  -6.0794  -6.0123  -5.9928  -5.7125  -5.6361  -5.5595  -5.5365
    -5.4053  -5.3580  -5.2451  -5.0771  -4.6911  -4.5863  -4.4818  -4.2888
    -4.2335  -3.9044  -3.8132  -3.4880  -3.3307  -3.1802  -2.9881  -2.9016
    -2.7493  -2.6224  -2.5201  -2.3939  -2.2792  -2.2458  -2.1311  -1.8744
    -1.5624  -1.4703  -1.3905  -0.9456  -0.8644  -0.7065  -0.5360  -0.3070
     0.1650   0.3425   0.5396   0.6134   0.7071   0.7496   0.8988   0.9933
     1.1001   1.2922   1.3948   1.5055   1.7366   2.1891   2.3351   2.4537
     2.5281   2.6638   2.7513   2.9284   4.0624   4.1233   4.2510   4.2775
     4.3713   5.2068   5.4537   6.0339   6.3765   6.5029   6.5987   7.2803
     8.0688   8.6559

          k =-0.3750-0.2479 0.0000 ( 41514 PWs)   bands (ev):

   -48.1873 -48.1592 -48.1027 -48.0563 -48.0382 -48.0259 -48.0234 -48.0080
   -47.9579 -47.8992 -47.8248 -47.7816 -47.7184 -47.7008 -47.6670 -47.6574
   -47.5979 -47.4028 -20.5807 -17.6965 -17.6192 -17.5562 -17.5227 -17.3066
   -17.1626 -17.1089 -17.0694 -16.9653 -16.8026 -15.6367 -15.3561 -14.3012
    -6.1072  -5.9457  -5.8228  -5.7818  -5.6830  -5.6578  -5.6345  -5.5921
    -5.5619  -5.4880  -5.4214  -5.1352  -4.7202  -4.5777  -4.2739  -4.1225
    -4.0102  -3.9301  -3.8018  -3.4300  -3.3380  -3.1079  -3.0585  -2.8416
    -2.7221  -2.6060  -2.5536  -2.3955  -2.3638  -2.3003  -2.1685  -1.8396
    -1.5329  -1.4921  -1.1959  -0.9596  -0.8265  -0.6998  -0.6731  -0.4391
    -0.2367   0.0629   0.2719   0.4323   0.6429   0.8545   0.8689   1.1173
     1.2395   1.2900   1.3464   1.4152   1.6435   2.2299   2.3335   2.5223
     2.7086   2.7378   2.8717   3.0521   3.6372   3.6755   3.8037   4.3169
     4.3611   5.2067   5.4961   6.3928   6.5772   6.9461   7.0081   7.3133
     8.1602   8.7646

          k =-0.3750-0.1240 0.0000 ( 41549 PWs)   bands (ev):

   -48.1825 -48.1639 -48.1024 -48.0516 -48.0384 -48.0297 -48.0243 -48.0079
   -47.9578 -47.8992 -47.8248 -47.7816 -47.7187 -47.7008 -47.6670 -47.6574
   -47.5979 -47.4028 -20.5808 -17.7466 -17.5933 -17.5466 -17.4934 -17.2696
   -17.1393 -17.1257 -17.0923 -16.9875 -16.7990 -15.6361 -15.3560 -14.3020
    -6.1331  -6.0707  -6.0183  -5.9696  -5.7032  -5.6365  -5.5515  -5.5248
    -5.4001  -5.3701  -5.2438  -5.0993  -4.6692  -4.5884  -4.5061  -4.3044
    -4.2380  -3.9070  -3.7912  -3.5005  -3.3299  -3.1808  -2.9851  -2.8867
    -2.7587  -2.6230  -2.5344  -2.3848  -2.2804  -2.2426  -2.1884  -1.9108
    -1.5888  -1.4444  -1.3449  -0.9418  -0.8563  -0.6190  -0.5211  -0.3146
     0.1361   0.3337   0.4952   0.6150   0.7079   0.7502   0.9012   0.9937
     1.1110   1.2895   1.3860   1.4491   1.8257   2.1851   2.3348   2.4714
     2.5329   2.6304   2.7613   2.9142   4.0582   4.1086   4.2493   4.3124
     4.3692   5.2068   5.4381   6.0362   6.3835   6.5162   6.6032   7.2575
     8.0670   8.6559

          k =-0.2500 0.0000 0.0000 ( 41623 PWs)   bands (ev):

   -48.1734 -48.1488 -48.1049 -48.0426 -48.0299 -48.0270 -48.0020 -47.9706
   -47.9191 -47.9049 -47.7873 -47.7868 -47.7032 -47.6799 -47.6727 -47.6617
   -47.6034 -47.4085 -20.6225 -18.1945 -17.9247 -17.8220 -17.5813 -17.1977
   -17.0575 -17.0299 -16.9569 -16.9112 -16.8503 -15.6594 -15.3912 -14.3435
    -6.7647  -6.7206  -6.7113  -6.3058  -5.9001  -5.8551  -5.6272  -5.4961
    -5.4142  -5.2429  -5.0362  -4.7962  -4.5745  -4.4264  -4.2122  -4.0036
    -3.8370  -3.8044  -3.7582  -3.6794  -3.2924  -3.1011  -2.9339  -2.8223
    -2.6973  -2.5714  -2.4163  -2.3313  -2.2977  -2.2343  -2.0774  -1.8519
    -1.7936  -1.5474  -1.2662  -1.1345  -0.7506  -0.5232  -0.4322  -0.1706
     0.2914   0.3674   0.4586   0.5008   0.6496   0.7477   0.8325   1.1894
     1.3931   1.4715   1.7553   1.8164   1.8477   1.9150   2.1254   2.1645
     2.3391   2.5984   2.8345   2.9064   4.3342   4.8179   5.0627   5.2450
     5.3659   5.3867   5.4577   5.6127   5.6672   5.8926   6.5085   6.8388
     7.4480   7.7519

          k =-0.2500 0.1240 0.0000 ( 41653 PWs)   bands (ev):

   -48.1759 -48.1463 -48.1049 -48.0439 -48.0297 -48.0270 -48.0000 -47.9708
   -47.9192 -47.9049 -47.7873 -47.7873 -47.7032 -47.6797 -47.6727 -47.6620
   -47.6034 -47.4087 -20.6222 -18.0925 -17.8146 -17.7125 -17.6151 -17.2582
   -17.1492 -17.0952 -17.0557 -16.9776 -16.8588 -15.6589 -15.3904 -14.3422
    -6.3832  -6.3458  -6.3411  -6.3000  -5.8990  -5.8518  -5.4911  -5.4539
    -5.2723  -5.1466  -5.1056  -4.8420  -4.6373  -4.3826  -4.3382  -4.2835
    -4.1996  -4.0806  -3.9342  -3.4607  -3.3392  -3.1665  -2.9935  -2.8869
    -2.8232  -2.7417  -2.7373  -2.6310  -2.5187  -2.2932  -2.0576  -1.7746
    -1.5926  -1.5524  -1.3058  -1.0919  -0.8689  -0.5026  -0.3431  -0.2982
     0.0958   0.4354   0.6663   0.7401   0.9229   0.9827   1.0449   1.1484
     1.4369   1.5520   1.6991   1.7926   1.8762   1.9596   2.0820   2.1805
     2.2772   2.5267   2.6594   3.0645   4.4282   4.7144   4.7716   4.8486
     4.8898   5.3215   5.6384   5.7098   6.1004   6.2661   6.6248   6.9720
     7.4468   7.8206

          k =-0.2500-0.2479 0.0000 ( 41680 PWs)   bands (ev):

   -48.1764 -48.1456 -48.1048 -48.0450 -48.0296 -48.0270 -47.9983 -47.9710
   -47.9193 -47.9049 -47.7877 -47.7873 -47.7032 -47.6796 -47.6727 -47.6621
   -47.6034 -47.4088 -20.6220 -17.9090 -17.7489 -17.5704 -17.4829 -17.4347
   -17.3206 -17.3105 -17.0957 -16.9942 -16.8652 -15.6587 -15.3897 -14.3409
    -6.3039  -5.9039  -5.8648  -5.7258  -5.6865  -5.6678  -5.4539  -5.2153
    -5.2075  -5.1310  -5.0646  -5.0474  -4.9166  -4.8998  -4.7477  -4.5766
    -4.2335  -3.9541  -3.7771  -3.6526  -3.5167  -3.4077  -3.3619  -3.1275
    -3.0585  -2.9689  -2.8944  -2.7702  -2.6632  -2.3478  -2.1910  -1.4692
    -1.4133  -1.1713  -1.1164  -1.0236  -0.8840  -0.7772  -0.3412  -0.2466
     0.2372   0.2681   0.5973   0.7425   0.7926   1.1791   1.2893   1.3498
     1.5712   1.6752   1.8124   1.8476   1.9034   1.9969   2.0496   2.1905
     2.3480   2.4079   2.5628   3.1442   4.2678   4.2879   4.3932   4.5799
     4.9156   5.3662   5.6455   5.9471   6.3063   6.6332   6.8746   7.0069
     7.3907   7.9371

          k =-0.2500-0.1240 0.0000 ( 41653 PWs)   bands (ev):

   -48.1741 -48.1480 -48.1049 -48.0438 -48.0298 -48.0270 -48.0002 -47.9707
   -47.9193 -47.9049 -47.7873 -47.7872 -47.7032 -47.6797 -47.6727 -47.6618
   -47.6034 -47.4087 -20.6222 -18.0923 -17.8118 -17.7093 -17.6149 -17.2585
   -17.1491 -17.0957 -17.0566 -16.9816 -16.8612 -15.6591 -15.3904 -14.3421
    -6.3828  -6.3493  -6.3409  -6.2767  -5.8992  -5.8406  -5.4783  -5.4629
    -5.2829  -5.1453  -5.1033  -4.8352  -4.6356  -4.3850  -4.3466  -4.3020
    -4.2054  -4.0670  -3.9357  -3.4531  -3.3518  -3.1762  -2.9851  -2.8904
    -2.8096  -2.7703  -2.7380  -2.6331  -2.5369  -2.3004  -2.0942  -1.8035
    -1.5994  -1.5642  -1.2335  -1.1013  -0.7094  -0.4909  -0.3703  -0.2964
     0.0359   0.4699   0.5181   0.7851   0.9255   0.9859   1.0600   1.1487
     1.4491   1.5455   1.7251   1.7530   1.8627   1.9531   2.1716   2.2029
     2.2860   2.4872   2.6373   3.0565   4.4359   4.7138   4.7900   4.8499
     4.8899   5.2710   5.6370   5.7228   6.1083   6.2966   6.6376   6.9554
     7.4255   7.8205

          k =-0.1250 0.0000 0.0000 ( 41611 PWs)   bands (ev):

   -48.1762 -48.1278 -48.1076 -48.0458 -48.0294 -48.0160 -47.9624 -47.9323
   -47.9104 -47.8802 -47.7919 -47.7496 -47.7056 -47.6784 -47.6657 -47.6404
   -47.6088 -47.4142 -20.6639 -18.5546 -18.2299 -18.1181 -17.7955 -17.3111
   -17.0947 -16.9349 -16.8436 -16.7713 -16.6715 -15.5816 -15.3406 -14.3832
    -7.2493  -7.1997  -7.1948  -6.6796  -6.0921  -5.9643  -5.7247  -5.5901
    -5.5376  -5.4678  -5.1314  -4.9925  -4.7293  -4.5701  -4.5226  -4.1214
    -3.6464  -3.2713  -3.2084  -2.8526  -2.8031  -2.7139  -2.6815  -2.6508
    -2.4948  -2.4487  -2.1203  -2.0648  -1.8260  -1.7966  -1.6882  -1.5833
    -1.4945  -1.4081  -1.3275  -1.2525  -0.8602  -0.4023  -0.2322   0.0045
     0.0589   0.0807   0.1971   0.2918   0.3700   0.4013   0.5068   0.7672
     0.9194   0.9807   1.2237   1.5650   1.7659   1.9975   2.0571   2.2671
     2.5238   2.7440   2.9629   3.2806   4.0482   4.6918   5.2112   5.3726
     5.7297   5.9325   6.0933   6.1101   6.1395   6.2389   6.4637   6.5457
     7.2410   7.6205

          k =-0.1250 0.1240 0.0000 ( 41692 PWs)   bands (ev):

   -48.1763 -48.1274 -48.1073 -48.0452 -48.0294 -48.0159 -47.9619 -47.9326
   -47.9104 -47.8802 -47.7929 -47.7496 -47.7056 -47.6784 -47.6662 -47.6404
   -47.6089 -47.4145 -20.6635 -18.4279 -18.0889 -17.9893 -17.8352 -17.3423
   -17.2089 -16.9974 -16.9381 -16.8965 -16.7867 -15.5793 -15.3378 -14.3817
    -6.7653  -6.7179  -6.6954  -6.6556  -6.0938  -5.9507  -5.6325  -5.5654
    -5.4598  -5.3772  -5.2115  -4.8234  -4.6618  -4.5670  -4.5125  -4.0856
    -3.5982  -3.5463  -3.4536  -3.3326  -3.2235  -3.1664  -3.1040  -3.0070
    -2.9252  -2.7803  -2.5818  -2.3304  -2.2506  -1.9499  -1.8000  -1.5220
    -1.3642  -1.2967  -1.1725  -0.9222  -0.6737  -0.3712  -0.2394  -0.1140
     0.2071   0.3745   0.4664   0.5363   0.6906   0.7651   0.8556   0.8987
     0.9634   1.1455   1.3083   1.6221   1.7891   1.9832   2.0810   2.2552
     2.3189   2.6884   2.8412   3.1387   4.3945   5.0014   5.4259   5.4591
     5.6675   5.7187   5.9209   5.9830   6.0778   6.3201   6.4809   6.6752
     7.2227   7.4817

          k =-0.1250-0.2479 0.0000 ( 41706 PWs)   bands (ev):

   -48.1757 -48.1276 -48.1070 -48.0445 -48.0294 -48.0159 -47.9615 -47.9328
   -47.9104 -47.8803 -47.7938 -47.7495 -47.7056 -47.6784 -47.6666 -47.6404
   -47.6089 -47.4149 -20.6630 -18.1914 -18.0528 -17.8244 -17.6576 -17.5118
   -17.4611 -17.1724 -17.0434 -16.9116 -16.8649 -15.5777 -15.3356 -14.3803
    -6.6856  -6.0955  -5.9539  -5.8457  -5.7752  -5.6960  -5.6646  -5.5837
    -5.5319  -5.5217  -5.2331  -4.7729  -4.5696  -4.5269  -4.2757  -4.2454
    -4.1216  -4.1000  -3.9767  -3.9577  -3.8191  -3.6635  -3.6011  -3.2795
    -3.0519  -2.9025  -2.7803  -2.6526  -2.1950  -2.1281  -1.8689  -1.3995
    -1.1407  -1.0589  -0.8807  -0.7642  -0.6144  -0.3426  -0.2872  -0.2425
     0.2457   0.5290   0.5504   0.6147   0.7050   0.8130   1.0130   1.3329
     1.4314   1.5286   1.5651   1.7534   1.7696   1.8856   2.0311   2.1550
     2.3519   2.4767   2.6343   3.1146   4.6955   5.1311   5.2439   5.2992
     5.3303   5.5824   6.0742   6.1308   6.3483   6.4498   6.5449   6.8123
     7.0939   7.4023

          k =-0.1250-0.1240 0.0000 ( 41692 PWs)   bands (ev):

   -48.1756 -48.1280 -48.1073 -48.0451 -48.0294 -48.0161 -47.9620 -47.9326
   -47.9104 -47.8802 -47.7929 -47.7496 -47.7056 -47.6784 -47.6661 -47.6404
   -47.6089 -47.4145 -20.6635 -18.4278 -18.0876 -17.9881 -17.8349 -17.3426
   -17.2093 -16.9971 -16.9385 -16.8959 -16.7904 -15.5794 -15.3378 -14.3817
    -6.7663  -6.7176  -6.6903  -6.6483  -6.0937  -5.9466  -5.6302  -5.5549
    -5.4808  -5.3790  -5.2101  -4.8056  -4.6748  -4.5634  -4.5061  -4.0799
    -3.6077  -3.5497  -3.4518  -3.3309  -3.2131  -3.1774  -3.1004  -3.0057
    -2.9654  -2.7714  -2.6218  -2.3610  -2.2217  -1.9558  -1.8085  -1.5229
    -1.3656  -1.2894  -1.1664  -0.8376  -0.5754  -0.3748  -0.2507  -0.2069
     0.1715   0.3213   0.4959   0.5366   0.6877   0.7763   0.8662   0.9121
     0.9711   1.1404   1.3057   1.6178   1.7816   1.9829   2.1158   2.2633
     2.3231   2.6635   2.8454   3.1302   4.4025   5.0097   5.4221   5.4565
     5.6384   5.6845   5.9210   6.0473   6.0840   6.3192   6.4718   6.6942
     7.2155   7.4711

     the Fermi energy is     2.3174 ev

!    total energy              =   -1674.06788340 Ry
     estimated scf accuracy    <       0.00000047 Ry
     smearing contrib. (-TS)   =      -0.00080034 Ry
     internal energy E=F+TS    =   -1674.06708307 Ry

     The total energy is F=E-TS. E is the sum of the following terms:
     one-electron contribution =  -15393.17128440 Ry
     hartree contribution      =    7748.58939401 Ry
     xc contribution           =    -405.79967945 Ry
     ewald contribution        =    6509.58985905 Ry
     one-center paw contrib.   =    -133.27537228 Ry

     convergence has been achieved in  10 iterations

     negative rho (up, down):  1.908E+00 0.000E+00

     Forces acting on atoms (cartesian axes, Ry/au):

     atom    1 type  2   force =     0.00000128   -0.00055528    0.03646309
     atom    2 type  2   force =    -0.00002022   -0.00092188   -0.03926276
     atom    3 type  2   force =     0.00054561   -0.00042519    0.00066571
     atom    4 type  2   force =     0.00024923    0.00076400   -0.00358551
     atom    5 type  2   force =    -0.01865937   -0.00567586    0.01977647
     atom    6 type  2   force =     0.00084792   -0.00749911   -0.00211795
     atom    7 type  3   force =    -0.00048488    0.00035539   -0.00252918
     atom    8 type  3   force =    -0.00022770    0.00001491    0.03249581
     atom    9 type  3   force =     0.00026508    0.02140615   -0.02479655
     atom   10 type  3   force =    -0.00004257   -0.02043739   -0.02452932
     atom   11 type  3   force =     0.00340951    0.00368303   -0.00685885
     atom   12 type  3   force =    -0.00075998    0.00001211    0.01676718
     atom   13 type  3   force =     0.00034259   -0.00140817    0.00042412
     atom   14 type  3   force =     0.00041222    0.00282434    0.00102886
     atom   15 type  3   force =    -0.00030120   -0.00081541   -0.00242041
     atom   16 type  3   force =     0.00031078   -0.00033026    0.00006525
     atom   17 type  3   force =     0.00449587   -0.01560460   -0.00699213
     atom   18 type  3   force =    -0.00849625   -0.01779723    0.00047719
     atom   19 type  3   force =    -0.00012109    0.05881394    0.01988730
     atom   20 type  3   force =     0.02094002    0.00995392   -0.00504234
     atom   21 type  1   force =    -0.00270685   -0.02635741   -0.00991598

     Total force =     0.082811     Total SCF correction =     0.001911
     Energy error            =      1.1E-02 Ry
     Gradient error          =      5.9E-02 Ry/Bohr

     number of scf cycles    =   2
     number of bfgs steps    =   1

     energy             old  =   -1674.0570186565 Ry
     energy             new  =   -1674.0678834046 Ry

     CASE: energy            _new < energy            _old

     new trust radius        =       0.1014586774 bohr
     new conv_thr            =       0.0000002941 Ry


ATOMIC_POSITIONS (angstrom)
Ir               0.0000000000        4.7708494500        9.5416989100    0   0   0
Ir               1.5770000000        1.5902831500        9.5416989100    0   0   0
Ir              -0.0072249653        1.5903527784       12.7502612654
Ir               1.5741553196        4.7727010582       12.7234659660
Ir              -0.0162321883        4.7268065598       15.9842851981
Ir               1.5607294318        1.5870684729       15.9726774765
O                0.0000000000        1.5902831500       10.7821197600    0   0   0
O                0.0000000000        1.5902831500        8.3012780500    0   0   0
O                1.5770000000        3.5304285900        9.5416989100    0   0   0
O                1.5770000000        6.0112703100        9.5416989100    0   0   0
O                0.0016189843        4.7780717186       13.9708011497
O                0.0000000000        4.7708494500       11.4818443500    0   0   0
O                1.5706205770        0.3677123370       12.7343338610
O                1.5710580613        2.8137857666       12.7351657260
O               -0.0144546004        1.5879727538       17.1519251312
O               -0.0158617439        1.5892063205       14.7238627514
O                1.5700370758        3.5323210753       15.9136985661
O                1.5508505427        5.9866684070       15.9279408527
O               -0.3739838777        4.8651664775       17.8785818017
O               -0.3335328247        3.8620000899       18.9354253627
H               -0.3690264502        4.5528933123       19.6366454266



     Writing config-only to output data dir ./tmp_s0_OOH__yaw270/s0_OOH__yaw270.save/ :
     XML data file
     NEW-OLD atomic charge density approx. for the potential

     negative rho (up, down):  1.908E+00 0.000E+00

     total cpu time spent up to now is     4986.1 secs

     per-process dynamical memory:  1181.3 Mb

     Self-consistent Calculation

     iteration #  1     ecut=    80.00 Ry     beta= 0.30
     Davidson diagonalization with overlap
     ethr =  1.00E-06,  avg # of iterations =  7.5

     negative rho (up, down):  1.908E+00 0.000E+00

     total cpu time spent up to now is     5309.2 secs

     total energy              =   -1674.07613023 Ry
     estimated scf accuracy    <       0.01875588 Ry

     iteration #  2     ecut=    80.00 Ry     beta= 0.30
     Davidson diagonalization with overlap
     ethr =  1.07E-05,  avg # of iterations =  1.0

     negative rho (up, down):  1.908E+00 0.000E+00

     total cpu time spent up to now is     5453.8 secs

     total energy              =   -1674.07612127 Ry
     estimated scf accuracy    <       0.00440806 Ry

     iteration #  3     ecut=    80.00 Ry     beta= 0.30
     Davidson diagonalization with overlap
     ethr =  2.52E-06,  avg # of iterations =  1.0

     negative rho (up, down):  1.908E+00 0.000E+00

     total cpu time spent up to now is     5599.4 secs

     total energy              =   -1674.07581818 Ry
     estimated scf accuracy    <       0.00249172 Ry

     iteration #  4     ecut=    80.00 Ry     beta= 0.30
     Davidson diagonalization with overlap
     ethr =  1.42E-06,  avg # of iterations =  1.7

     negative rho (up, down):  1.908E+00 0.000E+00

     total cpu time spent up to now is     5754.3 secs

     total energy              =   -1674.07582232 Ry
     estimated scf accuracy    <       0.00024949 Ry

     iteration #  5     ecut=    80.00 Ry     beta= 0.30
     Davidson diagonalization with overlap
     ethr =  1.43E-07,  avg # of iterations =  2.0

     negative rho (up, down):  1.908E+00 0.000E+00

     total cpu time spent up to now is     5915.1 secs

     total energy              =   -1674.07582813 Ry
     estimated scf accuracy    <       0.00034517 Ry

     iteration #  6     ecut=    80.00 Ry     beta= 0.30
     Davidson diagonalization with overlap
     ethr =  1.43E-07,  avg # of iterations =  1.0

     negative rho (up, down):  1.908E+00 0.000E+00

     total cpu time spent up to now is     6065.4 secs

     total energy              =   -1674.07582749 Ry
     estimated scf accuracy    <       0.00010253 Ry

     iteration #  7     ecut=    80.00 Ry     beta= 0.30
     Davidson diagonalization with overlap
     ethr =  5.86E-08,  avg # of iterations =  1.0

     negative rho (up, down):  1.908E+00 0.000E+00

     total cpu time spent up to now is     6212.7 secs

     total energy              =   -1674.07582436 Ry
     estimated scf accuracy    <       0.00005635 Ry

     iteration #  8     ecut=    80.00 Ry     beta= 0.30
     Davidson diagonalization with overlap
     ethr =  3.22E-08,  avg # of iterations =  1.1

     negative rho (up, down):  1.908E+00 0.000E+00

     total cpu time spent up to now is     6382.1 secs

     total energy              =   -1674.07582475 Ry
     estimated scf accuracy    <       0.00000258 Ry

     iteration #  9     ecut=    80.00 Ry     beta= 0.30
     Davidson diagonalization with overlap
     ethr =  1.48E-09,  avg # of iterations =  2.2

     negative rho (up, down):  1.908E+00 0.000E+00

     total cpu time spent up to now is     6568.2 secs

     total energy              =   -1674.07582396 Ry
     estimated scf accuracy    <       0.00000130 Ry

     iteration # 10     ecut=    80.00 Ry     beta= 0.30
     Davidson diagonalization with overlap
     ethr =  7.40E-10,  avg # of iterations =  2.0

     negative rho (up, down):  1.908E+00 0.000E+00

     total cpu time spent up to now is     6739.4 secs

     total energy              =   -1674.07582363 Ry
     estimated scf accuracy    <       0.00000049 Ry

     iteration # 11     ecut=    80.00 Ry     beta= 0.30
     Davidson diagonalization with overlap
     ethr =  2.80E-10,  avg # of iterations =  1.8

     negative rho (up, down):  1.908E+00 0.000E+00

     total cpu time spent up to now is     6910.0 secs

     total energy              =   -1674.07582329 Ry
     estimated scf accuracy    <       0.00000036 Ry

     iteration # 12     ecut=    80.00 Ry     beta= 0.30
     Davidson diagonalization with overlap
     ethr =  2.05E-10,  avg # of iterations =  2.0

     negative rho (up, down):  1.908E+00 0.000E+00

     total cpu time spent up to now is     7048.1 secs

     End of self-consistent calculation

          k = 0.0000 0.0000 0.0000 ( 41611 PWs)   bands (ev):

   -48.1991 -48.1339 -48.0974 -48.0822 -48.0527 -47.9902 -47.9662 -47.9460
   -47.9430 -47.8905 -47.8157 -47.7596 -47.7342 -47.7048 -47.6494 -47.6466
   -47.6365 -47.4434 -20.5425 -18.7135 -18.3767 -18.2621 -17.9112 -17.4031
   -17.2109 -16.8357 -16.7890 -16.7158 -16.5882 -15.5587 -15.3231 -14.4448
    -7.4588  -7.4023  -7.3870  -6.8146  -6.1534  -5.8773  -5.7643  -5.5905
    -5.5667  -5.5403  -5.2023  -5.0696  -5.0489  -4.8731  -4.7586  -4.3024
    -3.5210  -3.3642  -2.8363  -2.8080  -2.6416  -2.4166  -2.3735  -2.2313
    -2.1462  -2.0476  -2.0107  -1.9219  -1.8070  -1.7553  -1.5379  -1.5187
    -1.3473  -1.0860  -0.8294  -0.7535  -0.5903  -0.3477  -0.2308  -0.1080
    -0.0867  -0.0749  -0.0533  -0.0169   0.0074   0.0348   0.0361   0.3663
     0.6128   0.8142   0.8289   1.4032   1.5688   1.6266   2.1517   2.3393
     2.5553   2.6704   3.0950   3.4172   3.8439   4.4814   5.0001   5.4413
     5.8927   6.0318   6.3131   6.4414   6.4748   6.4798   6.5467   6.8834
     7.0285   7.3954

          k = 0.0000 0.1240 0.0000 ( 41688 PWs)   bands (ev):

   -48.1986 -48.1335 -48.0974 -48.0812 -48.0526 -47.9902 -47.9658 -47.9463
   -47.9431 -47.8906 -47.8169 -47.7595 -47.7342 -47.7048 -47.6495 -47.6471
   -47.6365 -47.4438 -20.5419 -18.5802 -18.2313 -18.1317 -17.9525 -17.4378
   -17.3097 -16.9490 -16.8993 -16.8198 -16.7142 -15.5558 -15.3198 -14.4432
    -6.9433  -6.8845  -6.8633  -6.7938  -6.1545  -5.8426  -5.6841  -5.5653
    -5.5165  -5.4505  -5.1545  -5.0677  -4.9236  -4.8718  -4.7331  -4.1620
    -3.7190  -3.5400  -3.4308  -3.2907  -3.1843  -2.9530  -2.9119  -2.5935
    -2.5685  -2.5337  -2.3214  -2.0766  -1.8918  -1.7111  -1.6778  -1.5461
    -1.3546  -1.1102  -0.9742  -0.7697  -0.5212  -0.4074  -0.2338  -0.0825
    -0.0248   0.2724   0.4061   0.4928   0.5271   0.5429   0.5651   0.6299
     0.6834   0.8368   0.9640   1.4007   1.5714   1.6944   2.1753   2.3353
     2.3859   2.6734   2.8498   3.2178   4.3007   4.9047   5.4716   5.6851
     5.8980   6.1044   6.1530   6.1787   6.1928   6.4969   6.5525   6.8865
     6.9781   7.4132

          k = 0.0000-0.2479 0.0000 ( 41774 PWs)   bands (ev):

   -48.1981 -48.1331 -48.0975 -48.0802 -48.0526 -47.9902 -47.9654 -47.9466
   -47.9432 -47.8906 -47.8180 -47.7594 -47.7342 -47.7048 -47.6496 -47.6476
   -47.6365 -47.4443 -20.5413 -18.3287 -18.2008 -17.9770 -17.7933 -17.5831
   -17.5413 -17.1331 -17.0230 -16.8792 -16.7758 -15.5540 -15.3172 -14.4417
    -6.8231  -6.1566  -6.0933  -6.0297  -5.9293  -5.8067  -5.5946  -5.5607
    -5.4343  -5.3481  -5.1401  -5.0636  -4.8697  -4.7680  -4.5633  -4.4821
    -4.4581  -4.3922  -4.2170  -3.8684  -3.4856  -3.3453  -3.0104  -2.9741
    -2.8931  -2.7710  -2.5646  -2.4080  -1.9274  -1.7227  -1.7077  -1.2876
    -1.2649  -1.0177  -0.9353  -0.7494  -0.5475  -0.3433  -0.3243  -0.1758
     0.0240   0.3463   0.5888   0.6487   0.7831   0.8263   0.8444   1.0515
     1.0799   1.1995   1.3610   1.5063   1.6260   1.6492   1.9170   2.2491
     2.3644   2.5391   2.6955   3.0728   4.7321   5.0080   5.8223   5.8364
     5.8479   5.9042   5.9970   6.1994   6.3956   6.5532   6.7186   6.8496
     6.8886   7.1992

          k = 0.0000-0.1240 0.0000 ( 41688 PWs)   bands (ev):

   -48.1986 -48.1335 -48.0974 -48.0812 -48.0526 -47.9902 -47.9658 -47.9463
   -47.9431 -47.8906 -47.8169 -47.7595 -47.7342 -47.7048 -47.6495 -47.6471
   -47.6365 -47.4438 -20.5419 -18.5802 -18.2313 -18.1317 -17.9525 -17.4378
   -17.3097 -16.9490 -16.8993 -16.8198 -16.7142 -15.5558 -15.3198 -14.4432
    -6.9433  -6.8845  -6.8633  -6.7938  -6.1545  -5.8426  -5.6841  -5.5653
    -5.5165  -5.4505  -5.1545  -5.0677  -4.9236  -4.8718  -4.7331  -4.1620
    -3.7190  -3.5400  -3.4308  -3.2907  -3.1843  -2.9530  -2.9119  -2.5935
    -2.5685  -2.5337  -2.3214  -2.0766  -1.8918  -1.7111  -1.6778  -1.5461
    -1.3546  -1.1102  -0.9742  -0.7697  -0.5212  -0.4074  -0.2338  -0.0825
    -0.0248   0.2724   0.4061   0.4928   0.5271   0.5429   0.5651   0.6299
     0.6834   0.8368   0.9640   1.4007   1.5714   1.6944   2.1753   2.3353
     2.3859   2.6734   2.8498   3.2178   4.3007   4.9047   5.4716   5.6851
     5.8980   6.1044   6.1530   6.1787   6.1928   6.4969   6.5525   6.8865
     6.9781   7.4132

          k = 0.1250 0.0000 0.0000 ( 41611 PWs)   bands (ev):

   -48.1980 -48.1328 -48.1059 -48.0809 -48.0516 -47.9960 -47.9825 -47.9614
   -47.9415 -47.9068 -47.8136 -47.7753 -47.7332 -47.7025 -47.6659 -47.6451
   -47.6342 -47.4410 -20.5251 -18.5751 -18.2552 -18.1441 -17.8143 -17.3375
   -17.1213 -16.8964 -16.8674 -16.7954 -16.6655 -15.6112 -15.3653 -14.4287
    -7.2748  -7.2231  -7.2065  -6.6393  -6.1171  -5.8652  -5.7380  -5.6008
    -5.5417  -5.4848  -5.1565  -4.9890  -4.7381  -4.5938  -4.5417  -4.1276
    -3.6498  -3.2892  -3.1941  -2.8746  -2.8053  -2.7372  -2.7029  -2.6382
    -2.5041  -2.4534  -2.1424  -2.0560  -1.8348  -1.8134  -1.7105  -1.5885
    -1.5085  -1.4134  -1.3494  -1.2504  -0.8814  -0.4670  -0.2566  -0.0410
     0.0448   0.0519   0.1965   0.2823   0.3487   0.3868   0.4778   0.7487
     0.9052   0.9606   1.1967   1.5109   1.7430   1.9822   2.0181   2.2344
     2.5076   2.7210   2.9392   3.2550   4.0461   4.6867   5.1933   5.3606
     5.7207   5.9122   6.0556   6.0976   6.1141   6.2369   6.4548   6.5091
     7.1590   7.5489

          k = 0.1250 0.1240 0.0000 ( 41692 PWs)   bands (ev):

   -48.1975 -48.1325 -48.1059 -48.0802 -48.0516 -47.9960 -47.9821 -47.9617
   -47.9415 -47.9069 -47.8145 -47.7752 -47.7332 -47.7025 -47.6659 -47.6454
   -47.6342 -47.4414 -20.5246 -18.4478 -18.1148 -18.0140 -17.8541 -17.3683
   -17.2305 -17.0167 -16.9549 -16.8831 -16.7758 -15.6090 -15.3625 -14.4271
    -6.7847  -6.7214  -6.7058  -6.6255  -6.1184  -5.8405  -5.6441  -5.5634
    -5.4819  -5.4007  -5.2320  -4.8059  -4.6896  -4.5883  -4.5291  -4.0826
    -3.6170  -3.5741  -3.4698  -3.3445  -3.2220  -3.2001  -3.1202  -3.0131
    -2.9659  -2.7814  -2.6283  -2.3537  -2.1927  -1.9558  -1.8104  -1.5447
    -1.3827  -1.3138  -1.1668  -0.8525  -0.6387  -0.4055  -0.2960  -0.2441
     0.1892   0.3126   0.4672   0.5140   0.6680   0.7605   0.8448   0.9133
     0.9489   1.1173   1.2761   1.5631   1.7572   1.9647   2.0798   2.2516
     2.2890   2.6348   2.8192   3.1050   4.4068   5.0010   5.4108   5.4381
     5.6217   5.6672   5.8983   6.0318   6.0652   6.3066   6.4545   6.6674
     7.1208   7.4086

          k = 0.1250-0.2479 0.0000 ( 41706 PWs)   bands (ev):

   -48.1974 -48.1322 -48.1057 -48.0796 -48.0516 -47.9959 -47.9815 -47.9621
   -47.9415 -47.9069 -47.8154 -47.7752 -47.7332 -47.7025 -47.6659 -47.6459
   -47.6343 -47.4418 -20.5241 -18.2103 -18.0742 -17.8638 -17.6895 -17.5349
   -17.4604 -17.2036 -17.0604 -16.9130 -16.8280 -15.6075 -15.3603 -14.4256
    -6.6455  -6.1194  -5.8776  -5.8368  -5.8023  -5.7177  -5.6866  -5.5834
    -5.5567  -5.5058  -5.2568  -4.7783  -4.5945  -4.5480  -4.3039  -4.2650
    -4.1528  -4.1189  -3.9980  -3.9812  -3.8253  -3.6665  -3.6142  -3.2773
    -3.0456  -2.8890  -2.8096  -2.5945  -2.1765  -2.1084  -1.8908  -1.4232
    -1.1607  -1.0818  -0.9060  -0.7628  -0.6489  -0.4266  -0.3398  -0.2641
     0.2547   0.5123   0.5304   0.5910   0.6820   0.8232   0.9925   1.3101
     1.4117   1.5068   1.5421   1.7232   1.7431   1.8354   2.0088   2.1391
     2.3236   2.4430   2.6082   3.0930   4.7152   5.1091   5.2145   5.2795
     5.3064   5.5924   6.0470   6.1121   6.3263   6.4311   6.5597   6.7840
     6.9596   7.3788

          k = 0.1250-0.1240 0.0000 ( 41692 PWs)   bands (ev):

   -48.1979 -48.1325 -48.1056 -48.0803 -48.0516 -47.9959 -47.9820 -47.9618
   -47.9415 -47.9068 -47.8145 -47.7752 -47.7332 -47.7025 -47.6659 -47.6455
   -47.6342 -47.4414 -20.5246 -18.4481 -18.1175 -18.0161 -17.8545 -17.3679
   -17.2297 -17.0170 -16.9542 -16.8835 -16.7692 -15.6090 -15.3625 -14.4270
    -6.7840  -6.7301  -6.7167  -6.6308  -6.1181  -5.8409  -5.6472  -5.5755
    -5.4641  -5.3981  -5.2336  -4.8169  -4.6826  -4.5916  -4.5350  -4.1038
    -3.5982  -3.5654  -3.4639  -3.3521  -3.2340  -3.1759  -3.1245  -3.0177
    -2.9229  -2.7847  -2.5776  -2.2913  -2.2326  -1.9581  -1.8097  -1.5439
    -1.3814  -1.3154  -1.1709  -0.9612  -0.7161  -0.3974  -0.2682  -0.1876
     0.2042   0.3407   0.4490   0.5217   0.6705   0.7521   0.8407   0.8829
     0.9520   1.1250   1.2838   1.5680   1.7649   1.9663   2.0381   2.2358
     2.2918   2.6682   2.8162   3.1156   4.4002   4.9949   5.4207   5.4431
     5.6398   5.7042   5.8873   5.9556   6.0551   6.3073   6.4673   6.6534
     7.1392   7.4221

          k = 0.2500 0.0000 0.0000 ( 41623 PWs)   bands (ev):

   -48.1952 -48.1310 -48.1301 -48.0777 -48.0492 -48.0219 -48.0074 -47.9982
   -47.9458 -47.9361 -47.8129 -47.8085 -47.7308 -47.7053 -47.6968 -47.6411
   -47.6287 -47.4354 -20.4830 -18.2171 -17.9522 -17.8524 -17.6074 -17.2224
   -17.0566 -17.0169 -16.9804 -16.9320 -16.8338 -15.6899 -15.4160 -14.3891
    -6.7911  -6.7457  -6.7224  -6.2097  -5.9257  -5.8021  -5.6478  -5.4968
    -5.4233  -5.2620  -5.0549  -4.7915  -4.5696  -4.4489  -4.2357  -4.0176
    -3.8454  -3.8147  -3.7831  -3.6840  -3.2674  -3.1269  -2.9457  -2.8016
    -2.7214  -2.5999  -2.4355  -2.3534  -2.3059  -2.2460  -2.0959  -1.8734
    -1.7629  -1.5707  -1.2393  -1.1607  -0.7706  -0.5400  -0.4567  -0.2343
     0.2558   0.3496   0.4355   0.4799   0.6329   0.7257   0.8093   1.1649
     1.3766   1.4235   1.7160   1.7978   1.8243   1.8960   2.1009   2.1378
     2.3180   2.5721   2.8082   2.8817   4.3446   4.7984   5.0619   5.2415
     5.3327   5.3645   5.4322   5.5923   5.6452   5.8634   6.4678   6.8267
     7.2970   7.7299

          k = 0.2500 0.1240 0.0000 ( 41653 PWs)   bands (ev):

   -48.1954 -48.1306 -48.1300 -48.0785 -48.0492 -48.0205 -48.0075 -47.9984
   -47.9460 -47.9361 -47.8130 -47.8089 -47.7308 -47.7052 -47.6968 -47.6412
   -47.6287 -47.4355 -20.4827 -18.1149 -17.8414 -17.7423 -17.6382 -17.2814
   -17.1605 -17.1211 -17.0554 -16.9560 -16.8658 -15.6897 -15.4152 -14.3878
    -6.4097  -6.3665  -6.3263  -6.2031  -5.9248  -5.7825  -5.4940  -5.4571
    -5.3046  -5.1667  -5.1195  -4.8372  -4.6435  -4.4024  -4.3680  -4.3124
    -4.2259  -4.0754  -3.9591  -3.4656  -3.3335  -3.2018  -2.9821  -2.9134
    -2.8311  -2.7773  -2.7621  -2.6387  -2.5497  -2.3007  -2.0743  -1.8127
    -1.6168  -1.5701  -1.2340  -1.1270  -0.7167  -0.5170  -0.4289  -0.3316
    -0.0117   0.4569   0.5236   0.7480   0.8996   0.9681   1.0635   1.1230
     1.4319   1.4999   1.6947   1.7226   1.8396   1.9320   2.1471   2.1764
     2.2607   2.4570   2.6090   3.0315   4.4445   4.6939   4.7740   4.8259
     4.8698   5.2834   5.6145   5.7061   6.0935   6.2597   6.5823   6.9138
     7.3161   7.7977

          k = 0.2500-0.2479 0.0000 ( 41680 PWs)   bands (ev):

   -48.1964 -48.1300 -48.1294 -48.0793 -48.0492 -48.0190 -48.0075 -47.9986
   -47.9460 -47.9361 -47.8130 -47.8093 -47.7308 -47.7050 -47.6968 -47.6415
   -47.6288 -47.4357 -20.4824 -17.9329 -17.7761 -17.6306 -17.5031 -17.4624
   -17.3403 -17.2926 -17.1105 -16.9519 -16.8770 -15.6894 -15.4145 -14.3864
    -6.2091  -5.9288  -5.8209  -5.7538  -5.7110  -5.6708  -5.4361  -5.2339
    -5.2281  -5.1437  -5.0863  -5.0699  -4.9284  -4.9192  -4.7466  -4.5874
    -4.2575  -3.9760  -3.7947  -3.6630  -3.5427  -3.4292  -3.3766  -3.1247
    -3.0547  -2.9918  -2.9103  -2.7912  -2.5989  -2.3225  -2.1738  -1.4921
    -1.4242  -1.1875  -1.1415  -1.0442  -0.8968  -0.8028  -0.4173  -0.3021
     0.2219   0.2430   0.6021   0.7272   0.7556   1.1809   1.2638   1.3245
     1.5463   1.6304   1.7864   1.8237   1.8786   1.9742   2.0063   2.1674
     2.3257   2.3853   2.5446   3.1195   4.2421   4.2883   4.3682   4.5829
     4.8936   5.3720   5.6247   5.9216   6.2896   6.6032   6.8324   6.8865
     7.3738   7.9136

          k = 0.2500-0.1240 0.0000 ( 41653 PWs)   bands (ev):

   -48.1962 -48.1300 -48.1298 -48.0786 -48.0492 -48.0203 -48.0074 -47.9984
   -47.9459 -47.9361 -47.8130 -47.8089 -47.7308 -47.7052 -47.6968 -47.6414
   -47.6287 -47.4355 -20.4827 -18.1154 -17.8477 -17.7473 -17.6384 -17.2809
   -17.1601 -17.1205 -17.0504 -16.9542 -16.8586 -15.6895 -15.4152 -14.3877
    -6.4094  -6.3685  -6.3663  -6.2055  -5.9244  -5.7915  -5.5025  -5.4518
    -5.2977  -5.1698  -5.1229  -4.8421  -4.6458  -4.4006  -4.3606  -4.2741
    -4.2163  -4.0951  -3.9572  -3.4802  -3.3242  -3.1762  -2.9928  -2.9087
    -2.8441  -2.7651  -2.7393  -2.6279  -2.5061  -2.2939  -2.0471  -1.7830
    -1.6114  -1.5537  -1.3081  -1.1176  -0.8930  -0.5300  -0.3704  -0.3424
     0.0240   0.4225   0.6271   0.7334   0.9005   0.9717   1.0306   1.1227
     1.4126   1.5120   1.6694   1.7579   1.8505   1.9373   2.0539   2.1574
     2.2561   2.5065   2.6396   3.0397   4.4431   4.6931   4.7576   4.8237
     4.8687   5.3125   5.6160   5.6935   6.0779   6.2223   6.5692   6.9620
     7.3364   7.7978

          k = 0.3750 0.0000 0.0000 ( 41645 PWs)   bands (ev):

   -48.1924 -48.1608 -48.1273 -48.0747 -48.0614 -48.0467 -48.0398 -48.0091
   -47.9843 -47.9305 -47.8503 -47.8033 -47.7445 -47.7284 -47.6911 -47.6368
   -47.6232 -47.4297 -20.4409 -17.8039 -17.6396 -17.5575 -17.5019 -17.2345
   -17.1838 -17.1581 -17.0524 -16.9693 -16.8179 -15.6663 -15.3809 -14.3488
    -6.2180  -6.2022  -6.1395  -5.9245  -5.6977  -5.6123  -5.5109  -5.4802
    -5.4214  -5.2185  -5.0973  -4.9433  -4.7822  -4.7523  -4.6597  -4.5478
    -4.1821  -3.8536  -3.7424  -3.6283  -3.2969  -3.2449  -3.1689  -3.1179
    -2.9054  -2.6089  -2.4931  -2.4385  -2.2937  -2.0563  -2.0223  -1.8536
    -1.7535  -1.6405  -1.1167  -0.9900  -0.6885  -0.5960  -0.5240  -0.2139
     0.2414   0.4293   0.5315   0.6243   0.7682   0.8151   0.9405   1.0235
     1.2583   1.3493   1.4402   1.6341   1.7636   1.9493   2.1307   2.1912
     2.3228   2.6697   2.7211   2.8224   4.2015   4.3039   4.7840   4.8290
     4.9251   5.1785   5.2488   5.4060   5.7408   5.8207   6.3976   6.9516
     8.0418   8.5294

          k = 0.3750 0.1240 0.0000 ( 41549 PWs)   bands (ev):

   -48.1948 -48.1584 -48.1276 -48.0808 -48.0554 -48.0466 -48.0398 -48.0091
   -47.9845 -47.9305 -47.8504 -47.8033 -47.7442 -47.7284 -47.6911 -47.6368
   -47.6232 -47.4297 -20.4407 -17.7748 -17.6254 -17.5841 -17.5272 -17.2938
   -17.1541 -17.1215 -17.0865 -16.9484 -16.8216 -15.6672 -15.3810 -14.3478
    -6.1078  -6.0577  -6.0028  -5.9088  -5.7111  -5.6538  -5.5704  -5.5343
    -5.4217  -5.3917  -5.2664  -5.0791  -4.6742  -4.6032  -4.5220  -4.3243
    -4.2632  -3.9306  -3.7748  -3.5128  -3.3361  -3.1949  -2.9962  -2.9042
    -2.7685  -2.6445  -2.5294  -2.4063  -2.3051  -2.2562  -2.1636  -1.9171
    -1.5979  -1.4628  -1.3267  -0.9671  -0.8756  -0.6476  -0.5352  -0.3357
     0.0719   0.3194   0.4682   0.5834   0.6893   0.7434   0.8804   0.9686
     1.0414   1.2656   1.3600   1.4238   1.7903   2.1552   2.3104   2.4440
     2.5093   2.6155   2.7400   2.8877   4.0381   4.1116   4.2255   4.2990
     4.3549   5.1837   5.4484   6.0210   6.3649   6.4865   6.5775   6.9904
     8.1340   8.6323

          k = 0.3750-0.2479 0.0000 ( 41514 PWs)   bands (ev):

   -48.1978 -48.1554 -48.1279 -48.0849 -48.0513 -48.0464 -48.0400 -48.0090
   -47.9845 -47.9305 -47.8505 -47.8033 -47.7438 -47.7284 -47.6911 -47.6368
   -47.6232 -47.4296 -20.4405 -17.7264 -17.6449 -17.6079 -17.5507 -17.3317
   -17.1345 -17.1137 -17.0909 -16.9274 -16.8254 -15.6679 -15.3811 -14.3468
    -5.9815  -5.9349  -5.8409  -5.8055  -5.7080  -5.6897  -5.6306  -5.5905
    -5.5674  -5.5080  -5.4505  -5.1119  -4.7226  -4.6011  -4.2773  -4.1469
    -4.0329  -3.9518  -3.7943  -3.4493  -3.3523  -3.1260  -3.0714  -2.8494
    -2.7477  -2.6012  -2.5682  -2.4200  -2.3497  -2.2962  -2.1079  -1.8642
    -1.5577  -1.5052  -1.2150  -0.9838  -0.8412  -0.7228  -0.6846  -0.4856
    -0.2514   0.0340   0.2515   0.3682   0.6088   0.8346   0.8759   1.0916
     1.1831   1.2654   1.3098   1.3861   1.6073   2.2008   2.3104   2.5012
     2.6872   2.7124   2.8616   3.0257   3.6099   3.6780   3.7789   4.3145
     4.3417   5.1835   5.5012   6.3664   6.5682   6.9002   6.9826   7.0624
     8.2472   8.7405

          k = 0.3750-0.1240 0.0000 ( 41549 PWs)   bands (ev):

   -48.1958 -48.1574 -48.1276 -48.0810 -48.0550 -48.0466 -48.0400 -48.0090
   -47.9844 -47.9305 -47.8504 -47.8033 -47.7442 -47.7284 -47.6911 -47.6368
   -47.6232 -47.4297 -20.4407 -17.7751 -17.6323 -17.5883 -17.5285 -17.2944
   -17.1540 -17.1199 -17.0815 -16.9397 -16.8216 -15.6670 -15.3810 -14.3478
    -6.1067  -6.0668  -6.0355  -5.9050  -5.7189  -5.6501  -5.5828  -5.5515
    -5.4283  -5.3793  -5.2647  -5.0595  -4.6859  -4.6018  -4.4929  -4.3028
    -4.2559  -3.9270  -3.8063  -3.4917  -3.3437  -3.1886  -3.0024  -2.9158
    -2.7387  -2.6460  -2.5261  -2.4034  -2.3047  -2.2637  -2.1131  -1.8754
    -1.5525  -1.4764  -1.3862  -0.9756  -0.8834  -0.7304  -0.5573  -0.3336
     0.0935   0.3168   0.5160   0.5755   0.6908   0.7464   0.8777   0.9679
     1.0295   1.2677   1.3691   1.4660   1.7038   2.1623   2.3109   2.4305
     2.5082   2.6531   2.7318   2.9023   4.0386   4.1162   4.2273   4.2761
     4.3502   5.1837   5.4554   6.0196   6.3547   6.4671   6.5709   7.0377
     8.1369   8.6323

          k =-0.5000 0.0000 0.0000 ( 41440 PWs)   bands (ev):

   -48.1914 -48.1739 -48.1262 -48.0774 -48.0737 -48.0552 -48.0462 -48.0104
   -48.0000 -47.9282 -47.8657 -47.8011 -47.7606 -47.7275 -47.6888 -47.6350
   -47.6210 -47.4273 -20.4233 -17.6080 -17.5259 -17.4805 -17.4362 -17.3057
   -17.2290 -17.2181 -17.0289 -16.9912 -16.8052 -15.6191 -15.3389 -14.3318
    -6.1260  -5.8807  -5.8468  -5.8140  -5.6835  -5.6624  -5.5798  -5.4859
    -5.3885  -5.3001  -5.0770  -4.9664  -4.9390  -4.8130  -4.7132  -4.6157
    -4.5517  -3.7199  -3.4867  -3.4756  -3.4585  -3.4421  -3.1894  -3.1413
    -3.0496  -2.6071  -2.5426  -2.4618  -2.2533  -1.9171  -1.9073  -1.7314
    -1.6264  -1.1742  -0.9896  -0.9779  -0.9621  -0.5598  -0.5063  -0.2017
     0.4176   0.4657   0.4712   0.4994   0.6983   0.7561   0.7691   0.8484
     1.0166   1.1745   1.3359   1.4469   1.5646   1.8164   2.1358   2.3678
     2.4869   2.5420   2.8814   3.0396   4.0258   4.1962   4.5941   4.6438
     4.7533   5.0877   5.2947   5.5013   5.7060   5.7484   6.4356   6.9937
     8.8960   9.1604

          k =-0.5000 0.1240 0.0000 ( 41518 PWs)   bands (ev):

   -48.1968 -48.1686 -48.1266 -48.0877 -48.0638 -48.0550 -48.0462 -48.0103
   -48.0000 -47.9282 -47.8658 -47.8010 -47.7602 -47.7275 -47.6888 -47.6349
   -47.6210 -47.4272 -20.4232 -17.6283 -17.6048 -17.5955 -17.5633 -17.2141
   -17.1543 -17.0994 -16.9941 -16.9458 -16.8099 -15.6191 -15.3382 -14.3311
    -6.0998  -6.0617  -5.9244  -5.8841  -5.8222  -5.7574  -5.7415  -5.6688
    -5.5348  -5.3647  -5.1731  -4.8968  -4.8565  -4.6479  -4.2726  -4.1114
    -3.8652  -3.6885  -3.5459  -3.5198  -3.5054  -3.3994  -3.3400  -3.1779
    -2.6971  -2.4138  -2.3111  -2.2757  -2.1898  -2.1510  -1.9790  -1.8516
    -1.4567  -1.3477  -1.0063  -0.9367  -0.8863  -0.7590  -0.7212  -0.3238
     0.1577   0.2942   0.4115   0.4718   0.5088   0.5812   0.6988   0.7809
     0.7950   0.8212   0.8750   1.2125   1.4694   2.3391   2.5072   2.5249
     2.6709   2.7309   2.8643   2.9774   3.8193   3.9194   4.0188   4.0801
     4.2276   5.0895   5.5382   6.2036   6.4993   6.5137   6.5855   7.0490
     8.9582   9.3170

          k =-0.5000-0.2479 0.0000 ( 41524 PWs)   bands (ev):

   -48.2006 -48.1648 -48.1270 -48.0927 -48.0598 -48.0542 -48.0462 -48.0103
   -48.0001 -47.9282 -47.8659 -47.8008 -47.7598 -47.7275 -47.6888 -47.6348
   -47.6210 -47.4271 -20.4231 -17.6988 -17.6798 -17.6267 -17.6017 -17.2101
   -17.0695 -17.0129 -16.9967 -16.8797 -16.8146 -15.6191 -15.3375 -14.3303
    -6.3005  -6.1480  -6.1223  -5.9951  -5.7990  -5.7495  -5.6661  -5.6171
    -5.5529  -5.4041  -5.1813  -4.9698  -4.8829  -4.7690  -3.9909  -3.6874
    -3.6134  -3.5263  -3.4959  -3.4627  -3.3375  -3.1636  -3.0023  -2.8359
    -2.7675  -2.6554  -2.5499  -2.2015  -2.1370  -2.1175  -1.8521  -1.8191
    -1.3519  -1.3054  -1.2594  -0.9202  -0.8964  -0.8919  -0.7724  -0.4509
    -0.3688  -0.1366   0.0601   0.1402   0.4774   0.5237   0.5783   0.7002
     0.8160   0.8551   0.9236   1.0334   1.4802   2.3670   2.4937   2.6123
     2.8878   2.9246   2.9506   3.0686   3.4212   3.5014   3.6102   4.1199
     4.2523   5.0911   5.5707   6.5775   6.7248   6.9841   7.0977   7.1417
     9.0247   9.4766

          k =-0.5000-0.1240 0.0000 ( 41518 PWs)   bands (ev):

   -48.1968 -48.1686 -48.1266 -48.0877 -48.0638 -48.0550 -48.0462 -48.0103
   -48.0000 -47.9282 -47.8658 -47.8010 -47.7602 -47.7275 -47.6888 -47.6349
   -47.6210 -47.4272 -20.4232 -17.6283 -17.6048 -17.5955 -17.5633 -17.2141
   -17.1543 -17.0994 -16.9941 -16.9458 -16.8099 -15.6191 -15.3382 -14.3311
    -6.0998  -6.0617  -5.9244  -5.8841  -5.8222  -5.7574  -5.7415  -5.6688
    -5.5348  -5.3647  -5.1731  -4.8968  -4.8565  -4.6479  -4.2726  -4.1114
    -3.8652  -3.6885  -3.5459  -3.5198  -3.5054  -3.3994  -3.3400  -3.1779
    -2.6971  -2.4138  -2.3111  -2.2757  -2.1898  -2.1510  -1.9790  -1.8516
    -1.4567  -1.3477  -1.0063  -0.9367  -0.8863  -0.7590  -0.7212  -0.3238
     0.1577   0.2942   0.4115   0.4718   0.5088   0.5812   0.6988   0.7809
     0.7950   0.8212   0.8750   1.2125   1.4694   2.3391   2.5072   2.5249
     2.6709   2.7309   2.8643   2.9774   3.8193   3.9194   4.0188   4.0801
     4.2276   5.0895   5.5382   6.2036   6.4993   6.5137   6.5855   7.0490
     8.9582   9.3170

          k =-0.3750 0.0000 0.0000 ( 41645 PWs)   bands (ev):

   -48.1924 -48.1608 -48.1273 -48.0747 -48.0614 -48.0467 -48.0398 -48.0091
   -47.9843 -47.9305 -47.8503 -47.8033 -47.7445 -47.7284 -47.6911 -47.6368
   -47.6232 -47.4297 -20.4409 -17.8039 -17.6396 -17.5575 -17.5019 -17.2345
   -17.1838 -17.1581 -17.0524 -16.9693 -16.8179 -15.6663 -15.3809 -14.3488
    -6.2180  -6.2022  -6.1395  -5.9245  -5.6977  -5.6123  -5.5109  -5.4802
    -5.4214  -5.2185  -5.0973  -4.9433  -4.7822  -4.7523  -4.6597  -4.5478
    -4.1821  -3.8536  -3.7424  -3.6283  -3.2969  -3.2449  -3.1689  -3.1179
    -2.9054  -2.6089  -2.4931  -2.4385  -2.2937  -2.0563  -2.0223  -1.8536
    -1.7535  -1.6405  -1.1167  -0.9900  -0.6885  -0.5960  -0.5240  -0.2139
     0.2414   0.4293   0.5315   0.6243   0.7682   0.8151   0.9405   1.0235
     1.2583   1.3493   1.4402   1.6341   1.7636   1.9493   2.1307   2.1912
     2.3228   2.6697   2.7211   2.8224   4.2015   4.3039   4.7840   4.8290
     4.9251   5.1785   5.2488   5.4060   5.7408   5.8207   6.3976   6.9516
     8.0418   8.5294

          k =-0.3750 0.1240 0.0000 ( 41549 PWs)   bands (ev):

   -48.1958 -48.1574 -48.1276 -48.0810 -48.0550 -48.0466 -48.0400 -48.0090
   -47.9844 -47.9305 -47.8504 -47.8033 -47.7442 -47.7284 -47.6911 -47.6368
   -47.6232 -47.4297 -20.4407 -17.7751 -17.6323 -17.5883 -17.5285 -17.2944
   -17.1540 -17.1199 -17.0815 -16.9397 -16.8216 -15.6670 -15.3810 -14.3478
    -6.1067  -6.0668  -6.0355  -5.9050  -5.7189  -5.6501  -5.5828  -5.5515
    -5.4283  -5.3793  -5.2647  -5.0595  -4.6859  -4.6018  -4.4929  -4.3028
    -4.2559  -3.9270  -3.8063  -3.4917  -3.3437  -3.1886  -3.0024  -2.9158
    -2.7387  -2.6460  -2.5261  -2.4034  -2.3047  -2.2637  -2.1131  -1.8754
    -1.5525  -1.4764  -1.3862  -0.9756  -0.8834  -0.7304  -0.5573  -0.3336
     0.0935   0.3168   0.5160   0.5755   0.6908   0.7464   0.8777   0.9679
     1.0295   1.2677   1.3691   1.4660   1.7038   2.1623   2.3109   2.4305
     2.5082   2.6531   2.7318   2.9023   4.0386   4.1162   4.2273   4.2761
     4.3502   5.1837   5.4554   6.0196   6.3547   6.4671   6.5709   7.0377
     8.1369   8.6323

          k =-0.3750-0.2479 0.0000 ( 41514 PWs)   bands (ev):

   -48.1978 -48.1554 -48.1279 -48.0849 -48.0513 -48.0464 -48.0400 -48.0090
   -47.9845 -47.9305 -47.8505 -47.8033 -47.7438 -47.7284 -47.6911 -47.6368
   -47.6232 -47.4296 -20.4405 -17.7264 -17.6449 -17.6079 -17.5507 -17.3317
   -17.1345 -17.1137 -17.0909 -16.9274 -16.8254 -15.6679 -15.3811 -14.3468
    -5.9815  -5.9349  -5.8409  -5.8055  -5.7080  -5.6897  -5.6306  -5.5905
    -5.5674  -5.5080  -5.4505  -5.1119  -4.7226  -4.6011  -4.2773  -4.1469
    -4.0329  -3.9518  -3.7943  -3.4493  -3.3523  -3.1260  -3.0714  -2.8494
    -2.7477  -2.6012  -2.5682  -2.4200  -2.3497  -2.2962  -2.1079  -1.8642
    -1.5577  -1.5052  -1.2150  -0.9838  -0.8412  -0.7228  -0.6846  -0.4856
    -0.2514   0.0340   0.2515   0.3682   0.6088   0.8346   0.8759   1.0916
     1.1831   1.2654   1.3098   1.3861   1.6073   2.2008   2.3104   2.5012
     2.6872   2.7124   2.8616   3.0257   3.6099   3.6780   3.7789   4.3145
     4.3417   5.1835   5.5012   6.3664   6.5682   6.9002   6.9826   7.0624
     8.2472   8.7405

          k =-0.3750-0.1240 0.0000 ( 41549 PWs)   bands (ev):

   -48.1948 -48.1584 -48.1276 -48.0808 -48.0554 -48.0466 -48.0398 -48.0091
   -47.9845 -47.9305 -47.8504 -47.8033 -47.7442 -47.7284 -47.6911 -47.6368
   -47.6232 -47.4297 -20.4407 -17.7748 -17.6254 -17.5841 -17.5272 -17.2938
   -17.1541 -17.1215 -17.0865 -16.9484 -16.8216 -15.6672 -15.3810 -14.3478
    -6.1078  -6.0577  -6.0028  -5.9088  -5.7111  -5.6538  -5.5704  -5.5343
    -5.4217  -5.3917  -5.2664  -5.0791  -4.6742  -4.6032  -4.5220  -4.3243
    -4.2632  -3.9306  -3.7748  -3.5128  -3.3361  -3.1949  -2.9962  -2.9042
    -2.7685  -2.6445  -2.5294  -2.4063  -2.3051  -2.2562  -2.1636  -1.9171
    -1.5979  -1.4628  -1.3267  -0.9671  -0.8756  -0.6476  -0.5352  -0.3357
     0.0719   0.3194   0.4682   0.5834   0.6893   0.7434   0.8804   0.9686
     1.0414   1.2656   1.3600   1.4238   1.7903   2.1552   2.3104   2.4440
     2.5093   2.6155   2.7400   2.8877   4.0381   4.1116   4.2255   4.2990
     4.3549   5.1837   5.4484   6.0210   6.3649   6.4865   6.5775   6.9904
     8.1340   8.6323

          k =-0.2500 0.0000 0.0000 ( 41623 PWs)   bands (ev):

   -48.1952 -48.1310 -48.1301 -48.0777 -48.0492 -48.0219 -48.0074 -47.9982
   -47.9458 -47.9361 -47.8129 -47.8085 -47.7308 -47.7053 -47.6968 -47.6411
   -47.6287 -47.4354 -20.4830 -18.2171 -17.9522 -17.8524 -17.6074 -17.2224
   -17.0566 -17.0169 -16.9804 -16.9320 -16.8338 -15.6899 -15.4160 -14.3891
    -6.7911  -6.7457  -6.7224  -6.2097  -5.9257  -5.8021  -5.6478  -5.4968
    -5.4233  -5.2620  -5.0549  -4.7915  -4.5696  -4.4489  -4.2357  -4.0176
    -3.8454  -3.8147  -3.7831  -3.6840  -3.2674  -3.1269  -2.9457  -2.8016
    -2.7214  -2.5999  -2.4355  -2.3534  -2.3059  -2.2460  -2.0959  -1.8734
    -1.7629  -1.5707  -1.2393  -1.1607  -0.7706  -0.5400  -0.4567  -0.2343
     0.2558   0.3496   0.4355   0.4799   0.6329   0.7257   0.8093   1.1649
     1.3766   1.4235   1.7160   1.7978   1.8243   1.8960   2.1009   2.1378
     2.3180   2.5721   2.8082   2.8817   4.3446   4.7984   5.0619   5.2415
     5.3327   5.3645   5.4322   5.5923   5.6452   5.8634   6.4678   6.8267
     7.2970   7.7299

          k =-0.2500 0.1240 0.0000 ( 41653 PWs)   bands (ev):

   -48.1962 -48.1300 -48.1298 -48.0786 -48.0492 -48.0203 -48.0074 -47.9984
   -47.9459 -47.9361 -47.8130 -47.8089 -47.7308 -47.7052 -47.6968 -47.6414
   -47.6287 -47.4355 -20.4827 -18.1154 -17.8477 -17.7473 -17.6384 -17.2809
   -17.1601 -17.1205 -17.0504 -16.9542 -16.8586 -15.6895 -15.4152 -14.3877
    -6.4094  -6.3685  -6.3663  -6.2055  -5.9244  -5.7915  -5.5025  -5.4518
    -5.2977  -5.1698  -5.1229  -4.8421  -4.6458  -4.4006  -4.3606  -4.2741
    -4.2163  -4.0951  -3.9572  -3.4802  -3.3242  -3.1762  -2.9928  -2.9087
    -2.8441  -2.7651  -2.7393  -2.6279  -2.5061  -2.2939  -2.0471  -1.7830
    -1.6114  -1.5537  -1.3081  -1.1176  -0.8930  -0.5300  -0.3704  -0.3424
     0.0240   0.4225   0.6271   0.7334   0.9005   0.9717   1.0306   1.1227
     1.4126   1.5120   1.6694   1.7579   1.8505   1.9373   2.0539   2.1574
     2.2561   2.5065   2.6396   3.0397   4.4431   4.6931   4.7576   4.8237
     4.8687   5.3125   5.6160   5.6935   6.0779   6.2223   6.5692   6.9620
     7.3364   7.7978

          k =-0.2500-0.2479 0.0000 ( 41680 PWs)   bands (ev):

   -48.1964 -48.1300 -48.1294 -48.0793 -48.0492 -48.0190 -48.0075 -47.9986
   -47.9460 -47.9361 -47.8130 -47.8093 -47.7308 -47.7050 -47.6968 -47.6415
   -47.6288 -47.4357 -20.4824 -17.9329 -17.7761 -17.6306 -17.5031 -17.4624
   -17.3403 -17.2926 -17.1105 -16.9519 -16.8770 -15.6894 -15.4145 -14.3864
    -6.2091  -5.9288  -5.8209  -5.7538  -5.7110  -5.6708  -5.4361  -5.2339
    -5.2281  -5.1437  -5.0863  -5.0699  -4.9284  -4.9192  -4.7466  -4.5874
    -4.2575  -3.9760  -3.7947  -3.6630  -3.5427  -3.4292  -3.3766  -3.1247
    -3.0547  -2.9918  -2.9103  -2.7912  -2.5989  -2.3225  -2.1738  -1.4921
    -1.4242  -1.1875  -1.1415  -1.0442  -0.8968  -0.8028  -0.4173  -0.3021
     0.2219   0.2430   0.6021   0.7272   0.7556   1.1809   1.2638   1.3245
     1.5463   1.6304   1.7864   1.8237   1.8786   1.9742   2.0063   2.1674
     2.3257   2.3853   2.5446   3.1195   4.2421   4.2883   4.3682   4.5829
     4.8936   5.3720   5.6247   5.9216   6.2896   6.6032   6.8324   6.8865
     7.3738   7.9136

          k =-0.2500-0.1240 0.0000 ( 41653 PWs)   bands (ev):

   -48.1954 -48.1306 -48.1300 -48.0785 -48.0492 -48.0205 -48.0075 -47.9984
   -47.9460 -47.9361 -47.8130 -47.8089 -47.7308 -47.7052 -47.6968 -47.6412
   -47.6287 -47.4355 -20.4827 -18.1149 -17.8414 -17.7423 -17.6382 -17.2814
   -17.1605 -17.1211 -17.0554 -16.9560 -16.8658 -15.6897 -15.4152 -14.3878
    -6.4097  -6.3665  -6.3263  -6.2031  -5.9248  -5.7825  -5.4940  -5.4571
    -5.3046  -5.1667  -5.1195  -4.8372  -4.6435  -4.4024  -4.3680  -4.3124
    -4.2259  -4.0754  -3.9591  -3.4656  -3.3335  -3.2018  -2.9821  -2.9134
    -2.8311  -2.7773  -2.7621  -2.6387  -2.5497  -2.3007  -2.0743  -1.8127
    -1.6168  -1.5701  -1.2340  -1.1270  -0.7167  -0.5170  -0.4289  -0.3316
    -0.0117   0.4569   0.5236   0.7480   0.8996   0.9681   1.0635   1.1230
     1.4319   1.4999   1.6947   1.7226   1.8396   1.9320   2.1471   2.1764
     2.2607   2.4570   2.6090   3.0315   4.4445   4.6939   4.7740   4.8259
     4.8698   5.2834   5.6145   5.7061   6.0935   6.2597   6.5823   6.9138
     7.3161   7.7977

          k =-0.1250 0.0000 0.0000 ( 41611 PWs)   bands (ev):

   -48.1980 -48.1328 -48.1059 -48.0809 -48.0516 -47.9960 -47.9825 -47.9614
   -47.9415 -47.9068 -47.8136 -47.7753 -47.7332 -47.7025 -47.6659 -47.6451
   -47.6342 -47.4410 -20.5251 -18.5751 -18.2552 -18.1441 -17.8143 -17.3375
   -17.1213 -16.8964 -16.8674 -16.7954 -16.6655 -15.6112 -15.3653 -14.4287
    -7.2748  -7.2231  -7.2065  -6.6393  -6.1171  -5.8652  -5.7380  -5.6008
    -5.5417  -5.4848  -5.1565  -4.9890  -4.7381  -4.5938  -4.5417  -4.1276
    -3.6498  -3.2892  -3.1941  -2.8746  -2.8053  -2.7372  -2.7029  -2.6382
    -2.5041  -2.4534  -2.1424  -2.0560  -1.8348  -1.8134  -1.7105  -1.5885
    -1.5085  -1.4134  -1.3494  -1.2504  -0.8814  -0.4670  -0.2566  -0.0410
     0.0448   0.0519   0.1965   0.2823   0.3487   0.3868   0.4778   0.7487
     0.9052   0.9606   1.1967   1.5109   1.7430   1.9822   2.0181   2.2344
     2.5076   2.7210   2.9392   3.2550   4.0461   4.6867   5.1933   5.3606
     5.7207   5.9122   6.0556   6.0976   6.1141   6.2369   6.4548   6.5091
     7.1590   7.5489

          k =-0.1250 0.1240 0.0000 ( 41692 PWs)   bands (ev):

   -48.1979 -48.1325 -48.1056 -48.0803 -48.0516 -47.9959 -47.9820 -47.9618
   -47.9415 -47.9068 -47.8145 -47.7752 -47.7332 -47.7025 -47.6659 -47.6455
   -47.6342 -47.4414 -20.5246 -18.4481 -18.1175 -18.0161 -17.8545 -17.3679
   -17.2297 -17.0170 -16.9542 -16.8835 -16.7692 -15.6090 -15.3625 -14.4270
    -6.7840  -6.7301  -6.7167  -6.6308  -6.1181  -5.8409  -5.6472  -5.5755
    -5.4641  -5.3981  -5.2336  -4.8169  -4.6826  -4.5916  -4.5350  -4.1038
    -3.5982  -3.5654  -3.4639  -3.3521  -3.2340  -3.1759  -3.1245  -3.0177
    -2.9229  -2.7847  -2.5776  -2.2913  -2.2326  -1.9581  -1.8097  -1.5439
    -1.3814  -1.3154  -1.1709  -0.9612  -0.7161  -0.3974  -0.2682  -0.1876
     0.2042   0.3407   0.4490   0.5217   0.6705   0.7521   0.8407   0.8829
     0.9520   1.1250   1.2838   1.5680   1.7649   1.9663   2.0381   2.2358
     2.2918   2.6682   2.8162   3.1156   4.4002   4.9949   5.4207   5.4431
     5.6398   5.7042   5.8873   5.9556   6.0551   6.3073   6.4673   6.6534
     7.1392   7.4221

          k =-0.1250-0.2479 0.0000 ( 41706 PWs)   bands (ev):

   -48.1974 -48.1322 -48.1057 -48.0796 -48.0516 -47.9959 -47.9815 -47.9621
   -47.9415 -47.9069 -47.8154 -47.7752 -47.7332 -47.7025 -47.6659 -47.6459
   -47.6343 -47.4418 -20.5241 -18.2103 -18.0742 -17.8638 -17.6895 -17.5349
   -17.4604 -17.2036 -17.0604 -16.9130 -16.8280 -15.6075 -15.3603 -14.4256
    -6.6455  -6.1194  -5.8776  -5.8368  -5.8023  -5.7177  -5.6866  -5.5834
    -5.5567  -5.5058  -5.2568  -4.7783  -4.5945  -4.5480  -4.3039  -4.2650
    -4.1528  -4.1189  -3.9980  -3.9812  -3.8253  -3.6665  -3.6142  -3.2773
    -3.0456  -2.8890  -2.8096  -2.5945  -2.1765  -2.1084  -1.8908  -1.4232
    -1.1607  -1.0818  -0.9060  -0.7628  -0.6489  -0.4266  -0.3398  -0.2641
     0.2547   0.5123   0.5304   0.5910   0.6820   0.8232   0.9925   1.3101
     1.4117   1.5068   1.5421   1.7232   1.7431   1.8354   2.0088   2.1391
     2.3236   2.4430   2.6082   3.0930   4.7152   5.1091   5.2145   5.2795
     5.3064   5.5924   6.0470   6.1121   6.3263   6.4311   6.5597   6.7840
     6.9596   7.3788

          k =-0.1250-0.1240 0.0000 ( 41692 PWs)   bands (ev):

   -48.1975 -48.1325 -48.1059 -48.0802 -48.0516 -47.9960 -47.9821 -47.9617
   -47.9415 -47.9069 -47.8145 -47.7752 -47.7332 -47.7025 -47.6659 -47.6454
   -47.6342 -47.4414 -20.5246 -18.4478 -18.1148 -18.0140 -17.8541 -17.3683
   -17.2305 -17.0167 -16.9549 -16.8831 -16.7758 -15.6090 -15.3625 -14.4271
    -6.7847  -6.7214  -6.7058  -6.6255  -6.1184  -5.8405  -5.6441  -5.5634
    -5.4819  -5.4007  -5.2320  -4.8059  -4.6896  -4.5883  -4.5291  -4.0826
    -3.6170  -3.5741  -3.4698  -3.3445  -3.2220  -3.2001  -3.1202  -3.0131
    -2.9659  -2.7814  -2.6283  -2.3537  -2.1927  -1.9558  -1.8104  -1.5447
    -1.3827  -1.3138  -1.1668  -0.8525  -0.6387  -0.4055  -0.2960  -0.2441
     0.1892   0.3126   0.4672   0.5140   0.6680   0.7605   0.8448   0.9133
     0.9489   1.1173   1.2761   1.5631   1.7572   1.9647   2.0798   2.2516
     2.2890   2.6348   2.8192   3.1050   4.4068   5.0010   5.4108   5.4381
     5.6217   5.6672   5.8983   6.0318   6.0652   6.3066   6.4545   6.6674
     7.1208   7.4086

     the Fermi energy is     2.2934 ev

!    total energy              =   -1674.07582322 Ry
     estimated scf accuracy    <       0.00000011 Ry
     smearing contrib. (-TS)   =      -0.00084127 Ry
     internal energy E=F+TS    =   -1674.07498195 Ry

     The total energy is F=E-TS. E is the sum of the following terms:
     one-electron contribution =  -15383.32699172 Ry
     hartree contribution      =    7743.59115738 Ry
     xc contribution           =    -405.78374390 Ry
     ewald contribution        =    6504.72319015 Ry
     one-center paw contrib.   =    -133.27859385 Ry

     convergence has been achieved in  12 iterations

     negative rho (up, down):  1.908E+00 0.000E+00

     Forces acting on atoms (cartesian axes, Ry/au):

     atom    1 type  2   force =     0.00011509   -0.00011398    0.03669027
     atom    2 type  2   force =     0.00001955   -0.00072736   -0.03939281
     atom    3 type  2   force =     0.00054653   -0.00007211    0.00096508
     atom    4 type  2   force =     0.00160331   -0.00009548   -0.00210047
     atom    5 type  2   force =    -0.01083051    0.01566578    0.01509844
     atom    6 type  2   force =     0.00169654   -0.01392305   -0.00421201
     atom    7 type  3   force =    -0.00044248    0.00039245   -0.00254129
     atom    8 type  3   force =    -0.00024928   -0.00003438    0.03259036
     atom    9 type  3   force =     0.00024712    0.02119490   -0.02460484
     atom   10 type  3   force =    -0.00004912   -0.02049837   -0.02450826
     atom   11 type  3   force =     0.00169188    0.00063866    0.00072540
     atom   12 type  3   force =    -0.00075907   -0.00034798    0.01488352
     atom   13 type  3   force =     0.00040303    0.00042545   -0.00003512
     atom   14 type  3   force =     0.00022881    0.00086331    0.00048312
     atom   15 type  3   force =    -0.00020285   -0.00115278   -0.00149993
     atom   16 type  3   force =     0.00041305   -0.00111845    0.00008266
     atom   17 type  3   force =    -0.00469770   -0.01387242    0.00115353
     atom   18 type  3   force =    -0.01074028   -0.01664700    0.00145152
     atom   19 type  3   force =     0.00723640    0.03368595    0.00934709
     atom   20 type  3   force =     0.01598851    0.01473096   -0.01921337
     atom   21 type  1   force =    -0.00221852   -0.01899407    0.00463713

     Total force =     0.062749     Total SCF correction =     0.000956
     Energy error            =      7.9E-03 Ry
     Gradient error          =      3.4E-02 Ry/Bohr

     number of scf cycles    =   3
     number of bfgs steps    =   2

     energy             old  =   -1674.0678834046 Ry
     energy             new  =   -1674.0758232204 Ry

     CASE: energy            _new < energy            _old

     new trust radius        =       0.1521880160 bohr
     new conv_thr            =       0.0000001684 Ry


ATOMIC_POSITIONS (angstrom)
Ir               0.0000000000        4.7708494500        9.5416989100    0   0   0
Ir               1.5770000000        1.5902831500        9.5416989100    0   0   0
Ir              -0.0066244029        1.5904157270       12.7513289250
Ir               1.5757862419        4.7735097140       12.7195451353
Ir              -0.0347766542        4.7182954242       16.0070706478
Ir               1.5621467744        1.5728225980       15.9694715424
O                0.0000000000        1.5902831500       10.7821197600    0   0   0
O                0.0000000000        1.5902831500        8.3012780500    0   0   0
O                1.5770000000        3.5304285900        9.5416989100    0   0   0
O                1.5770000000        6.0112703100        9.5416989100    0   0   0
O                0.0047665804        4.7820892422       13.9659912830
O                0.0000000000        4.7708494500       11.4818443500    0   0   0
O                1.5712657764        0.3663108567       12.7346963684
O                1.5717660366        2.8167127445       12.7363995088
O               -0.0146848642        1.5856485994       17.1482147615
O               -0.0151297623        1.5875251322       14.7234026203
O                1.5692838862        3.5161810959       15.9083119666
O                1.5357553584        5.9662786373       15.9294597921
O               -0.3719002151        4.9408214904       17.9061094563
O               -0.3038193622        3.8670715432       18.9085544334
H               -0.3730282090        4.5292599514       19.6399415458



     Writing config-only to output data dir ./tmp_s0_OOH__yaw270/s0_OOH__yaw270.save/ :
     XML data file
     NEW-OLD atomic charge density approx. for the potential

     negative rho (up, down):  1.907E+00 0.000E+00

     total cpu time spent up to now is     7078.4 secs

     per-process dynamical memory:  1181.3 Mb

     Self-consistent Calculation

     iteration #  1     ecut=    80.00 Ry     beta= 0.30
     Davidson diagonalization with overlap
     ethr =  1.00E-06,  avg # of iterations =  8.0

     negative rho (up, down):  1.906E+00 0.000E+00

     total cpu time spent up to now is     7352.6 secs

     total energy              =   -1674.08417225 Ry
     estimated scf accuracy    <       0.02441324 Ry

     iteration #  2     ecut=    80.00 Ry     beta= 0.30
     Davidson diagonalization with overlap
     ethr =  1.40E-05,  avg # of iterations =  1.0

     negative rho (up, down):  1.907E+00 0.000E+00

     total cpu time spent up to now is     7462.2 secs

     total energy              =   -1674.08402565 Ry
     estimated scf accuracy    <       0.01448554 Ry

     iteration #  3     ecut=    80.00 Ry     beta= 0.30
     Davidson diagonalization with overlap
     ethr =  8.28E-06,  avg # of iterations =  1.0

     negative rho (up, down):  1.907E+00 0.000E+00

     total cpu time spent up to now is     7572.7 secs

     total energy              =   -1674.08282060 Ry
     estimated scf accuracy    <       0.00251344 Ry

     iteration #  4     ecut=    80.00 Ry     beta= 0.30
     Davidson diagonalization with overlap
     ethr =  1.44E-06,  avg # of iterations =  2.0

     negative rho (up, down):  1.907E+00 0.000E+00

     total cpu time spent up to now is     7691.6 secs

     total energy              =   -1674.08285735 Ry
     estimated scf accuracy    <       0.00028372 Ry

     iteration #  5     ecut=    80.00 Ry     beta= 0.30
     Davidson diagonalization with overlap
     ethr =  1.62E-07,  avg # of iterations =  2.0

     negative rho (up, down):  1.907E+00 0.000E+00

     total cpu time spent up to now is     7813.8 secs

     total energy              =   -1674.08287529 Ry
     estimated scf accuracy    <       0.00020832 Ry

     iteration #  6     ecut=    80.00 Ry     beta= 0.30
     Davidson diagonalization with overlap
     ethr =  1.19E-07,  avg # of iterations =  1.0

     negative rho (up, down):  1.907E+00 0.000E+00

     total cpu time spent up to now is     7925.6 secs

     total energy              =   -1674.08287247 Ry
     estimated scf accuracy    <       0.00016862 Ry

     iteration #  7     ecut=    80.00 Ry     beta= 0.30
     Davidson diagonalization with overlap
     ethr =  9.64E-08,  avg # of iterations =  1.0

     negative rho (up, down):  1.907E+00 0.000E+00
--------------------------------------------------------------------------
prterun noticed that process rank 2 with PID 2699 on node be2d195a3225 exited on
signal 15 (Terminated).
--------------------------------------------------------------------------
