
     Program PWSCF v.7.5 starts on 28Aug2026 at 20:16:48 

     This program is part of the open-source Quantum ESPRESSO suite
     for quantum simulation of materials; please cite
         "P. Giannozzi et al., J. Phys.:Condens. Matter 21 395502 (2009);
         "P. Giannozzi et al., J. Phys.:Condens. Matter 29 465901 (2017);
         "P. Giannozzi et al., J. Chem. Phys. 152 154105 (2020);
          URL http://www.quantum-espresso.org", 
     in publications or presentations arising from this work. More details at
     http://www.quantum-espresso.org/quote

     Parallel version (MPI & OpenMP), running on     128 processor cores
     Number of MPI processes:               128
     Threads/MPI process:                     1

     MPI processes distributed on     1 nodes
     221662 MiB available memory on the printing compute node when the environment starts

     Reading input from s0_O__u000.run.in

     Current dimensions of program PWSCF are:
     Max number of different atomic species (ntypx) = 10
     Max number of k-points (npk) =  40000
     Max angular momentum in pseudopotentials (lmaxx) =  4
     file Fe.pbe-spn-kjpaw_psl.0.2.1.UPF: wavefunction(s)  3D renormalized
     file O.pbe-n-kjpaw_psl.0.1.UPF: wavefunction(s)  2P renormalized

     K-points division:     npool     =       4
     R & G space division:  proc/nbgrp/npool/nimage =      32
     Subspace diagonalization in iterative solution of the eigenvalue problem:
     a serial algorithm will be used


     Parallelization info
     --------------------
     sticks:   dense  smooth     PW     G-vecs:    dense   smooth      PW
     Min         108      54     15                28014     9900    1507
     Max         109      55     16                28043     9911    1522
     Sum        3469    1737    497               896767   316913   48471

     Using Slab Decomposition



     bravais-lattice index     =            0
     lattice parameter (alat)  =       5.6692  a.u.
     unit-cell volume          =    3279.6906 (a.u.)^3
     number of atoms/cell      =           19
     number of atomic types    =            2
     number of electrons       =       174.00
     number of Kohn-Sham states=          104
     kinetic-energy cutoff     =      80.0000  Ry
     charge density cutoff     =     640.0000  Ry
     scf convergence threshold =      1.0E-06
     mixing beta               =       0.3000
     number of iterations used =            8  local-TF  mixing
     Exchange-correlation= SLA  PW   PBX  PBC
                           (   1   4   3   4   0   0   0)

     celldm(1)=   5.669178  celldm(2)=   0.000000  celldm(3)=   0.000000
     celldm(4)=   0.000000  celldm(5)=   0.000000  celldm(6)=   0.000000

     crystal axes: (cart. coord. in units of alat)
               a(1) = (   1.000000   0.000000   0.000000 )  
               a(2) = (   0.000000   2.121320   0.000000 )  
               a(3) = (   0.000000   0.000000   8.485281 )  

     reciprocal axes: (cart. coord. in units 2 pi/alat)
               b(1) = (  1.000000  0.000000  0.000000 )  
               b(2) = (  0.000000  0.471405  0.000000 )  
               b(3) = (  0.000000  0.000000  0.117851 )  


     PseudoPot. # 1 for Fe read from file:
     /anvil/projects/x-che260157/pseudo/Fe.pbe-spn-kjpaw_psl.0.2.1.UPF
     MD5 check sum: e86618425769142926afa95317d90200
     Pseudo is Projector augmented-wave + core cor, Zval = 16.0
     Generated using "atomic" code by A. Dal Corso  v.5.0.99 svn rev. 10869
     Shape of augmentation charge: PSQ
     Using radial grid of 1191 points,  6 beta functions with: 
                l(1) =   0
                l(2) =   0
                l(3) =   1
                l(4) =   1
                l(5) =   2
                l(6) =   2
     Q(r) pseudized with 0 coefficients 


     PseudoPot. # 2 for O  read from file:
     /anvil/projects/x-che260157/pseudo/O.pbe-n-kjpaw_psl.0.1.UPF
     MD5 check sum: 0234752ac141de4415c5fc33072bef88
     Pseudo is Projector augmented-wave + core cor, Zval =  6.0
     Generated using "atomic" code by A. Dal Corso  v.5.0.99 svn rev. 10869
     Shape of augmentation charge: BESSEL
     Using radial grid of 1095 points,  4 beta functions with: 
                l(1) =   0
                l(2) =   0
                l(3) =   1
                l(4) =   1
     Q(r) pseudized with 0 coefficients 


     atomic species   valence    mass     pseudopotential
     Fe               16.00    55.84500     Fe( 1.00)
     O                 6.00    15.99900     O ( 1.00)

     Starting magnetic structure 
     atomic species   magnetization
     Fe              0.500
     O               0.000

     No symmetry found



   Cartesian axes

     site n.     atom                  positions (alat units)
         1        Fe     tau(   1) = (   0.0000000   1.5909903   3.1819805  )
         2        Fe     tau(   2) = (   0.5000000   0.5303301   3.1819805  )
         3        Fe     tau(   3) = (   0.0017224   0.5303276   4.2623208  )
         4        Fe     tau(   4) = (   0.5002586   1.5909902   4.2517362  )
         5        Fe     tau(   5) = (   0.0000305   1.5909965   5.3325419  )
         6        Fe     tau(   6) = (   0.5027722   0.5303220   5.3458766  )
         7        O      tau(   7) = (   0.0000000   0.5303301   3.5956380  )
         8        O      tau(   8) = (   0.0000000   0.5303301   2.7683231  )
         9        O      tau(   9) = (   0.5000000   1.1773328   3.1819805  )
        10        O      tau(  10) = (   0.5000000   2.0046477   3.1819805  )
        11        O      tau(  11) = (   0.0002542   1.5909747   4.6707620  )
        12        O      tau(  12) = (   0.0000000   1.5909903   3.8289832  )
        13        O      tau(  13) = (   0.5015049   0.1255704   4.2566816  )
        14        O      tau(  14) = (   0.5015056   0.9350816   4.2566740  )
        15        O      tau(  15) = (   0.0028747   0.5303025   5.7293337  )
        16        O      tau(  16) = (   0.0024118   0.5303420   4.9287138  )
        17        O      tau(  17) = (   0.5003224   1.1865901   5.3154782  )
        18        O      tau(  18) = (   0.5003068   1.9953929   5.3154041  )
        19        O      tau(  19) = (  -0.0018049   1.5910841   5.9238230  )

     number of k points=    32  Marzari-Vanderbilt smearing, width (Ry)=  0.0100
                       cart. coord. in units 2pi/alat
        k(    1) = (   0.0000000   0.0000000   0.0000000), wk =   0.0312500
        k(    2) = (   0.0000000   0.1178511   0.0000000), wk =   0.0312500
        k(    3) = (   0.0000000  -0.2357023   0.0000000), wk =   0.0312500
        k(    4) = (   0.0000000  -0.1178511   0.0000000), wk =   0.0312500
        k(    5) = (   0.1250000   0.0000000   0.0000000), wk =   0.0312500
        k(    6) = (   0.1250000   0.1178511   0.0000000), wk =   0.0312500
        k(    7) = (   0.1250000  -0.2357023   0.0000000), wk =   0.0312500
        k(    8) = (   0.1250000  -0.1178511   0.0000000), wk =   0.0312500
        k(    9) = (   0.2500000   0.0000000   0.0000000), wk =   0.0312500
        k(   10) = (   0.2500000   0.1178511   0.0000000), wk =   0.0312500
        k(   11) = (   0.2500000  -0.2357023   0.0000000), wk =   0.0312500
        k(   12) = (   0.2500000  -0.1178511   0.0000000), wk =   0.0312500
        k(   13) = (   0.3750000   0.0000000   0.0000000), wk =   0.0312500
        k(   14) = (   0.3750000   0.1178511   0.0000000), wk =   0.0312500
        k(   15) = (   0.3750000  -0.2357023   0.0000000), wk =   0.0312500
        k(   16) = (   0.3750000  -0.1178511   0.0000000), wk =   0.0312500
        k(   17) = (  -0.5000000   0.0000000   0.0000000), wk =   0.0312500
        k(   18) = (  -0.5000000   0.1178511   0.0000000), wk =   0.0312500
        k(   19) = (  -0.5000000  -0.2357023   0.0000000), wk =   0.0312500
        k(   20) = (  -0.5000000  -0.1178511   0.0000000), wk =   0.0312500
        k(   21) = (  -0.3750000   0.0000000   0.0000000), wk =   0.0312500
        k(   22) = (  -0.3750000   0.1178511   0.0000000), wk =   0.0312500
        k(   23) = (  -0.3750000  -0.2357023   0.0000000), wk =   0.0312500
        k(   24) = (  -0.3750000  -0.1178511   0.0000000), wk =   0.0312500
        k(   25) = (  -0.2500000   0.0000000   0.0000000), wk =   0.0312500
        k(   26) = (  -0.2500000   0.1178511   0.0000000), wk =   0.0312500
        k(   27) = (  -0.2500000  -0.2357023   0.0000000), wk =   0.0312500
        k(   28) = (  -0.2500000  -0.1178511   0.0000000), wk =   0.0312500
        k(   29) = (  -0.1250000   0.0000000   0.0000000), wk =   0.0312500
        k(   30) = (  -0.1250000   0.1178511   0.0000000), wk =   0.0312500
        k(   31) = (  -0.1250000  -0.2357023   0.0000000), wk =   0.0312500
        k(   32) = (  -0.1250000  -0.1178511   0.0000000), wk =   0.0312500

     Dense  grid:   896767 G-vectors     FFT dimensions: (  45, 100, 400)

     Smooth grid:   316913 G-vectors     FFT dimensions: (  36,  72, 288)

     Estimated max dynamical RAM per process >      93.00 MB

     Estimated total dynamical RAM >      10.34 GB

     Check: negative core charge=   -0.000004
     Generating pointlists ...
     new r_m :   0.2439 (alat units)  1.3827 (a.u.) for type    1
     new r_m :   0.2439 (alat units)  1.3827 (a.u.) for type    2

     Initial potential from superposition of free atoms

     starting charge     173.9974, renormalised to     174.0000

     negative rho (up, down):  1.194E-03 3.903E-04
     Starting wfcs are  130 randomized atomic wfcs
     Checking if some PAW data can be deallocated... 

     total cpu time spent up to now is        6.6 secs

     per-process dynamical memory:   122.1 Mb

     Self-consistent Calculation

     iteration #  1     ecut=    80.00 Ry     beta= 0.30
     Davidson diagonalization with overlap
     ethr =  1.00E-02,  avg # of iterations =  2.0

     negative rho (up, down):  1.585E-03 1.300E-03

     total cpu time spent up to now is       14.5 secs

     total energy              =   -2514.76120961 Ry
     estimated scf accuracy    <      15.95439144 Ry

     total magnetization       =    22.00 Bohr mag/cell
     absolute magnetization    =    25.50 Bohr mag/cell

     iteration #  2     ecut=    80.00 Ry     beta= 0.30
     Davidson diagonalization with overlap
     ethr =  9.17E-03,  avg # of iterations =  1.1

     negative rho (up, down):  1.297E-03 1.439E-03

     total cpu time spent up to now is       21.2 secs

     total energy              =   -2515.53897306 Ry
     estimated scf accuracy    <       3.29249440 Ry

     total magnetization       =    21.90 Bohr mag/cell
     absolute magnetization    =    26.24 Bohr mag/cell

     iteration #  3     ecut=    80.00 Ry     beta= 0.30
     Davidson diagonalization with overlap
     ethr =  1.89E-03,  avg # of iterations =  2.8

     negative rho (up, down):  1.394E-03 1.917E-03

     total cpu time spent up to now is       31.3 secs

     total energy              =   -2516.18059532 Ry
     estimated scf accuracy    <       1.61435902 Ry

     total magnetization       =    21.97 Bohr mag/cell
     absolute magnetization    =    23.58 Bohr mag/cell

     iteration #  4     ecut=    80.00 Ry     beta= 0.30
     Davidson diagonalization with overlap
     ethr =  9.28E-04,  avg # of iterations =  1.8

     negative rho (up, down):  1.162E-03 1.828E-03

     total cpu time spent up to now is       38.4 secs

     total energy              =   -2516.37900633 Ry
     estimated scf accuracy    <       0.74532987 Ry

     total magnetization       =    21.76 Bohr mag/cell
     absolute magnetization    =    23.17 Bohr mag/cell

     iteration #  5     ecut=    80.00 Ry     beta= 0.30
     Davidson diagonalization with overlap
     ethr =  4.28E-04,  avg # of iterations =  2.2

     negative rho (up, down):  2.091E-03 2.901E-03

     total cpu time spent up to now is       47.0 secs

     total energy              =   -2516.53328487 Ry
     estimated scf accuracy    <       0.65312097 Ry

     total magnetization       =    21.96 Bohr mag/cell
     absolute magnetization    =    23.14 Bohr mag/cell

     iteration #  6     ecut=    80.00 Ry     beta= 0.30
     Davidson diagonalization with overlap
     ethr =  3.75E-04,  avg # of iterations =  1.5

     negative rho (up, down):  1.606E-03 3.026E-03

     total cpu time spent up to now is       54.4 secs

     total energy              =   -2516.63716268 Ry
     estimated scf accuracy    <       1.96962117 Ry

     total magnetization       =    18.23 Bohr mag/cell
     absolute magnetization    =    20.06 Bohr mag/cell

     iteration #  7     ecut=    80.00 Ry     beta= 0.30
     Davidson diagonalization with overlap
     ethr =  3.75E-04,  avg # of iterations =  1.0

     negative rho (up, down):  1.531E-03 2.786E-03

     total cpu time spent up to now is       61.4 secs

     total energy              =   -2516.64113791 Ry
     estimated scf accuracy    <       0.97306771 Ry

     total magnetization       =    18.66 Bohr mag/cell
     absolute magnetization    =    20.18 Bohr mag/cell

     iteration #  8     ecut=    80.00 Ry     beta= 0.30
     Davidson diagonalization with overlap
     ethr =  3.75E-04,  avg # of iterations =  1.1

     negative rho (up, down):  1.552E-03 2.248E-03

     total cpu time spent up to now is       69.2 secs

     total energy              =   -2516.66857001 Ry
     estimated scf accuracy    <       0.18330267 Ry

     total magnetization       =    18.94 Bohr mag/cell
     absolute magnetization    =    19.94 Bohr mag/cell

     iteration #  9     ecut=    80.00 Ry     beta= 0.30
     Davidson diagonalization with overlap
     ethr =  1.05E-04,  avg # of iterations =  1.3

     negative rho (up, down):  1.392E-03 1.954E-03

     total cpu time spent up to now is       76.5 secs

     total energy              =   -2516.67668725 Ry
     estimated scf accuracy    <       0.38751975 Ry

     total magnetization       =    18.46 Bohr mag/cell
     absolute magnetization    =    19.38 Bohr mag/cell

     iteration # 10     ecut=    80.00 Ry     beta= 0.30
     Davidson diagonalization with overlap
     ethr =  1.05E-04,  avg # of iterations =  1.0

     negative rho (up, down):  1.716E-03 1.252E-03

     total cpu time spent up to now is       84.0 secs

     total energy              =   -2516.66890229 Ry
     estimated scf accuracy    <       0.26610655 Ry

     total magnetization       =    18.54 Bohr mag/cell
     absolute magnetization    =    19.33 Bohr mag/cell

     iteration # 11     ecut=    80.00 Ry     beta= 0.30
     Davidson diagonalization with overlap
     ethr =  1.05E-04,  avg # of iterations =  1.7

     negative rho (up, down):  1.802E-03 9.362E-04

     total cpu time spent up to now is       92.0 secs

     total energy              =   -2516.68417647 Ry
     estimated scf accuracy    <       0.04699161 Ry

     total magnetization       =    18.83 Bohr mag/cell
     absolute magnetization    =    19.42 Bohr mag/cell

     iteration # 12     ecut=    80.00 Ry     beta= 0.30
     Davidson diagonalization with overlap
     ethr =  2.70E-05,  avg # of iterations =  1.4

     negative rho (up, down):  1.147E-03 8.164E-04

     total cpu time spent up to now is       99.1 secs

     total energy              =   -2516.68746268 Ry
     estimated scf accuracy    <       0.12484417 Ry

     total magnetization       =    18.72 Bohr mag/cell
     absolute magnetization    =    19.21 Bohr mag/cell

     iteration # 13     ecut=    80.00 Ry     beta= 0.30
     Davidson diagonalization with overlap
     ethr =  2.70E-05,  avg # of iterations =  1.0

     negative rho (up, down):  5.311E-04 7.461E-04

     total cpu time spent up to now is      105.9 secs

     total energy              =   -2516.68687673 Ry
     estimated scf accuracy    <       0.08691410 Ry

     total magnetization       =    18.78 Bohr mag/cell
     absolute magnetization    =    19.25 Bohr mag/cell

     iteration # 14     ecut=    80.00 Ry     beta= 0.30
     Davidson diagonalization with overlap
     ethr =  2.70E-05,  avg # of iterations =  1.0

     negative rho (up, down):  4.243E-04 6.021E-04

     total cpu time spent up to now is      114.7 secs

     total energy              =   -2516.68869785 Ry
     estimated scf accuracy    <       0.02102049 Ry

     total magnetization       =    18.97 Bohr mag/cell
     absolute magnetization    =    19.40 Bohr mag/cell

     iteration # 15     ecut=    80.00 Ry     beta= 0.30
     Davidson diagonalization with overlap
     ethr =  1.21E-05,  avg # of iterations =  1.4

     negative rho (up, down):  3.184E-04 5.517E-04

     total cpu time spent up to now is      123.0 secs

     total energy              =   -2516.69037673 Ry
     estimated scf accuracy    <       0.01512203 Ry

     total magnetization       =    19.09 Bohr mag/cell
     absolute magnetization    =    19.48 Bohr mag/cell

     iteration # 16     ecut=    80.00 Ry     beta= 0.30
     Davidson diagonalization with overlap
     ethr =  8.69E-06,  avg # of iterations =  1.7

     negative rho (up, down):  2.189E-04 5.009E-04

     total cpu time spent up to now is      136.0 secs

     total energy              =   -2516.69209698 Ry
     estimated scf accuracy    <       0.01566359 Ry

     total magnetization       =    19.06 Bohr mag/cell
     absolute magnetization    =    19.44 Bohr mag/cell

     iteration # 17     ecut=    80.00 Ry     beta= 0.30
     Davidson diagonalization with overlap
     ethr =  8.69E-06,  avg # of iterations =  1.7

     negative rho (up, down):  1.610E-04 4.754E-04

     total cpu time spent up to now is      152.2 secs

     total energy              =   -2516.69438272 Ry
     estimated scf accuracy    <       0.01299623 Ry

     total magnetization       =    19.15 Bohr mag/cell
     absolute magnetization    =    19.50 Bohr mag/cell

     iteration # 18     ecut=    80.00 Ry     beta= 0.30
     Davidson diagonalization with overlap
     ethr =  7.47E-06,  avg # of iterations =  1.7

     negative rho (up, down):  8.189E-05 4.847E-04

     total cpu time spent up to now is      159.6 secs

     total energy              =   -2516.69638708 Ry
     estimated scf accuracy    <       0.01118589 Ry

     total magnetization       =    19.21 Bohr mag/cell
     absolute magnetization    =    19.56 Bohr mag/cell

     iteration # 19     ecut=    80.00 Ry     beta= 0.30
     Davidson diagonalization with overlap
     ethr =  6.43E-06,  avg # of iterations =  3.0

     negative rho (up, down):  4.947E-05 4.699E-04

     total cpu time spent up to now is      167.8 secs

     total energy              =   -2516.69790292 Ry
     estimated scf accuracy    <       0.01492756 Ry

     total magnetization       =    19.25 Bohr mag/cell
     absolute magnetization    =    19.59 Bohr mag/cell

     iteration # 20     ecut=    80.00 Ry     beta= 0.30
     Davidson diagonalization with overlap
     ethr =  6.43E-06,  avg # of iterations =  1.4

     negative rho (up, down):  5.463E-05 4.377E-04

     total cpu time spent up to now is      174.9 secs

     total energy              =   -2516.69669746 Ry
     estimated scf accuracy    <       0.01644432 Ry

     total magnetization       =    19.24 Bohr mag/cell
     absolute magnetization    =    19.58 Bohr mag/cell

     iteration # 21     ecut=    80.00 Ry     beta= 0.30
     Davidson diagonalization with overlap
     ethr =  6.43E-06,  avg # of iterations =  3.1

     negative rho (up, down):  2.160E-05 4.379E-04

     total cpu time spent up to now is      183.2 secs

     total energy              =   -2516.69751343 Ry
     estimated scf accuracy    <       0.01342156 Ry

     total magnetization       =    19.18 Bohr mag/cell
     absolute magnetization    =    19.51 Bohr mag/cell

     iteration # 22     ecut=    80.00 Ry     beta= 0.30
     Davidson diagonalization with overlap
     ethr =  6.43E-06,  avg # of iterations =  1.5

     negative rho (up, down):  2.501E-05 4.140E-04

     total cpu time spent up to now is      190.3 secs

     total energy              =   -2516.69748340 Ry
     estimated scf accuracy    <       0.00443853 Ry

     total magnetization       =    19.18 Bohr mag/cell
     absolute magnetization    =    19.51 Bohr mag/cell

     iteration # 23     ecut=    80.00 Ry     beta= 0.30
     Davidson diagonalization with overlap
     ethr =  2.55E-06,  avg # of iterations =  2.7

     negative rho (up, down):  1.806E-05 4.103E-04

     total cpu time spent up to now is      198.3 secs

     total energy              =   -2516.69779148 Ry
     estimated scf accuracy    <       0.00253792 Ry

     total magnetization       =    19.12 Bohr mag/cell
     absolute magnetization    =    19.45 Bohr mag/cell

     iteration # 24     ecut=    80.00 Ry     beta= 0.30
     Davidson diagonalization with overlap
     ethr =  1.46E-06,  avg # of iterations =  1.0

     negative rho (up, down):  1.349E-05 4.089E-04

     total cpu time spent up to now is      204.9 secs

     total energy              =   -2516.69809821 Ry
     estimated scf accuracy    <       0.00100743 Ry

     total magnetization       =    19.09 Bohr mag/cell
     absolute magnetization    =    19.42 Bohr mag/cell

     iteration # 25     ecut=    80.00 Ry     beta= 0.30
     Davidson diagonalization with overlap
     ethr =  5.79E-07,  avg # of iterations =  2.0

     negative rho (up, down):  1.542E-05 4.057E-04

     total cpu time spent up to now is      212.7 secs

     total energy              =   -2516.69827283 Ry
     estimated scf accuracy    <       0.00112789 Ry

     total magnetization       =    19.07 Bohr mag/cell
     absolute magnetization    =    19.40 Bohr mag/cell

     iteration # 26     ecut=    80.00 Ry     beta= 0.30
     Davidson diagonalization with overlap
     ethr =  5.79E-07,  avg # of iterations =  2.0

     negative rho (up, down):  2.000E-05 4.043E-04

     total cpu time spent up to now is      220.0 secs

     total energy              =   -2516.69837473 Ry
     estimated scf accuracy    <       0.00082290 Ry

     total magnetization       =    19.04 Bohr mag/cell
     absolute magnetization    =    19.37 Bohr mag/cell

     iteration # 27     ecut=    80.00 Ry     beta= 0.30
     Davidson diagonalization with overlap
     ethr =  4.73E-07,  avg # of iterations =  2.2

     negative rho (up, down):  3.923E-05 4.029E-04

     total cpu time spent up to now is      227.3 secs

     total energy              =   -2516.69839802 Ry
     estimated scf accuracy    <       0.00075821 Ry

     total magnetization       =    19.00 Bohr mag/cell
     absolute magnetization    =    19.33 Bohr mag/cell

     iteration # 28     ecut=    80.00 Ry     beta= 0.30
     Davidson diagonalization with overlap
     ethr =  4.36E-07,  avg # of iterations =  2.0

     negative rho (up, down):  1.193E-04 4.388E-04

     total cpu time spent up to now is      234.5 secs

     total energy              =   -2516.69828373 Ry
     estimated scf accuracy    <       0.00059546 Ry

     total magnetization       =    18.95 Bohr mag/cell
     absolute magnetization    =    19.28 Bohr mag/cell

     iteration # 29     ecut=    80.00 Ry     beta= 0.30
     Davidson diagonalization with overlap
     ethr =  3.42E-07,  avg # of iterations =  2.8

     negative rho (up, down):  1.415E-04 4.622E-04

     total cpu time spent up to now is      242.7 secs

     total energy              =   -2516.69842715 Ry
     estimated scf accuracy    <       0.00030471 Ry

     total magnetization       =    18.88 Bohr mag/cell
     absolute magnetization    =    19.20 Bohr mag/cell

     iteration # 30     ecut=    80.00 Ry     beta= 0.30
     Davidson diagonalization with overlap
     ethr =  1.75E-07,  avg # of iterations =  2.2

     negative rho (up, down):  1.566E-04 4.684E-04

     total cpu time spent up to now is      250.0 secs

     total energy              =   -2516.69846023 Ry
     estimated scf accuracy    <       0.00020653 Ry

     total magnetization       =    18.87 Bohr mag/cell
     absolute magnetization    =    19.20 Bohr mag/cell

     iteration # 31     ecut=    80.00 Ry     beta= 0.30
     Davidson diagonalization with overlap
     ethr =  1.19E-07,  avg # of iterations =  1.8

     negative rho (up, down):  2.016E-04 4.957E-04

     total cpu time spent up to now is      257.4 secs

     total energy              =   -2516.69848014 Ry
     estimated scf accuracy    <       0.00015665 Ry

     total magnetization       =    18.87 Bohr mag/cell
     absolute magnetization    =    19.20 Bohr mag/cell

     iteration # 32     ecut=    80.00 Ry     beta= 0.30
     Davidson diagonalization with overlap
     ethr =  9.00E-08,  avg # of iterations =  1.9

     negative rho (up, down):  2.509E-04 5.194E-04

     total cpu time spent up to now is      264.6 secs

     total energy              =   -2516.69851400 Ry
     estimated scf accuracy    <       0.00013123 Ry

     total magnetization       =    18.88 Bohr mag/cell
     absolute magnetization    =    19.20 Bohr mag/cell

     iteration # 33     ecut=    80.00 Ry     beta= 0.30
     Davidson diagonalization with overlap
     ethr =  7.54E-08,  avg # of iterations =  2.4

     negative rho (up, down):  4.113E-04 6.410E-04

     total cpu time spent up to now is      272.1 secs

     total energy              =   -2516.69851778 Ry
     estimated scf accuracy    <       0.00008315 Ry

     total magnetization       =    18.89 Bohr mag/cell
     absolute magnetization    =    19.22 Bohr mag/cell

     iteration # 34     ecut=    80.00 Ry     beta= 0.30
     Davidson diagonalization with overlap
     ethr =  4.78E-08,  avg # of iterations =  3.8

     negative rho (up, down):  5.214E-04 7.180E-04

     total cpu time spent up to now is      281.6 secs

     total energy              =   -2516.69853365 Ry
     estimated scf accuracy    <       0.00004346 Ry

     total magnetization       =    18.89 Bohr mag/cell
     absolute magnetization    =    19.22 Bohr mag/cell

     iteration # 35     ecut=    80.00 Ry     beta= 0.30
     Davidson diagonalization with overlap
     ethr =  2.50E-08,  avg # of iterations =  2.8

     negative rho (up, down):  6.374E-04 7.984E-04

     total cpu time spent up to now is      290.5 secs

     total energy              =   -2516.69853570 Ry
     estimated scf accuracy    <       0.00003360 Ry

     total magnetization       =    18.89 Bohr mag/cell
     absolute magnetization    =    19.22 Bohr mag/cell

     iteration # 36     ecut=    80.00 Ry     beta= 0.30
     Davidson diagonalization with overlap
     ethr =  1.93E-08,  avg # of iterations =  2.4

     negative rho (up, down):  6.621E-04 8.001E-04

     total cpu time spent up to now is      298.2 secs

     total energy              =   -2516.69854625 Ry
     estimated scf accuracy    <       0.00002467 Ry

     total magnetization       =    18.90 Bohr mag/cell
     absolute magnetization    =    19.23 Bohr mag/cell

     iteration # 37     ecut=    80.00 Ry     beta= 0.30
     Davidson diagonalization with overlap
     ethr =  1.42E-08,  avg # of iterations =  1.2

     negative rho (up, down):  7.416E-04 8.534E-04

     total cpu time spent up to now is      305.1 secs

     total energy              =   -2516.69854785 Ry
     estimated scf accuracy    <       0.00001232 Ry

     total magnetization       =    18.90 Bohr mag/cell
     absolute magnetization    =    19.23 Bohr mag/cell

     iteration # 38     ecut=    80.00 Ry     beta= 0.30
     Davidson diagonalization with overlap
     ethr =  7.08E-09,  avg # of iterations =  2.9

     negative rho (up, down):  8.810E-04 9.790E-04

     total cpu time spent up to now is      313.2 secs

     total energy              =   -2516.69854927 Ry
     estimated scf accuracy    <       0.00000917 Ry

     total magnetization       =    18.91 Bohr mag/cell
     absolute magnetization    =    19.24 Bohr mag/cell

     iteration # 39     ecut=    80.00 Ry     beta= 0.30
     Davidson diagonalization with overlap
     ethr =  5.27E-09,  avg # of iterations =  1.1

     negative rho (up, down):  9.025E-04 9.943E-04

     total cpu time spent up to now is      320.6 secs

     total energy              =   -2516.69855016 Ry
     estimated scf accuracy    <       0.00000556 Ry

     total magnetization       =    18.91 Bohr mag/cell
     absolute magnetization    =    19.24 Bohr mag/cell

     iteration # 40     ecut=    80.00 Ry     beta= 0.30
     Davidson diagonalization with overlap
     ethr =  3.19E-09,  avg # of iterations =  2.3

     negative rho (up, down):  9.374E-04 1.026E-03

     total cpu time spent up to now is      328.3 secs

     total energy              =   -2516.69855075 Ry
     estimated scf accuracy    <       0.00000309 Ry

     total magnetization       =    18.91 Bohr mag/cell
     absolute magnetization    =    19.24 Bohr mag/cell

     iteration # 41     ecut=    80.00 Ry     beta= 0.30
     Davidson diagonalization with overlap
     ethr =  1.78E-09,  avg # of iterations =  1.6

     negative rho (up, down):  9.360E-04 1.024E-03

     total cpu time spent up to now is      335.9 secs

     total energy              =   -2516.69855085 Ry
     estimated scf accuracy    <       0.00000269 Ry

     total magnetization       =    18.91 Bohr mag/cell
     absolute magnetization    =    19.24 Bohr mag/cell

     iteration # 42     ecut=    80.00 Ry     beta= 0.30
     Davidson diagonalization with overlap
     ethr =  1.55E-09,  avg # of iterations =  1.4

     negative rho (up, down):  9.568E-04 1.043E-03

     total cpu time spent up to now is      343.4 secs

     total energy              =   -2516.69855113 Ry
     estimated scf accuracy    <       0.00000138 Ry

     total magnetization       =    18.91 Bohr mag/cell
     absolute magnetization    =    19.24 Bohr mag/cell

     iteration # 43     ecut=    80.00 Ry     beta= 0.30
     Davidson diagonalization with overlap
     ethr =  7.94E-10,  avg # of iterations =  3.0

     negative rho (up, down):  1.005E-03 1.090E-03

     total cpu time spent up to now is      353.3 secs

     total energy              =   -2516.69855145 Ry
     estimated scf accuracy    <       0.00000140 Ry

     total magnetization       =    18.91 Bohr mag/cell
     absolute magnetization    =    19.24 Bohr mag/cell

     iteration # 44     ecut=    80.00 Ry     beta= 0.30
     Davidson diagonalization with overlap
     ethr =  7.94E-10,  avg # of iterations =  2.6

     negative rho (up, down):  1.021E-03 1.106E-03

     total cpu time spent up to now is      364.8 secs

     total energy              =   -2516.69855186 Ry
     estimated scf accuracy    <       0.00000101 Ry

     total magnetization       =    18.91 Bohr mag/cell
     absolute magnetization    =    19.24 Bohr mag/cell

     iteration # 45     ecut=    80.00 Ry     beta= 0.30
     Davidson diagonalization with overlap
     ethr =  5.78E-10,  avg # of iterations =  3.4

     negative rho (up, down):  1.040E-03 1.124E-03

     Magnetic moment per site  (integrated on atomic sphere of radius R)
     atom   1 (R=0.244)  charge= 12.4438  magn=  2.8627
     atom   2 (R=0.244)  charge= 12.4085  magn=  2.1225
     atom   3 (R=0.244)  charge= 12.4220  magn=  2.2683
     atom   4 (R=0.244)  charge= 12.4203  magn=  2.0435
     atom   5 (R=0.244)  charge= 12.4294  magn=  1.9392
     atom   6 (R=0.244)  charge= 12.4092  magn=  2.1042
     atom   7 (R=0.244)  charge=  4.8286  magn=  0.1421
     atom   8 (R=0.244)  charge=  4.7362  magn=  0.2655
     atom   9 (R=0.244)  charge=  4.8468  magn=  0.1548
     atom  10 (R=0.244)  charge=  4.8468  magn=  0.1548
     atom  11 (R=0.244)  charge=  4.8254  magn=  0.1887
     atom  12 (R=0.244)  charge=  4.8307  magn=  0.1991
     atom  13 (R=0.244)  charge=  4.8396  magn=  0.1428
     atom  14 (R=0.244)  charge=  4.8396  magn=  0.1428
     atom  15 (R=0.244)  charge=  4.7551  magn=  0.3178
     atom  16 (R=0.244)  charge=  4.8246  magn=  0.1441
     atom  17 (R=0.244)  charge=  4.8303  magn=  0.1514
     atom  18 (R=0.244)  charge=  4.8303  magn=  0.1514
     atom  19 (R=0.244)  charge=  4.6531  magn=  0.8155

     total cpu time spent up to now is      372.8 secs

     End of self-consistent calculation

 ------ SPIN UP ------------


          k = 0.0000 0.0000 0.0000 ( 39531 PWs)   bands (ev):

   -91.3280 -90.8778 -90.8672 -90.8159 -90.6640 -90.5023 -57.4767 -57.3064
   -57.1413 -57.0001 -56.8972 -56.8852 -56.8846 -56.8684 -56.8592 -56.7679
   -56.7551 -56.6591 -56.6432 -56.6309 -56.5984 -56.5956 -56.5618 -56.1400
   -20.3127 -20.0370 -19.7451 -19.3356 -19.0631 -18.8228 -18.7758 -18.6532
   -18.5392 -18.5305 -18.3063 -18.1639 -18.1001  -8.3707  -8.1992  -8.0303
    -7.6418  -7.3686  -7.0470  -6.9606  -6.7740  -6.7583  -6.5912  -6.5401
    -6.3958  -6.3554  -6.2942  -5.6087  -5.5563  -5.0050  -4.8827  -4.7539
    -4.7263  -4.7090  -4.6800  -4.5465  -4.4796  -4.4654  -4.4422  -4.3064
    -4.2682  -4.2631  -4.1574  -4.0881  -4.0296  -3.9448  -3.9164  -3.8900
    -3.8596  -3.8325  -3.8018  -3.6818  -3.2318  -3.1989  -3.0272  -2.9678
    -2.7553  -2.6737  -2.6610  -2.6079  -2.2883  -2.1847  -2.0749  -1.9216
    -1.8961  -1.8535  -1.8016  -1.7270  -1.5900  -1.5897  -1.4786  -1.2394
    -0.7081  -0.4494   0.2342   0.3981   0.4414   0.6376   0.6483   0.8044

          k = 0.0000 0.1179 0.0000 ( 39518 PWs)   bands (ev):

   -91.3280 -90.8778 -90.8672 -90.8159 -90.6640 -90.5023 -57.4766 -57.3065
   -57.1413 -57.0000 -56.8972 -56.8851 -56.8845 -56.8683 -56.8592 -56.7679
   -56.7551 -56.6590 -56.6430 -56.6310 -56.5987 -56.5956 -56.5619 -56.1400
   -20.2085 -19.9366 -19.6867 -19.4964 -19.2732 -19.0281 -18.6575 -18.6061
   -18.5142 -18.4591 -18.3003 -18.1694 -18.0916  -8.1175  -7.9701  -7.8131
    -7.6338  -7.3697  -7.0724  -6.9234  -6.7225  -6.5862  -6.5613  -6.5300
    -6.3924  -6.3595  -6.1331  -5.6112  -5.5795  -5.4406  -5.3481  -5.2611
    -4.9805  -4.9301  -4.7440  -4.7255  -4.6844  -4.5785  -4.5488  -4.4855
    -4.4166  -4.3522  -4.2473  -4.0978  -3.9390  -3.8635  -3.7178  -3.5917
    -3.5890  -3.5736  -3.3120  -3.2270  -3.1786  -3.1356  -3.1291  -2.9775
    -2.8334  -2.7806  -2.6322  -2.6100  -2.5394  -2.3535  -2.2315  -2.0711
    -1.9103  -1.8901  -1.8500  -1.7129  -1.6101  -1.5802  -1.5507  -0.7899
    -0.2560  -0.1827   0.1466   0.3881   0.4420   0.5723   0.6384   0.7334

          k = 0.0000-0.2357 0.0000 ( 39538 PWs)   bands (ev):

   -91.3280 -90.8778 -90.8672 -90.8159 -90.6640 -90.5023 -57.4766 -57.3065
   -57.1413 -57.0000 -56.8972 -56.8851 -56.8845 -56.8684 -56.8592 -56.7678
   -56.7551 -56.6590 -56.6428 -56.6310 -56.5989 -56.5956 -56.5620 -56.1400
   -19.9383 -19.9254 -19.7343 -19.5501 -19.3540 -19.3355 -18.5926 -18.5907
   -18.4803 -18.4153 -18.2946 -18.1762 -18.0828  -7.7885  -7.7177  -7.6095
    -7.4799  -7.3792  -7.0972  -6.8831  -6.6837  -6.5495  -6.4981  -6.3874
    -6.3654  -6.1489  -6.1157  -5.8353  -5.7281  -5.7047  -5.5890  -5.5806
    -5.5281  -5.1486  -5.1213  -4.8240  -4.7123  -4.6858  -4.6650  -4.6106
    -4.5537  -4.4254  -4.2528  -3.9566  -3.7676  -3.5950  -3.5352  -3.5298
    -3.3647  -3.3143  -3.2709  -3.1793  -3.1744  -2.9785  -2.9565  -2.8857
    -2.8723  -2.7178  -2.6974  -2.6837  -2.5513  -2.4998  -2.4004  -2.1542
    -2.1036  -1.9216  -1.8806  -1.7565  -1.7204  -1.5682  -1.4606  -0.5481
     0.0534   0.0560   0.2007   0.4322   0.4405   0.4950   0.6354   0.6648

          k = 0.0000-0.1179 0.0000 ( 39518 PWs)   bands (ev):

   -91.3280 -90.8778 -90.8672 -90.8159 -90.6640 -90.5023 -57.4766 -57.3065
   -57.1413 -57.0000 -56.8972 -56.8851 -56.8845 -56.8683 -56.8592 -56.7679
   -56.7551 -56.6590 -56.6430 -56.6310 -56.5987 -56.5956 -56.5619 -56.1400
   -20.2085 -19.9366 -19.6867 -19.4964 -19.2732 -19.0281 -18.6575 -18.6061
   -18.5142 -18.4591 -18.3003 -18.1694 -18.0916  -8.1175  -7.9701  -7.8131
    -7.6338  -7.3697  -7.0724  -6.9234  -6.7225  -6.5862  -6.5613  -6.5300
    -6.3924  -6.3595  -6.1331  -5.6112  -5.5795  -5.4406  -5.3481  -5.2611
    -4.9805  -4.9301  -4.7440  -4.7255  -4.6844  -4.5785  -4.5488  -4.4855
    -4.4166  -4.3522  -4.2473  -4.0978  -3.9390  -3.8635  -3.7178  -3.5917
    -3.5890  -3.5736  -3.3120  -3.2270  -3.1786  -3.1356  -3.1291  -2.9775
    -2.8334  -2.7806  -2.6322  -2.6100  -2.5394  -2.3535  -2.2315  -2.0711
    -1.9103  -1.8901  -1.8500  -1.7129  -1.6101  -1.5802  -1.5507  -0.7899
    -0.2560  -0.1827   0.1466   0.3881   0.4420   0.5723   0.6384   0.7334

          k = 0.1250 0.0000 0.0000 ( 39512 PWs)   bands (ev):

   -91.3276 -90.8774 -90.8668 -90.8156 -90.6636 -90.5020 -57.4821 -57.3057
   -57.1409 -57.0055 -56.8964 -56.8909 -56.8903 -56.8679 -56.8585 -56.7671
   -56.7605 -56.6648 -56.6424 -56.6306 -56.5981 -56.5949 -56.5614 -56.1396
   -20.1965 -19.9322 -19.6569 -19.2606 -19.0004 -18.7926 -18.7830 -18.6635
   -18.5449 -18.5417 -18.2929 -18.1802 -18.1069  -8.2202  -8.0530  -7.8997
    -7.5162  -7.2765  -7.0559  -6.9665  -6.8678  -6.7416  -6.5478  -6.5448
    -6.3993  -6.3197  -6.1102  -5.4798  -5.4159  -5.3067  -5.0095  -4.9591
    -4.9205  -4.8273  -4.7835  -4.7522  -4.7195  -4.5527  -4.5185  -4.4290
    -4.3572  -4.2456  -4.2233  -4.1770  -4.1072  -4.0402  -4.0274  -3.9461
    -3.9128  -3.8016  -3.7619  -3.4921  -3.4634  -3.2721  -2.9965  -2.9698
    -2.7489  -2.6330  -2.5406  -2.3876  -2.2188  -2.1591  -2.0399  -1.9591
    -1.9392  -1.8486  -1.8222  -1.8000  -1.7095  -1.6605  -1.5630  -1.0459
    -0.5442  -0.4025  -0.0138   0.0367   0.2355   0.3877   0.4898   0.5607

          k = 0.1250 0.1179 0.0000 ( 39558 PWs)   bands (ev):

   -91.3276 -90.8774 -90.8668 -90.8156 -90.6636 -90.5020 -57.4821 -57.3057
   -57.1409 -57.0055 -56.8964 -56.8909 -56.8903 -56.8679 -56.8585 -56.7671
   -56.7605 -56.6648 -56.6422 -56.6306 -56.5983 -56.5949 -56.5615 -56.1396
   -20.0966 -19.8362 -19.6001 -19.4171 -19.2038 -18.9839 -18.6665 -18.6210
   -18.5235 -18.4751 -18.2848 -18.1864 -18.0992  -7.9615  -7.8185  -7.6699
    -7.5080  -7.2791  -7.0247  -6.9705  -6.8031  -6.6693  -6.5828  -6.4341
    -6.3564  -6.2964  -6.0050  -5.5178  -5.4418  -5.3755  -5.3495  -5.2832
    -5.1279  -5.0326  -5.0027  -4.9264  -4.8098  -4.7728  -4.6875  -4.6541
    -4.6372  -4.4499  -4.3844  -4.1279  -4.0440  -4.0097  -3.9585  -3.8346
    -3.7357  -3.5247  -3.4313  -3.2695  -3.1460  -3.1137  -2.9324  -2.8390
    -2.7846  -2.6707  -2.5680  -2.4077  -2.3634  -2.2214  -2.1613  -2.1064
    -2.0085  -1.9517  -1.9023  -1.7617  -1.7175  -1.6644  -1.5228  -0.7377
    -0.3748  -0.2217  -0.1182   0.1395   0.2563   0.3493   0.5139   0.5504

          k = 0.1250-0.2357 0.0000 ( 39644 PWs)   bands (ev):

   -91.3276 -90.8774 -90.8668 -90.8156 -90.6636 -90.5020 -57.4821 -57.3058
   -57.1409 -57.0055 -56.8964 -56.8909 -56.8903 -56.8679 -56.8585 -56.7672
   -56.7605 -56.6648 -56.6420 -56.6307 -56.5986 -56.5949 -56.5616 -56.1396
   -19.8386 -19.8248 -19.6434 -19.4663 -19.2879 -19.2687 -18.6073 -18.6066
   -18.4944 -18.4363 -18.2755 -18.1949 -18.0913  -7.6227  -7.5678  -7.4553
    -7.3164  -7.2834  -7.0595  -6.9229  -6.7401  -6.5966  -6.5904  -6.4234
    -6.3321  -5.9877  -5.9597  -5.7613  -5.6830  -5.5912  -5.4639  -5.4209
    -5.3391  -5.3369  -5.2844  -5.1745  -5.1123  -5.0744  -4.8944  -4.7114
    -4.6975  -4.4484  -4.4018  -4.0537  -4.0026  -3.9131  -3.9102  -3.6887
    -3.6136  -3.2743  -3.2732  -3.0144  -3.0010  -2.9441  -2.8966  -2.7280
    -2.7142  -2.5882  -2.5488  -2.5441  -2.4577  -2.3851  -2.2971  -2.1554
    -2.1089  -2.0097  -1.9124  -1.8147  -1.7965  -1.6846  -1.4350  -0.5223
    -0.4461  -0.2140  -0.0284   0.1704   0.3351   0.4371   0.4894   0.6113

          k = 0.1250-0.1179 0.0000 ( 39558 PWs)   bands (ev):

   -91.3276 -90.8774 -90.8668 -90.8156 -90.6636 -90.5020 -57.4821 -57.3057
   -57.1409 -57.0055 -56.8964 -56.8909 -56.8903 -56.8679 -56.8585 -56.7671
   -56.7605 -56.6648 -56.6422 -56.6306 -56.5983 -56.5949 -56.5615 -56.1396
   -20.0966 -19.8362 -19.6001 -19.4171 -19.2038 -18.9839 -18.6665 -18.6210
   -18.5235 -18.4751 -18.2848 -18.1864 -18.0992  -7.9615  -7.8185  -7.6699
    -7.5080  -7.2791  -7.0247  -6.9705  -6.8031  -6.6693  -6.5828  -6.4341
    -6.3564  -6.2964  -6.0050  -5.5178  -5.4418  -5.3755  -5.3495  -5.2832
    -5.1279  -5.0326  -5.0027  -4.9264  -4.8098  -4.7728  -4.6875  -4.6541
    -4.6372  -4.4499  -4.3844  -4.1279  -4.0440  -4.0098  -3.9585  -3.8346
    -3.7357  -3.5247  -3.4313  -3.2695  -3.1460  -3.1137  -2.9325  -2.8390
    -2.7846  -2.6707  -2.5680  -2.4077  -2.3634  -2.2214  -2.1613  -2.1065
    -2.0085  -1.9517  -1.9023  -1.7617  -1.7175  -1.6644  -1.5228  -0.7377
    -0.3748  -0.2217  -0.1182   0.1395   0.2563   0.3494   0.5141   0.5503

          k = 0.2500 0.0000 0.0000 ( 39608 PWs)   bands (ev):

   -91.3268 -90.8766 -90.8659 -90.8147 -90.6628 -90.5011 -57.4952 -57.3039
   -57.1400 -57.0187 -56.9048 -56.9042 -56.8946 -56.8669 -56.8568 -56.7736
   -56.7652 -56.6786 -56.6403 -56.6297 -56.5973 -56.5931 -56.5606 -56.1387
   -19.8825 -19.6545 -19.4316 -19.0774 -18.8524 -18.8012 -18.7503 -18.6893
   -18.5690 -18.5672 -18.2795 -18.2015 -18.1177  -7.8322  -7.6717  -7.5565
    -7.2112  -7.1321  -7.0579  -6.9518  -6.9229  -6.7543  -6.5891  -6.2297
    -6.1576  -6.1232  -5.9393  -5.7892  -5.7201  -5.6933  -5.5738  -5.5015
    -5.3998  -5.2327  -5.2045  -4.8380  -4.8267  -4.7602  -4.6972  -4.6615
    -4.6202  -4.5467  -4.4135  -4.2392  -4.1657  -4.1091  -3.9527  -3.9310
    -3.7431  -3.5965  -3.5505  -3.4518  -3.3954  -3.1617  -2.9917  -2.8170
    -2.7427  -2.6052  -2.5170  -2.4340  -2.3019  -2.2331  -2.1666  -2.0997
    -2.0849  -2.0205  -1.8918  -1.8578  -1.8532  -1.6999  -1.6843  -0.9473
    -0.5249  -0.4657  -0.4469  -0.2982  -0.0964  -0.0881   0.0535   0.1195

          k = 0.2500 0.1179 0.0000 ( 39638 PWs)   bands (ev):

   -91.3268 -90.8766 -90.8659 -90.8147 -90.6628 -90.5011 -57.4952 -57.3039
   -57.1400 -57.0187 -56.9048 -56.9043 -56.8946 -56.8669 -56.8568 -56.7737
   -56.7651 -56.6787 -56.6402 -56.6297 -56.5974 -56.5931 -56.5606 -56.1387
   -19.7954 -19.5720 -19.3789 -19.2187 -19.0365 -18.8884 -18.6907 -18.6663
   -18.5520 -18.5237 -18.2667 -18.2099 -18.1127  -7.5731  -7.4329  -7.3053
    -7.2027  -7.0718  -7.0278  -6.9095  -6.8805  -6.7202  -6.6653  -6.2359
    -6.1906  -6.0590  -5.9908  -5.9188  -5.8745  -5.7838  -5.6170  -5.5299
    -5.4752  -5.2835  -5.1171  -4.9769  -4.9446  -4.8740  -4.8011  -4.7244
    -4.6544  -4.5187  -4.4344  -4.3918  -4.3290  -4.1716  -3.9992  -3.9789
    -3.9675  -3.5907  -3.3574  -3.2249  -3.1573  -3.0417  -2.9231  -2.8178
    -2.6922  -2.5484  -2.5154  -2.4708  -2.3081  -2.2669  -2.2169  -2.1644
    -2.1296  -2.0408  -1.9340  -1.9134  -1.8501  -1.7499  -1.6118  -1.0435
    -0.8911  -0.7474  -0.5793  -0.2605   0.0012   0.2101   0.3257   0.4988

          k = 0.2500-0.2357 0.0000 ( 39652 PWs)   bands (ev):

   -91.3268 -90.8766 -90.8659 -90.8147 -90.6628 -90.5011 -57.4952 -57.3040
   -57.1400 -57.0187 -56.9048 -56.9043 -56.8946 -56.8669 -56.8568 -56.7738
   -56.7650 -56.6787 -56.6401 -56.6297 -56.5976 -56.5931 -56.5607 -56.1387
   -19.5750 -19.5593 -19.4060 -19.2559 -19.1266 -19.1059 -18.6575 -18.6497
   -18.5353 -18.4974 -18.2403 -18.2328 -18.1077  -7.2671  -7.1864  -7.1137
    -6.9979  -6.9414  -6.9128  -6.8648  -6.7631  -6.7038  -6.6358  -6.4205
    -6.2790  -6.2426  -6.1364  -6.0977  -5.9771  -5.7688  -5.6855  -5.4897
    -5.3672  -5.2558  -5.2018  -5.1447  -5.1446  -5.0454  -5.0321  -4.9506
    -4.8446  -4.5149  -4.4842  -4.4156  -4.3124  -4.1736  -4.1038  -3.9556
    -3.9550  -3.3725  -3.3095  -3.0718  -2.9198  -2.8994  -2.8305  -2.7815
    -2.5988  -2.5335  -2.4924  -2.4662  -2.4475  -2.3322  -2.2605  -2.2167
    -2.1980  -2.0534  -1.9684  -1.9580  -1.8359  -1.7780  -1.5800  -1.3202
    -0.9789  -0.8715  -0.7655  -0.2293   0.0134   0.3367   0.6200   0.6921

          k = 0.2500-0.1179 0.0000 ( 39638 PWs)   bands (ev):

   -91.3268 -90.8766 -90.8659 -90.8147 -90.6628 -90.5011 -57.4952 -57.3039
   -57.1400 -57.0187 -56.9048 -56.9043 -56.8946 -56.8669 -56.8568 -56.7737
   -56.7651 -56.6787 -56.6402 -56.6297 -56.5974 -56.5931 -56.5606 -56.1387
   -19.7954 -19.5720 -19.3789 -19.2187 -19.0365 -18.8884 -18.6907 -18.6663
   -18.5520 -18.5237 -18.2667 -18.2099 -18.1127  -7.5731  -7.4329  -7.3053
    -7.2027  -7.0718  -7.0278  -6.9095  -6.8805  -6.7202  -6.6653  -6.2359
    -6.1906  -6.0590  -5.9908  -5.9188  -5.8745  -5.7838  -5.6169  -5.5299
    -5.4752  -5.2835  -5.1171  -4.9769  -4.9446  -4.8740  -4.8011  -4.7244
    -4.6544  -4.5187  -4.4344  -4.3918  -4.3290  -4.1716  -3.9992  -3.9789
    -3.9675  -3.5907  -3.3574  -3.2249  -3.1573  -3.0417  -2.9231  -2.8178
    -2.6922  -2.5484  -2.5154  -2.4708  -2.3081  -2.2669  -2.2169  -2.1644
    -2.1296  -2.0408  -1.9340  -1.9134  -1.8501  -1.7499  -1.6118  -1.0435
    -0.8911  -0.7474  -0.5793  -0.2605   0.0012   0.2101   0.3257   0.4988

          k = 0.3750 0.0000 0.0000 ( 39708 PWs)   bands (ev):

   -91.3259 -90.8757 -90.8651 -90.8138 -90.6619 -90.5002 -57.5083 -57.3022
   -57.1391 -57.0318 -56.9187 -56.9180 -56.8928 -56.8659 -56.8550 -56.7866
   -56.7633 -56.6924 -56.6383 -56.6288 -56.5966 -56.5913 -56.5598 -56.1377
   -19.4748 -19.3171 -19.1745 -18.9081 -18.8204 -18.7813 -18.7246 -18.7161
   -18.6262 -18.5968 -18.3067 -18.1803 -18.1175  -7.4469  -7.2802  -7.1564
    -7.0674  -7.0486  -7.0238  -6.9177  -6.8577  -6.6998  -6.5737  -6.5737
    -6.5148  -6.2969  -6.1577  -5.9990  -5.9655  -5.7705  -5.5830  -5.4077
    -5.3181  -5.2960  -5.1982  -5.1536  -5.0668  -4.9717  -4.8610  -4.7206
    -4.5335  -4.4497  -4.3994  -4.2973  -4.2906  -4.1709  -4.0352  -3.8847
    -3.7431  -3.7173  -3.6829  -3.6092  -3.4845  -3.4181  -3.2638  -3.0751
    -2.6705  -2.6136  -2.5899  -2.4930  -2.3748  -2.3219  -2.2992  -2.2729
    -2.2067  -2.1174  -1.9991  -1.8503  -1.7439  -1.7060  -1.6683  -1.3172
    -0.7781  -0.6280  -0.4226  -0.3990  -0.2545  -0.2003  -0.1949  -0.1584

          k = 0.3750 0.1179 0.0000 ( 39703 PWs)   bands (ev):

   -91.3259 -90.8757 -90.8651 -90.8138 -90.6619 -90.5002 -57.5083 -57.3022
   -57.1391 -57.0318 -56.9187 -56.9180 -56.8928 -56.8659 -56.8550 -56.7867
   -56.7632 -56.6925 -56.6383 -56.6288 -56.5966 -56.5913 -56.5598 -56.1377
   -19.4087 -19.2554 -19.1263 -19.0042 -18.8904 -18.8084 -18.7369 -18.7288
   -18.6225 -18.5899 -18.2968 -18.1881 -18.1162  -7.3025  -7.1868  -7.1550
    -7.0611  -6.9931  -6.9587  -6.9271  -6.8581  -6.7349  -6.6909  -6.5713
    -6.4012  -6.1593  -6.0648  -6.0516  -5.9620  -5.8815  -5.5412  -5.4290
    -5.2930  -5.2334  -5.1632  -5.0914  -5.0273  -4.8844  -4.8246  -4.6927
    -4.6279  -4.4902  -4.3546  -4.3125  -4.2700  -4.1547  -4.0947  -4.0047
    -3.9741  -3.8338  -3.7619  -3.5616  -3.5054  -3.3998  -3.2758  -3.1353
    -2.7168  -2.6312  -2.6052  -2.5462  -2.5359  -2.4411  -2.3135  -2.2530
    -2.2020  -1.9885  -1.8943  -1.8441  -1.7334  -1.7107  -1.6311  -1.5750
    -1.3154  -1.2747  -1.0697  -0.4293  -0.1673   0.3582   0.4865   0.6258

          k = 0.3750-0.2357 0.0000 ( 39694 PWs)   bands (ev):

   -91.3259 -90.8757 -90.8651 -90.8138 -90.6619 -90.5002 -57.5083 -57.3022
   -57.1391 -57.0318 -56.9187 -56.9180 -56.8928 -56.8659 -56.8550 -56.7868
   -56.7632 -56.6925 -56.6382 -56.6288 -56.5966 -56.5913 -56.5597 -56.1377
   -19.2508 -19.2320 -19.1206 -19.0410 -18.9626 -18.9217 -18.7502 -18.7213
   -18.6058 -18.5964 -18.2847 -18.1986 -18.1149  -7.2973  -7.1714  -7.0973
    -7.0136  -6.9741  -6.9207  -6.8721  -6.7681  -6.7021  -6.5313  -6.5261
    -6.4053  -6.2270  -6.1096  -5.9913  -5.9853  -5.8514  -5.5778  -5.4024
    -5.3195  -5.0722  -5.0325  -4.9775  -4.9393  -4.9073  -4.8913  -4.8125
    -4.6467  -4.5769  -4.5630  -4.3336  -4.3034  -4.1854  -4.1465  -4.1394
    -3.9729  -3.8937  -3.8239  -3.4540  -3.3983  -3.3677  -3.3226  -3.2197
    -2.7792  -2.7070  -2.6598  -2.6327  -2.4972  -2.4449  -2.3836  -2.2602
    -2.1788  -2.0239  -1.9441  -1.8628  -1.7999  -1.7449  -1.7219  -1.6283
    -1.5343  -1.5102  -1.2739  -0.4063  -0.1657   0.5495   0.8604   0.8671

          k = 0.3750-0.1179 0.0000 ( 39703 PWs)   bands (ev):

   -91.3259 -90.8757 -90.8651 -90.8138 -90.6619 -90.5002 -57.5083 -57.3022
   -57.1391 -57.0318 -56.9187 -56.9180 -56.8928 -56.8659 -56.8550 -56.7867
   -56.7632 -56.6925 -56.6383 -56.6288 -56.5966 -56.5913 -56.5598 -56.1377
   -19.4087 -19.2554 -19.1263 -19.0042 -18.8904 -18.8084 -18.7369 -18.7288
   -18.6225 -18.5898 -18.2968 -18.1881 -18.1162  -7.3025  -7.1868  -7.1550
    -7.0611  -6.9931  -6.9588  -6.9271  -6.8581  -6.7349  -6.6909  -6.5713
    -6.4012  -6.1593  -6.0648  -6.0516  -5.9620  -5.8815  -5.5412  -5.4290
    -5.2930  -5.2334  -5.1632  -5.0914  -5.0273  -4.8844  -4.8246  -4.6927
    -4.6279  -4.4902  -4.3545  -4.3125  -4.2700  -4.1547  -4.0947  -4.0047
    -3.9741  -3.8337  -3.7619  -3.5616  -3.5054  -3.3998  -3.2758  -3.1353
    -2.7168  -2.6312  -2.6052  -2.5462  -2.5359  -2.4411  -2.3135  -2.2530
    -2.2020  -1.9885  -1.8943  -1.8441  -1.7334  -1.7107  -1.6311  -1.5750
    -1.3154  -1.2747  -1.0697  -0.4293  -0.1673   0.3582   0.4865   0.6258

          k =-0.5000 0.0000 0.0000 ( 39696 PWs)   bands (ev):

   -91.3256 -90.8754 -90.8647 -90.8134 -90.6616 -90.4998 -57.5137 -57.3014
   -57.1387 -57.0372 -56.9244 -56.9236 -56.8920 -56.8655 -56.8543 -56.7920
   -56.7625 -56.6981 -56.6375 -56.6285 -56.5963 -56.5906 -56.5594 -56.1373
   -19.2116 -19.1301 -19.0149 -18.9578 -18.8286 -18.7914 -18.7563 -18.7275
   -18.6312 -18.6085 -18.3245 -18.1637 -18.1136  -7.3823  -7.2263  -7.1479
    -7.0660  -7.0068  -6.9654  -6.9507  -6.8112  -6.7639  -6.7331  -6.4416
    -6.3662  -6.3301  -6.2754  -6.2677  -6.0255  -5.7821  -5.5344  -5.4378
    -5.4245  -5.3254  -5.2883  -4.8899  -4.8836  -4.6462  -4.6367  -4.5101
    -4.4518  -4.4453  -4.4005  -4.3842  -4.2698  -4.2220  -4.0323  -4.0093
    -3.9797  -3.9320  -3.8003  -3.7690  -3.7418  -3.6873  -3.6325  -3.5213
    -2.7226  -2.6163  -2.6158  -2.5079  -2.4612  -2.4383  -2.3832  -2.2759
    -2.1193  -2.0783  -1.9252  -1.7278  -1.6117  -1.6040  -1.5501  -1.5238
    -0.9192  -0.5895  -0.5084  -0.4954  -0.3187  -0.3072  -0.1875  -0.1778

          k =-0.5000 0.1179 0.0000 ( 39700 PWs)   bands (ev):

   -91.3256 -90.8754 -90.8647 -90.8134 -90.6616 -90.4998 -57.5137 -57.3014
   -57.1387 -57.0372 -56.9244 -56.9237 -56.8920 -56.8655 -56.8543 -56.7921
   -56.7624 -56.6982 -56.6375 -56.6284 -56.5962 -56.5906 -56.5594 -56.1373
   -19.1612 -19.0826 -18.9700 -18.9432 -18.8841 -18.8035 -18.7812 -18.7420
   -18.6630 -18.6482 -18.3144 -18.1750 -18.1135  -7.4466  -7.3014  -7.2735
    -7.2045  -7.1376  -6.9351  -6.8644  -6.7135  -6.6856  -6.5845  -6.4927
    -6.3247  -6.2149  -6.0978  -5.8993  -5.7775  -5.6477  -5.5770  -5.5384
    -5.4909  -5.2664  -5.2624  -4.8211  -4.7257  -4.6637  -4.5729  -4.5230
    -4.4752  -4.4080  -4.3795  -4.3443  -4.2958  -4.2772  -4.1700  -4.0164
    -4.0039  -3.9773  -3.9676  -3.8226  -3.7877  -3.7234  -3.6721  -3.6379
    -2.7617  -2.6947  -2.6663  -2.6586  -2.5738  -2.5231  -2.4983  -2.3449
    -2.0745  -1.9103  -1.8554  -1.7527  -1.7434  -1.6307  -1.5753  -1.5366
    -1.5047  -1.4828  -1.3152  -0.4787  -0.1847   0.4447   0.5829   0.6474

          k =-0.5000-0.2357 0.0000 ( 39704 PWs)   bands (ev):

   -91.3256 -90.8754 -90.8647 -90.8134 -90.6616 -90.4998 -57.5137 -57.3014
   -57.1387 -57.0372 -56.9244 -56.9237 -56.8920 -56.8655 -56.8543 -56.7921
   -56.7624 -56.6982 -56.6374 -56.6284 -56.5962 -56.5906 -56.5594 -56.1373
   -19.0566 -19.0294 -18.9636 -18.9250 -18.9191 -18.8450 -18.8214 -18.7489
   -18.7141 -18.6771 -18.3021 -18.1883 -18.1135  -7.5775  -7.4429  -7.3452
    -7.1851  -7.1683  -6.8686  -6.6382  -6.6186  -6.6009  -6.5752  -6.5194
    -6.4127  -6.1682  -5.8647  -5.7402  -5.6814  -5.6670  -5.5568  -5.2556
    -5.2265  -5.1470  -4.9705  -4.9421  -4.8694  -4.7370  -4.6793  -4.6148
    -4.4389  -4.4011  -4.3613  -4.3547  -4.3506  -4.2124  -4.1655  -4.1046
    -4.0818  -4.0584  -4.0025  -3.9914  -3.9023  -3.7365  -3.6677  -3.6460
    -2.8571  -2.8524  -2.7984  -2.7104  -2.6897  -2.5388  -2.5027  -2.3870
    -2.2661  -2.0690  -1.9901  -1.8216  -1.8006  -1.7533  -1.6601  -1.6424
    -1.5994  -1.4503  -1.4138  -0.4625  -0.1825   0.6695   0.9267   0.9738

          k =-0.5000-0.1179 0.0000 ( 39700 PWs)   bands (ev):

   -91.3256 -90.8754 -90.8647 -90.8134 -90.6616 -90.4998 -57.5137 -57.3014
   -57.1387 -57.0372 -56.9244 -56.9237 -56.8920 -56.8655 -56.8543 -56.7921
   -56.7624 -56.6982 -56.6375 -56.6284 -56.5962 -56.5906 -56.5594 -56.1373
   -19.1612 -19.0826 -18.9700 -18.9432 -18.8841 -18.8035 -18.7812 -18.7420
   -18.6630 -18.6482 -18.3144 -18.1750 -18.1135  -7.4466  -7.3014  -7.2735
    -7.2045  -7.1376  -6.9351  -6.8644  -6.7135  -6.6856  -6.5845  -6.4927
    -6.3247  -6.2149  -6.0978  -5.8993  -5.7775  -5.6477  -5.5770  -5.5384
    -5.4909  -5.2664  -5.2624  -4.8211  -4.7257  -4.6637  -4.5729  -4.5230
    -4.4752  -4.4080  -4.3795  -4.3443  -4.2958  -4.2772  -4.1700  -4.0164
    -4.0039  -3.9773  -3.9676  -3.8226  -3.7877  -3.7234  -3.6721  -3.6379
    -2.7617  -2.6947  -2.6663  -2.6586  -2.5738  -2.5231  -2.4983  -2.3449
    -2.0745  -1.9103  -1.8554  -1.7527  -1.7434  -1.6307  -1.5753  -1.5366
    -1.5047  -1.4828  -1.3152  -0.4787  -0.1847   0.4447   0.5829   0.6474

          k =-0.3750 0.0000 0.0000 ( 39708 PWs)   bands (ev):

   -91.3259 -90.8757 -90.8651 -90.8138 -90.6619 -90.5002 -57.5083 -57.3022
   -57.1391 -57.0318 -56.9187 -56.9180 -56.8928 -56.8659 -56.8550 -56.7866
   -56.7633 -56.6924 -56.6383 -56.6288 -56.5966 -56.5913 -56.5598 -56.1377
   -19.4748 -19.3171 -19.1745 -18.9081 -18.8204 -18.7813 -18.7246 -18.7161
   -18.6262 -18.5968 -18.3067 -18.1803 -18.1175  -7.4469  -7.2802  -7.1564
    -7.0674  -7.0486  -7.0238  -6.9177  -6.8577  -6.6998  -6.5737  -6.5737
    -6.5148  -6.2969  -6.1577  -5.9990  -5.9655  -5.7705  -5.5830  -5.4077
    -5.3181  -5.2960  -5.1982  -5.1536  -5.0668  -4.9717  -4.8610  -4.7206
    -4.5335  -4.4497  -4.3994  -4.2973  -4.2906  -4.1709  -4.0352  -3.8847
    -3.7431  -3.7173  -3.6829  -3.6092  -3.4845  -3.4181  -3.2638  -3.0751
    -2.6705  -2.6136  -2.5899  -2.4930  -2.3748  -2.3219  -2.2992  -2.2729
    -2.2067  -2.1174  -1.9991  -1.8503  -1.7439  -1.7060  -1.6683  -1.3172
    -0.7781  -0.6280  -0.4226  -0.3990  -0.2545  -0.2003  -0.1949  -0.1584

          k =-0.3750 0.1179 0.0000 ( 39703 PWs)   bands (ev):

   -91.3259 -90.8757 -90.8651 -90.8138 -90.6619 -90.5002 -57.5083 -57.3022
   -57.1391 -57.0318 -56.9187 -56.9180 -56.8928 -56.8659 -56.8550 -56.7867
   -56.7632 -56.6925 -56.6383 -56.6288 -56.5966 -56.5913 -56.5598 -56.1377
   -19.4087 -19.2554 -19.1263 -19.0042 -18.8904 -18.8084 -18.7369 -18.7288
   -18.6225 -18.5898 -18.2968 -18.1881 -18.1162  -7.3025  -7.1868  -7.1550
    -7.0611  -6.9931  -6.9588  -6.9271  -6.8581  -6.7349  -6.6909  -6.5713
    -6.4012  -6.1593  -6.0648  -6.0516  -5.9620  -5.8815  -5.5412  -5.4290
    -5.2930  -5.2334  -5.1632  -5.0914  -5.0273  -4.8844  -4.8246  -4.6927
    -4.6279  -4.4902  -4.3545  -4.3125  -4.2700  -4.1547  -4.0947  -4.0047
    -3.9741  -3.8337  -3.7619  -3.5616  -3.5054  -3.3998  -3.2758  -3.1353
    -2.7168  -2.6312  -2.6052  -2.5462  -2.5359  -2.4411  -2.3135  -2.2530
    -2.2020  -1.9885  -1.8943  -1.8441  -1.7334  -1.7107  -1.6311  -1.5750
    -1.3154  -1.2747  -1.0697  -0.4293  -0.1673   0.3582   0.4865   0.6258

          k =-0.3750-0.2357 0.0000 ( 39694 PWs)   bands (ev):

   -91.3259 -90.8757 -90.8651 -90.8138 -90.6619 -90.5002 -57.5083 -57.3022
   -57.1391 -57.0318 -56.9187 -56.9180 -56.8928 -56.8659 -56.8550 -56.7868
   -56.7632 -56.6925 -56.6382 -56.6288 -56.5966 -56.5913 -56.5597 -56.1377
   -19.2508 -19.2320 -19.1206 -19.0410 -18.9626 -18.9217 -18.7502 -18.7213
   -18.6058 -18.5964 -18.2847 -18.1986 -18.1149  -7.2973  -7.1714  -7.0973
    -7.0136  -6.9741  -6.9207  -6.8721  -6.7681  -6.7021  -6.5313  -6.5261
    -6.4053  -6.2270  -6.1096  -5.9913  -5.9853  -5.8514  -5.5778  -5.4024
    -5.3195  -5.0722  -5.0325  -4.9775  -4.9393  -4.9073  -4.8913  -4.8125
    -4.6467  -4.5769  -4.5630  -4.3336  -4.3034  -4.1854  -4.1465  -4.1394
    -3.9729  -3.8937  -3.8239  -3.4540  -3.3983  -3.3677  -3.3226  -3.2197
    -2.7792  -2.7070  -2.6598  -2.6327  -2.4972  -2.4449  -2.3836  -2.2602
    -2.1788  -2.0239  -1.9441  -1.8628  -1.7999  -1.7449  -1.7219  -1.6283
    -1.5343  -1.5102  -1.2739  -0.4063  -0.1657   0.5495   0.8604   0.8671

          k =-0.3750-0.1179 0.0000 ( 39703 PWs)   bands (ev):

   -91.3259 -90.8757 -90.8651 -90.8138 -90.6619 -90.5002 -57.5083 -57.3022
   -57.1391 -57.0318 -56.9187 -56.9180 -56.8928 -56.8659 -56.8550 -56.7867
   -56.7632 -56.6925 -56.6383 -56.6288 -56.5966 -56.5913 -56.5598 -56.1377
   -19.4087 -19.2554 -19.1263 -19.0042 -18.8904 -18.8084 -18.7369 -18.7288
   -18.6225 -18.5899 -18.2968 -18.1881 -18.1162  -7.3025  -7.1868  -7.1550
    -7.0611  -6.9931  -6.9587  -6.9271  -6.8581  -6.7349  -6.6909  -6.5713
    -6.4012  -6.1593  -6.0648  -6.0516  -5.9620  -5.8815  -5.5412  -5.4290
    -5.2930  -5.2334  -5.1632  -5.0914  -5.0273  -4.8844  -4.8246  -4.6927
    -4.6279  -4.4902  -4.3546  -4.3125  -4.2700  -4.1547  -4.0947  -4.0047
    -3.9741  -3.8338  -3.7619  -3.5616  -3.5054  -3.3998  -3.2758  -3.1353
    -2.7168  -2.6312  -2.6052  -2.5462  -2.5359  -2.4411  -2.3135  -2.2530
    -2.2020  -1.9885  -1.8943  -1.8441  -1.7334  -1.7107  -1.6311  -1.5750
    -1.3154  -1.2747  -1.0697  -0.4293  -0.1673   0.3582   0.4865   0.6258

          k =-0.2500 0.0000 0.0000 ( 39608 PWs)   bands (ev):

   -91.3268 -90.8766 -90.8659 -90.8147 -90.6628 -90.5011 -57.4952 -57.3039
   -57.1400 -57.0187 -56.9048 -56.9042 -56.8946 -56.8669 -56.8568 -56.7736
   -56.7652 -56.6786 -56.6403 -56.6297 -56.5973 -56.5931 -56.5606 -56.1387
   -19.8825 -19.6545 -19.4316 -19.0774 -18.8524 -18.8012 -18.7503 -18.6893
   -18.5690 -18.5672 -18.2795 -18.2015 -18.1177  -7.8322  -7.6717  -7.5565
    -7.2112  -7.1321  -7.0579  -6.9518  -6.9229  -6.7543  -6.5891  -6.2297
    -6.1576  -6.1232  -5.9393  -5.7892  -5.7201  -5.6933  -5.5738  -5.5015
    -5.3998  -5.2327  -5.2045  -4.8380  -4.8267  -4.7602  -4.6972  -4.6615
    -4.6202  -4.5467  -4.4135  -4.2392  -4.1657  -4.1091  -3.9527  -3.9310
    -3.7431  -3.5965  -3.5505  -3.4518  -3.3954  -3.1617  -2.9917  -2.8170
    -2.7427  -2.6052  -2.5170  -2.4340  -2.3019  -2.2331  -2.1666  -2.0997
    -2.0849  -2.0205  -1.8918  -1.8578  -1.8532  -1.6999  -1.6843  -0.9473
    -0.5249  -0.4657  -0.4469  -0.2982  -0.0964  -0.0881   0.0535   0.1195

          k =-0.2500 0.1179 0.0000 ( 39638 PWs)   bands (ev):

   -91.3268 -90.8766 -90.8659 -90.8147 -90.6628 -90.5011 -57.4952 -57.3039
   -57.1400 -57.0187 -56.9048 -56.9043 -56.8946 -56.8669 -56.8568 -56.7737
   -56.7651 -56.6787 -56.6402 -56.6297 -56.5974 -56.5931 -56.5606 -56.1387
   -19.7954 -19.5720 -19.3789 -19.2187 -19.0365 -18.8884 -18.6907 -18.6663
   -18.5520 -18.5237 -18.2667 -18.2099 -18.1127  -7.5731  -7.4329  -7.3053
    -7.2027  -7.0718  -7.0278  -6.9095  -6.8805  -6.7202  -6.6653  -6.2359
    -6.1906  -6.0590  -5.9908  -5.9188  -5.8745  -5.7838  -5.6169  -5.5299
    -5.4752  -5.2835  -5.1171  -4.9769  -4.9446  -4.8740  -4.8011  -4.7244
    -4.6544  -4.5187  -4.4344  -4.3918  -4.3290  -4.1716  -3.9992  -3.9789
    -3.9675  -3.5907  -3.3574  -3.2249  -3.1573  -3.0417  -2.9231  -2.8178
    -2.6922  -2.5484  -2.5154  -2.4708  -2.3081  -2.2669  -2.2169  -2.1644
    -2.1296  -2.0408  -1.9340  -1.9134  -1.8501  -1.7499  -1.6118  -1.0435
    -0.8911  -0.7474  -0.5793  -0.2605   0.0012   0.2101   0.3257   0.4988

          k =-0.2500-0.2357 0.0000 ( 39652 PWs)   bands (ev):

   -91.3268 -90.8766 -90.8659 -90.8147 -90.6628 -90.5011 -57.4952 -57.3040
   -57.1400 -57.0187 -56.9048 -56.9043 -56.8946 -56.8669 -56.8568 -56.7738
   -56.7650 -56.6787 -56.6401 -56.6297 -56.5976 -56.5931 -56.5607 -56.1387
   -19.5750 -19.5593 -19.4060 -19.2559 -19.1266 -19.1059 -18.6575 -18.6497
   -18.5353 -18.4974 -18.2403 -18.2328 -18.1077  -7.2671  -7.1864  -7.1137
    -6.9979  -6.9414  -6.9128  -6.8648  -6.7631  -6.7038  -6.6358  -6.4205
    -6.2790  -6.2426  -6.1364  -6.0977  -5.9771  -5.7688  -5.6855  -5.4897
    -5.3672  -5.2558  -5.2018  -5.1447  -5.1446  -5.0454  -5.0321  -4.9506
    -4.8446  -4.5149  -4.4842  -4.4156  -4.3124  -4.1736  -4.1038  -3.9556
    -3.9550  -3.3725  -3.3095  -3.0718  -2.9198  -2.8994  -2.8305  -2.7815
    -2.5988  -2.5335  -2.4924  -2.4662  -2.4475  -2.3322  -2.2605  -2.2167
    -2.1980  -2.0534  -1.9684  -1.9580  -1.8359  -1.7780  -1.5800  -1.3202
    -0.9789  -0.8715  -0.7655  -0.2293   0.0134   0.3367   0.6200   0.6921

          k =-0.2500-0.1179 0.0000 ( 39638 PWs)   bands (ev):

   -91.3268 -90.8766 -90.8659 -90.8147 -90.6628 -90.5011 -57.4952 -57.3039
   -57.1400 -57.0187 -56.9048 -56.9043 -56.8946 -56.8669 -56.8568 -56.7737
   -56.7651 -56.6787 -56.6402 -56.6297 -56.5974 -56.5931 -56.5606 -56.1387
   -19.7954 -19.5720 -19.3789 -19.2187 -19.0365 -18.8884 -18.6907 -18.6663
   -18.5520 -18.5237 -18.2667 -18.2099 -18.1127  -7.5731  -7.4329  -7.3053
    -7.2027  -7.0718  -7.0278  -6.9095  -6.8805  -6.7202  -6.6653  -6.2359
    -6.1906  -6.0590  -5.9908  -5.9188  -5.8745  -5.7838  -5.6170  -5.5299
    -5.4752  -5.2835  -5.1171  -4.9769  -4.9446  -4.8740  -4.8011  -4.7244
    -4.6544  -4.5187  -4.4344  -4.3918  -4.3290  -4.1716  -3.9992  -3.9789
    -3.9675  -3.5907  -3.3574  -3.2249  -3.1573  -3.0417  -2.9231  -2.8178
    -2.6922  -2.5484  -2.5154  -2.4708  -2.3081  -2.2669  -2.2169  -2.1644
    -2.1296  -2.0408  -1.9340  -1.9134  -1.8501  -1.7499  -1.6118  -1.0435
    -0.8911  -0.7474  -0.5793  -0.2605   0.0012   0.2101   0.3257   0.4988

          k =-0.1250 0.0000 0.0000 ( 39512 PWs)   bands (ev):

   -91.3276 -90.8774 -90.8668 -90.8156 -90.6636 -90.5020 -57.4821 -57.3057
   -57.1409 -57.0055 -56.8964 -56.8909 -56.8903 -56.8679 -56.8585 -56.7671
   -56.7605 -56.6648 -56.6424 -56.6306 -56.5981 -56.5949 -56.5614 -56.1396
   -20.1965 -19.9322 -19.6569 -19.2606 -19.0004 -18.7926 -18.7830 -18.6635
   -18.5449 -18.5417 -18.2929 -18.1802 -18.1069  -8.2202  -8.0530  -7.8997
    -7.5162  -7.2765  -7.0559  -6.9665  -6.8678  -6.7416  -6.5478  -6.5448
    -6.3993  -6.3197  -6.1102  -5.4798  -5.4159  -5.3067  -5.0095  -4.9591
    -4.9205  -4.8273  -4.7835  -4.7522  -4.7195  -4.5527  -4.5185  -4.4290
    -4.3572  -4.2456  -4.2233  -4.1770  -4.1072  -4.0402  -4.0274  -3.9461
    -3.9128  -3.8016  -3.7619  -3.4921  -3.4634  -3.2721  -2.9965  -2.9698
    -2.7489  -2.6330  -2.5406  -2.3876  -2.2188  -2.1591  -2.0399  -1.9591
    -1.9392  -1.8486  -1.8222  -1.8000  -1.7095  -1.6605  -1.5630  -1.0459
    -0.5442  -0.4025  -0.0138   0.0367   0.2355   0.3877   0.4897   0.5607

          k =-0.1250 0.1179 0.0000 ( 39558 PWs)   bands (ev):

   -91.3276 -90.8774 -90.8668 -90.8156 -90.6636 -90.5020 -57.4821 -57.3057
   -57.1409 -57.0055 -56.8964 -56.8909 -56.8903 -56.8679 -56.8585 -56.7671
   -56.7605 -56.6648 -56.6422 -56.6306 -56.5983 -56.5949 -56.5615 -56.1396
   -20.0966 -19.8362 -19.6001 -19.4171 -19.2038 -18.9839 -18.6665 -18.6210
   -18.5235 -18.4751 -18.2848 -18.1864 -18.0992  -7.9615  -7.8185  -7.6699
    -7.5080  -7.2791  -7.0247  -6.9705  -6.8031  -6.6693  -6.5828  -6.4341
    -6.3564  -6.2964  -6.0050  -5.5178  -5.4418  -5.3755  -5.3495  -5.2832
    -5.1279  -5.0326  -5.0027  -4.9264  -4.8098  -4.7728  -4.6875  -4.6541
    -4.6372  -4.4499  -4.3844  -4.1279  -4.0440  -4.0098  -3.9585  -3.8346
    -3.7357  -3.5247  -3.4313  -3.2695  -3.1460  -3.1137  -2.9325  -2.8390
    -2.7846  -2.6707  -2.5680  -2.4077  -2.3634  -2.2214  -2.1613  -2.1065
    -2.0085  -1.9517  -1.9023  -1.7617  -1.7175  -1.6644  -1.5228  -0.7377
    -0.3748  -0.2217  -0.1182   0.1395   0.2563   0.3494   0.5141   0.5503

          k =-0.1250-0.2357 0.0000 ( 39644 PWs)   bands (ev):

   -91.3276 -90.8774 -90.8668 -90.8156 -90.6636 -90.5020 -57.4821 -57.3058
   -57.1409 -57.0055 -56.8964 -56.8909 -56.8903 -56.8679 -56.8585 -56.7672
   -56.7605 -56.6648 -56.6420 -56.6307 -56.5986 -56.5949 -56.5616 -56.1396
   -19.8386 -19.8248 -19.6434 -19.4663 -19.2879 -19.2687 -18.6073 -18.6066
   -18.4944 -18.4363 -18.2755 -18.1949 -18.0913  -7.6227  -7.5678  -7.4553
    -7.3164  -7.2834  -7.0595  -6.9229  -6.7401  -6.5966  -6.5904  -6.4234
    -6.3321  -5.9877  -5.9597  -5.7613  -5.6830  -5.5912  -5.4639  -5.4209
    -5.3391  -5.3369  -5.2844  -5.1745  -5.1123  -5.0744  -4.8944  -4.7114
    -4.6975  -4.4484  -4.4018  -4.0537  -4.0026  -3.9131  -3.9102  -3.6887
    -3.6136  -3.2743  -3.2732  -3.0144  -3.0010  -2.9441  -2.8966  -2.7280
    -2.7142  -2.5882  -2.5488  -2.5441  -2.4577  -2.3851  -2.2971  -2.1554
    -2.1089  -2.0097  -1.9124  -1.8147  -1.7965  -1.6846  -1.4350  -0.5223
    -0.4461  -0.2140  -0.0284   0.1704   0.3351   0.4371   0.4894   0.6113

          k =-0.1250-0.1179 0.0000 ( 39558 PWs)   bands (ev):

   -91.3276 -90.8774 -90.8668 -90.8156 -90.6636 -90.5020 -57.4821 -57.3057
   -57.1409 -57.0055 -56.8964 -56.8909 -56.8903 -56.8679 -56.8585 -56.7671
   -56.7605 -56.6648 -56.6422 -56.6306 -56.5983 -56.5949 -56.5615 -56.1396
   -20.0966 -19.8362 -19.6001 -19.4171 -19.2038 -18.9839 -18.6665 -18.6210
   -18.5235 -18.4751 -18.2848 -18.1864 -18.0992  -7.9615  -7.8185  -7.6699
    -7.5080  -7.2791  -7.0247  -6.9705  -6.8031  -6.6693  -6.5828  -6.4341
    -6.3564  -6.2964  -6.0050  -5.5178  -5.4418  -5.3755  -5.3495  -5.2832
    -5.1279  -5.0326  -5.0027  -4.9264  -4.8098  -4.7728  -4.6875  -4.6541
    -4.6372  -4.4499  -4.3844  -4.1279  -4.0440  -4.0097  -3.9585  -3.8346
    -3.7357  -3.5247  -3.4313  -3.2695  -3.1460  -3.1137  -2.9324  -2.8390
    -2.7846  -2.6707  -2.5680  -2.4077  -2.3634  -2.2214  -2.1613  -2.1064
    -2.0085  -1.9517  -1.9023  -1.7617  -1.7175  -1.6644  -1.5228  -0.7377
    -0.3748  -0.2217  -0.1182   0.1395   0.2563   0.3494   0.5142   0.5504

 ------ SPIN DOWN ----------


          k = 0.0000 0.0000 0.0000 ( 39531 PWs)   bands (ev):

   -88.0638 -88.0282 -87.9682 -87.9370 -87.8622 -87.5136 -54.2310 -54.2201
   -54.1310 -54.0595 -54.0533 -54.0404 -54.0381 -53.9930 -53.9702 -53.9668
   -53.9510 -53.9461 -53.9283 -53.8494 -53.8211 -53.7573 -53.6648 -53.3327
   -20.0105 -19.7107 -19.4319 -18.9856 -18.7064 -18.4758 -18.4715 -18.3738
   -18.2418 -18.1725 -17.6821 -17.6427 -16.7739  -7.7449  -7.5351  -7.3870
    -6.8588  -6.5125  -6.2637  -5.8332  -5.7975  -5.7335  -5.7153  -5.6786
    -5.5433  -5.4948  -5.1716  -4.7656  -4.4478  -4.3331  -4.1583  -4.1204
    -3.9769  -3.8879  -3.8356  -3.6645  -3.5927  -3.4282  -3.2791  -3.2345
    -3.0635  -2.9702  -2.6643  -2.5772  -2.4815  -2.4069  -2.0049  -1.9040
    -1.8976  -1.7475  -1.4846  -1.4563  -1.3471  -1.3167  -1.2901  -1.2876
    -1.2737  -1.1025  -0.8957  -0.8254  -0.8202  -0.6784  -0.4992  -0.4612
     0.0078   0.0284   0.3665   0.3972   0.4706   0.5979   0.6225   0.6390
     0.9726   1.2395   1.6958   1.7497   1.9522   1.9845   2.0176   2.0832

          k = 0.0000 0.1179 0.0000 ( 39518 PWs)   bands (ev):

   -88.0638 -88.0282 -87.9682 -87.9370 -87.8622 -87.5136 -54.2310 -54.2200
   -54.1309 -54.0594 -54.0532 -54.0404 -54.0381 -53.9929 -53.9695 -53.9667
   -53.9510 -53.9468 -53.9281 -53.8497 -53.8211 -53.7573 -53.6649 -53.3326
   -19.9054 -19.6092 -19.3795 -19.1558 -18.9331 -18.6902 -18.3557 -18.2915
   -18.1713 -18.1447 -17.6757 -17.6319 -16.7735  -7.4997  -7.2980  -7.1798
    -6.8655  -6.5248  -6.2972  -5.8056  -5.7786  -5.7052  -5.6744  -5.5366
    -5.5197  -5.4995  -5.0184  -4.8002  -4.7379  -4.6051  -4.4378  -4.2815
    -4.1269  -3.9176  -3.8460  -3.8232  -3.7091  -3.5882  -3.3390  -3.2468
    -3.1293  -3.0476  -2.8454  -2.7146  -2.6581  -2.2977  -2.1423  -1.9856
    -1.9116  -1.7930  -1.6407  -1.1964  -1.1038  -1.0922  -1.0672  -1.0378
    -0.9439  -0.9418  -0.8943  -0.8611  -0.8211  -0.6787  -0.4791  -0.4531
    -0.0163   0.1807   0.2787   0.3073   0.3755   0.5428   0.6278   0.8684
     1.2619   1.3093   1.6961   1.7482   1.8780   1.9011   1.9049   1.9781

          k = 0.0000-0.2357 0.0000 ( 39538 PWs)   bands (ev):

   -88.0638 -88.0282 -87.9682 -87.9370 -87.8622 -87.5136 -54.2310 -54.2200
   -54.1309 -54.0594 -54.0532 -54.0404 -54.0380 -53.9930 -53.9688 -53.9668
   -53.9510 -53.9476 -53.9279 -53.8499 -53.8211 -53.7573 -53.6650 -53.3327
   -19.6437 -19.6073 -19.4009 -19.2194 -19.0204 -19.0070 -18.2892 -18.2556
   -18.1373 -18.1111 -17.6698 -17.6210 -16.7733  -7.1302  -7.0774  -6.9236
    -6.7837  -6.5808  -6.3507  -5.7725  -5.7643  -5.6772  -5.6682  -5.5249
    -5.5078  -5.1541  -5.1519  -4.9600  -4.9579  -4.8259  -4.6611  -4.5555
    -4.3160  -4.0191  -3.9464  -3.9058  -3.8450  -3.6492  -3.3337  -3.2724
    -3.2530  -3.2021  -3.0037  -2.6716  -2.6511  -2.4022  -2.0694  -1.9625
    -1.9179  -1.7504  -1.6610  -1.1437  -0.9449  -0.9156  -0.9142  -0.9051
    -0.8677  -0.8462  -0.8006  -0.7522  -0.7283  -0.7264  -0.4983  -0.2029
    -0.1494   0.0252   0.1392   0.2875   0.4854   0.5713   0.6353   0.9186
     1.5176   1.5966   1.6972   1.7352   1.7688   1.7869   1.8643   1.8810

          k = 0.0000-0.1179 0.0000 ( 39518 PWs)   bands (ev):

   -88.0638 -88.0282 -87.9682 -87.9370 -87.8622 -87.5136 -54.2310 -54.2200
   -54.1309 -54.0594 -54.0532 -54.0404 -54.0381 -53.9929 -53.9695 -53.9667
   -53.9510 -53.9468 -53.9281 -53.8497 -53.8211 -53.7573 -53.6649 -53.3326
   -19.9054 -19.6092 -19.3795 -19.1558 -18.9331 -18.6902 -18.3557 -18.2915
   -18.1713 -18.1447 -17.6757 -17.6319 -16.7735  -7.4997  -7.2980  -7.1798
    -6.8655  -6.5248  -6.2972  -5.8056  -5.7786  -5.7052  -5.6744  -5.5366
    -5.5197  -5.4995  -5.0184  -4.8002  -4.7379  -4.6051  -4.4378  -4.2815
    -4.1269  -3.9176  -3.8460  -3.8232  -3.7091  -3.5882  -3.3390  -3.2468
    -3.1293  -3.0476  -2.8454  -2.7146  -2.6581  -2.2977  -2.1423  -1.9856
    -1.9116  -1.7930  -1.6407  -1.1964  -1.1038  -1.0922  -1.0672  -1.0378
    -0.9439  -0.9418  -0.8943  -0.8611  -0.8211  -0.6787  -0.4791  -0.4531
    -0.0163   0.1807   0.2787   0.3073   0.3755   0.5428   0.6278   0.8684
     1.2619   1.3093   1.6961   1.7482   1.8780   1.9011   1.9049   1.9781

          k = 0.1250 0.0000 0.0000 ( 39512 PWs)   bands (ev):

   -88.0634 -88.0278 -87.9678 -87.9366 -87.8618 -87.5132 -54.2378 -54.2265
   -54.1372 -54.0662 -54.0599 -54.0394 -54.0376 -53.9920 -53.9695 -53.9658
   -53.9506 -53.9454 -53.9278 -53.8485 -53.8206 -53.7641 -53.6639 -53.3322
   -19.8944 -19.6068 -19.3445 -18.9113 -18.6488 -18.4792 -18.4459 -18.3812
   -18.2507 -18.1796 -17.6940 -17.6433 -16.7484  -7.6009  -7.4303  -7.2817
    -6.7630  -6.4470  -6.2291  -6.0701  -6.0050  -5.8864  -5.7286  -5.5497
    -5.4857  -5.4681  -4.9051  -4.6439  -4.6000  -4.2695  -4.1777  -4.0986
    -4.0875  -4.0305  -3.9175  -3.8657  -3.7699  -3.7355  -3.4924  -3.2469
    -3.1606  -3.0826  -2.9814  -2.8044  -2.7520  -2.5673  -2.3650  -2.2138
    -2.1060  -1.6936  -1.5704  -1.2657  -1.1122  -1.0775  -1.0662  -1.0152
    -1.0138  -0.9377  -0.7728  -0.7566  -0.6539  -0.5245  -0.5055  -0.2935
    -0.0527   0.1620   0.2685   0.3093   0.3971   0.4733   0.5569   0.7260
     1.0759   1.2121   1.3837   1.5197   1.7514   1.7661   1.7986   1.8517

          k = 0.1250 0.1179 0.0000 ( 39558 PWs)   bands (ev):

   -88.0634 -88.0278 -87.9678 -87.9366 -87.8618 -87.5132 -54.2378 -54.2265
   -54.1372 -54.0663 -54.0600 -54.0394 -54.0376 -53.9920 -53.9689 -53.9658
   -53.9506 -53.9460 -53.9276 -53.8487 -53.8206 -53.7641 -53.6639 -53.3322
   -19.7935 -19.5099 -19.2933 -19.0780 -18.8671 -18.6482 -18.3632 -18.3045
   -18.1824 -18.1571 -17.6876 -17.6337 -16.7480  -7.3552  -7.1806  -7.0584
    -6.7698  -6.4605  -6.2666  -5.9859  -5.9263  -5.8411  -5.7571  -5.5571
    -5.5016  -5.2493  -4.9024  -4.6631  -4.5934  -4.5175  -4.4464  -4.3210
    -4.2840  -4.2253  -4.1577  -4.0839  -3.8697  -3.7173  -3.6578  -3.4392
    -3.3419  -3.1290  -2.9664  -2.7300  -2.7131  -2.5205  -2.3084  -2.2224
    -2.0528  -1.7855  -1.4408  -1.0620  -1.0068  -0.9611  -0.9325  -0.8788
    -0.8664  -0.8144  -0.7516  -0.6873  -0.6270  -0.5205  -0.4905  -0.2923
    -0.0799   0.1136   0.2093   0.2858   0.3489   0.4803   0.5473   0.8735
     1.2070   1.2397   1.3656   1.5055   1.6122   1.7218   1.7942   1.8017

          k = 0.1250-0.2357 0.0000 ( 39644 PWs)   bands (ev):

   -88.0634 -88.0278 -87.9678 -87.9366 -87.8618 -87.5132 -54.2378 -54.2265
   -54.1373 -54.0663 -54.0600 -54.0394 -54.0376 -53.9920 -53.9683 -53.9658
   -53.9506 -53.9467 -53.9275 -53.8490 -53.8206 -53.7641 -53.6640 -53.3322
   -19.5434 -19.5079 -19.3110 -19.1381 -18.9562 -18.9413 -18.3029 -18.2716
   -18.1477 -18.1315 -17.6818 -17.6242 -16.7476  -6.9975  -6.9372  -6.7753
    -6.6526  -6.5259  -6.3279  -5.8631  -5.8381  -5.8319  -5.7707  -5.5592
    -5.5027  -4.9688  -4.8885  -4.8745  -4.8253  -4.7040  -4.6945  -4.6203
    -4.5734  -4.4782  -4.4131  -4.0874  -3.8748  -3.8238  -3.7692  -3.5618
    -3.4563  -3.1383  -3.1084  -2.6133  -2.5357  -2.3370  -2.3229  -2.1032
    -2.0065  -1.9863  -1.3141  -1.0277  -1.0115  -0.9220  -0.8686  -0.8246
    -0.7932  -0.6345  -0.6335  -0.5381  -0.5252  -0.4776  -0.3029  -0.2642
    -0.1716  -0.0478   0.0658   0.1994   0.4482   0.4552   0.6550   0.9226
     1.2128   1.2240   1.2701   1.4911   1.5453   1.7978   1.8105   1.8650

          k = 0.1250-0.1179 0.0000 ( 39558 PWs)   bands (ev):

   -88.0634 -88.0278 -87.9678 -87.9366 -87.8618 -87.5132 -54.2378 -54.2265
   -54.1372 -54.0663 -54.0600 -54.0394 -54.0376 -53.9920 -53.9689 -53.9658
   -53.9506 -53.9460 -53.9276 -53.8487 -53.8206 -53.7641 -53.6639 -53.3322
   -19.7935 -19.5099 -19.2933 -19.0780 -18.8671 -18.6482 -18.3632 -18.3045
   -18.1824 -18.1571 -17.6876 -17.6337 -16.7480  -7.3552  -7.1806  -7.0584
    -6.7698  -6.4605  -6.2666  -5.9859  -5.9263  -5.8411  -5.7571  -5.5571
    -5.5016  -5.2493  -4.9024  -4.6631  -4.5934  -4.5175  -4.4464  -4.3210
    -4.2840  -4.2253  -4.1577  -4.0839  -3.8697  -3.7173  -3.6578  -3.4392
    -3.3419  -3.1290  -2.9664  -2.7300  -2.7131  -2.5205  -2.3085  -2.2224
    -2.0528  -1.7855  -1.4408  -1.0620  -1.0068  -0.9611  -0.9325  -0.8788
    -0.8664  -0.8144  -0.7517  -0.6873  -0.6270  -0.5205  -0.4905  -0.2923
    -0.0799   0.1136   0.2093   0.2858   0.3489   0.4803   0.5473   0.8735
     1.2070   1.2397   1.3656   1.5055   1.6122   1.7217   1.7942   1.8018

          k = 0.2500 0.0000 0.0000 ( 39608 PWs)   bands (ev):

   -88.0624 -88.0268 -87.9668 -87.9356 -87.8608 -87.5122 -54.2543 -54.2420
   -54.1524 -54.0827 -54.0761 -54.0372 -54.0365 -53.9896 -53.9679 -53.9635
   -53.9496 -53.9436 -53.9266 -53.8463 -53.8196 -53.7805 -53.6615 -53.3311
   -19.5808 -19.3333 -19.1222 -18.7291 -18.5193 -18.4881 -18.4139 -18.3998
   -18.2726 -18.2045 -17.7176 -17.6384 -16.6873  -7.2272  -7.1919  -7.0227
    -6.5923  -6.3151  -6.2755  -6.2279  -6.1659  -5.9701  -5.8375  -5.6079
    -5.3478  -5.2324  -5.1349  -4.9930  -4.9650  -4.8371  -4.6255  -4.4822
    -4.4159  -4.3581  -3.8586  -3.7531  -3.7466  -3.7106  -3.6205  -3.5897
    -3.2266  -3.1351  -3.0517  -3.0122  -2.9968  -2.9542  -2.6372  -2.5542
    -2.0778  -1.5982  -1.4601  -1.2636  -1.0789  -1.0775  -0.9083  -0.8619
    -0.7996  -0.7882  -0.5080  -0.4864  -0.4380  -0.3649  -0.2311  -0.2063
    -0.0982   0.0316   0.1118   0.1186   0.2030   0.4605   0.5184   0.6576
     0.9129   1.1325   1.2157   1.2664   1.3533   1.3936   1.4388   1.4525

          k = 0.2500 0.1179 0.0000 ( 39638 PWs)   bands (ev):

   -88.0624 -88.0268 -87.9668 -87.9356 -87.8608 -87.5122 -54.2543 -54.2420
   -54.1525 -54.0827 -54.0761 -54.0372 -54.0366 -53.9896 -53.9675 -53.9635
   -53.9496 -53.9439 -53.9265 -53.8464 -53.8195 -53.7805 -53.6616 -53.3311
   -19.4929 -19.2506 -19.0736 -18.8837 -18.7098 -18.5568 -18.3859 -18.3456
   -18.2212 -18.1909 -17.7126 -17.6324 -16.6871  -6.9864  -6.9138  -6.7675
    -6.5874  -6.2816  -6.2206  -6.2089  -6.1004  -5.9287  -5.8907  -5.5993
    -5.4169  -5.2978  -5.2181  -5.1415  -5.0183  -4.8472  -4.7507  -4.5751
    -4.4354  -4.2690  -4.2144  -4.1479  -4.0626  -3.8709  -3.6916  -3.4977
    -3.3353  -3.1565  -3.0157  -2.8927  -2.8189  -2.7206  -2.6176  -2.5262
    -2.1888  -1.7446  -1.3741  -1.2228  -1.0371  -0.8815  -0.8461  -0.7672
    -0.6381  -0.6305  -0.5680  -0.4904  -0.4421  -0.3748  -0.3216  -0.2170
    -0.0792  -0.0063   0.0174   0.1352   0.2046   0.4488   0.5339   0.6769
     0.7747   0.8791   0.8877   1.2046   1.2390   1.5426   1.7499   1.7886

          k = 0.2500-0.2357 0.0000 ( 39652 PWs)   bands (ev):

   -88.0624 -88.0268 -87.9668 -87.9356 -87.8608 -87.5122 -54.2543 -54.2420
   -54.1525 -54.0828 -54.0762 -54.0372 -54.0366 -53.9896 -53.9671 -53.9635
   -53.9496 -53.9443 -53.9264 -53.8465 -53.8195 -53.7805 -53.6616 -53.3311
   -19.2786 -19.2462 -19.0776 -18.9348 -18.8006 -18.7816 -18.3451 -18.3212
   -18.1918 -18.1798 -17.7079 -17.6268 -16.6870  -6.6851  -6.6193  -6.4145
    -6.3743  -6.3246  -6.2355  -5.9967  -5.9416  -5.9163  -5.9000  -5.6486
    -5.6103  -5.5754  -5.3267  -5.2768  -5.1913  -4.9821  -4.8691  -4.6885
    -4.6318  -4.5914  -4.3487  -4.1593  -4.0338  -3.9673  -3.7557  -3.6814
    -3.3120  -3.1902  -3.0076  -2.7888  -2.7103  -2.5881  -2.5011  -2.3431
    -2.1546  -2.1024  -1.2342  -1.1961  -0.8926  -0.8794  -0.8247  -0.6947
    -0.6435  -0.5993  -0.4659  -0.4507  -0.3631  -0.3504  -0.3199  -0.1422
    -0.1309  -0.0796  -0.0184   0.0826   0.2918   0.3409   0.5806   0.5844
     0.5961   0.6236   0.7209   1.2173   1.2480   1.6269   1.9278   2.0371

          k = 0.2500-0.1179 0.0000 ( 39638 PWs)   bands (ev):

   -88.0624 -88.0268 -87.9668 -87.9356 -87.8608 -87.5122 -54.2543 -54.2420
   -54.1525 -54.0827 -54.0761 -54.0372 -54.0366 -53.9896 -53.9675 -53.9635
   -53.9496 -53.9439 -53.9265 -53.8464 -53.8195 -53.7805 -53.6616 -53.3311
   -19.4929 -19.2506 -19.0736 -18.8837 -18.7098 -18.5568 -18.3859 -18.3456
   -18.2212 -18.1909 -17.7126 -17.6324 -16.6871  -6.9864  -6.9138  -6.7675
    -6.5874  -6.2816  -6.2206  -6.2089  -6.1004  -5.9287  -5.8907  -5.5993
    -5.4169  -5.2978  -5.2181  -5.1415  -5.0182  -4.8472  -4.7506  -4.5751
    -4.4354  -4.2690  -4.2144  -4.1479  -4.0626  -3.8709  -3.6916  -3.4977
    -3.3353  -3.1565  -3.0157  -2.8927  -2.8189  -2.7206  -2.6177  -2.5262
    -2.1888  -1.7446  -1.3741  -1.2228  -1.0371  -0.8815  -0.8461  -0.7672
    -0.6381  -0.6306  -0.5680  -0.4905  -0.4421  -0.3748  -0.3216  -0.2170
    -0.0792  -0.0063   0.0174   0.1352   0.2047   0.4488   0.5339   0.6769
     0.7747   0.8791   0.8877   1.2046   1.2390   1.5426   1.7498   1.7886

          k = 0.3750 0.0000 0.0000 ( 39708 PWs)   bands (ev):

   -88.0615 -88.0258 -87.9659 -87.9346 -87.8598 -87.5111 -54.2707 -54.2575
   -54.1676 -54.0991 -54.0922 -54.0355 -54.0349 -53.9872 -53.9663 -53.9611
   -53.9487 -53.9418 -53.9254 -53.8441 -53.8185 -53.7969 -53.6592 -53.3300
   -19.1749 -19.0086 -18.8711 -18.5486 -18.4979 -18.4825 -18.4194 -18.4088
   -18.2952 -18.2484 -17.7311 -17.6222 -16.6268  -7.0480  -6.8694  -6.7020
    -6.6768  -6.3436  -6.3375  -6.2165  -6.0999  -6.0489  -5.9955  -5.8041
    -5.7303  -5.5918  -5.3676  -5.3096  -5.2588  -4.9390  -4.6575  -4.4669
    -4.4560  -4.3338  -4.2622  -4.2423  -3.9195  -3.7266  -3.6037  -3.4350
    -3.2823  -3.1826  -3.1294  -3.1123  -2.9380  -2.6886  -2.6323  -2.4743
    -2.1179  -1.8712  -1.7731  -1.1287  -1.0636  -0.9954  -0.8641  -0.8423
    -0.8254  -0.7769  -0.6689  -0.6160  -0.4161  -0.3560  -0.2678  -0.1709
    -0.0738  -0.0192   0.1079   0.1396   0.2720   0.3182   0.3461   0.5873
     0.9320   1.0479   1.0690   1.1365   1.1614   1.1755   1.2573   1.2826

          k = 0.3750 0.1179 0.0000 ( 39703 PWs)   bands (ev):

   -88.0615 -88.0258 -87.9659 -87.9346 -87.8598 -87.5111 -54.2707 -54.2575
   -54.1676 -54.0991 -54.0922 -54.0355 -54.0349 -53.9872 -53.9662 -53.9611
   -53.9487 -53.9419 -53.9254 -53.8441 -53.8185 -53.7968 -53.6592 -53.3299
   -19.1078 -18.9476 -18.8240 -18.6723 -18.5679 -18.4821 -18.4337 -18.4153
   -18.2984 -18.2375 -17.7288 -17.6206 -16.6280  -6.8012  -6.7189  -6.6507
    -6.5159  -6.3814  -6.3063  -6.2573  -6.2341  -6.0458  -5.9258  -5.8538
    -5.6332  -5.4980  -5.4114  -5.3132  -5.2893  -4.9714  -4.8206  -4.7139
    -4.4944  -4.4053  -4.3552  -4.0256  -4.0053  -3.6860  -3.5564  -3.4668
    -3.3261  -3.2064  -3.1793  -3.0471  -2.9849  -2.7406  -2.5572  -2.3769
    -2.1128  -1.9520  -1.7905  -1.2759  -1.1133  -0.9879  -0.8599  -0.8395
    -0.8031  -0.7464  -0.7375  -0.6616  -0.5866  -0.5018  -0.3854  -0.1425
     0.0528   0.0760   0.1815   0.2406   0.2519   0.3040   0.3844   0.4423
     0.4870   0.5181   0.6013   1.0559   1.1602   1.7141   1.8948   1.9134

          k = 0.3750-0.2357 0.0000 ( 39694 PWs)   bands (ev):

   -88.0615 -88.0258 -87.9659 -87.9346 -87.8598 -87.5111 -54.2707 -54.2575
   -54.1676 -54.0991 -54.0923 -54.0355 -54.0349 -53.9872 -53.9660 -53.9611
   -53.9487 -53.9420 -53.9253 -53.8441 -53.8185 -53.7968 -53.6592 -53.3299
   -18.9514 -18.9285 -18.8023 -18.7251 -18.6434 -18.6038 -18.4238 -18.4125
   -18.2907 -18.2363 -17.7265 -17.6191 -16.6293  -6.6832  -6.6385  -6.4827
    -6.3186  -6.3052  -6.2203  -6.2195  -6.1257  -6.0467  -5.9798  -5.6993
    -5.6698  -5.6201  -5.5698  -5.4042  -5.3203  -5.0538  -4.9781  -4.8381
    -4.6632  -4.4556  -4.3566  -4.1087  -3.7859  -3.7817  -3.5138  -3.4967
    -3.2776  -3.2238  -3.1432  -3.0636  -3.0248  -2.7420  -2.5301  -2.3104
    -2.0362  -1.9908  -1.6726  -1.5721  -1.1721  -1.1711  -0.8939  -0.8748
    -0.7537  -0.7505  -0.7048  -0.6721  -0.5803  -0.5353  -0.4156  -0.1302
    -0.0217   0.0744   0.0767   0.1744   0.1968   0.2358   0.3578   0.3909
     0.3958   0.4589   0.5373   1.0612   1.1948   1.8449   2.1260   2.2309

          k = 0.3750-0.1179 0.0000 ( 39703 PWs)   bands (ev):

   -88.0615 -88.0258 -87.9659 -87.9346 -87.8598 -87.5111 -54.2707 -54.2575
   -54.1676 -54.0991 -54.0922 -54.0355 -54.0349 -53.9872 -53.9662 -53.9611
   -53.9487 -53.9419 -53.9254 -53.8441 -53.8185 -53.7968 -53.6592 -53.3299
   -19.1078 -18.9476 -18.8241 -18.6723 -18.5679 -18.4821 -18.4337 -18.4153
   -18.2984 -18.2375 -17.7288 -17.6206 -16.6280  -6.8012  -6.7189  -6.6507
    -6.5160  -6.3814  -6.3063  -6.2573  -6.2341  -6.0458  -5.9258  -5.8538
    -5.6332  -5.4980  -5.4114  -5.3132  -5.2893  -4.9714  -4.8206  -4.7139
    -4.4944  -4.4053  -4.3553  -4.0256  -4.0053  -3.6860  -3.5564  -3.4668
    -3.3261  -3.2064  -3.1793  -3.0471  -2.9849  -2.7406  -2.5572  -2.3769
    -2.1128  -1.9520  -1.7905  -1.2760  -1.1133  -0.9879  -0.8599  -0.8395
    -0.8031  -0.7464  -0.7375  -0.6616  -0.5866  -0.5018  -0.3854  -0.1425
     0.0528   0.0760   0.1815   0.2406   0.2519   0.3040   0.3844   0.4422
     0.4870   0.5181   0.6013   1.0559   1.1602   1.7141   1.8948   1.9134

          k =-0.5000 0.0000 0.0000 ( 39696 PWs)   bands (ev):

   -88.0611 -88.0253 -87.9655 -87.9342 -87.8593 -87.5107 -54.2774 -54.2639
   -54.1738 -54.1058 -54.0988 -54.0350 -54.0339 -53.9862 -53.9657 -53.9601
   -53.9483 -53.9410 -53.9249 -53.8432 -53.8180 -53.8036 -53.6582 -53.3295
   -18.9127 -18.8462 -18.7238 -18.6082 -18.5022 -18.4692 -18.4338 -18.4279
   -18.3047 -18.2581 -17.7334 -17.6119 -16.6019  -7.0547  -6.8462  -6.7894
    -6.4968  -6.3723  -6.3420  -6.2763  -6.2548  -6.2373  -5.9735  -5.8287
    -5.5731  -5.5620  -5.5060  -5.3022  -5.2768  -4.8968  -4.8023  -4.6975
    -4.6519  -4.6434  -4.5596  -3.9161  -3.5533  -3.5273  -3.4998  -3.3888
    -3.2532  -3.2390  -3.1949  -3.1081  -2.8832  -2.8121  -2.7773  -2.6241
    -2.1832  -2.0052  -1.7059  -1.1166  -1.0270  -0.9456  -0.9182  -0.8991
    -0.8573  -0.7895  -0.6736  -0.6381  -0.6078  -0.5614  -0.4472  -0.1063
    -0.0278   0.0438   0.1380   0.1859   0.2429   0.3427   0.3898   0.6388
     0.9564   0.9671   1.0284   1.0670   1.0714   1.1299   1.2155   1.2492

          k =-0.5000 0.1179 0.0000 ( 39700 PWs)   bands (ev):

   -88.0611 -88.0253 -87.9655 -87.9342 -87.8593 -87.5107 -54.2774 -54.2639
   -54.1739 -54.1059 -54.0989 -54.0351 -54.0340 -53.9862 -53.9656 -53.9602
   -53.9483 -53.9410 -53.9249 -53.8431 -53.8180 -53.8036 -53.6582 -53.3295
   -18.8612 -18.7992 -18.6794 -18.5883 -18.5586 -18.4895 -18.4822 -18.4222
   -18.3591 -18.2701 -17.7319 -17.6118 -16.6043  -6.9400  -6.8615  -6.6630
    -6.6443  -6.5369  -6.3027  -6.2559  -6.1790  -6.1187  -5.9836  -5.6198
    -5.5555  -5.5368  -5.2885  -5.1278  -5.0574  -4.9754  -4.9602  -4.9253
    -4.8067  -4.7883  -4.5037  -4.0384  -3.6845  -3.4959  -3.4198  -3.3235
    -3.2547  -3.2260  -3.1710  -3.0665  -3.0041  -2.7962  -2.7125  -2.3430
    -2.2260  -2.1138  -1.7675  -1.4035  -1.0420  -1.0203  -0.9459  -0.9410
    -0.9067  -0.8651  -0.8159  -0.7867  -0.6958  -0.6645  -0.5813  -0.0835
     0.0627   0.1785   0.2035   0.2398   0.2481   0.3297   0.3486   0.3845
     0.4266   0.4873   0.5961   1.0324   1.1598   1.8369   1.9287   1.9606

          k =-0.5000-0.2357 0.0000 ( 39704 PWs)   bands (ev):

   -88.0611 -88.0253 -87.9655 -87.9342 -87.8593 -87.5107 -54.2774 -54.2639
   -54.1739 -54.1059 -54.0989 -54.0351 -54.0340 -53.9862 -53.9655 -53.9602
   -53.9483 -53.9410 -53.9248 -53.8431 -53.8180 -53.8036 -53.6582 -53.3295
   -18.7544 -18.7494 -18.6394 -18.6287 -18.5496 -18.5452 -18.5314 -18.4424
   -18.4081 -18.2843 -17.7305 -17.6116 -16.6067  -6.9278  -6.8807  -6.7637
    -6.5963  -6.5323  -6.2723  -6.0228  -6.0055  -5.8515  -5.8116  -5.6666
    -5.5889  -5.4345  -5.3932  -5.3672  -5.2923  -5.2843  -4.9390  -4.7768
    -4.6716  -4.5551  -4.4344  -4.1992  -3.6418  -3.5320  -3.5282  -3.3918
    -3.3871  -3.3170  -3.2932  -3.1691  -2.8598  -2.3996  -2.3789  -2.3691
    -2.1736  -1.9933  -1.9409  -1.8714  -1.3720  -1.2121  -1.0118  -0.9384
    -0.9165  -0.9133  -0.8687  -0.7847  -0.7748  -0.6608  -0.5800  -0.0424
    -0.0411   0.0011   0.0613   0.0765   0.1449   0.2641   0.3863   0.4847
     0.4914   0.5410   0.5491   1.0358   1.1886   1.9547   2.2306   2.3053

          k =-0.5000-0.1179 0.0000 ( 39700 PWs)   bands (ev):

   -88.0611 -88.0253 -87.9655 -87.9342 -87.8593 -87.5107 -54.2774 -54.2639
   -54.1739 -54.1059 -54.0989 -54.0351 -54.0340 -53.9862 -53.9656 -53.9602
   -53.9483 -53.9410 -53.9249 -53.8431 -53.8180 -53.8036 -53.6582 -53.3295
   -18.8612 -18.7992 -18.6794 -18.5883 -18.5586 -18.4895 -18.4822 -18.4222
   -18.3591 -18.2701 -17.7319 -17.6118 -16.6043  -6.9400  -6.8615  -6.6630
    -6.6443  -6.5369  -6.3027  -6.2559  -6.1790  -6.1187  -5.9836  -5.6198
    -5.5555  -5.5368  -5.2885  -5.1278  -5.0574  -4.9754  -4.9602  -4.9253
    -4.8067  -4.7883  -4.5037  -4.0384  -3.6845  -3.4959  -3.4198  -3.3235
    -3.2547  -3.2260  -3.1710  -3.0665  -3.0041  -2.7962  -2.7125  -2.3430
    -2.2260  -2.1138  -1.7675  -1.4035  -1.0420  -1.0203  -0.9459  -0.9410
    -0.9067  -0.8651  -0.8159  -0.7867  -0.6958  -0.6645  -0.5813  -0.0835
     0.0627   0.1785   0.2035   0.2398   0.2481   0.3297   0.3486   0.3845
     0.4266   0.4873   0.5961   1.0324   1.1598   1.8370   1.9287   1.9605

          k =-0.3750 0.0000 0.0000 ( 39708 PWs)   bands (ev):

   -88.0615 -88.0258 -87.9659 -87.9346 -87.8598 -87.5111 -54.2707 -54.2575
   -54.1676 -54.0991 -54.0922 -54.0355 -54.0349 -53.9872 -53.9663 -53.9611
   -53.9487 -53.9418 -53.9254 -53.8441 -53.8185 -53.7969 -53.6592 -53.3300
   -19.1749 -19.0086 -18.8711 -18.5486 -18.4979 -18.4825 -18.4194 -18.4088
   -18.2952 -18.2484 -17.7311 -17.6222 -16.6268  -7.0480  -6.8694  -6.7020
    -6.6768  -6.3436  -6.3375  -6.2165  -6.0999  -6.0489  -5.9955  -5.8041
    -5.7303  -5.5918  -5.3676  -5.3096  -5.2588  -4.9390  -4.6575  -4.4669
    -4.4560  -4.3338  -4.2622  -4.2423  -3.9195  -3.7266  -3.6037  -3.4350
    -3.2823  -3.1826  -3.1294  -3.1123  -2.9380  -2.6886  -2.6323  -2.4743
    -2.1179  -1.8712  -1.7731  -1.1287  -1.0636  -0.9954  -0.8641  -0.8423
    -0.8254  -0.7769  -0.6689  -0.6160  -0.4161  -0.3560  -0.2678  -0.1709
    -0.0738  -0.0192   0.1079   0.1396   0.2720   0.3182   0.3461   0.5873
     0.9320   1.0479   1.0690   1.1365   1.1614   1.1755   1.2573   1.2826

          k =-0.3750 0.1179 0.0000 ( 39703 PWs)   bands (ev):

   -88.0615 -88.0258 -87.9659 -87.9346 -87.8598 -87.5111 -54.2707 -54.2575
   -54.1676 -54.0991 -54.0922 -54.0355 -54.0349 -53.9872 -53.9662 -53.9611
   -53.9487 -53.9419 -53.9254 -53.8441 -53.8185 -53.7968 -53.6592 -53.3299
   -19.1078 -18.9476 -18.8241 -18.6723 -18.5679 -18.4821 -18.4337 -18.4153
   -18.2984 -18.2375 -17.7288 -17.6206 -16.6280  -6.8012  -6.7189  -6.6507
    -6.5160  -6.3814  -6.3063  -6.2573  -6.2341  -6.0458  -5.9258  -5.8538
    -5.6332  -5.4980  -5.4114  -5.3132  -5.2893  -4.9714  -4.8206  -4.7139
    -4.4944  -4.4053  -4.3553  -4.0256  -4.0053  -3.6860  -3.5564  -3.4668
    -3.3261  -3.2064  -3.1793  -3.0471  -2.9849  -2.7406  -2.5572  -2.3769
    -2.1128  -1.9520  -1.7905  -1.2760  -1.1133  -0.9879  -0.8599  -0.8395
    -0.8031  -0.7464  -0.7375  -0.6616  -0.5866  -0.5018  -0.3854  -0.1425
     0.0528   0.0760   0.1815   0.2406   0.2519   0.3040   0.3844   0.4422
     0.4870   0.5181   0.6013   1.0559   1.1602   1.7141   1.8948   1.9134

          k =-0.3750-0.2357 0.0000 ( 39694 PWs)   bands (ev):

   -88.0615 -88.0258 -87.9659 -87.9346 -87.8598 -87.5111 -54.2707 -54.2575
   -54.1676 -54.0991 -54.0923 -54.0355 -54.0349 -53.9872 -53.9660 -53.9611
   -53.9487 -53.9420 -53.9253 -53.8441 -53.8185 -53.7968 -53.6592 -53.3299
   -18.9514 -18.9285 -18.8023 -18.7251 -18.6434 -18.6038 -18.4238 -18.4125
   -18.2907 -18.2363 -17.7265 -17.6191 -16.6293  -6.6832  -6.6385  -6.4827
    -6.3186  -6.3052  -6.2203  -6.2195  -6.1257  -6.0467  -5.9798  -5.6993
    -5.6698  -5.6201  -5.5698  -5.4042  -5.3203  -5.0538  -4.9781  -4.8381
    -4.6632  -4.4556  -4.3566  -4.1087  -3.7859  -3.7817  -3.5138  -3.4967
    -3.2776  -3.2238  -3.1432  -3.0636  -3.0248  -2.7420  -2.5301  -2.3104
    -2.0362  -1.9908  -1.6726  -1.5721  -1.1721  -1.1711  -0.8939  -0.8748
    -0.7537  -0.7505  -0.7048  -0.6721  -0.5803  -0.5353  -0.4156  -0.1302
    -0.0217   0.0744   0.0767   0.1744   0.1968   0.2358   0.3578   0.3909
     0.3958   0.4589   0.5373   1.0612   1.1948   1.8449   2.1260   2.2308

          k =-0.3750-0.1179 0.0000 ( 39703 PWs)   bands (ev):

   -88.0615 -88.0258 -87.9659 -87.9346 -87.8598 -87.5111 -54.2707 -54.2575
   -54.1676 -54.0991 -54.0922 -54.0355 -54.0349 -53.9872 -53.9662 -53.9611
   -53.9487 -53.9419 -53.9254 -53.8441 -53.8185 -53.7968 -53.6592 -53.3299
   -19.1078 -18.9476 -18.8240 -18.6723 -18.5679 -18.4821 -18.4337 -18.4153
   -18.2984 -18.2375 -17.7288 -17.6206 -16.6280  -6.8012  -6.7189  -6.6507
    -6.5159  -6.3814  -6.3063  -6.2573  -6.2341  -6.0458  -5.9258  -5.8538
    -5.6332  -5.4980  -5.4114  -5.3132  -5.2893  -4.9714  -4.8206  -4.7139
    -4.4944  -4.4053  -4.3552  -4.0256  -4.0053  -3.6860  -3.5564  -3.4668
    -3.3261  -3.2064  -3.1793  -3.0471  -2.9849  -2.7406  -2.5572  -2.3769
    -2.1128  -1.9520  -1.7905  -1.2759  -1.1133  -0.9879  -0.8599  -0.8395
    -0.8031  -0.7464  -0.7375  -0.6616  -0.5866  -0.5018  -0.3854  -0.1425
     0.0528   0.0760   0.1815   0.2406   0.2519   0.3040   0.3844   0.4423
     0.4870   0.5181   0.6013   1.0559   1.1602   1.7141   1.8948   1.9134

          k =-0.2500 0.0000 0.0000 ( 39608 PWs)   bands (ev):

   -88.0624 -88.0268 -87.9668 -87.9356 -87.8608 -87.5122 -54.2543 -54.2420
   -54.1524 -54.0827 -54.0761 -54.0372 -54.0365 -53.9896 -53.9679 -53.9635
   -53.9496 -53.9436 -53.9266 -53.8463 -53.8196 -53.7805 -53.6615 -53.3311
   -19.5808 -19.3333 -19.1222 -18.7291 -18.5193 -18.4881 -18.4139 -18.3998
   -18.2726 -18.2045 -17.7176 -17.6384 -16.6873  -7.2272  -7.1919  -7.0227
    -6.5923  -6.3151  -6.2755  -6.2279  -6.1659  -5.9701  -5.8375  -5.6079
    -5.3478  -5.2324  -5.1349  -4.9930  -4.9650  -4.8371  -4.6255  -4.4822
    -4.4159  -4.3581  -3.8586  -3.7531  -3.7466  -3.7106  -3.6205  -3.5897
    -3.2266  -3.1351  -3.0517  -3.0122  -2.9968  -2.9542  -2.6372  -2.5542
    -2.0778  -1.5982  -1.4601  -1.2636  -1.0789  -1.0775  -0.9083  -0.8619
    -0.7996  -0.7882  -0.5080  -0.4864  -0.4380  -0.3649  -0.2311  -0.2063
    -0.0982   0.0316   0.1118   0.1186   0.2030   0.4605   0.5184   0.6576
     0.9129   1.1325   1.2157   1.2664   1.3533   1.3936   1.4388   1.4525

          k =-0.2500 0.1179 0.0000 ( 39638 PWs)   bands (ev):

   -88.0624 -88.0268 -87.9668 -87.9356 -87.8608 -87.5122 -54.2543 -54.2420
   -54.1525 -54.0827 -54.0761 -54.0372 -54.0366 -53.9896 -53.9675 -53.9635
   -53.9496 -53.9439 -53.9265 -53.8464 -53.8195 -53.7805 -53.6616 -53.3311
   -19.4929 -19.2506 -19.0736 -18.8837 -18.7098 -18.5568 -18.3859 -18.3456
   -18.2212 -18.1909 -17.7126 -17.6324 -16.6871  -6.9864  -6.9138  -6.7675
    -6.5874  -6.2816  -6.2206  -6.2089  -6.1004  -5.9287  -5.8907  -5.5993
    -5.4169  -5.2978  -5.2181  -5.1415  -5.0182  -4.8472  -4.7506  -4.5751
    -4.4354  -4.2690  -4.2144  -4.1479  -4.0626  -3.8709  -3.6916  -3.4977
    -3.3353  -3.1565  -3.0157  -2.8927  -2.8189  -2.7206  -2.6177  -2.5262
    -2.1888  -1.7446  -1.3741  -1.2228  -1.0371  -0.8815  -0.8461  -0.7672
    -0.6381  -0.6306  -0.5680  -0.4905  -0.4421  -0.3748  -0.3216  -0.2170
    -0.0792  -0.0063   0.0174   0.1352   0.2047   0.4488   0.5339   0.6769
     0.7747   0.8791   0.8877   1.2046   1.2390   1.5426   1.7498   1.7886

          k =-0.2500-0.2357 0.0000 ( 39652 PWs)   bands (ev):

   -88.0624 -88.0268 -87.9668 -87.9356 -87.8608 -87.5122 -54.2543 -54.2420
   -54.1525 -54.0828 -54.0762 -54.0372 -54.0366 -53.9896 -53.9671 -53.9635
   -53.9496 -53.9443 -53.9264 -53.8465 -53.8195 -53.7805 -53.6616 -53.3311
   -19.2786 -19.2462 -19.0776 -18.9348 -18.8006 -18.7816 -18.3451 -18.3212
   -18.1918 -18.1798 -17.7079 -17.6268 -16.6870  -6.6851  -6.6193  -6.4145
    -6.3743  -6.3246  -6.2355  -5.9967  -5.9416  -5.9163  -5.9000  -5.6486
    -5.6103  -5.5754  -5.3267  -5.2768  -5.1913  -4.9821  -4.8691  -4.6885
    -4.6318  -4.5914  -4.3487  -4.1593  -4.0338  -3.9673  -3.7557  -3.6814
    -3.3120  -3.1902  -3.0076  -2.7888  -2.7103  -2.5881  -2.5011  -2.3431
    -2.1546  -2.1024  -1.2342  -1.1961  -0.8926  -0.8794  -0.8247  -0.6947
    -0.6435  -0.5993  -0.4659  -0.4507  -0.3631  -0.3504  -0.3199  -0.1422
    -0.1309  -0.0796  -0.0184   0.0826   0.2918   0.3409   0.5806   0.5844
     0.5961   0.6236   0.7209   1.2173   1.2480   1.6269   1.9278   2.0368

          k =-0.2500-0.1179 0.0000 ( 39638 PWs)   bands (ev):

   -88.0624 -88.0268 -87.9668 -87.9356 -87.8608 -87.5122 -54.2543 -54.2420
   -54.1525 -54.0827 -54.0761 -54.0372 -54.0366 -53.9896 -53.9675 -53.9635
   -53.9496 -53.9439 -53.9265 -53.8464 -53.8195 -53.7805 -53.6616 -53.3311
   -19.4929 -19.2506 -19.0736 -18.8837 -18.7098 -18.5568 -18.3859 -18.3456
   -18.2212 -18.1909 -17.7126 -17.6324 -16.6871  -6.9864  -6.9138  -6.7675
    -6.5874  -6.2816  -6.2206  -6.2089  -6.1004  -5.9287  -5.8907  -5.5993
    -5.4169  -5.2978  -5.2181  -5.1415  -5.0183  -4.8472  -4.7507  -4.5751
    -4.4354  -4.2690  -4.2144  -4.1479  -4.0626  -3.8709  -3.6916  -3.4977
    -3.3353  -3.1565  -3.0157  -2.8927  -2.8189  -2.7206  -2.6176  -2.5262
    -2.1888  -1.7446  -1.3741  -1.2228  -1.0371  -0.8815  -0.8461  -0.7672
    -0.6381  -0.6305  -0.5680  -0.4904  -0.4421  -0.3748  -0.3216  -0.2170
    -0.0792  -0.0063   0.0174   0.1352   0.2046   0.4488   0.5339   0.6769
     0.7747   0.8791   0.8877   1.2046   1.2390   1.5426   1.7499   1.7886

          k =-0.1250 0.0000 0.0000 ( 39512 PWs)   bands (ev):

   -88.0634 -88.0278 -87.9678 -87.9366 -87.8618 -87.5132 -54.2378 -54.2265
   -54.1372 -54.0662 -54.0599 -54.0394 -54.0376 -53.9920 -53.9695 -53.9658
   -53.9506 -53.9454 -53.9278 -53.8485 -53.8206 -53.7641 -53.6639 -53.3322
   -19.8944 -19.6068 -19.3445 -18.9113 -18.6488 -18.4792 -18.4459 -18.3812
   -18.2507 -18.1796 -17.6940 -17.6433 -16.7484  -7.6009  -7.4303  -7.2817
    -6.7630  -6.4470  -6.2291  -6.0701  -6.0050  -5.8864  -5.7286  -5.5497
    -5.4857  -5.4681  -4.9051  -4.6439  -4.6000  -4.2695  -4.1777  -4.0986
    -4.0875  -4.0305  -3.9175  -3.8657  -3.7699  -3.7355  -3.4924  -3.2469
    -3.1606  -3.0826  -2.9814  -2.8044  -2.7520  -2.5673  -2.3650  -2.2138
    -2.1060  -1.6936  -1.5704  -1.2657  -1.1122  -1.0775  -1.0662  -1.0152
    -1.0138  -0.9377  -0.7728  -0.7566  -0.6539  -0.5245  -0.5055  -0.2935
    -0.0527   0.1620   0.2685   0.3093   0.3971   0.4733   0.5569   0.7260
     1.0759   1.2121   1.3837   1.5197   1.7514   1.7661   1.7986   1.8517

          k =-0.1250 0.1179 0.0000 ( 39558 PWs)   bands (ev):

   -88.0634 -88.0278 -87.9678 -87.9366 -87.8618 -87.5132 -54.2378 -54.2265
   -54.1372 -54.0663 -54.0600 -54.0394 -54.0376 -53.9920 -53.9689 -53.9658
   -53.9506 -53.9460 -53.9276 -53.8487 -53.8206 -53.7641 -53.6639 -53.3322
   -19.7935 -19.5099 -19.2933 -19.0780 -18.8671 -18.6482 -18.3632 -18.3045
   -18.1824 -18.1571 -17.6876 -17.6337 -16.7480  -7.3552  -7.1806  -7.0584
    -6.7698  -6.4605  -6.2666  -5.9859  -5.9263  -5.8411  -5.7571  -5.5571
    -5.5016  -5.2493  -4.9024  -4.6631  -4.5934  -4.5175  -4.4464  -4.3210
    -4.2840  -4.2253  -4.1577  -4.0839  -3.8697  -3.7173  -3.6578  -3.4392
    -3.3419  -3.1290  -2.9664  -2.7300  -2.7131  -2.5205  -2.3085  -2.2224
    -2.0528  -1.7855  -1.4408  -1.0620  -1.0068  -0.9611  -0.9325  -0.8788
    -0.8664  -0.8144  -0.7517  -0.6873  -0.6270  -0.5205  -0.4905  -0.2923
    -0.0799   0.1136   0.2093   0.2858   0.3489   0.4803   0.5473   0.8735
     1.2070   1.2397   1.3656   1.5055   1.6122   1.7218   1.7942   1.8017

          k =-0.1250-0.2357 0.0000 ( 39644 PWs)   bands (ev):

   -88.0634 -88.0278 -87.9678 -87.9366 -87.8618 -87.5132 -54.2378 -54.2265
   -54.1373 -54.0663 -54.0600 -54.0394 -54.0376 -53.9920 -53.9683 -53.9658
   -53.9506 -53.9467 -53.9275 -53.8490 -53.8206 -53.7641 -53.6640 -53.3322
   -19.5434 -19.5079 -19.3110 -19.1381 -18.9562 -18.9413 -18.3029 -18.2716
   -18.1477 -18.1315 -17.6818 -17.6242 -16.7476  -6.9975  -6.9372  -6.7753
    -6.6526  -6.5259  -6.3279  -5.8631  -5.8381  -5.8319  -5.7707  -5.5592
    -5.5027  -4.9688  -4.8885  -4.8745  -4.8253  -4.7040  -4.6945  -4.6203
    -4.5734  -4.4782  -4.4131  -4.0874  -3.8748  -3.8238  -3.7692  -3.5618
    -3.4563  -3.1383  -3.1084  -2.6133  -2.5357  -2.3370  -2.3229  -2.1032
    -2.0065  -1.9863  -1.3141  -1.0277  -1.0115  -0.9220  -0.8686  -0.8246
    -0.7932  -0.6345  -0.6335  -0.5381  -0.5252  -0.4776  -0.3029  -0.2642
    -0.1716  -0.0478   0.0658   0.1994   0.4482   0.4552   0.6550   0.9226
     1.2128   1.2240   1.2701   1.4911   1.5453   1.7977   1.8105   1.8649

          k =-0.1250-0.1179 0.0000 ( 39558 PWs)   bands (ev):

   -88.0634 -88.0278 -87.9678 -87.9366 -87.8618 -87.5132 -54.2378 -54.2265
   -54.1372 -54.0663 -54.0600 -54.0394 -54.0376 -53.9920 -53.9689 -53.9658
   -53.9506 -53.9460 -53.9276 -53.8487 -53.8206 -53.7641 -53.6639 -53.3322
   -19.7935 -19.5099 -19.2933 -19.0780 -18.8671 -18.6482 -18.3632 -18.3045
   -18.1824 -18.1571 -17.6876 -17.6337 -16.7480  -7.3552  -7.1806  -7.0584
    -6.7698  -6.4605  -6.2666  -5.9859  -5.9263  -5.8411  -5.7571  -5.5571
    -5.5016  -5.2493  -4.9024  -4.6631  -4.5934  -4.5175  -4.4464  -4.3210
    -4.2840  -4.2253  -4.1577  -4.0839  -3.8697  -3.7173  -3.6578  -3.4392
    -3.3419  -3.1290  -2.9664  -2.7300  -2.7131  -2.5205  -2.3084  -2.2224
    -2.0528  -1.7855  -1.4408  -1.0620  -1.0068  -0.9611  -0.9325  -0.8788
    -0.8664  -0.8144  -0.7516  -0.6873  -0.6270  -0.5205  -0.4905  -0.2923
    -0.0799   0.1136   0.2093   0.2858   0.3489   0.4803   0.5473   0.8735
     1.2070   1.2397   1.3656   1.5055   1.6122   1.7218   1.7942   1.8017

     the Fermi energy is    -1.0035 ev

!    total energy              =   -2516.69855194 Ry
     total all-electron energy =    -17229.487366 Ry
     estimated scf accuracy    <       0.00000037 Ry
     smearing contrib. (-TS)   =      -0.00272868 Ry
     internal energy E=F+TS    =   -2516.69582326 Ry

     The total energy is F=E-TS. E is the sum of the following terms:
     one-electron contribution =  -18075.28896196 Ry
     hartree contribution      =    9061.66621194 Ry
     xc contribution           =    -302.80499478 Ry
     ewald contribution        =    7380.55560358 Ry
     one-center paw contrib.   =    -580.82368203 Ry

     total magnetization       =    18.91 Bohr mag/cell
     absolute magnetization    =    19.24 Bohr mag/cell

     convergence has been achieved in  45 iterations

     negative rho (up, down):  1.040E-03 1.124E-03

     Forces acting on atoms (cartesian axes, Ry/au):

     atom    1 type  1   force =    -0.00001189   -0.00000028    0.05009399
     atom    2 type  1   force =    -0.00012229   -0.00000010   -0.06505548
     atom    3 type  1   force =    -0.00024779    0.00000438    0.00730100
     atom    4 type  1   force =     0.00018866   -0.00000698    0.02486689
     atom    5 type  1   force =    -0.00025255    0.00000853    0.09989730
     atom    6 type  1   force =    -0.00046957    0.00000125    0.03781196
     atom    7 type  2   force =     0.00054233   -0.00000133    0.00712097
     atom    8 type  2   force =     0.00003577   -0.00000008    0.08367916
     atom    9 type  2   force =     0.00001065    0.01709395   -0.02861749
     atom   10 type  2   force =     0.00001074   -0.01709421   -0.02861731
     atom   11 type  2   force =     0.00023658    0.00000030   -0.05612800
     atom   12 type  2   force =     0.00031171    0.00000062    0.04545941
     atom   13 type  2   force =    -0.00034726   -0.00514730   -0.00027142
     atom   14 type  2   force =    -0.00034795    0.00514835   -0.00027099
     atom   15 type  2   force =    -0.00061770    0.00000669   -0.05619784
     atom   16 type  2   force =    -0.00052988   -0.00000072   -0.02893195
     atom   17 type  2   force =     0.00043224   -0.02089796   -0.00320554
     atom   18 type  2   force =     0.00044907    0.02090371   -0.00320510
     atom   19 type  2   force =     0.00072913   -0.00001881   -0.08572957

     Total force =     0.165909     Total SCF correction =     0.001955

     Writing all to output data dir ./tmp_s0_O__u000/s0_O__u000.save/ :
     XML data file, charge density, pseudopotentials, collected wavefunctions

     init_run     :      6.15s CPU      6.30s WALL (       1 calls)
     electrons    :    361.72s CPU    366.33s WALL (       1 calls)
     forces       :      1.22s CPU      1.24s WALL (       1 calls)

     Called by init_run:
     wfcinit      :      2.84s CPU      2.91s WALL (       1 calls)
     potinit      :      0.86s CPU      0.89s WALL (       1 calls)
     hinit0       :      0.39s CPU      0.40s WALL (       1 calls)

     Called by electrons:
     c_bands      :    289.03s CPU    292.44s WALL (      45 calls)
     sum_band     :     50.65s CPU     51.48s WALL (      45 calls)
     v_of_rho     :      5.51s CPU      5.61s WALL (      46 calls)
     newd         :      3.20s CPU      3.23s WALL (      46 calls)
     PAW_pot      :      7.70s CPU      7.75s WALL (      46 calls)
     mix_rho      :      5.06s CPU      5.15s WALL (      45 calls)

     Called by c_bands:
     init_us_2    :      6.43s CPU      6.53s WALL (    1472 calls)
     cegterg      :    244.92s CPU    247.82s WALL (     720 calls)

     Called by *egterg:
     cdiaghg      :     25.74s CPU     25.89s WALL (    2260 calls)
     h_psi        :    162.10s CPU    164.46s WALL (    2276 calls)
     s_psi        :     10.85s CPU     10.93s WALL (    2276 calls)
     g_psi        :      0.77s CPU      0.78s WALL (    1540 calls)

     Called by h_psi:
     h_psi:calbec :     15.25s CPU     15.38s WALL (    2276 calls)
     vloc_psi     :    134.27s CPU    136.39s WALL (    2276 calls)
                                        0.00s GPU  (    2276 calls)
     add_vuspsi   :     10.75s CPU     10.84s WALL (    2276 calls)

     General routines
     calbec       :     22.60s CPU     22.78s WALL (    3060 calls)
     fft          :      3.66s CPU      3.72s WALL (    1163 calls)
     ffts         :      3.37s CPU      3.42s WALL (    5594 calls)
     fftw         :    154.77s CPU    157.18s WALL (  387916 calls)
     interpolate  :      0.76s CPU      0.77s WALL (      92 calls)

     Parallel routines

     PWSCF        :   6m10.19s CPU   6m44.70s WALL


   This run was terminated on:  20:23:33  28Aug2026            

=------------------------------------------------------------------------------=
   JOB DONE.
=------------------------------------------------------------------------------=
Note: The following floating-point exceptions are signalling: IEEE_DENORMAL
Note: The following floating-point exceptions are signalling: IEEE_DENORMAL
Note: The following floating-point exceptions are signalling: IEEE_DENORMAL
Note: The following floating-point exceptions are signalling: IEEE_DENORMAL
Note: The following floating-point exceptions are signalling: IEEE_DENORMAL
Note: The following floating-point exceptions are signalling: IEEE_DENORMAL
Note: The following floating-point exceptions are signalling: IEEE_DENORMAL
Note: The following floating-point exceptions are signalling: IEEE_DENORMAL
Note: The following floating-point exceptions are signalling: IEEE_DENORMAL
Note: The following floating-point exceptions are signalling: IEEE_DENORMAL
Note: The following floating-point exceptions are signalling: IEEE_DENORMAL
Note: The following floating-point exceptions are signalling: IEEE_DENORMAL
Note: The following floating-point exceptions are signalling: IEEE_DENORMAL
Note: The following floating-point exceptions are signalling: IEEE_DENORMAL
Note: The following floating-point exceptions are signalling: IEEE_DENORMAL
Note: The following floating-point exceptions are signalling: IEEE_DENORMAL
Note: The following floating-point exceptions are signalling: IEEE_DENORMAL
Note: The following floating-point exceptions are signalling: IEEE_DENORMAL
Note: The following floating-point exceptions are signalling: IEEE_DENORMAL
Note: The following floating-point exceptions are signalling: IEEE_DENORMAL
Note: The following floating-point exceptions are signalling: IEEE_DENORMAL
Note: The following floating-point exceptions are signalling: IEEE_DENORMAL
Note: The following floating-point exceptions are signalling: IEEE_DENORMAL
Note: The following floating-point exceptions are signalling: IEEE_DENORMAL
Note: The following floating-point exceptions are signalling: IEEE_DENORMAL
Note: The following floating-point exceptions are signalling: IEEE_DENORMAL
Note: The following floating-point exceptions are signalling: IEEE_DENORMAL
Note: The following floating-point exceptions are signalling: IEEE_DENORMAL
Note: The following floating-point exceptions are signalling: IEEE_DENORMAL
Note: The following floating-point exceptions are signalling: IEEE_DENORMAL
Note: The following floating-point exceptions are signalling: IEEE_DENORMAL
