
     Program PWSCF v.7.5 starts on  7Aug2026 at 18: 4:41 

     This program is part of the open-source Quantum ESPRESSO suite
     for quantum simulation of materials; please cite
         "P. Giannozzi et al., J. Phys.:Condens. Matter 21 395502 (2009);
         "P. Giannozzi et al., J. Phys.:Condens. Matter 29 465901 (2017);
         "P. Giannozzi et al., J. Chem. Phys. 152 154105 (2020);
          URL http://www.quantum-espresso.org", 
     in publications or presentations arising from this work. More details at
     http://www.quantum-espresso.org/quote

     Parallel version (MPI & OpenMP), running on       4 processor cores
     Number of MPI processes:                 4
     Threads/MPI process:                     1

     MPI processes distributed on     1 nodes
     45993 MiB available memory on the printing compute node when the environment starts

     Reading input from s0_OH__base.run.in

     Current dimensions of program PWSCF are:
     Max number of different atomic species (ntypx) = 10
     Max number of k-points (npk) =  40000
     Max angular momentum in pseudopotentials (lmaxx) =  4
     file O.pbe-n-kjpaw_psl.0.1.UPF: wavefunction(s)  2P renormalized
     Message from routine setup:
     using ibrav=0 with symmetry is DISCOURAGED, use correct ibrav instead

     K-points division:     npool     =       4
     Subspace diagonalization in iterative solution of the eigenvalue problem:
     a serial algorithm will be used


     G-vector sticks info
     --------------------
     sticks:   dense  smooth     PW     G-vecs:    dense   smooth      PW
     Sum        3639    1825    519               941385   332621   50331

     Using Slab Decomposition



     bravais-lattice index     =            0
     lattice parameter (alat)  =       5.9602  a.u.
     unit-cell volume          =    3444.9838 (a.u.)^3
     number of atoms/cell      =           20
     number of atomic types    =            3
     number of electrons       =       169.00
     number of Kohn-Sham states=          102
     kinetic-energy cutoff     =      80.0000  Ry
     charge density cutoff     =     640.0000  Ry
     scf convergence threshold =      1.0E-06
     mixing beta               =       0.3000
     number of iterations used =            8  local-TF  mixing
     Exchange-correlation= SLA  PW   PBX  PBC
                           (   1   4   3   4   0   0   0)

     celldm(1)=   5.960196  celldm(2)=   0.000000  celldm(3)=   0.000000
     celldm(4)=   0.000000  celldm(5)=   0.000000  celldm(6)=   0.000000

     crystal axes: (cart. coord. in units of alat)
               a(1) = (   1.000000   0.000000   0.000000 )  
               a(2) = (   0.000000   2.016846   0.000000 )  
               a(3) = (   0.000000   0.000000   8.067384 )  

     reciprocal axes: (cart. coord. in units 2 pi/alat)
               b(1) = (  1.000000  0.000000  0.000000 )  
               b(2) = (  0.000000  0.495824  0.000000 )  
               b(3) = (  0.000000  0.000000  0.123956 )  


     PseudoPot. # 1 for H  read from file:
     /usr/share/espresso/pseudo/H.pbe-rrkjus_psl.1.0.0.UPF
     MD5 check sum: f52b6d4d1c606e5624b1dc7b2218f220
     Pseudo is Ultrasoft, Zval =  1.0
     Generated using "atomic" code by A. Dal Corso  v.5.1
     Using radial grid of  929 points,  2 beta functions with: 
                l(1) =   0
                l(2) =   0
     Q(r) pseudized with 0 coefficients 


     PseudoPot. # 2 for Ir read from file:
     /usr/share/espresso/pseudo/Ir_pbe_v1.2.uspp.F.UPF
     MD5 check sum: 8836f839c3459d2b385c504ce6d91f2c
     Pseudo is Ultrasoft + core correction, Zval = 15.0
     Generated by new atomic code, or converted to UPF format
     Using radial grid of  983 points,  7 beta functions with: 
                l(1) =   0
                l(2) =   0
                l(3) =   1
                l(4) =   1
                l(5) =   1
                l(6) =   2
                l(7) =   2
     Q(r) pseudized with  8 coefficients,  rinner =    1.400   1.400   1.400
                                                       1.400   1.400

     PseudoPot. # 3 for O  read from file:
     /usr/share/espresso/pseudo/O.pbe-n-kjpaw_psl.0.1.UPF
     MD5 check sum: 0234752ac141de4415c5fc33072bef88
     Pseudo is Projector augmented-wave + core cor, Zval =  6.0
     Generated using "atomic" code by A. Dal Corso  v.5.0.99 svn rev. 10869
     Shape of augmentation charge: BESSEL
     Using radial grid of 1095 points,  4 beta functions with: 
                l(1) =   0
                l(2) =   0
                l(3) =   1
                l(4) =   1
     Q(r) pseudized with 0 coefficients 


     atomic species   valence    mass     pseudopotential
     H                 1.00     1.00800     H ( 1.00)
     Ir               15.00   192.21700     Ir( 1.00)
     O                 6.00    15.99900     O ( 1.00)

      2 Sym. Ops. (no inversion) found ( 1 have fractional translation)



   Cartesian axes

     site n.     atom                  positions (alat units)
         1        Ir     tau(   1) = (   0.0000000   1.5126346   3.0252692  )
         2        Ir     tau(   2) = (   0.5000000   0.5042115   3.0252692  )
         3        Ir     tau(   3) = (  -0.0008242   0.5042115   4.0440689  )
         4        Ir     tau(   4) = (   0.4992639   1.5126346   4.0342031  )
         5        Ir     tau(   5) = (  -0.0026497   1.5126346   5.0620142  )
         6        Ir     tau(   6) = (   0.4951993   0.5042115   5.0709699  )
         7        O      tau(   7) = (   0.0000000   0.5042115   3.4185541  )
         8        O      tau(   8) = (   0.0000000   0.5042115   2.6319842  )
         9        O      tau(   9) = (   0.5000000   1.1193496   3.0252692  )
        10        O      tau(  10) = (   0.5000000   1.9059196   3.0252692  )
        11        O      tau(  11) = (  -0.0015798   1.5126346   4.4293404  )
        12        O      tau(  12) = (   0.0000000   1.5126346   3.6404072  )
        13        O      tau(  13) = (   0.4992996   0.1182431   4.0371691  )
        14        O      tau(  14) = (   0.4992996   0.8901799   4.0371691  )
        15        O      tau(  15) = (  -0.0050805   0.5042115   5.4448748  )
        16        O      tau(  16) = (  -0.0040464   0.5042115   4.6729430  )
        17        O      tau(  17) = (   0.4959964   1.1251299   5.0554257  )
        18        O      tau(  18) = (   0.4959964   1.9001393   5.0554257  )
        19        O      tau(  19) = (  -0.0349756   1.5126346   5.6753284  )
        20        H      tau(  20) = (   0.2502274   1.5126346   5.7991802  )

     number of k points=    15  Marzari-Vanderbilt smearing, width (Ry)=  0.0100
                       cart. coord. in units 2pi/alat
        k(    1) = (   0.0000000   0.0000000   0.0000000), wk =   0.0625000
        k(    2) = (   0.0000000   0.1239559   0.0000000), wk =   0.1250000
        k(    3) = (   0.0000000  -0.2479118   0.0000000), wk =   0.0625000
        k(    4) = (   0.1250000   0.0000000   0.0000000), wk =   0.1250000
        k(    5) = (   0.1250000   0.1239559   0.0000000), wk =   0.2500000
        k(    6) = (   0.1250000  -0.2479118   0.0000000), wk =   0.1250000
        k(    7) = (   0.2500000   0.0000000   0.0000000), wk =   0.1250000
        k(    8) = (   0.2500000   0.1239559   0.0000000), wk =   0.2500000
        k(    9) = (   0.2500000  -0.2479118   0.0000000), wk =   0.1250000
        k(   10) = (   0.3750000   0.0000000   0.0000000), wk =   0.1250000
        k(   11) = (   0.3750000   0.1239559   0.0000000), wk =   0.2500000
        k(   12) = (   0.3750000  -0.2479118   0.0000000), wk =   0.1250000
        k(   13) = (  -0.5000000   0.0000000   0.0000000), wk =   0.0625000
        k(   14) = (  -0.5000000   0.1239559   0.0000000), wk =   0.1250000
        k(   15) = (  -0.5000000  -0.2479118   0.0000000), wk =   0.0625000

     Dense  grid:   941385 G-vectors     FFT dimensions: (  48, 100, 400)

     Smooth grid:   332621 G-vectors     FFT dimensions: (  36,  72, 288)

     Estimated max dynamical RAM per process >       2.03 GB

     Estimated total dynamical RAM >       7.45 GB

     Initial potential from superposition of free atoms

     starting charge     165.9998, renormalised to     169.0000

     negative rho (up, down):  2.223E+00 0.000E+00
     Starting wfcs are  125 randomized atomic wfcs
     Checking if some PAW data can be deallocated... 

     total cpu time spent up to now is       26.1 secs

     per-process dynamical memory:   889.2 Mb

     Self-consistent Calculation

     iteration #  1     ecut=    80.00 Ry     beta= 0.30
     Davidson diagonalization with overlap
     ethr =  1.00E-02,  avg # of iterations =  3.5

     negative rho (up, down):  2.052E+00 0.000E+00

     total cpu time spent up to now is       78.6 secs

     total energy              =   -1632.94522626 Ry
     estimated scf accuracy    <      52.36277854 Ry

     iteration #  2     ecut=    80.00 Ry     beta= 0.30
     Davidson diagonalization with overlap
     ethr =  1.00E-02,  avg # of iterations =  1.0

     negative rho (up, down):  1.956E+00 0.000E+00

     total cpu time spent up to now is      123.0 secs

     total energy              =   -1632.92909960 Ry
     estimated scf accuracy    <       6.12884830 Ry

     iteration #  3     ecut=    80.00 Ry     beta= 0.30
     Davidson diagonalization with overlap
     ethr =  3.63E-03,  avg # of iterations =  1.2

     negative rho (up, down):  1.848E+00 0.000E+00

     total cpu time spent up to now is      168.2 secs

     total energy              =   -1632.35778861 Ry
     estimated scf accuracy    <       2.22090147 Ry

     iteration #  4     ecut=    80.00 Ry     beta= 0.30
     Davidson diagonalization with overlap
     ethr =  1.31E-03,  avg # of iterations =  5.1

     negative rho (up, down):  1.873E+00 0.000E+00

     total cpu time spent up to now is      222.3 secs

     total energy              =   -1632.68385046 Ry
     estimated scf accuracy    <       0.89580194 Ry

     iteration #  5     ecut=    80.00 Ry     beta= 0.30
     Davidson diagonalization with overlap
     ethr =  5.30E-04,  avg # of iterations =  2.5

     negative rho (up, down):  1.899E+00 0.000E+00

     total cpu time spent up to now is      269.8 secs

     total energy              =   -1632.65043144 Ry
     estimated scf accuracy    <       0.22617436 Ry

     iteration #  6     ecut=    80.00 Ry     beta= 0.30
     Davidson diagonalization with overlap
     ethr =  1.34E-04,  avg # of iterations =  5.5

     negative rho (up, down):  1.914E+00 0.000E+00

     total cpu time spent up to now is      321.6 secs

     total energy              =   -1632.64770333 Ry
     estimated scf accuracy    <       0.06982065 Ry

     iteration #  7     ecut=    80.00 Ry     beta= 0.30
     Davidson diagonalization with overlap
     ethr =  4.13E-05,  avg # of iterations =  4.3

     negative rho (up, down):  1.933E+00 0.000E+00

     total cpu time spent up to now is      373.2 secs

     total energy              =   -1632.65153272 Ry
     estimated scf accuracy    <       0.05493729 Ry

     iteration #  8     ecut=    80.00 Ry     beta= 0.30
     Davidson diagonalization with overlap
     ethr =  3.25E-05,  avg # of iterations =  2.2

     negative rho (up, down):  1.945E+00 0.000E+00

     total cpu time spent up to now is      420.1 secs

     total energy              =   -1632.65110963 Ry
     estimated scf accuracy    <       0.02090853 Ry

     iteration #  9     ecut=    80.00 Ry     beta= 0.30
     Davidson diagonalization with overlap
     ethr =  1.24E-05,  avg # of iterations =  5.1

     negative rho (up, down):  1.949E+00 0.000E+00

     total cpu time spent up to now is      469.7 secs

     total energy              =   -1632.65029100 Ry
     estimated scf accuracy    <       0.01180290 Ry

     iteration # 10     ecut=    80.00 Ry     beta= 0.30
     Davidson diagonalization with overlap
     ethr =  6.98E-06,  avg # of iterations =  5.9

     negative rho (up, down):  1.949E+00 0.000E+00

     total cpu time spent up to now is      520.8 secs

     total energy              =   -1632.64975019 Ry
     estimated scf accuracy    <       0.00446654 Ry

     iteration # 11     ecut=    80.00 Ry     beta= 0.30
     Davidson diagonalization with overlap
     ethr =  2.64E-06,  avg # of iterations =  6.6

     negative rho (up, down):  1.931E+00 0.000E+00

     total cpu time spent up to now is      571.6 secs

     total energy              =   -1632.64934360 Ry
     estimated scf accuracy    <       0.00160639 Ry

     iteration # 12     ecut=    80.00 Ry     beta= 0.30
     Davidson diagonalization with overlap
     ethr =  9.51E-07,  avg # of iterations =  8.5

     negative rho (up, down):  1.922E+00 0.000E+00

     total cpu time spent up to now is      624.2 secs

     total energy              =   -1632.64906035 Ry
     estimated scf accuracy    <       0.00098172 Ry

     iteration # 13     ecut=    80.00 Ry     beta= 0.30
     Davidson diagonalization with overlap
     ethr =  5.81E-07,  avg # of iterations = 10.3

     negative rho (up, down):  1.919E+00 0.000E+00

     total cpu time spent up to now is      679.4 secs

     total energy              =   -1632.64895205 Ry
     estimated scf accuracy    <       0.00050405 Ry

     iteration # 14     ecut=    80.00 Ry     beta= 0.30
     Davidson diagonalization with overlap
     ethr =  2.98E-07,  avg # of iterations =  9.7

     negative rho (up, down):  1.916E+00 0.000E+00

     total cpu time spent up to now is      734.0 secs

     total energy              =   -1632.64879808 Ry
     estimated scf accuracy    <       0.00035120 Ry

     iteration # 15     ecut=    80.00 Ry     beta= 0.30
     Davidson diagonalization with overlap
     ethr =  2.08E-07,  avg # of iterations = 11.0

     negative rho (up, down):  1.915E+00 0.000E+00

     total cpu time spent up to now is      788.0 secs

     total energy              =   -1632.64867871 Ry
     estimated scf accuracy    <       0.00016004 Ry

     iteration # 16     ecut=    80.00 Ry     beta= 0.30
     Davidson diagonalization with overlap
     ethr =  9.47E-08,  avg # of iterations = 10.5

     negative rho (up, down):  1.913E+00 0.000E+00

     total cpu time spent up to now is      841.0 secs

     total energy              =   -1632.64863397 Ry
     estimated scf accuracy    <       0.00007130 Ry

     iteration # 17     ecut=    80.00 Ry     beta= 0.30
     Davidson diagonalization with overlap
     c_bands:  1 eigenvalues not converged
     ethr =  4.22E-08,  avg # of iterations =  9.0

     negative rho (up, down):  1.909E+00 0.000E+00

     total cpu time spent up to now is      893.4 secs

     total energy              =   -1632.64856754 Ry
     estimated scf accuracy    <       0.00004766 Ry

     iteration # 18     ecut=    80.00 Ry     beta= 0.30
     Davidson diagonalization with overlap
     ethr =  2.82E-08,  avg # of iterations =  9.7

     negative rho (up, down):  1.909E+00 0.000E+00

     total cpu time spent up to now is      949.8 secs

     total energy              =   -1632.64856414 Ry
     estimated scf accuracy    <       0.00000702 Ry

     iteration # 19     ecut=    80.00 Ry     beta= 0.30
     Davidson diagonalization with overlap
     ethr =  4.15E-09,  avg # of iterations =  2.9

     negative rho (up, down):  1.908E+00 0.000E+00

     total cpu time spent up to now is      998.2 secs

     total energy              =   -1632.64856187 Ry
     estimated scf accuracy    <       0.00000258 Ry

     iteration # 20     ecut=    80.00 Ry     beta= 0.30
     Davidson diagonalization with overlap
     c_bands:  1 eigenvalues not converged
     ethr =  1.53E-09,  avg # of iterations =  6.5

     negative rho (up, down):  1.908E+00 0.000E+00

     total cpu time spent up to now is     1046.8 secs

     End of self-consistent calculation

          k = 0.0000 0.0000 0.0000 ( 41611 PWs)   bands (ev):

   -48.9027 -48.8031 -48.7915 -48.7425 -48.7000 -48.6931 -48.6293 -48.6204
   -48.6184 -48.5815 -48.5355 -48.4738 -48.4255 -48.4068 -48.4052 -48.3205
   -48.2935 -48.1066 -19.4163 -19.0822 -18.9519 -18.6460 -18.0542 -17.8675
   -17.7299 -17.4508 -17.3852 -17.3819 -17.3384 -16.2347 -15.9834  -8.1305
    -8.0785  -8.0659  -7.5705  -6.7828  -6.4603  -6.3763  -6.3239  -6.2050
    -5.9284  -5.7200  -5.6969  -5.5279  -5.2782  -5.1631  -4.1421  -4.0643
    -3.5488  -3.5017  -3.3734  -3.0834  -3.0714  -2.9207  -2.8046  -2.7157
    -2.6374  -2.6339  -2.4323  -2.3202  -2.1897  -2.1395  -1.8024  -1.7004
    -1.4926  -1.3595  -1.1040  -1.0402  -0.8867  -0.8158  -0.8083  -0.7654
    -0.7364  -0.6757  -0.6320  -0.4886  -0.3623  -0.3122   0.1366   0.2469
     0.3372   0.7504   0.8930   1.1480   1.7019   1.8890   1.9790   2.4158
     2.7474   3.2256   3.8793   4.3278   5.1593   5.1834   5.7985   5.8130
     5.8256   5.8781   6.1141   6.1752   6.5584   6.9051

          k = 0.0000 0.1240 0.0000 ( 41688 PWs)   bands (ev):

   -48.9020 -48.8027 -48.7907 -48.7425 -48.7000 -48.6930 -48.6294 -48.6204
   -48.6182 -48.5817 -48.5362 -48.4748 -48.4254 -48.4068 -48.4052 -48.3206
   -48.2935 -48.1070 -19.2902 -18.9360 -18.8239 -18.6744 -18.0997 -17.9797
   -17.7256 -17.5856 -17.5510 -17.4803 -17.3739 -16.2324 -15.9801  -7.6335
    -7.5815  -7.5462  -7.5073  -6.7819  -6.3797  -6.3234  -6.2982  -6.1149
    -5.8303  -5.7182  -5.5927  -5.5268  -5.2893  -4.9753  -4.3795  -4.1799
    -4.1097  -3.9566  -3.8874  -3.6764  -3.6173  -3.3627  -3.2413  -3.2158
    -3.0008  -2.7961  -2.3973  -2.3332  -2.2236  -2.1353  -1.9998  -1.7149
    -1.6369  -1.2542  -1.1876  -0.9576  -0.8949  -0.5342  -0.3903  -0.3672
    -0.2626  -0.2465  -0.2032  -0.1434  -0.1309  -0.0138   0.1568   0.3456
     0.3536   0.7486   0.8828   1.2076   1.6441   1.7584   1.9948   2.1758
     2.5513   3.7423   4.4611   4.7536   5.1619   5.3001   5.5103   5.5165
     5.5412   5.8845   6.1763   6.1837   6.7041   6.8123

          k = 0.0000-0.2479 0.0000 ( 41774 PWs)   bands (ev):

   -48.9013 -48.8024 -48.7898 -48.7425 -48.6999 -48.6929 -48.6295 -48.6204
   -48.6180 -48.5819 -48.5370 -48.4757 -48.4253 -48.4068 -48.4052 -48.3207
   -48.2936 -48.1075 -19.0793 -18.8672 -18.6961 -18.4817 -18.2521 -18.2338
   -17.7873 -17.6930 -17.6880 -17.5751 -17.3736 -16.2310 -15.9775  -7.5798
    -6.7960  -6.7683  -6.7014  -6.5941  -6.3225  -6.2872  -6.2129  -6.0120
    -5.7940  -5.7150  -5.5245  -5.2976  -5.2382  -5.1556  -5.1246  -5.0709
    -4.9664  -4.5317  -4.2943  -4.0037  -3.7002  -3.6470  -3.5917  -3.4529
    -3.3825  -3.1195  -2.3989  -2.3749  -2.0203  -1.9811  -1.8962  -1.6801
    -1.6583  -1.3897  -1.0359  -1.0129  -0.8550  -0.4883  -0.4122  -0.3326
    -0.0021   0.0350   0.1011   0.1600   0.2630   0.3131   0.4414   0.5386
     0.7027   0.8135   0.9812   0.9880   1.4563   1.6324   1.9556   2.0029
     2.4047   4.3075   4.5632   5.1638   5.1821   5.2045   5.2343   5.4889
     5.6719   5.8852   6.0296   6.1795   6.5934   7.4222

          k = 0.1250 0.0000 0.0000 ( 41611 PWs)   bands (ev):

   -48.9015 -48.8020 -48.7902 -48.7416 -48.7090 -48.6989 -48.6460 -48.6350
   -48.6178 -48.5978 -48.5333 -48.4716 -48.4411 -48.4045 -48.4042 -48.3370
   -48.2913 -48.1042 -19.2754 -18.9575 -18.8320 -18.5437 -17.9863 -17.7881
   -17.7728 -17.5309 -17.4650 -17.4233 -17.3623 -16.2877 -16.0259  -7.9452
    -7.8973  -7.8877  -7.3877  -6.7482  -6.4365  -6.3684  -6.3186  -6.1688
    -5.8190  -5.7169  -5.2918  -5.2293  -5.1996  -4.9709  -4.3448  -4.0151
    -3.9236  -3.5519  -3.4712  -3.4057  -3.3818  -3.3164  -3.2422  -2.9958
    -2.8400  -2.6353  -2.5279  -2.4277  -2.3918  -2.1955  -2.1889  -2.0373
    -1.9636  -1.5772  -1.5446  -1.0314  -0.9284  -0.6593  -0.5997  -0.4827
    -0.3875  -0.3494  -0.3172  -0.3016   0.0244   0.1174   0.2561   0.4199
     0.5516   1.0815   1.0931   1.2955   1.5634   1.8160   2.0405   2.2630
     2.5860   3.4513   4.1025   4.5110   4.7468   5.1896   5.4200   5.4282
     5.4490   5.4876   5.7023   6.2628   6.8357   6.9416

          k = 0.1250 0.1240 0.0000 ( 41692 PWs)   bands (ev):

   -48.9009 -48.8017 -48.7897 -48.7416 -48.7090 -48.6989 -48.6459 -48.6347
   -48.6178 -48.5980 -48.5338 -48.4724 -48.4411 -48.4045 -48.4042 -48.3370
   -48.2913 -48.1046 -19.1551 -18.8169 -18.7042 -18.5716 -18.0287 -17.9133
   -17.7704 -17.6518 -17.6160 -17.5362 -17.3567 -16.2861 -16.0231  -7.4634
    -7.4130  -7.3925  -7.3556  -6.7488  -6.3717  -6.3412  -6.2264  -6.0730
    -5.9015  -5.4708  -5.2748  -5.2322  -5.2169  -4.8707  -4.3160  -4.2492
    -4.1726  -4.0513  -3.9399  -3.8551  -3.8008  -3.6962  -3.6235  -3.5177
    -3.2590  -3.0840  -2.7614  -2.5461  -2.2652  -2.1626  -2.0711  -1.9953
    -1.6905  -1.4669  -1.1989  -1.0755  -0.9214  -0.5206  -0.4368  -0.2731
    -0.2128  -0.0670   0.0029   0.1374   0.1931   0.2137   0.3694   0.5061
     0.6327   1.0548   1.1628   1.2779   1.5565   1.6334   1.9664   2.1471
     2.4420   3.8755   4.5406   4.7180   4.7462   4.9850   5.0929   5.2376
     5.3838   5.5652   5.7067   6.2941   6.7464   7.2064

          k = 0.1250-0.2479 0.0000 ( 41706 PWs)   bands (ev):

   -48.9004 -48.8014 -48.7891 -48.7416 -48.7089 -48.6989 -48.6459 -48.6345
   -48.6178 -48.5983 -48.5344 -48.4732 -48.4411 -48.4045 -48.4042 -48.3370
   -48.2913 -48.1050 -18.9557 -18.7380 -18.5756 -18.3687 -18.1949 -18.1848
   -17.8598 -17.7376 -17.7344 -17.5931 -17.3549 -16.2851 -16.0209  -7.3942
    -6.7498  -6.5565  -6.4755  -6.4029  -6.3764  -6.3413  -6.3232  -6.2208
    -5.9193  -5.3126  -5.2639  -5.2318  -4.9725  -4.9414  -4.8198  -4.7962
    -4.6629  -4.6591  -4.6063  -4.3894  -4.3031  -3.9153  -3.8669  -3.6289
    -3.4739  -3.3787  -2.8499  -2.5767  -2.1239  -2.1082  -1.8164  -1.7565
    -1.6249  -1.3714  -1.1363  -0.9788  -0.9563  -0.4644  -0.4028  -0.1369
    -0.1102  -0.0651   0.0119   0.2016   0.4957   0.6206   0.7169   0.8561
     0.8724   1.0800   1.0851   1.3284   1.3866   1.5704   1.8486   1.9129
     2.4192   4.4040   4.4285   4.6023   4.6354   4.6773   4.9675   5.3996
     5.6191   5.7322   5.7323   6.0954   6.7765   7.7436

          k = 0.2500 0.0000 0.0000 ( 41623 PWs)   bands (ev):

   -48.8985 -48.7993 -48.7871 -48.7501 -48.7369 -48.6968 -48.6858 -48.6740
   -48.6366 -48.6121 -48.5279 -48.4788 -48.4663 -48.4019 -48.3988 -48.3764
   -48.2858 -48.0985 -18.9086 -18.6460 -18.5322 -18.3127 -17.9250 -17.8521
   -17.7196 -17.6508 -17.6209 -17.5868 -17.2991 -16.3672 -16.0777  -7.4595
    -7.4138  -7.4106  -6.9108  -6.5577  -6.3642  -6.3393  -6.1401  -5.9520
    -5.7641  -5.5717  -5.2011  -5.1966  -4.8956  -4.6848  -4.5581  -4.4966
    -4.4870  -4.4463  -3.9845  -3.7632  -3.6957  -3.3946  -3.2989  -3.1724
    -3.1218  -3.0208  -2.9413  -2.8764  -2.7765  -2.5494  -2.2578  -2.0233
    -1.8530  -1.5612  -1.4827  -1.2389  -1.1195  -0.8197  -0.4228  -0.2146
    -0.1749  -0.1209   0.0212   0.0574   0.4522   0.6864   0.7645   0.8460
     1.0712   1.1563   1.1967   1.4172   1.4316   1.6346   1.9064   2.1485
     2.1889   3.8242   4.1371   4.3717   4.6134   4.6932   4.7004   4.7671
     4.9140   4.9756   5.5656   6.0198   7.1481   7.9202

          k = 0.2500 0.1240 0.0000 ( 41653 PWs)   bands (ev):

   -48.8984 -48.7993 -48.7874 -48.7501 -48.7368 -48.6968 -48.6852 -48.6736
   -48.6369 -48.6121 -48.5281 -48.4788 -48.4667 -48.4019 -48.3988 -48.3763
   -48.2858 -48.0987 -18.8117 -18.5338 -18.4183 -18.3386 -17.9824 -17.8940
   -17.7921 -17.7837 -17.7475 -17.5582 -17.2955 -16.3675 -16.0769  -7.0761
    -7.0364  -7.0317  -6.9085  -6.5570  -6.3637  -6.1841  -5.9872  -5.8428
    -5.8154  -5.6333  -5.3263  -5.0831  -5.0309  -5.0082  -4.8806  -4.7773
    -4.6338  -4.1967  -4.0596  -3.8543  -3.6692  -3.5574  -3.4977  -3.4399
    -3.4208  -3.2945  -3.1665  -2.8942  -2.6274  -2.3548  -2.3010  -2.0380
    -1.8336  -1.6960  -1.3444  -1.1742  -1.0454  -0.9813  -0.4734  -0.1066
    -0.0050   0.1615   0.2484   0.3038   0.4574   0.5016   0.8650   0.9049
     1.1044   1.1567   1.2494   1.4249   1.4691   1.5793   1.7749   1.9614
     2.3499   3.9160   4.0458   4.0839   4.1536   4.1943   4.8192   4.9358
     5.1887   5.3824   5.7337   6.1356   7.2084   8.1392

          k = 0.2500-0.2479 0.0000 ( 41680 PWs)   bands (ev):

   -48.8984 -48.7992 -48.7877 -48.7501 -48.7368 -48.6967 -48.6845 -48.6732
   -48.6372 -48.6121 -48.5283 -48.4788 -48.4671 -48.4019 -48.3989 -48.3761
   -48.2858 -48.0989 -18.6554 -18.4296 -18.2964 -18.1862 -18.1132 -18.1072
   -18.0076 -17.8387 -17.7745 -17.5540 -17.2928 -16.3680 -16.0762  -6.9119
    -6.5631  -6.4236  -6.3862  -6.3720  -6.3673  -5.9271  -5.8847  -5.8497
    -5.7796  -5.7662  -5.6496  -5.6212  -5.5288  -5.1651  -4.9225  -4.6516
    -4.4110  -4.3721  -4.2030  -4.1160  -4.0758  -3.8505  -3.7506  -3.7366
    -3.5658  -3.4485  -3.3815  -2.9308  -2.3203  -2.2011  -1.9245  -1.9134
    -1.7772  -1.7456  -1.4721  -1.2645  -1.0397  -0.7434  -0.3461  -0.3362
    -0.0652   0.1173   0.1580   0.6050   0.6184   0.6595   0.9655   1.0515
     1.1623   1.1721   1.2969   1.4865   1.5111   1.6208   1.7382   1.7500
     2.4343   3.5897   3.6256   3.7035   4.0696   4.1944   4.9384   5.1556
     5.2310   5.7995   5.8980   6.1610   7.3144   8.5512

          k = 0.3750 0.0000 0.0000 ( 41645 PWs)   bands (ev):

   -48.8955 -48.7966 -48.7872 -48.7840 -48.7369 -48.7259 -48.7116 -48.6955
   -48.6739 -48.6064 -48.5226 -48.5162 -48.4610 -48.4156 -48.3995 -48.3932
   -48.2803 -48.0929 -18.4794 -18.3259 -18.2156 -18.1794 -17.9539 -17.9022
   -17.8288 -17.8207 -17.8084 -17.4766 -17.2263 -16.3430 -16.0432  -6.8917
    -6.8715  -6.8246  -6.5128  -6.3372  -6.2814  -6.1862  -6.1739  -5.9802
    -5.8643  -5.6275  -5.6075  -5.4872  -5.4019  -5.2347  -4.8486  -4.5346
    -4.4607  -4.3365  -3.9918  -3.8602  -3.7850  -3.6365  -3.5260  -3.2106
    -3.1669  -3.0256  -2.8683  -2.7088  -2.5652  -2.5087  -2.4737  -1.8654
    -1.7587  -1.5850  -1.3991  -1.2913  -1.2365  -0.8500  -0.2933  -0.2460
    -0.1209  -0.0864   0.1402   0.1568   0.5795   0.6821   0.7190   0.7795
     0.9493   1.0866   1.1254   1.4221   1.4851   1.6929   1.9680   2.0232
     2.1604   3.5504   3.7362   4.1359   4.1554   4.2601   4.4845   4.5300
     4.8616   5.0830   5.5779   5.6999   7.9348   9.1214

          k = 0.3750 0.1240 0.0000 ( 41549 PWs)   bands (ev):

   -48.8961 -48.7968 -48.7873 -48.7859 -48.7369 -48.7239 -48.7109 -48.6955
   -48.6741 -48.6064 -48.5225 -48.5163 -48.4610 -48.4152 -48.3995 -48.3932
   -48.2803 -48.0928 -18.4499 -18.3050 -18.2486 -18.2013 -18.0024 -17.9450
   -17.8150 -17.7970 -17.7658 -17.4789 -17.2243 -16.3447 -16.0433  -6.7783
    -6.7324  -6.6969  -6.5294  -6.3699  -6.3121  -6.2425  -6.1720  -6.1064
    -6.0295  -5.9454  -5.4666  -5.2657  -5.2108  -5.0121  -4.9223  -4.6141
    -4.5597  -4.0861  -3.9144  -3.8149  -3.7033  -3.5801  -3.3589  -3.3012
    -3.1348  -3.0101  -2.9719  -2.9464  -2.6773  -2.3092  -2.2407  -2.1125
    -1.7905  -1.6212  -1.5411  -1.3631  -1.2295  -1.0098  -0.4458  -0.1804
    -0.1476  -0.0521   0.0259   0.0603   0.2759   0.3124   0.5923   0.6901
     0.7571   1.0728   1.6326   1.6537   1.7107   1.8255   1.8820   2.0480
     2.2012   3.3613   3.4281   3.5600   3.6279   3.7667   4.5028   5.2120
     5.5056   5.6629   5.8646   5.8966   8.0336   9.2967

          k = 0.3750-0.2479 0.0000 ( 41514 PWs)   bands (ev):

   -48.8966 -48.7971 -48.7878 -48.7873 -48.7368 -48.7219 -48.7103 -48.6955
   -48.6743 -48.6064 -48.5224 -48.5163 -48.4610 -48.4149 -48.3995 -48.3932
   -48.2803 -48.0928 -18.4029 -18.3062 -18.2548 -18.2435 -18.0355 -17.9834
   -17.7985 -17.7755 -17.7452 -17.4812 -17.2223 -16.3463 -16.0433  -6.6686
    -6.5715  -6.5191  -6.4587  -6.3718  -6.3417  -6.3232  -6.2225  -6.2225
    -6.1554  -6.1392  -5.5259  -5.2619  -5.0078  -4.8101  -4.7148  -4.6293
    -4.4657  -4.0542  -3.9056  -3.8132  -3.7031  -3.4272  -3.4187  -3.3464
    -3.1684  -3.1411  -3.1022  -2.9604  -2.5742  -2.2430  -2.2306  -1.9532
    -1.9045  -1.6393  -1.4683  -1.3954  -1.3492  -1.0888  -0.7826  -0.6393
    -0.3329  -0.1236  -0.0084   0.1660   0.2058   0.4254   0.5903   0.6574
     0.7140   0.9836   1.6241   1.6687   1.8258   1.9970   2.0521   2.0823
     2.3345   2.9468   2.9726   3.1126   3.6345   3.7819   4.5036   5.5363
     5.6687   5.9214   6.1843   6.3176   8.1350   9.9826

          k =-0.5000 0.0000 0.0000 ( 41440 PWs)   bands (ev):

   -48.8943 -48.8029 -48.7954 -48.7827 -48.7423 -48.7395 -48.7241 -48.6990
   -48.6853 -48.6040 -48.5316 -48.5204 -48.4587 -48.4317 -48.3986 -48.3909
   -48.2780 -48.0905 -18.3165 -18.1764 -18.1131 -18.0683 -17.9764 -17.9760
   -17.9008 -17.8832 -17.8233 -17.4632 -17.1947 -16.2948 -16.0012  -6.8353
    -6.5174  -6.5011  -6.4741  -6.3595  -6.3012  -6.2609  -6.0781  -6.0330
    -5.9651  -5.6943  -5.6935  -5.6011  -5.3889  -5.3571  -5.2140  -4.6026
    -4.1458  -4.1320  -4.1176  -3.8544  -3.8247  -3.7208  -3.5634  -3.2976
    -3.2897  -2.9346  -2.7790  -2.6064  -2.5305  -2.3465  -1.9680  -1.8281
    -1.6338  -1.6106  -1.5609  -1.3305  -1.1795  -0.8106  -0.2495  -0.2280
    -0.2102  -0.1653   0.0174   0.0893   0.1891   0.4759   0.5051   0.7245
     0.8817   0.9768   1.1311   1.3264   1.7132   1.8178   1.8209   2.1772
     2.3741   3.3327   3.6722   3.9444   3.9657   4.0885   4.4071   4.5349
     4.9151   5.0756   5.5159   5.7618   8.5350   9.8463

          k =-0.5000 0.1240 0.0000 ( 41518 PWs)   bands (ev):

   -48.8951 -48.8030 -48.7958 -48.7860 -48.7391 -48.7389 -48.7236 -48.6991
   -48.6855 -48.6040 -48.5317 -48.5201 -48.4586 -48.4313 -48.3986 -48.3909
   -48.2780 -48.0904 -18.3141 -18.2837 -18.2564 -18.2191 -17.9654 -17.8347
   -17.8188 -17.7630 -17.7569 -17.4652 -17.1939 -16.2958 -16.0005  -6.8022
    -6.7810  -6.6193  -6.5478  -6.4498  -6.3955  -6.3935  -6.3212  -6.1112
    -6.0019  -5.8676  -5.5444  -5.3045  -4.9632  -4.8139  -4.7429  -4.3624
    -4.2076  -4.1706  -4.0920  -4.0669  -3.8461  -3.7406  -3.1193  -3.1009
    -2.9827  -2.9309  -2.8711  -2.7675  -2.6087  -2.1892  -2.1517  -1.7960
    -1.6783  -1.6351  -1.5161  -1.4932  -1.4286  -0.9115  -0.4154  -0.3061
    -0.2556  -0.1723  -0.1403  -0.1172   0.0188   0.1280   0.1580   0.2186
     0.4259   0.9572   1.7755   1.8344   1.8538   1.9426   2.0325   2.1220
     2.2985   3.1469   3.2000   3.3533   3.3796   3.6990   4.4095   5.4766
     5.6134   5.7629   5.8248   5.9161   8.6910   9.8355

          k =-0.5000-0.2479 0.0000 ( 41524 PWs)   bands (ev):

   -48.8960 -48.8031 -48.7962 -48.7890 -48.7388 -48.7360 -48.7231 -48.6993
   -48.6856 -48.6040 -48.5318 -48.5199 -48.4585 -48.4309 -48.3986 -48.3909
   -48.2780 -48.0903 -18.3523 -18.3426 -18.3117 -18.2989 -17.9518 -17.8485
   -17.7354 -17.6761 -17.6733 -17.4673 -17.1931 -16.2969 -15.9998  -6.9995
    -6.8559  -6.7870  -6.7511  -6.3962  -6.3296  -6.2787  -6.2599  -6.2385
    -6.0360  -5.8764  -5.6055  -5.4231  -4.9203  -4.2901  -4.2052  -4.1681
    -4.1349  -4.0776  -3.8732  -3.8572  -3.6575  -3.5076  -3.4461  -3.3124
    -2.9912  -2.8415  -2.8334  -2.8032  -2.4896  -2.1102  -1.9832  -1.9335
    -1.8270  -1.7279  -1.5603  -1.5210  -1.5069  -1.0388  -0.9842  -0.6450
    -0.6280  -0.3320  -0.2396  -0.1507  -0.1258   0.0187   0.1493   0.1953
     0.3351   0.9549   1.7834   1.8166   1.9304   2.2310   2.2334   2.2440
     2.3251   2.7536   2.7787   2.9442   3.4153   3.7232   4.4116   5.7064
     5.8806   5.9990   6.2794   6.4478   8.8491   9.8125

     the Fermi energy is     1.6338 ev

!    total energy              =   -1632.64856495 Ry
     estimated scf accuracy    <       0.00000085 Ry
     smearing contrib. (-TS)   =      -0.00163843 Ry
     internal energy E=F+TS    =   -1632.64692652 Ry

     The total energy is F=E-TS. E is the sum of the following terms:
     one-electron contribution =  -15350.86800760 Ry
     hartree contribution      =    7720.29145364 Ry
     xc contribution           =    -398.55556274 Ry
     ewald contribution        =    6520.21152000 Ry
     one-center paw contrib.   =    -123.72632983 Ry

     convergence has been achieved in  20 iterations

     negative rho (up, down):  1.908E+00 0.000E+00

     Forces acting on atoms (cartesian axes, Ry/au):

     atom    1 type  2   force =    -0.00002395    0.00000000    0.03750169
     atom    2 type  2   force =    -0.00005215    0.00000000   -0.03978462
     atom    3 type  2   force =    -0.00054872    0.00000000    0.00051869
     atom    4 type  2   force =     0.00056869    0.00000000   -0.00026659
     atom    5 type  2   force =    -0.00078882    0.00000000   -0.00110224
     atom    6 type  2   force =     0.00079501    0.00000000   -0.00118980
     atom    7 type  3   force =     0.00011991    0.00000000   -0.00012655
     atom    8 type  3   force =     0.00003987    0.00000000    0.03443214
     atom    9 type  3   force =     0.00000923    0.02146911   -0.02468707
     atom   10 type  3   force =     0.00000923   -0.02146911   -0.02468707
     atom   11 type  3   force =     0.00106183    0.00000000   -0.00064615
     atom   12 type  3   force =    -0.00191926    0.00000000    0.01738667
     atom   13 type  3   force =    -0.00042726   -0.00134939    0.00084748
     atom   14 type  3   force =    -0.00042726    0.00134939    0.00084748
     atom   15 type  3   force =     0.00108373    0.00000000   -0.00119265
     atom   16 type  3   force =     0.00044270    0.00000000   -0.00050302
     atom   17 type  3   force =    -0.00048009   -0.00080002    0.00120667
     atom   18 type  3   force =    -0.00048009    0.00080002    0.00120667
     atom   19 type  3   force =     0.00001882    0.00000000    0.00037542
     atom   20 type  1   force =     0.00099856    0.00000000   -0.00013716

     Total force =     0.004549     Total SCF correction =     0.003407
     SCF correction compared to forces is large: reduce conv_thr to get better values

     Writing all to output data dir ./tmp_s0_OH__base/s0_OH__base.save/ :
     XML data file, charge density, pseudopotentials, collected wavefunctions

     init_run     :     24.30s CPU     25.88s WALL (       1 calls)
     electrons    :    977.76s CPU   1020.79s WALL (       1 calls)
     forces       :     10.40s CPU     11.46s WALL (       1 calls)

     Called by init_run:
     wfcinit      :     17.17s CPU     17.71s WALL (       1 calls)
     potinit      :      2.49s CPU      2.75s WALL (       1 calls)
     hinit0       :      2.83s CPU      2.92s WALL (       1 calls)

     Called by electrons:
     c_bands      :    702.44s CPU    718.90s WALL (      20 calls)
     sum_band     :    149.11s CPU    161.70s WALL (      20 calls)
     v_of_rho     :     22.38s CPU     24.58s WALL (      21 calls)
     newd         :     28.33s CPU     39.32s WALL (      21 calls)
     PAW_pot      :      8.33s CPU      8.33s WALL (      21 calls)
     mix_rho      :     67.56s CPU     68.95s WALL (      20 calls)

     Called by c_bands:
     init_us_2    :     12.12s CPU     12.23s WALL (     168 calls)
     cegterg      :    644.96s CPU    661.36s WALL (      80 calls)

     Called by *egterg:
     cdiaghg      :      7.67s CPU      7.67s WALL (     631 calls)
     h_psi        :    454.56s CPU    459.61s WALL (     635 calls)
     s_psi        :     45.18s CPU     45.19s WALL (     635 calls)
     g_psi        :      5.21s CPU      5.22s WALL (     551 calls)

     Called by h_psi:
     h_psi:calbec :     47.85s CPU     47.86s WALL (     635 calls)
     vloc_psi     :    356.08s CPU    356.44s WALL (     635 calls)
                                        0.00s GPU  (     635 calls)
     add_vuspsi   :     47.81s CPU     47.82s WALL (     635 calls)

     General routines
     calbec       :     68.81s CPU     68.83s WALL (     731 calls)
     fft          :      9.71s CPU      9.73s WALL (     282 calls)
     ffts         :     27.95s CPU     27.97s WALL (    2378 calls)
     fftw         :    355.53s CPU    355.79s WALL (   44468 calls)
     interpolate  :      2.06s CPU      2.08s WALL (      21 calls)

     Parallel routines

     PWSCF        :  16m52.90s CPU  17m38.78s WALL


   This run was terminated on:  18:22:19   7Aug2026            

=------------------------------------------------------------------------------=
   JOB DONE.
=------------------------------------------------------------------------------=
