
     Program PWSCF v.7.5 starts on  7Aug2026 at 18:59:37 

     This program is part of the open-source Quantum ESPRESSO suite
     for quantum simulation of materials; please cite
         "P. Giannozzi et al., J. Phys.:Condens. Matter 21 395502 (2009);
         "P. Giannozzi et al., J. Phys.:Condens. Matter 29 465901 (2017);
         "P. Giannozzi et al., J. Chem. Phys. 152 154105 (2020);
          URL http://www.quantum-espresso.org", 
     in publications or presentations arising from this work. More details at
     http://www.quantum-espresso.org/quote

     Parallel version (MPI & OpenMP), running on       4 processor cores
     Number of MPI processes:                 4
     Threads/MPI process:                     1

     MPI processes distributed on     1 nodes
     44452 MiB available memory on the printing compute node when the environment starts

     Reading input from s0_O__rpbe.run.in

     Current dimensions of program PWSCF are:
     Max number of different atomic species (ntypx) = 10
     Max number of k-points (npk) =  40000
     Max angular momentum in pseudopotentials (lmaxx) =  4
     file O.pbe-n-kjpaw_psl.0.1.UPF: wavefunction(s)  2P renormalized

     IMPORTANT: XC functional enforced from input :
     Exchange-correlation= RPBE
                           (   1   4  44   4   0   0   0)
     Any further DFT definition will be discarded
     Please, verify this is what you really want

     Message from routine setup:
     using ibrav=0 with symmetry is DISCOURAGED, use correct ibrav instead

     K-points division:     npool     =       4
     Subspace diagonalization in iterative solution of the eigenvalue problem:
     a serial algorithm will be used


     G-vector sticks info
     --------------------
     sticks:   dense  smooth     PW     G-vecs:    dense   smooth      PW
     Sum        3639    1825    519               941385   332621   50331

     Using Slab Decomposition



     bravais-lattice index     =            0
     lattice parameter (alat)  =       5.9602  a.u.
     unit-cell volume          =    3444.9838 (a.u.)^3
     number of atoms/cell      =           19
     number of atomic types    =            2
     number of electrons       =       168.00
     number of Kohn-Sham states=          101
     kinetic-energy cutoff     =      80.0000  Ry
     charge density cutoff     =     640.0000  Ry
     scf convergence threshold =      1.0E-06
     mixing beta               =       0.3000
     number of iterations used =            8  local-TF  mixing
     Exchange-correlation= RPBE
                           (   1   4  44   4   0   0   0)

     celldm(1)=   5.960196  celldm(2)=   0.000000  celldm(3)=   0.000000
     celldm(4)=   0.000000  celldm(5)=   0.000000  celldm(6)=   0.000000

     crystal axes: (cart. coord. in units of alat)
               a(1) = (   1.000000   0.000000   0.000000 )  
               a(2) = (   0.000000   2.016846   0.000000 )  
               a(3) = (   0.000000   0.000000   8.067384 )  

     reciprocal axes: (cart. coord. in units 2 pi/alat)
               b(1) = (  1.000000  0.000000  0.000000 )  
               b(2) = (  0.000000  0.495824  0.000000 )  
               b(3) = (  0.000000  0.000000  0.123956 )  


     PseudoPot. # 1 for Ir read from file:
     /usr/share/espresso/pseudo/Ir_pbe_v1.2.uspp.F.UPF
     MD5 check sum: 8836f839c3459d2b385c504ce6d91f2c
     Pseudo is Ultrasoft + core correction, Zval = 15.0
     Generated by new atomic code, or converted to UPF format
     Using radial grid of  983 points,  7 beta functions with: 
                l(1) =   0
                l(2) =   0
                l(3) =   1
                l(4) =   1
                l(5) =   1
                l(6) =   2
                l(7) =   2
     Q(r) pseudized with  8 coefficients,  rinner =    1.400   1.400   1.400
                                                       1.400   1.400

     PseudoPot. # 2 for O  read from file:
     /usr/share/espresso/pseudo/O.pbe-n-kjpaw_psl.0.1.UPF
     MD5 check sum: 0234752ac141de4415c5fc33072bef88
     Pseudo is Projector augmented-wave + core cor, Zval =  6.0
     Generated using "atomic" code by A. Dal Corso  v.5.0.99 svn rev. 10869
     Shape of augmentation charge: BESSEL
     Using radial grid of 1095 points,  4 beta functions with: 
                l(1) =   0
                l(2) =   0
                l(3) =   1
                l(4) =   1
     Q(r) pseudized with 0 coefficients 


     atomic species   valence    mass     pseudopotential
     Ir               15.00   192.21700     Ir( 1.00)
     O                 6.00    15.99900     O ( 1.00)

      4 Sym. Ops. (no inversion) found ( 2 have fractional translation)



   Cartesian axes

     site n.     atom                  positions (alat units)
         1        Ir     tau(   1) = (   0.0000000   1.5126346   3.0252692  )
         2        Ir     tau(   2) = (   0.5000000   0.5042115   3.0252692  )
         3        Ir     tau(   3) = (   0.0000000   0.5042115   4.0428594  )
         4        Ir     tau(   4) = (   0.5000000   1.5126346   4.0366227  )
         5        Ir     tau(   5) = (   0.0000000   1.5126346   5.0840887  )
         6        Ir     tau(   6) = (   0.5000000   0.5042115   5.0650004  )
         7        O      tau(   7) = (   0.0000000   0.5042115   3.4185541  )
         8        O      tau(   8) = (   0.0000000   0.5042115   2.6319842  )
         9        O      tau(   9) = (   0.5000000   1.1193496   3.0252692  )
        10        O      tau(  10) = (   0.5000000   1.9059196   3.0252692  )
        11        O      tau(  11) = (   0.0000000   1.5126346   4.4373140  )
        12        O      tau(  12) = (   0.0000000   1.5126346   3.6404072  )
        13        O      tau(  13) = (   0.5000000   0.1175415   4.0363811  )
        14        O      tau(  14) = (   0.5000000   0.8908815   4.0363811  )
        15        O      tau(  15) = (   0.0000000   0.5042115   5.4382077  )
        16        O      tau(  16) = (   0.0000000   0.5042115   4.6686519  )
        17        O      tau(  17) = (   0.5000000   1.1266233   5.0418396  )
        18        O      tau(  18) = (   0.5000000   1.8986459   5.0418396  )
        19        O      tau(  19) = (   0.0000000   1.5126346   5.6443569  )

     number of k points=    15  Marzari-Vanderbilt smearing, width (Ry)=  0.0100
                       cart. coord. in units 2pi/alat
        k(    1) = (   0.0000000   0.0000000   0.0000000), wk =   0.0625000
        k(    2) = (   0.0000000   0.1239559   0.0000000), wk =   0.1250000
        k(    3) = (   0.0000000  -0.2479118   0.0000000), wk =   0.0625000
        k(    4) = (   0.1250000   0.0000000   0.0000000), wk =   0.1250000
        k(    5) = (   0.1250000   0.1239559   0.0000000), wk =   0.2500000
        k(    6) = (   0.1250000  -0.2479118   0.0000000), wk =   0.1250000
        k(    7) = (   0.2500000   0.0000000   0.0000000), wk =   0.1250000
        k(    8) = (   0.2500000   0.1239559   0.0000000), wk =   0.2500000
        k(    9) = (   0.2500000  -0.2479118   0.0000000), wk =   0.1250000
        k(   10) = (   0.3750000   0.0000000   0.0000000), wk =   0.1250000
        k(   11) = (   0.3750000   0.1239559   0.0000000), wk =   0.2500000
        k(   12) = (   0.3750000  -0.2479118   0.0000000), wk =   0.1250000
        k(   13) = (  -0.5000000   0.0000000   0.0000000), wk =   0.0625000
        k(   14) = (  -0.5000000   0.1239559   0.0000000), wk =   0.1250000
        k(   15) = (  -0.5000000  -0.2479118   0.0000000), wk =   0.0625000

     Dense  grid:   941385 G-vectors     FFT dimensions: (  48, 100, 400)

     Smooth grid:   332621 G-vectors     FFT dimensions: (  36,  72, 288)

     Estimated max dynamical RAM per process >       2.00 GB

     Estimated total dynamical RAM >       7.31 GB

     Initial potential from superposition of free atoms

     starting charge     164.9998, renormalised to     168.0000

     negative rho (up, down):  2.225E+00 0.000E+00
     Starting wfcs are  124 randomized atomic wfcs
     Checking if some PAW data can be deallocated... 

     total cpu time spent up to now is       25.4 secs

     per-process dynamical memory:   862.5 Mb

     Self-consistent Calculation

     iteration #  1     ecut=    80.00 Ry     beta= 0.30
     Davidson diagonalization with overlap
     ethr =  1.00E-02,  avg # of iterations =  3.1

     negative rho (up, down):  2.054E+00 0.000E+00

     total cpu time spent up to now is       78.5 secs

     total energy              =   -1633.56797497 Ry
     estimated scf accuracy    <      50.23134547 Ry

     iteration #  2     ecut=    80.00 Ry     beta= 0.30
     Davidson diagonalization with overlap
     ethr =  1.00E-02,  avg # of iterations =  1.0

     negative rho (up, down):  1.956E+00 0.000E+00

     total cpu time spent up to now is      122.4 secs

     total energy              =   -1633.62053092 Ry
     estimated scf accuracy    <       6.82352654 Ry

     iteration #  3     ecut=    80.00 Ry     beta= 0.30
     Davidson diagonalization with overlap
     ethr =  4.06E-03,  avg # of iterations =  1.1

     negative rho (up, down):  1.859E+00 0.000E+00

     total cpu time spent up to now is      168.1 secs

     total energy              =   -1633.06275593 Ry
     estimated scf accuracy    <       2.51105879 Ry

     iteration #  4     ecut=    80.00 Ry     beta= 0.30
     Davidson diagonalization with overlap
     ethr =  1.49E-03,  avg # of iterations =  3.8

     negative rho (up, down):  1.877E+00 0.000E+00

     total cpu time spent up to now is      219.9 secs

     total energy              =   -1633.34912025 Ry
     estimated scf accuracy    <       0.40002560 Ry

     iteration #  5     ecut=    80.00 Ry     beta= 0.30
     Davidson diagonalization with overlap
     ethr =  2.38E-04,  avg # of iterations =  6.5

     negative rho (up, down):  1.918E+00 0.000E+00

     total cpu time spent up to now is      273.7 secs

     total energy              =   -1633.31495300 Ry
     estimated scf accuracy    <       0.43509600 Ry

     iteration #  6     ecut=    80.00 Ry     beta= 0.30
     Davidson diagonalization with overlap
     ethr =  2.38E-04,  avg # of iterations =  1.0

     negative rho (up, down):  1.921E+00 0.000E+00

     total cpu time spent up to now is      318.3 secs

     total energy              =   -1633.31418307 Ry
     estimated scf accuracy    <       0.12927593 Ry

     iteration #  7     ecut=    80.00 Ry     beta= 0.30
     Davidson diagonalization with overlap
     ethr =  7.69E-05,  avg # of iterations =  2.2

     negative rho (up, down):  1.956E+00 0.000E+00

     total cpu time spent up to now is      366.2 secs

     total energy              =   -1633.31410287 Ry
     estimated scf accuracy    <       0.09574210 Ry

     iteration #  8     ecut=    80.00 Ry     beta= 0.30
     Davidson diagonalization with overlap
     ethr =  5.70E-05,  avg # of iterations =  3.2

     negative rho (up, down):  1.970E+00 0.000E+00

     total cpu time spent up to now is      415.1 secs

     total energy              =   -1633.31514201 Ry
     estimated scf accuracy    <       0.02367239 Ry

     iteration #  9     ecut=    80.00 Ry     beta= 0.30
     Davidson diagonalization with overlap
     ethr =  1.41E-05,  avg # of iterations =  6.7

     negative rho (up, down):  1.977E+00 0.000E+00

     total cpu time spent up to now is      468.5 secs

     total energy              =   -1633.31387969 Ry
     estimated scf accuracy    <       0.01138565 Ry

     iteration # 10     ecut=    80.00 Ry     beta= 0.30
     Davidson diagonalization with overlap
     ethr =  6.78E-06,  avg # of iterations =  7.3

     negative rho (up, down):  1.980E+00 0.000E+00

     total cpu time spent up to now is      522.3 secs

     total energy              =   -1633.31267262 Ry
     estimated scf accuracy    <       0.00611686 Ry

     iteration # 11     ecut=    80.00 Ry     beta= 0.30
     Davidson diagonalization with overlap
     ethr =  3.64E-06,  avg # of iterations =  8.6

     negative rho (up, down):  1.955E+00 0.000E+00

     total cpu time spent up to now is      576.5 secs

     total energy              =   -1633.31180739 Ry
     estimated scf accuracy    <       0.00579197 Ry

     iteration # 12     ecut=    80.00 Ry     beta= 0.30
     Davidson diagonalization with overlap
     ethr =  3.45E-06,  avg # of iterations =  8.6

     negative rho (up, down):  1.931E+00 0.000E+00

     total cpu time spent up to now is      628.8 secs

     total energy              =   -1633.31089974 Ry
     estimated scf accuracy    <       0.00346609 Ry

     iteration # 13     ecut=    80.00 Ry     beta= 0.30
     Davidson diagonalization with overlap
     ethr =  2.06E-06,  avg # of iterations =  8.9

     negative rho (up, down):  1.922E+00 0.000E+00

     total cpu time spent up to now is      682.7 secs

     total energy              =   -1633.31030495 Ry
     estimated scf accuracy    <       0.00182205 Ry

     iteration # 14     ecut=    80.00 Ry     beta= 0.30
     Davidson diagonalization with overlap
     c_bands:  1 eigenvalues not converged
     ethr =  1.08E-06,  avg # of iterations =  7.7

     negative rho (up, down):  1.919E+00 0.000E+00

     total cpu time spent up to now is      736.8 secs

     total energy              =   -1633.30994978 Ry
     estimated scf accuracy    <       0.00108172 Ry

     iteration # 15     ecut=    80.00 Ry     beta= 0.30
     Davidson diagonalization with overlap
     c_bands:  1 eigenvalues not converged
     ethr =  6.44E-07,  avg # of iterations =  6.3

     negative rho (up, down):  1.919E+00 0.000E+00

     total cpu time spent up to now is      788.9 secs

     total energy              =   -1633.30993297 Ry
     estimated scf accuracy    <       0.00023094 Ry

     iteration # 16     ecut=    80.00 Ry     beta= 0.30
     Davidson diagonalization with overlap
     ethr =  1.37E-07,  avg # of iterations =  3.5

     negative rho (up, down):  1.915E+00 0.000E+00

     total cpu time spent up to now is      839.6 secs

     total energy              =   -1633.30979855 Ry
     estimated scf accuracy    <       0.00014694 Ry

     iteration # 17     ecut=    80.00 Ry     beta= 0.30
     Davidson diagonalization with overlap
     ethr =  8.75E-08,  avg # of iterations =  4.5

     negative rho (up, down):  1.913E+00 0.000E+00

     total cpu time spent up to now is      889.2 secs

     total energy              =   -1633.30974825 Ry
     estimated scf accuracy    <       0.00004397 Ry

     iteration # 18     ecut=    80.00 Ry     beta= 0.30
     Davidson diagonalization with overlap
     ethr =  2.62E-08,  avg # of iterations =  1.9

     negative rho (up, down):  1.909E+00 0.000E+00

     total cpu time spent up to now is      936.9 secs

     total energy              =   -1633.30971994 Ry
     estimated scf accuracy    <       0.00002117 Ry

     iteration # 19     ecut=    80.00 Ry     beta= 0.30
     Davidson diagonalization with overlap
     ethr =  1.26E-08,  avg # of iterations =  4.9

     negative rho (up, down):  1.908E+00 0.000E+00

     total cpu time spent up to now is      989.5 secs

     total energy              =   -1633.30971758 Ry
     estimated scf accuracy    <       0.00000347 Ry

     iteration # 20     ecut=    80.00 Ry     beta= 0.30
     Davidson diagonalization with overlap
     ethr =  2.06E-09,  avg # of iterations =  1.9

     negative rho (up, down):  1.908E+00 0.000E+00

     total cpu time spent up to now is     1037.5 secs

     total energy              =   -1633.30971557 Ry
     estimated scf accuracy    <       0.00000184 Ry

     iteration # 21     ecut=    80.00 Ry     beta= 0.30
     Davidson diagonalization with overlap
     ethr =  1.09E-09,  avg # of iterations =  1.8

     negative rho (up, down):  1.908E+00 0.000E+00

     total cpu time spent up to now is     1085.0 secs

     total energy              =   -1633.30971410 Ry
     estimated scf accuracy    <       0.00000123 Ry

     iteration # 22     ecut=    80.00 Ry     beta= 0.30
     Davidson diagonalization with overlap
     ethr =  7.31E-10,  avg # of iterations =  2.0

     negative rho (up, down):  1.908E+00 0.000E+00

     total cpu time spent up to now is     1128.4 secs

     End of self-consistent calculation

          k = 0.0000 0.0000 0.0000 ( 41611 PWs)   bands (ev):

   -50.0258 -49.7197 -49.5630 -49.1147 -49.0864 -49.0023 -48.9872 -48.8993
   -48.8786 -48.8394 -48.8316 -48.7520 -48.7079 -48.6695 -48.6001 -48.5798
   -48.5767 -48.3616 -19.7159 -19.4706 -19.2737 -18.8766 -18.4279 -18.2231
   -17.9276 -17.8305 -17.7588 -17.6947 -16.7904 -16.5791 -16.3207  -8.4651
    -8.3237  -8.2749  -7.6280  -7.0508  -6.9136  -6.6546  -6.4170  -6.3857
    -6.1439  -5.9775  -5.9396  -5.7613  -5.4805  -5.0115  -4.4766  -3.9431
    -3.7947  -3.5879  -3.3142  -3.3078  -3.2279  -3.1889  -3.0054  -2.9880
    -2.8511  -2.7945  -2.6450  -2.5726  -2.5411  -2.4275  -2.3306  -2.0643
    -1.7612  -1.7423  -1.4826  -1.3751  -1.2519  -1.1051  -1.0640  -0.9832
    -0.9640  -0.9024  -0.8738  -0.6863  -0.6079  -0.4530  -0.0958   0.0352
     0.5061   0.6808   0.9782   1.4153   1.5502   1.7163   1.7300   2.1113
     2.4828   3.0730   3.6680   4.1102   4.9005   5.0294   5.0740   5.5934
     5.6046   5.6636   5.9961   6.0555   6.5269

          k = 0.0000 0.1240 0.0000 ( 41688 PWs)   bands (ev):

   -50.0258 -49.7197 -49.5625 -49.1153 -49.0860 -49.0012 -48.9872 -48.8989
   -48.8790 -48.8394 -48.8316 -48.7531 -48.7078 -48.6695 -48.6002 -48.5799
   -48.5767 -48.3620 -19.5827 -19.3298 -19.1414 -18.9231 -18.4756 -18.3240
   -17.9726 -17.9217 -17.8930 -17.8459 -16.7832 -16.5827 -16.3176  -7.9675
    -7.8107  -7.7401  -7.6230  -7.0501  -6.8436  -6.5766  -6.3842  -6.3265
    -6.0469  -5.9764  -5.8342  -5.7602  -5.3002  -5.0427  -4.6335  -4.4127
    -4.2883  -4.1514  -4.0263  -3.9443  -3.6948  -3.5575  -3.4391  -3.2568
    -3.1908  -2.7771  -2.6285  -2.6142  -2.5423  -2.4546  -2.3193  -2.1046
    -1.8787  -1.6393  -1.4765  -1.2392  -1.0997  -0.8985  -0.7932  -0.6658
    -0.5452  -0.4775  -0.4509  -0.3580  -0.3531  -0.2490  -0.0777   0.1383
     0.5036   0.6738   1.0286   1.4024   1.4371   1.5838   1.7845   1.9196
     2.3020   3.6011   4.3123   4.5243   4.7899   4.9010   5.1462   5.3051
     5.3104   5.6680   5.9984   6.0241   6.4632

          k = 0.0000-0.2479 0.0000 ( 41774 PWs)   bands (ev):

   -50.0258 -49.7197 -49.5619 -49.1159 -49.0857 -49.0001 -48.9872 -48.8985
   -48.8793 -48.8394 -48.8317 -48.7543 -48.7078 -48.6695 -48.6002 -48.5800
   -48.5767 -48.3625 -19.3385 -19.1837 -19.0933 -18.7802 -18.6356 -18.5606
   -18.0980 -18.0679 -17.9582 -17.8958 -16.7754 -16.5878 -16.3151  -7.6373
    -7.1871  -7.0517  -6.9700  -6.8028  -6.7658  -6.4892  -6.3819  -6.2233
    -6.0207  -5.9742  -5.7580  -5.5399  -5.4348  -5.3369  -5.2996  -5.1772
    -5.0079  -4.7199  -4.6309  -4.1507  -3.8480  -3.8321  -3.8197  -3.7253
    -3.4305  -2.7814  -2.6311  -2.6280  -2.5851  -2.2317  -2.2167  -1.9204
    -1.8499  -1.6493  -1.2722  -1.2477  -1.1364  -1.0133  -0.6337  -0.5723
    -0.4800  -0.2438  -0.1285  -0.0659  -0.0161   0.1374   0.2871   0.4672
     0.6160   0.7314   0.7682   1.2657   1.3911   1.4751   1.7362   1.7859
     2.2077   4.1082   4.4746   4.5788   4.9019   4.9772   5.0007   5.2459
     5.5284   5.6690   5.8043   5.9998   6.3569

          k = 0.1250 0.0000 0.0000 ( 41611 PWs)   bands (ev):

   -50.0248 -49.7354 -49.5605 -49.1138 -49.0853 -49.0009 -48.9862 -48.9156
   -48.8945 -48.8556 -48.8292 -48.7498 -48.7235 -48.6685 -48.5978 -48.5962
   -48.5744 -48.3592 -19.5772 -19.3465 -19.1564 -18.7796 -18.3589 -18.1376
   -17.9854 -17.9136 -17.8379 -17.7764 -16.7800 -16.6249 -16.3617  -8.2800
    -8.1398  -8.0965  -7.4411  -7.0167  -6.8488  -6.6071  -6.4601  -6.3804
    -6.0519  -5.9303  -5.5141  -5.4636  -5.2920  -4.8376  -4.5835  -4.3547
    -3.9121  -3.7817  -3.6787  -3.6668  -3.6016  -3.4796  -3.4691  -3.0830
    -2.9432  -2.7467  -2.7020  -2.6277  -2.6258  -2.5305  -2.4377  -2.3610
    -2.2804  -1.9415  -1.8814  -1.3365  -1.2378  -1.0743  -0.8990  -0.8010
    -0.6195  -0.5812  -0.5526  -0.5353  -0.1877  -0.0144   0.0090   0.3172
     0.8373   0.9096   1.0694   1.3068   1.4452   1.5662   1.8762   1.9613
     2.3236   3.3097   3.8990   4.2858   4.5420   4.7263   4.9996   5.2040
     5.2397   5.3031   5.5378   6.1595   6.6260

          k = 0.1250 0.1240 0.0000 ( 41692 PWs)   bands (ev):

   -50.0248 -49.7354 -49.5601 -49.1143 -49.0850 -49.0002 -48.9862 -48.9151
   -48.8949 -48.8556 -48.8292 -48.7508 -48.7235 -48.6685 -48.5978 -48.5962
   -48.5744 -48.3596 -19.4493 -19.2104 -19.0255 -18.8260 -18.4039 -18.2578
   -18.0302 -17.9885 -17.9555 -17.9013 -16.7706 -16.6315 -16.3591  -7.8055
    -7.6518  -7.5901  -7.4396  -7.0190  -6.7619  -6.5153  -6.4644  -6.2838
    -6.1298  -5.6679  -5.5154  -5.4652  -5.2020  -4.8488  -4.6319  -4.5456
    -4.4032  -4.3203  -4.1207  -4.0852  -4.0076  -3.9072  -3.7967  -3.6111
    -3.3404  -3.1110  -2.8158  -2.7518  -2.6401  -2.4677  -2.2680  -2.2538
    -2.0836  -1.6707  -1.5807  -1.3039  -1.1403  -0.9082  -0.6999  -0.5938
    -0.4606  -0.3490  -0.2612  -0.1279  -0.0575   0.0157   0.1898   0.3918
     0.8301   0.9497   1.0568   1.3088   1.3457   1.4764   1.7186   1.9311
     2.2105   3.7376   4.2423   4.5052   4.5239   4.5858   4.8062   4.9871
     5.1750   5.3809   5.5370   6.1247   6.5159

          k = 0.1250-0.2479 0.0000 ( 41706 PWs)   bands (ev):

   -50.0248 -49.7355 -49.5596 -49.1148 -49.0848 -48.9996 -48.9862 -48.9145
   -48.8952 -48.8556 -48.8292 -48.7518 -48.7234 -48.6685 -48.5978 -48.5962
   -48.5744 -48.3599 -19.2124 -19.0587 -18.9771 -18.6736 -18.5790 -18.5163
   -18.1686 -18.1129 -17.9714 -17.9511 -16.7598 -16.6401 -16.3570  -7.4497
    -7.0228  -6.9547  -6.8101  -6.7400  -6.5955  -6.5638  -6.4632  -6.4329
    -6.1491  -5.5249  -5.4801  -5.3355  -5.1943  -5.0776  -5.0473  -5.0032
    -4.8861  -4.8201  -4.7178  -4.7098  -4.5286  -4.3199  -3.8653  -3.7465
    -3.7442  -3.1086  -2.8852  -2.8131  -2.6424  -2.3276  -2.0798  -2.0317
    -1.8223  -1.6753  -1.2893  -1.2341  -1.1024  -1.0592  -0.6013  -0.5014
    -0.3614  -0.3137  -0.2302   0.0681   0.2513   0.4111   0.6266   0.6527
     0.8052   0.8488   1.1039   1.1981   1.2199   1.4893   1.6507   1.6856
     2.2313   3.9470   4.2254   4.2864   4.4246   4.5091   4.8446   5.1831
     5.3531   5.5460   5.5940   5.8660   6.5394

          k = 0.2500 0.0000 0.0000 ( 41623 PWs)   bands (ev):

   -50.0224 -49.7732 -49.5546 -49.1118 -49.0826 -48.9977 -48.9838 -48.9550
   -48.9328 -48.8946 -48.8233 -48.7610 -48.7447 -48.6662 -48.6354 -48.5920
   -48.5689 -48.3535 -19.2166 -19.0351 -18.8642 -18.5660 -18.2396 -18.1079
   -18.1048 -18.0249 -17.9651 -17.9571 -16.7694 -16.6693 -16.4112  -7.7894
    -7.6533  -7.6194  -6.9490  -6.8293  -6.6522  -6.4941  -6.4476  -6.1692
    -5.9396  -5.7541  -5.4062  -5.1685  -5.0080  -4.9044  -4.8256  -4.7405
    -4.7137  -4.6628  -4.0575  -4.0478  -3.7404  -3.6112  -3.5312  -3.4048
    -3.3474  -3.3045  -3.2431  -3.0355  -2.8001  -2.5323  -2.4880  -2.3996
    -2.0934  -1.9714  -1.4756  -1.3935  -1.3393  -1.1105  -0.8875  -0.6638
    -0.4378  -0.3211  -0.1820  -0.1713   0.2553   0.4934   0.6387   0.8133
     0.9186   0.9689   1.1910   1.2023   1.3084   1.3897   1.6400   1.8993
     2.0193   3.6928   3.9459   4.0353   4.1838   4.4020   4.4733   4.5579
     4.7195   4.7619   5.4284   5.9227   6.9060

          k = 0.2500 0.1240 0.0000 ( 41653 PWs)   bands (ev):

   -50.0224 -49.7733 -49.5543 -49.1120 -49.0826 -48.9988 -48.9838 -48.9532
   -48.9331 -48.8946 -48.8233 -48.7610 -48.7452 -48.6662 -48.6353 -48.5920
   -48.5689 -48.3537 -19.1108 -18.9243 -18.7513 -18.6094 -18.3287 -18.2177
   -18.1288 -18.1142 -18.0648 -17.9315 -16.7545 -16.6834 -16.4105  -7.4176
    -7.2732  -7.2415  -6.9483  -6.8291  -6.5066  -6.4845  -6.2909  -6.0484
    -6.0371  -5.8275  -5.4211  -5.2944  -5.2525  -5.2104  -5.0782  -4.9147
    -4.6882  -4.5119  -4.1235  -4.0421  -3.9553  -3.7889  -3.7146  -3.7024
    -3.6370  -3.5084  -3.2079  -2.9055  -2.7894  -2.6485  -2.5039  -2.3330
    -2.0776  -1.9897  -1.4539  -1.4109  -1.2829  -1.2001  -0.7057  -0.5079
    -0.2579  -0.0878  -0.0235   0.0267   0.2261   0.4587   0.6857   0.7673
     0.9195   1.0234   1.1198   1.2390   1.2989   1.3870   1.5619   1.7323
     2.1600   3.4941   3.7502   3.8854   3.9564   4.0009   4.6213   4.7451
     4.9909   5.1707   5.5588   5.9742   6.9711

          k = 0.2500-0.2479 0.0000 ( 41680 PWs)   bands (ev):

   -50.0224 -49.7734 -49.5541 -49.1122 -49.0826 -48.9999 -48.9838 -48.9514
   -48.9333 -48.8946 -48.8233 -48.7610 -48.7456 -48.6662 -48.6351 -48.5920
   -48.5689 -48.3539 -18.9082 -18.7693 -18.6955 -18.5605 -18.4652 -18.4363
   -18.3067 -18.1465 -18.0627 -17.9291 -16.7187 -16.7184 -16.4098  -6.9564
    -6.8585  -6.7625  -6.6186  -6.5888  -6.5050  -6.2995  -6.1122  -6.1113
    -6.0599  -5.9480  -5.9398  -5.7960  -5.5964  -5.1955  -5.0447  -4.9720
    -4.7410  -4.4227  -4.3990  -4.2923  -4.2308  -4.0936  -3.9893  -3.8839
    -3.8835  -3.6699  -3.2252  -2.9401  -2.7088  -2.3972  -2.2176  -2.1312
    -2.0345  -1.9751  -1.6933  -1.4589  -1.2186  -1.0914  -0.5806  -0.4515
    -0.2880  -0.2015  -0.0624   0.3886   0.4273   0.4752   0.8408   0.8737
     0.9222   0.9685   1.0767   1.2569   1.3479   1.4265   1.5531   1.6024
     2.2427   3.0431   3.3753   3.4911   3.9340   4.0039   4.7449   5.0170
     5.1002   5.5959   5.7002   5.9325   7.0814

          k = 0.3750 0.0000 0.0000 ( 41645 PWs)   bands (ev):

   -50.0200 -49.8108 -49.5486 -49.1097 -49.0799 -48.9944 -48.9942 -48.9819
   -48.9707 -48.9330 -48.8173 -48.7982 -48.7395 -48.6744 -48.6640 -48.5863
   -48.5634 -48.3478 -18.7904 -18.7026 -18.5568 -18.4627 -18.2943 -18.2065
   -18.1984 -18.1433 -18.1386 -17.8514 -16.7359 -16.6313 -16.3769  -7.2316
    -7.0697  -7.0577  -6.6543  -6.5052  -6.4470  -6.3964  -6.3566  -6.1621
    -6.1051  -5.8670  -5.8149  -5.6350  -5.5987  -5.2928  -5.0803  -4.7237
    -4.6791  -4.3659  -4.2129  -4.1283  -4.0043  -3.9020  -3.5263  -3.4852
    -3.3788  -3.1737  -3.1199  -2.8681  -2.8537  -2.7087  -2.4230  -2.1994
    -1.9050  -1.8972  -1.5583  -1.4879  -1.1216  -1.1114  -0.9117  -0.5077
    -0.4493  -0.2730  -0.0918  -0.0821   0.3490   0.4384   0.4780   0.6430
     0.7365   0.8606   1.0443   1.2346   1.3432   1.5585   1.7047   1.8458
     1.9510   3.3599   3.4610   3.6113   3.9195   4.0481   4.2864   4.3384
     4.6256   4.8613   5.5120   5.5691   7.7115

          k = 0.3750 0.1240 0.0000 ( 41549 PWs)   bands (ev):

   -50.0199 -49.8110 -49.5485 -49.1096 -49.0802 -49.0054 -48.9829 -48.9819
   -48.9709 -48.9329 -48.8173 -48.7982 -48.7396 -48.6740 -48.6639 -48.5863
   -48.5634 -48.3478 -18.7582 -18.6874 -18.5794 -18.4913 -18.3335 -18.2844
   -18.1439 -18.1184 -18.1114 -17.8546 -16.7216 -16.6460 -16.3770  -7.0838
    -6.9553  -6.9219  -6.7460  -6.5464  -6.5062  -6.4518  -6.3445  -6.2838
    -6.1638  -6.0685  -5.6969  -5.4884  -5.3683  -5.2357  -5.1567  -4.8318
    -4.4752  -4.3042  -4.1639  -4.0642  -3.8412  -3.8170  -3.5482  -3.5181
    -3.3945  -3.2159  -3.1810  -2.9922  -2.7249  -2.6087  -2.4124  -2.3343
    -2.0305  -1.9318  -1.7961  -1.5017  -1.3527  -1.1609  -0.7927  -0.6693
    -0.3123  -0.2834  -0.2220  -0.1467   0.0660   0.2711   0.3642   0.4552
     0.6045   0.9269   1.4153   1.4961   1.5220   1.5934   1.6778   1.8200
     1.9972   2.8335   3.1595   3.3396   3.4222   3.6418   4.2958   5.0267
     5.2876   5.4914   5.6774   5.7257   7.8122

          k = 0.3750-0.2479 0.0000 ( 41514 PWs)   bands (ev):

   -50.0199 -49.8111 -49.5485 -49.1096 -49.0804 -49.0100 -48.9819 -48.9781
   -48.9711 -48.9328 -48.8173 -48.7983 -48.7396 -48.6737 -48.6639 -48.5863
   -48.5634 -48.3478 -18.6931 -18.6840 -18.6237 -18.5165 -18.3599 -18.3313
   -18.1213 -18.0977 -18.0946 -17.8578 -16.6950 -16.6731 -16.3771  -6.9513
    -6.8347  -6.6731  -6.6680  -6.5873  -6.5749  -6.5400  -6.4899  -6.3879
    -6.2970  -6.2165  -5.5025  -5.4844  -5.3049  -5.0211  -4.9521  -4.8494
    -4.5129  -4.3866  -4.1074  -3.9900  -3.7326  -3.7005  -3.6616  -3.5171
    -3.4479  -3.2998  -3.2002  -2.9651  -2.7151  -2.5537  -2.3774  -2.2309
    -2.1330  -2.0970  -1.7098  -1.5770  -1.5030  -1.4715  -0.8578  -0.7760
    -0.6870  -0.2705  -0.2102  -0.0758   0.1215   0.1963   0.3555   0.4683
     0.5015   0.8812   1.3834   1.5293   1.6295   1.7593   1.8193   1.8517
     2.1144   2.3707   2.7236   2.8893   3.4362   3.6611   4.2968   5.4621
     5.4982   5.8018   5.8295   6.1022   7.9181

          k =-0.5000 0.0000 0.0000 ( 41440 PWs)   bands (ev):

   -50.0189 -49.8263 -49.5461 -49.1089 -49.0788 -49.0103 -48.9931 -48.9863
   -48.9816 -48.9483 -48.8149 -48.8135 -48.7374 -48.6904 -48.6630 -48.5839
   -48.5611 -48.3455 -18.5562 -18.5559 -18.4803 -18.4189 -18.3693 -18.2800
   -18.2494 -18.2144 -18.0998 -17.8375 -16.7022 -16.5973 -16.3359  -7.0905
    -6.7777  -6.7013  -6.6891  -6.5647  -6.5097  -6.3837  -6.3248  -6.2644
    -5.9616  -5.9473  -5.8541  -5.7493  -5.5759  -5.5158  -5.4401  -4.6584
    -4.4102  -4.3512  -4.3356  -4.1055  -4.0268  -3.9033  -3.8295  -3.4689
    -3.1870  -3.1154  -3.1011  -2.8034  -2.6181  -2.5008  -2.3098  -1.9562
    -1.8532  -1.8353  -1.7507  -1.4697  -1.0917  -1.0540  -1.0071  -0.4589
    -0.4203  -0.3781  -0.2100  -0.1421  -0.0652   0.2341   0.2652   0.4404
     0.6443   0.9183   0.9271   1.2067   1.5454   1.6426   1.6778   1.9183
     2.1611   3.1333   3.2381   3.5582   3.7269   3.8748   4.1920   4.3543
     4.6712   4.8506   5.4897   5.6014   8.3513

          k =-0.5000 0.1240 0.0000 ( 41518 PWs)   bands (ev):

   -50.0190 -49.8265 -49.5462 -49.1087 -49.0792 -49.0166 -48.9868 -48.9865
   -48.9816 -48.9482 -48.8149 -48.8136 -48.7372 -48.6900 -48.6630 -48.5839
   -48.5611 -48.3454 -18.6681 -18.5987 -18.5759 -18.5530 -18.2400 -18.2348
   -18.1366 -18.1094 -18.0877 -17.8406 -16.6869 -16.6126 -16.3353  -7.0449
    -6.9940  -6.9403  -6.7497  -6.6992  -6.6044  -6.5748  -6.4572  -6.2732
    -6.0221  -5.8828  -5.7668  -5.5342  -5.2483  -5.0505  -4.7298  -4.5705
    -4.4954  -4.3788  -4.3322  -4.2653  -4.1025  -3.7542  -3.3363  -3.2768
    -3.2185  -3.1329  -3.0736  -2.8606  -2.6256  -2.4779  -2.4056  -2.0804
    -1.8718  -1.8547  -1.8028  -1.6952  -1.3644  -1.2249  -1.0237  -0.5531
    -0.5157  -0.4018  -0.3932  -0.2173  -0.1565  -0.1061  -0.0525   0.1810
     0.1890   0.9215   1.6010   1.6290   1.6721   1.7128   1.7919   1.8871
     2.0746   2.5667   2.9278   3.1286   3.1788   3.5819   4.1940   5.2674
     5.4144   5.5913   5.6743   5.6950   8.5042

          k =-0.5000-0.2479 0.0000 ( 41524 PWs)   bands (ev):

   -50.0190 -49.8267 -49.5462 -49.1085 -49.0796 -49.0209 -48.9867 -48.9824
   -48.9816 -48.9482 -48.8149 -48.8137 -48.7371 -48.6896 -48.6630 -48.5839
   -48.5611 -48.3453 -18.7386 -18.6688 -18.6625 -18.5500 -18.2288 -18.1580
   -18.1207 -18.0539 -18.0023 -17.8436 -16.6527 -16.6468 -16.3347  -7.2628
    -7.1571  -6.9846  -6.8542  -6.6248  -6.5915  -6.5451  -6.4687  -6.3082
    -6.0322  -6.0299  -5.7633  -5.6565  -4.8030  -4.5620  -4.5102  -4.4063
    -4.3325  -4.3267  -4.2193  -3.9869  -3.8528  -3.7722  -3.5373  -3.3186
    -3.2675  -3.0785  -3.0467  -2.7075  -2.5076  -2.4047  -2.3120  -2.2177
    -2.1427  -2.0397  -1.8160  -1.7932  -1.7930  -1.2897  -1.1087  -1.0085
    -0.8353  -0.5669  -0.3908  -0.3883  -0.2099  -0.0863  -0.0591   0.0911
     0.0956   0.9331   1.5807   1.6406   1.7420   1.9814   1.9883   1.9983
     2.0701   2.1320   2.5230   2.7150   3.2138   3.6037   4.1957   5.6932
     5.7362   5.7976   5.8982   6.2243   8.6600

     the Fermi energy is     1.3894 ev

!    total energy              =   -1633.30971431 Ry
     estimated scf accuracy    <       0.00000045 Ry
     smearing contrib. (-TS)   =      -0.00166691 Ry
     internal energy E=F+TS    =   -1633.30804740 Ry

     The total energy is F=E-TS. E is the sum of the following terms:
     one-electron contribution =  -15340.03234513 Ry
     hartree contribution      =    7712.56185653 Ry
     xc contribution           =    -398.50930599 Ry
     ewald contribution        =    6517.74619189 Ry
     one-center paw contrib.   =    -125.07444470 Ry

     convergence has been achieved in  22 iterations

     negative rho (up, down):  1.908E+00 0.000E+00

     Forces acting on atoms (cartesian axes, Ry/au):

     atom    1 type  1   force =     0.00000000    0.00000000    0.02715861
     atom    2 type  1   force =     0.00000000    0.00000000   -0.04262577
     atom    3 type  1   force =     0.00000000    0.00000000   -0.00060206
     atom    4 type  1   force =     0.00000000    0.00000000    0.00024275
     atom    5 type  1   force =     0.00000000    0.00000000    0.00109485
     atom    6 type  1   force =     0.00000000    0.00000000    0.00066459
     atom    7 type  2   force =     0.00000000    0.00000000   -0.00168259
     atom    8 type  2   force =     0.00000000    0.00000000    0.02438754
     atom    9 type  2   force =     0.00000000    0.01983611   -0.02540596
     atom   10 type  2   force =     0.00000000   -0.01983611   -0.02540596
     atom   11 type  2   force =     0.00000000    0.00000000    0.00031105
     atom   12 type  2   force =     0.00000000    0.00000000    0.01939666
     atom   13 type  2   force =     0.00000000   -0.00026219    0.00153868
     atom   14 type  2   force =     0.00000000    0.00026219    0.00153868
     atom   15 type  2   force =     0.00000000    0.00000000    0.00917036
     atom   16 type  2   force =     0.00000000    0.00000000   -0.00224936
     atom   17 type  2   force =     0.00000000   -0.00022682    0.00105090
     atom   18 type  2   force =     0.00000000    0.00022682    0.00105090
     atom   19 type  2   force =     0.00000000    0.00000000    0.01036614

     Total force =     0.014351     Total SCF correction =     0.002447
     SCF correction compared to forces is large: reduce conv_thr to get better values

     Writing all to output data dir ./tmp_s0_O__rpbe/s0_O__rpbe.save/ :
     XML data file, charge density, pseudopotentials, collected wavefunctions

     init_run     :     23.55s CPU     25.21s WALL (       1 calls)
     electrons    :   1054.45s CPU   1103.05s WALL (       1 calls)
     forces       :     10.22s CPU     11.27s WALL (       1 calls)

     Called by init_run:
     wfcinit      :     16.77s CPU     17.35s WALL (       1 calls)
     potinit      :      2.39s CPU      2.69s WALL (       1 calls)
     hinit0       :      2.67s CPU      2.79s WALL (       1 calls)

     Called by electrons:
     c_bands      :    744.02s CPU    762.62s WALL (      22 calls)
     sum_band     :    163.23s CPU    176.97s WALL (      22 calls)
     v_of_rho     :     26.28s CPU     28.88s WALL (      23 calls)
     newd         :     30.09s CPU     42.65s WALL (      23 calls)
     PAW_pot      :      8.02s CPU      8.03s WALL (      23 calls)
     mix_rho      :     83.05s CPU     84.73s WALL (      22 calls)

     Called by c_bands:
     init_us_2    :     12.69s CPU     12.81s WALL (     184 calls)
     cegterg      :    700.21s CPU    718.74s WALL (      88 calls)

     Called by *egterg:
     cdiaghg      :      7.43s CPU      7.43s WALL (     623 calls)
     h_psi        :    494.64s CPU    500.39s WALL (     627 calls)
     s_psi        :     48.59s CPU     48.61s WALL (     627 calls)
     g_psi        :      5.48s CPU      5.49s WALL (     535 calls)

     Called by h_psi:
     h_psi:calbec :     51.83s CPU     51.84s WALL (     627 calls)
     vloc_psi     :    388.04s CPU    388.48s WALL (     627 calls)
                                        0.00s GPU  (     627 calls)
     add_vuspsi   :     51.66s CPU     51.68s WALL (     627 calls)

     General routines
     calbec       :     75.45s CPU     75.48s WALL (     731 calls)
     fft          :     10.99s CPU     11.02s WALL (     308 calls)
     ffts         :     31.00s CPU     31.03s WALL (    2628 calls)
     fftw         :    387.47s CPU    387.77s WALL (   47752 calls)
     interpolate  :      2.19s CPU      2.23s WALL (      23 calls)

     Parallel routines

     PWSCF        :  18m 8.62s CPU  19m 0.12s WALL


   This run was terminated on:  19:18:37   7Aug2026            

=------------------------------------------------------------------------------=
   JOB DONE.
=------------------------------------------------------------------------------=
Note: The following floating-point exceptions are signalling: IEEE_UNDERFLOW_FLAG IEEE_DENORMAL
Note: The following floating-point exceptions are signalling: IEEE_UNDERFLOW_FLAG IEEE_DENORMAL
Note: The following floating-point exceptions are signalling: IEEE_UNDERFLOW_FLAG IEEE_DENORMAL
Note: The following floating-point exceptions are signalling: IEEE_UNDERFLOW_FLAG IEEE_DENORMAL
