
     Program PWSCF v.7.5 starts on 29Aug2026 at  2:27:16 

     This program is part of the open-source Quantum ESPRESSO suite
     for quantum simulation of materials; please cite
         "P. Giannozzi et al., J. Phys.:Condens. Matter 21 395502 (2009);
         "P. Giannozzi et al., J. Phys.:Condens. Matter 29 465901 (2017);
         "P. Giannozzi et al., J. Chem. Phys. 152 154105 (2020);
          URL http://www.quantum-espresso.org", 
     in publications or presentations arising from this work. More details at
     http://www.quantum-espresso.org/quote

     Parallel version (MPI & OpenMP), running on     128 processor cores
     Number of MPI processes:               128
     Threads/MPI process:                     1

     MPI processes distributed on     1 nodes
     234087 MiB available memory on the printing compute node when the environment starts

     Reading input from s0_O__u000.run.in

     Current dimensions of program PWSCF are:
     Max number of different atomic species (ntypx) = 10
     Max number of k-points (npk) =  40000
     Max angular momentum in pseudopotentials (lmaxx) =  4
     file O.pbe-n-kjpaw_psl.0.1.UPF: wavefunction(s)  2P renormalized

     K-points division:     npool     =       8
     R & G space division:  proc/nbgrp/npool/nimage =      16
     Subspace diagonalization in iterative solution of the eigenvalue problem:
     a serial algorithm will be used


     Parallelization info
     --------------------
     sticks:   dense  smooth     PW     G-vecs:    dense   smooth      PW
     Min         218     108     31                57602    20340    3111
     Max         219     109     32                57627    20361    3126
     Sum        3495    1739    505               921821   325653   49881

     Using Slab Decomposition



     bravais-lattice index     =            0
     lattice parameter (alat)  =       5.5911  a.u.
     unit-cell volume          =    3370.6432 (a.u.)^3
     number of atoms/cell      =           19
     number of atomic types    =            2
     number of electrons       =       150.00
     number of Kohn-Sham states=           90
     kinetic-energy cutoff     =      80.0000  Ry
     charge density cutoff     =     640.0000  Ry
     scf convergence threshold =      1.0E-06
     mixing beta               =       0.3000
     number of iterations used =            8  local-TF  mixing
     Exchange-correlation= SLA  PW   PBX  PBC
                           (   1   4   3   4   0   0   0)

     celldm(1)=   5.591133  celldm(2)=   0.000000  celldm(3)=   0.000000
     celldm(4)=   0.000000  celldm(5)=   0.000000  celldm(6)=   0.000000

     crystal axes: (cart. coord. in units of alat)
               a(1) = (   1.000000   0.000000   0.000000 )  
               a(2) = (   0.000000   2.195719   0.000000 )  
               a(3) = (   0.000000   0.000000   8.782875 )  

     reciprocal axes: (cart. coord. in units 2 pi/alat)
               b(1) = (  1.000000  0.000000  0.000000 )  
               b(2) = (  0.000000  0.455432  0.000000 )  
               b(3) = (  0.000000  0.000000  0.113858 )  


     PseudoPot. # 1 for Ti read from file:
     /anvil/projects/x-che260157/pseudo/ti_pbe_v1.4.uspp.F.UPF
     MD5 check sum: 88a00a6731bd790ddea75d31a80cb452
     Pseudo is Ultrasoft + core correction, Zval = 12.0
     Generated by new atomic code, or converted to UPF format
     Using radial grid of  851 points,  6 beta functions with: 
                l(1) =   0
                l(2) =   0
                l(3) =   1
                l(4) =   1
                l(5) =   2
                l(6) =   2
     Q(r) pseudized with  6 coefficients,  rinner =    1.000   1.000   1.000
                                                       1.000   1.000

     PseudoPot. # 2 for O  read from file:
     /anvil/projects/x-che260157/pseudo/O.pbe-n-kjpaw_psl.0.1.UPF
     MD5 check sum: 0234752ac141de4415c5fc33072bef88
     Pseudo is Projector augmented-wave + core cor, Zval =  6.0
     Generated using "atomic" code by A. Dal Corso  v.5.0.99 svn rev. 10869
     Shape of augmentation charge: BESSEL
     Using radial grid of 1095 points,  4 beta functions with: 
                l(1) =   0
                l(2) =   0
                l(3) =   1
                l(4) =   1
     Q(r) pseudized with 0 coefficients 


     atomic species   valence    mass     pseudopotential
     Ti               12.00    47.86700     Ti( 1.00)
     O                 6.00    15.99900     O ( 1.00)

     No symmetry found



   Cartesian axes

     site n.     atom                  positions (alat units)
         1        Ti     tau(   1) = (   0.0000000   1.6467890   3.2935780  )
         2        Ti     tau(   2) = (   0.5000000   0.5489297   3.2935780  )
         3        Ti     tau(   3) = (   0.0000000   0.5489296   4.4353079  )
         4        Ti     tau(   4) = (   0.5000000   1.6467889   4.4368697  )
         5        Ti     tau(   5) = (  -0.0000000   1.6467889   5.6248456  )
         6        Ti     tau(   6) = (   0.5000000   0.5489296   5.5741751  )
         7        O      tau(   7) = (   0.0000000   0.5489297   3.7217432  )
         8        O      tau(   8) = (   0.0000000   0.5489297   2.8654129  )
         9        O      tau(   9) = (   0.5000000   1.2186239   3.2935780  )
        10        O      tau(  10) = (   0.5000000   2.0749541   3.2935780  )
        11        O      tau(  11) = (  -0.0000000   1.6467888   4.8276870  )
        12        O      tau(  12) = (   0.0000000   1.6467890   3.9632722  )
        13        O      tau(  13) = (   0.5000000   0.1173161   4.3978823  )
        14        O      tau(  14) = (   0.5000000   0.9805431   4.3978822  )
        15        O      tau(  15) = (  -0.0000000   0.5489293   5.9392244  )
        16        O      tau(  16) = (   0.0000000   0.5489297   5.0658976  )
        17        O      tau(  17) = (   0.5000000   1.2136566   5.5360461  )
        18        O      tau(  18) = (   0.5000000   2.0799212   5.5360457  )
        19        O      tau(  19) = (  -0.0000000   1.6467886   6.2111009  )

     number of k points=    32  Marzari-Vanderbilt smearing, width (Ry)=  0.0100
                       cart. coord. in units 2pi/alat
        k(    1) = (   0.0000000   0.0000000   0.0000000), wk =   0.0625000
        k(    2) = (   0.0000000   0.1138579   0.0000000), wk =   0.0625000
        k(    3) = (   0.0000000  -0.2277159   0.0000000), wk =   0.0625000
        k(    4) = (   0.0000000  -0.1138579   0.0000000), wk =   0.0625000
        k(    5) = (   0.1250000   0.0000000   0.0000000), wk =   0.0625000
        k(    6) = (   0.1250000   0.1138579   0.0000000), wk =   0.0625000
        k(    7) = (   0.1250000  -0.2277159   0.0000000), wk =   0.0625000
        k(    8) = (   0.1250000  -0.1138579   0.0000000), wk =   0.0625000
        k(    9) = (   0.2500000   0.0000000   0.0000000), wk =   0.0625000
        k(   10) = (   0.2500000   0.1138579   0.0000000), wk =   0.0625000
        k(   11) = (   0.2500000  -0.2277159   0.0000000), wk =   0.0625000
        k(   12) = (   0.2500000  -0.1138579   0.0000000), wk =   0.0625000
        k(   13) = (   0.3750000   0.0000000   0.0000000), wk =   0.0625000
        k(   14) = (   0.3750000   0.1138579   0.0000000), wk =   0.0625000
        k(   15) = (   0.3750000  -0.2277159   0.0000000), wk =   0.0625000
        k(   16) = (   0.3750000  -0.1138579   0.0000000), wk =   0.0625000
        k(   17) = (  -0.5000000   0.0000000   0.0000000), wk =   0.0625000
        k(   18) = (  -0.5000000   0.1138579   0.0000000), wk =   0.0625000
        k(   19) = (  -0.5000000  -0.2277159   0.0000000), wk =   0.0625000
        k(   20) = (  -0.5000000  -0.1138579   0.0000000), wk =   0.0625000
        k(   21) = (  -0.3750000   0.0000000   0.0000000), wk =   0.0625000
        k(   22) = (  -0.3750000   0.1138579   0.0000000), wk =   0.0625000
        k(   23) = (  -0.3750000  -0.2277159   0.0000000), wk =   0.0625000
        k(   24) = (  -0.3750000  -0.1138579   0.0000000), wk =   0.0625000
        k(   25) = (  -0.2500000   0.0000000   0.0000000), wk =   0.0625000
        k(   26) = (  -0.2500000   0.1138579   0.0000000), wk =   0.0625000
        k(   27) = (  -0.2500000  -0.2277159   0.0000000), wk =   0.0625000
        k(   28) = (  -0.2500000  -0.1138579   0.0000000), wk =   0.0625000
        k(   29) = (  -0.1250000   0.0000000   0.0000000), wk =   0.0625000
        k(   30) = (  -0.1250000   0.1138579   0.0000000), wk =   0.0625000
        k(   31) = (  -0.1250000  -0.2277159   0.0000000), wk =   0.0625000
        k(   32) = (  -0.1250000  -0.1138579   0.0000000), wk =   0.0625000

     Dense  grid:   921821 G-vectors     FFT dimensions: (  45, 100, 400)

     Smooth grid:   325653 G-vectors     FFT dimensions: (  32,  72, 288)

     Estimated max dynamical RAM per process >      87.93 MB

     Estimated total dynamical RAM >       9.45 GB

     Check: negative core charge=   -0.000001

     Initial potential from superposition of free atoms

     starting charge     143.9997, renormalised to     150.0000

     negative rho (up, down):  8.665E-03 0.000E+00
     Starting wfcs are  112 randomized atomic wfcs
     Checking if some PAW data can be deallocated... 

     total cpu time spent up to now is        2.8 secs

     per-process dynamical memory:   118.0 Mb

     Self-consistent Calculation

     iteration #  1     ecut=    80.00 Ry     beta= 0.30
     Davidson diagonalization with overlap
     ethr =  1.00E-02,  avg # of iterations =  2.0

     negative rho (up, down):  8.960E-03 0.000E+00

     total cpu time spent up to now is        8.0 secs

     total energy              =   -1259.05426790 Ry
     estimated scf accuracy    <       5.89636100 Ry

     iteration #  2     ecut=    80.00 Ry     beta= 0.30
     Davidson diagonalization with overlap
     ethr =  3.93E-03,  avg # of iterations =  1.0

     negative rho (up, down):  9.274E-03 0.000E+00

     total cpu time spent up to now is       11.3 secs

     total energy              =   -1258.90884376 Ry
     estimated scf accuracy    <       2.27318738 Ry

     iteration #  3     ecut=    80.00 Ry     beta= 0.30
     Davidson diagonalization with overlap
     ethr =  1.52E-03,  avg # of iterations =  2.1

     negative rho (up, down):  9.000E-03 0.000E+00

     total cpu time spent up to now is       16.3 secs

     total energy              =   -1259.05483349 Ry
     estimated scf accuracy    <       1.47787391 Ry

     iteration #  4     ecut=    80.00 Ry     beta= 0.30
     Davidson diagonalization with overlap
     ethr =  9.85E-04,  avg # of iterations =  1.0

     negative rho (up, down):  7.418E-03 0.000E+00

     total cpu time spent up to now is       19.8 secs

     total energy              =   -1258.95971690 Ry
     estimated scf accuracy    <       1.26750360 Ry

     iteration #  5     ecut=    80.00 Ry     beta= 0.30
     Davidson diagonalization with overlap
     ethr =  8.45E-04,  avg # of iterations =  1.0

     negative rho (up, down):  6.976E-03 0.000E+00

     total cpu time spent up to now is       22.8 secs

     total energy              =   -1258.90337554 Ry
     estimated scf accuracy    <       1.00873237 Ry

     iteration #  6     ecut=    80.00 Ry     beta= 0.30
     Davidson diagonalization with overlap
     ethr =  6.72E-04,  avg # of iterations =  2.0

     negative rho (up, down):  7.517E-03 0.000E+00

     total cpu time spent up to now is       26.0 secs

     total energy              =   -1258.89176742 Ry
     estimated scf accuracy    <       1.73158593 Ry

     iteration #  7     ecut=    80.00 Ry     beta= 0.30
     Davidson diagonalization with overlap
     ethr =  6.72E-04,  avg # of iterations =  1.0

     negative rho (up, down):  7.454E-03 0.000E+00

     total cpu time spent up to now is       28.9 secs

     total energy              =   -1259.00386728 Ry
     estimated scf accuracy    <       0.62787874 Ry

     iteration #  8     ecut=    80.00 Ry     beta= 0.30
     Davidson diagonalization with overlap
     ethr =  4.19E-04,  avg # of iterations =  1.0

     negative rho (up, down):  7.627E-03 0.000E+00

     total cpu time spent up to now is       32.6 secs

     total energy              =   -1258.98335353 Ry
     estimated scf accuracy    <       0.83396451 Ry

     iteration #  9     ecut=    80.00 Ry     beta= 0.30
     Davidson diagonalization with overlap
     ethr =  4.19E-04,  avg # of iterations =  1.0

     negative rho (up, down):  7.649E-03 0.000E+00

     total cpu time spent up to now is       36.3 secs

     total energy              =   -1258.96208368 Ry
     estimated scf accuracy    <       0.59372698 Ry

     iteration # 10     ecut=    80.00 Ry     beta= 0.30
     Davidson diagonalization with overlap
     ethr =  3.96E-04,  avg # of iterations =  1.0

     negative rho (up, down):  7.616E-03 0.000E+00

     total cpu time spent up to now is       39.3 secs

     total energy              =   -1258.97268299 Ry
     estimated scf accuracy    <       0.08402116 Ry

     iteration # 11     ecut=    80.00 Ry     beta= 0.30
     Davidson diagonalization with overlap
     ethr =  5.60E-05,  avg # of iterations =  3.8

     negative rho (up, down):  7.919E-03 0.000E+00

     total cpu time spent up to now is       43.1 secs

     total energy              =   -1258.97144445 Ry
     estimated scf accuracy    <       0.11262454 Ry

     iteration # 12     ecut=    80.00 Ry     beta= 0.30
     Davidson diagonalization with overlap
     ethr =  5.60E-05,  avg # of iterations =  1.1

     negative rho (up, down):  8.127E-03 0.000E+00

     total cpu time spent up to now is       46.6 secs

     total energy              =   -1258.96781371 Ry
     estimated scf accuracy    <       0.08320442 Ry

     iteration # 13     ecut=    80.00 Ry     beta= 0.30
     Davidson diagonalization with overlap
     ethr =  5.55E-05,  avg # of iterations =  2.6

     negative rho (up, down):  9.040E-03 0.000E+00

     total cpu time spent up to now is       50.2 secs

     total energy              =   -1258.96199826 Ry
     estimated scf accuracy    <       0.23698055 Ry

     iteration # 14     ecut=    80.00 Ry     beta= 0.30
     Davidson diagonalization with overlap
     ethr =  5.55E-05,  avg # of iterations =  2.8

     negative rho (up, down):  8.825E-03 0.000E+00

     total cpu time spent up to now is       54.6 secs

     total energy              =   -1258.96733600 Ry
     estimated scf accuracy    <       0.62392829 Ry

     iteration # 15     ecut=    80.00 Ry     beta= 0.30
     Davidson diagonalization with overlap
     ethr =  5.55E-05,  avg # of iterations =  1.0

     negative rho (up, down):  8.766E-03 0.000E+00

     total cpu time spent up to now is       57.5 secs

     total energy              =   -1258.96723878 Ry
     estimated scf accuracy    <       0.13490052 Ry

     iteration # 16     ecut=    80.00 Ry     beta= 0.30
     Davidson diagonalization with overlap
     ethr =  5.55E-05,  avg # of iterations =  1.0

     negative rho (up, down):  8.406E-03 0.000E+00

     total cpu time spent up to now is       60.3 secs

     total energy              =   -1258.96701909 Ry
     estimated scf accuracy    <       0.02449999 Ry

     iteration # 17     ecut=    80.00 Ry     beta= 0.30
     Davidson diagonalization with overlap
     c_bands:  1 eigenvalues not converged
     ethr =  1.63E-05,  avg # of iterations =  9.7

     negative rho (up, down):  8.183E-03 0.000E+00

     total cpu time spent up to now is       64.6 secs

     total energy              =   -1258.96721105 Ry
     estimated scf accuracy    <       0.01156508 Ry

     iteration # 18     ecut=    80.00 Ry     beta= 0.30
     Davidson diagonalization with overlap
     ethr =  7.71E-06,  avg # of iterations =  4.2

     negative rho (up, down):  7.707E-03 0.000E+00

     total cpu time spent up to now is       68.1 secs

     total energy              =   -1258.96699571 Ry
     estimated scf accuracy    <       0.00146827 Ry

     iteration # 19     ecut=    80.00 Ry     beta= 0.30
     Davidson diagonalization with overlap
     ethr =  9.79E-07,  avg # of iterations =  5.3

     negative rho (up, down):  7.690E-03 0.000E+00

     total cpu time spent up to now is       71.8 secs

     total energy              =   -1258.96699528 Ry
     estimated scf accuracy    <       0.00300693 Ry

     iteration # 20     ecut=    80.00 Ry     beta= 0.30
     Davidson diagonalization with overlap
     ethr =  9.79E-07,  avg # of iterations =  1.0

     negative rho (up, down):  8.008E-03 0.000E+00

     total cpu time spent up to now is       74.7 secs

     total energy              =   -1258.96687329 Ry
     estimated scf accuracy    <       0.00192764 Ry

     iteration # 21     ecut=    80.00 Ry     beta= 0.30
     Davidson diagonalization with overlap
     ethr =  9.79E-07,  avg # of iterations =  1.1

     negative rho (up, down):  8.840E-03 0.000E+00

     total cpu time spent up to now is       78.0 secs

     total energy              =   -1258.96683246 Ry
     estimated scf accuracy    <       0.00326407 Ry

     iteration # 22     ecut=    80.00 Ry     beta= 0.30
     Davidson diagonalization with overlap
     ethr =  9.79E-07,  avg # of iterations =  1.0

     negative rho (up, down):  9.633E-03 0.000E+00

     total cpu time spent up to now is       81.7 secs

     total energy              =   -1258.96685945 Ry
     estimated scf accuracy    <       0.00053876 Ry

     iteration # 23     ecut=    80.00 Ry     beta= 0.30
     Davidson diagonalization with overlap
     ethr =  3.59E-07,  avg # of iterations =  1.5

     negative rho (up, down):  9.645E-03 0.000E+00

     total cpu time spent up to now is       84.8 secs

     total energy              =   -1258.96687333 Ry
     estimated scf accuracy    <       0.00018964 Ry

     iteration # 24     ecut=    80.00 Ry     beta= 0.30
     Davidson diagonalization with overlap
     ethr =  1.26E-07,  avg # of iterations =  2.0

     negative rho (up, down):  9.594E-03 0.000E+00

     total cpu time spent up to now is       87.9 secs

     total energy              =   -1258.96688621 Ry
     estimated scf accuracy    <       0.00015296 Ry

     iteration # 25     ecut=    80.00 Ry     beta= 0.30
     Davidson diagonalization with overlap
     ethr =  1.02E-07,  avg # of iterations =  1.0

     negative rho (up, down):  8.568E-03 0.000E+00

     total cpu time spent up to now is       90.8 secs

     total energy              =   -1258.96689076 Ry
     estimated scf accuracy    <       0.00010387 Ry

     iteration # 26     ecut=    80.00 Ry     beta= 0.30
     Davidson diagonalization with overlap
     ethr =  6.92E-08,  avg # of iterations =  1.0

     negative rho (up, down):  8.115E-03 0.000E+00

     total cpu time spent up to now is       93.7 secs

     total energy              =   -1258.96690353 Ry
     estimated scf accuracy    <       0.00001516 Ry

     iteration # 27     ecut=    80.00 Ry     beta= 0.30
     Davidson diagonalization with overlap
     ethr =  1.01E-08,  avg # of iterations =  2.2

     negative rho (up, down):  8.080E-03 0.000E+00

     total cpu time spent up to now is       97.0 secs

     total energy              =   -1258.96690631 Ry
     estimated scf accuracy    <       0.00000924 Ry

     iteration # 28     ecut=    80.00 Ry     beta= 0.30
     Davidson diagonalization with overlap
     ethr =  6.16E-09,  avg # of iterations =  1.0

     negative rho (up, down):  7.737E-03 0.000E+00

     total cpu time spent up to now is       99.9 secs

     total energy              =   -1258.96690959 Ry
     estimated scf accuracy    <       0.00000885 Ry

     iteration # 29     ecut=    80.00 Ry     beta= 0.30
     Davidson diagonalization with overlap
     ethr =  5.90E-09,  avg # of iterations =  1.7

     negative rho (up, down):  7.874E-03 0.000E+00

     total cpu time spent up to now is      102.9 secs

     total energy              =   -1258.96691022 Ry
     estimated scf accuracy    <       0.00001136 Ry

     iteration # 30     ecut=    80.00 Ry     beta= 0.30
     Davidson diagonalization with overlap
     ethr =  5.90E-09,  avg # of iterations =  1.0

     negative rho (up, down):  7.871E-03 0.000E+00

     total cpu time spent up to now is      105.8 secs

     End of self-consistent calculation

          k = 0.0000 0.0000 0.0000 ( 40639 PWs)   bands (ev):

   -58.8346 -58.0059 -57.9969 -57.6384 -57.4388 -57.1851 -35.0883 -35.0803
   -34.9049 -34.3648 -34.2789 -34.2210 -34.1889 -34.1347 -34.1072 -33.9866
   -33.8842 -33.7722 -33.7324 -33.6868 -33.5399 -33.5197 -33.4871 -33.3530
   -19.5366 -19.1696 -18.8074 -18.4709 -18.1739 -18.0793 -17.9953 -17.7442
   -17.6732 -17.5511 -17.2269 -16.8227 -16.7790  -7.2727  -6.8256  -6.4752
    -6.1927  -5.8224  -5.7428  -5.6934  -5.2234  -5.1547  -5.0896  -4.9628
    -4.5734  -4.5031  -4.4311  -4.3602  -4.3090  -3.8876  -3.8425  -3.7587
    -3.4953  -3.4117  -3.2896  -3.1039  -2.9652  -2.8579  -2.8402  -2.7044
    -2.5103  -2.4302  -2.3888  -2.2521  -2.1643  -1.9751  -1.7709  -1.7674
    -1.7125  -1.6419  -1.5391  -1.2900   0.1960   0.7452   0.7515   1.3029
     1.3033   1.3492   1.3607   1.5459   1.7726   1.8714   1.9545   2.0639
     2.8115   2.8970

          k = 0.0000 0.1139 0.0000 ( 40609 PWs)   bands (ev):

   -58.8346 -58.0047 -57.9981 -57.6384 -57.4388 -57.1852 -35.0883 -35.0774
   -34.9049 -34.3415 -34.2786 -34.2217 -34.2129 -34.1333 -34.1086 -33.9906
   -33.8842 -33.7588 -33.7324 -33.6868 -33.5397 -33.5198 -33.5014 -33.3532
   -19.4195 -19.0549 -18.6983 -18.5640 -18.3651 -18.1044 -17.9687 -17.8224
   -17.6766 -17.6133 -17.2229 -16.8207 -16.7787  -6.9768  -6.5430  -6.2930
    -6.1057  -5.7919  -5.6532  -5.5928  -5.2318  -5.0415  -4.9632  -4.9623
    -4.5807  -4.5255  -4.4986  -4.4304  -4.3375  -4.1489  -4.1080  -3.8583
    -3.8205  -3.4851  -3.3588  -3.1724  -3.0419  -3.0078  -2.7869  -2.6853
    -2.5701  -2.5476  -2.4681  -2.3341  -2.2533  -2.0362  -1.9167  -1.7771
    -1.7618  -1.6506  -1.6419  -1.3951   0.4258   0.7424   1.0452   1.3350
     1.3978   1.5570   1.6398   1.7987   1.8033   1.9087   1.9274   2.1349
     2.5296   2.6847

          k = 0.0000-0.2277 0.0000 ( 40526 PWs)   bands (ev):

   -58.8346 -58.0027 -58.0002 -57.6384 -57.4388 -57.1852 -35.0883 -35.0743
   -34.9049 -34.3000 -34.2781 -34.2561 -34.2213 -34.1317 -34.1102 -33.9946
   -33.8842 -33.7438 -33.7323 -33.6869 -33.5396 -33.5193 -33.5180 -33.3534
   -19.2405 -18.8651 -18.7774 -18.5818 -18.4103 -18.3116 -17.9449 -17.9002
   -17.6804 -17.6575 -17.2199 -16.8190 -16.7787  -6.5801  -6.2881  -6.1420
    -5.7976  -5.7454  -5.6103  -5.3811  -5.1545  -4.9899  -4.9611  -4.8930
    -4.6709  -4.5478  -4.5085  -4.4593  -4.4411  -4.4283  -4.3952  -4.1567
    -4.1130  -3.6458  -3.4689  -3.4359  -3.0955  -3.0462  -2.9034  -2.6816
    -2.6759  -2.5704  -2.5230  -2.3318  -2.2980  -1.9792  -1.9100  -1.8013
    -1.7776  -1.6565  -1.6318  -1.5914   0.5741   0.7407   1.2983   1.3952
     1.4882   1.7012   1.8330   1.8576   1.9032   2.0190   2.0900   2.2430
     2.2926   2.4364

          k = 0.0000-0.1139 0.0000 ( 40609 PWs)   bands (ev):

   -58.8346 -58.0047 -57.9981 -57.6384 -57.4388 -57.1852 -35.0883 -35.0774
   -34.9049 -34.3415 -34.2786 -34.2217 -34.2129 -34.1333 -34.1086 -33.9906
   -33.8842 -33.7588 -33.7324 -33.6868 -33.5397 -33.5198 -33.5014 -33.3532
   -19.4195 -19.0549 -18.6983 -18.5640 -18.3651 -18.1044 -17.9687 -17.8224
   -17.6766 -17.6133 -17.2229 -16.8207 -16.7787  -6.9768  -6.5430  -6.2930
    -6.1057  -5.7919  -5.6532  -5.5928  -5.2318  -5.0415  -4.9632  -4.9623
    -4.5807  -4.5255  -4.4986  -4.4304  -4.3375  -4.1489  -4.1080  -3.8583
    -3.8205  -3.4851  -3.3588  -3.1724  -3.0419  -3.0078  -2.7869  -2.6853
    -2.5701  -2.5476  -2.4681  -2.3341  -2.2533  -2.0362  -1.9167  -1.7771
    -1.7618  -1.6506  -1.6419  -1.3951   0.4258   0.7424   1.0452   1.3350
     1.3978   1.5570   1.6398   1.7987   1.8033   1.9077   1.9274   2.0698
     2.1349   2.5307

          k = 0.1250 0.0000 0.0000 ( 40652 PWs)   bands (ev):

   -58.8287 -57.9997 -57.9912 -57.6325 -57.4326 -57.1792 -35.0834 -35.0641
   -34.9731 -34.3473 -34.2671 -34.2162 -34.2007 -34.1862 -34.1751 -33.9825
   -33.8690 -33.7621 -33.7562 -33.7250 -33.6080 -33.5150 -33.4766 -33.4197
   -19.3929 -19.0280 -18.6816 -18.3503 -18.2501 -17.9922 -17.8858 -17.8119
   -17.7346 -17.6080 -17.2585 -16.8762 -16.7470  -7.0730  -6.6387  -6.2990
    -6.0303  -5.9159  -5.6671  -5.6219  -5.4576  -5.2770  -5.1350  -4.9334
    -4.7609  -4.5213  -4.3745  -4.1676  -4.0907  -3.8247  -3.7414  -3.5901
    -3.5300  -3.4003  -3.3843  -3.2470  -3.1599  -2.9331  -2.9226  -2.7560
    -2.7271  -2.5341  -2.4806  -2.3697  -2.3162  -2.2716  -2.1163  -1.9902
    -1.7331  -1.6697  -1.6363  -1.3707   0.4774   0.7268   1.0314   1.0571
     1.4323   1.5350   1.5485   1.6589   1.7854   1.7967   2.0312   2.1257
     2.1858   2.7142

          k = 0.1250 0.1139 0.0000 ( 40695 PWs)   bands (ev):

   -58.8287 -57.9986 -57.9923 -57.6325 -57.4325 -57.1793 -35.0834 -35.0616
   -34.9734 -34.3265 -34.2669 -34.2215 -34.2137 -34.1904 -34.1743 -33.9855
   -33.8690 -33.7562 -33.7519 -33.7249 -33.6082 -33.5149 -33.4887 -33.4186
   -19.2815 -18.9197 -18.5787 -18.4820 -18.3566 -18.0161 -17.9078 -17.8757
   -17.7337 -17.6559 -17.2548 -16.8746 -16.7464  -6.7801  -6.3593  -6.1148
    -5.9453  -5.8424  -5.7035  -5.5099  -5.3728  -5.3053  -5.0754  -4.8582
    -4.6829  -4.5419  -4.3893  -4.2331  -4.1424  -4.0713  -3.8955  -3.8239
    -3.7503  -3.6706  -3.4960  -3.4006  -3.2478  -3.0208  -2.9557  -2.8846
    -2.7435  -2.6186  -2.4446  -2.4143  -2.3668  -2.2565  -2.1798  -1.9737
    -1.7490  -1.6638  -1.6056  -1.4304   0.6765   0.7649   1.1256   1.3198
     1.4546   1.6363   1.7284   1.8117   1.8744   1.9733   2.0452   2.1198
     2.2656   2.5866

          k = 0.1250-0.2277 0.0000 ( 40666 PWs)   bands (ev):

   -58.8287 -57.9968 -57.9941 -57.6325 -57.4325 -57.1793 -35.0834 -35.0590
   -34.9737 -34.2852 -34.2665 -34.2620 -34.2158 -34.1879 -34.1766 -33.9885
   -33.8690 -33.7562 -33.7406 -33.7249 -33.6085 -33.5144 -33.5017 -33.4178
   -19.1015 -18.7608 -18.6590 -18.5696 -18.3061 -18.2268 -17.9437 -17.8958
   -17.7163 -17.6982 -17.2520 -16.8733 -16.7461  -6.3559  -6.1181  -5.9553
    -5.8544  -5.6662  -5.5518  -5.3962  -5.3917  -5.2820  -4.8759  -4.8367
    -4.7250  -4.4927  -4.4477  -4.3822  -4.3354  -4.2889  -4.1924  -4.0229
    -3.9918  -3.8194  -3.6860  -3.6296  -3.4963  -3.1315  -3.0445  -2.9628
    -2.7770  -2.5450  -2.5145  -2.4029  -2.2839  -2.2255  -2.0958  -1.9052
    -1.8458  -1.6072  -1.5899  -1.5229   0.7319   0.8504   1.2645   1.4727
     1.4734   1.7026   1.8907   1.9723   2.0176   2.1127   2.1200   2.2237
     2.3961   2.4052

          k = 0.1250-0.1139 0.0000 ( 40695 PWs)   bands (ev):

   -58.8287 -57.9986 -57.9923 -57.6325 -57.4325 -57.1793 -35.0834 -35.0616
   -34.9734 -34.3265 -34.2669 -34.2215 -34.2137 -34.1904 -34.1743 -33.9855
   -33.8690 -33.7562 -33.7519 -33.7249 -33.6082 -33.5149 -33.4887 -33.4186
   -19.2815 -18.9197 -18.5787 -18.4820 -18.3566 -18.0161 -17.9078 -17.8757
   -17.7337 -17.6559 -17.2548 -16.8746 -16.7464  -6.7801  -6.3593  -6.1148
    -5.9453  -5.8424  -5.7035  -5.5099  -5.3728  -5.3053  -5.0754  -4.8582
    -4.6829  -4.5419  -4.3893  -4.2331  -4.1424  -4.0713  -3.8955  -3.8239
    -3.7503  -3.6706  -3.4960  -3.4006  -3.2478  -3.0208  -2.9557  -2.8846
    -2.7435  -2.6186  -2.4446  -2.4143  -2.3668  -2.2565  -2.1798  -1.9737
    -1.7490  -1.6638  -1.6056  -1.4304   0.6765   0.7649   1.1256   1.3198
     1.4546   1.6363   1.7284   1.8117   1.8744   1.9733   2.0452   2.1198
     2.2656   2.5864

          k = 0.2500 0.0000 0.0000 ( 40766 PWs)   bands (ev):

   -58.8145 -57.9845 -57.9776 -57.6181 -57.4174 -57.1650 -35.1345 -35.0716
   -35.0245 -34.3626 -34.3498 -34.3027 -34.2215 -34.2019 -34.1814 -33.9728
   -33.9199 -33.8319 -33.8079 -33.7384 -33.6671 -33.5830 -33.4980 -33.4504
   -19.0369 -18.6716 -18.4331 -18.3747 -18.0705 -17.9756 -17.8901 -17.8277
   -17.7462 -17.6635 -17.2946 -16.9513 -16.6664  -6.5652  -6.1777  -6.0407
    -5.8801  -5.7559  -5.6965  -5.5436  -5.3881  -5.3834  -5.0348  -4.9107
    -4.8624  -4.7421  -4.3971  -4.3259  -4.1238  -4.0483  -3.9658  -3.8709
    -3.8279  -3.3967  -3.3837  -3.3586  -3.2849  -3.1968  -3.1541  -2.9759
    -2.7680  -2.6394  -2.6091  -2.5915  -2.4955  -2.3544  -2.1586  -2.1024
    -1.8072  -1.7608  -1.7354  -1.6680   0.7108   0.8874   0.9179   1.4376
     1.4664   1.5311   1.7569   1.8106   2.0452   2.1137   2.2897   2.2927
     2.4046   2.4118

          k = 0.2500 0.1139 0.0000 ( 40754 PWs)   bands (ev):

   -58.8145 -57.9837 -57.9784 -57.6181 -57.4173 -57.1650 -35.1353 -35.0716
   -35.0231 -34.3703 -34.3529 -34.2787 -34.2212 -34.2023 -34.1946 -33.9736
   -33.9197 -33.8319 -33.8082 -33.7392 -33.6671 -33.5755 -33.4981 -33.4567
   -18.9578 -18.5969 -18.5328 -18.2999 -18.1720 -17.9828 -17.9234 -17.8125
   -17.7972 -17.6509 -17.2930 -16.9510 -16.6661  -6.3286  -5.9491  -5.9337
    -5.7467  -5.6529  -5.6131  -5.5415  -5.3679  -5.3390  -5.1788  -4.9703
    -4.9271  -4.6574  -4.5131  -4.3896  -4.1811  -4.1766  -3.9365  -3.8709
    -3.7195  -3.6471  -3.5775  -3.4528  -3.4021  -3.3597  -3.2401  -3.1580
    -2.8639  -2.6188  -2.5671  -2.5142  -2.4545  -2.2745  -2.2164  -2.1013
    -1.8202  -1.7864  -1.7126  -1.6478   0.7370   0.9161   1.1100   1.4132
     1.4613   1.6722   1.8454   1.8662   2.0657   2.2058   2.2780   2.3268
     2.4375   2.4435

          k = 0.2500-0.2277 0.0000 ( 40742 PWs)   bands (ev):

   -58.8145 -57.9826 -57.9795 -57.6181 -57.4173 -57.1650 -35.1362 -35.0716
   -35.0216 -34.3754 -34.3556 -34.2453 -34.2213 -34.2198 -34.2027 -33.9745
   -33.9196 -33.8319 -33.8085 -33.7402 -33.6671 -33.5671 -33.4981 -33.4639
   -18.7596 -18.7534 -18.4331 -18.3569 -18.1208 -18.1041 -17.9746 -17.8179
   -17.7943 -17.6473 -17.2915 -16.9508 -16.6660  -5.9896  -5.8233  -5.7735
    -5.5536  -5.5444  -5.4970  -5.4038  -5.3197  -5.2757  -5.2194  -5.1117
    -4.9354  -4.9280  -4.6843  -4.4478  -4.1973  -4.0558  -4.0401  -4.0083
    -3.9051  -3.8953  -3.6927  -3.5836  -3.4867  -3.4347  -3.2048  -3.1767
    -3.0846  -2.6334  -2.5657  -2.4739  -2.4596  -2.2425  -2.0939  -2.0683
    -1.8835  -1.7850  -1.6748  -1.6324   0.8177   0.8788   1.2468   1.4282
     1.4302   1.7104   1.8678   2.0882   2.1107   2.2787   2.3079   2.3441
     2.4747   2.5453

          k = 0.2500-0.1139 0.0000 ( 40754 PWs)   bands (ev):

   -58.8145 -57.9837 -57.9784 -57.6181 -57.4173 -57.1650 -35.1353 -35.0716
   -35.0231 -34.3703 -34.3529 -34.2787 -34.2212 -34.2023 -34.1946 -33.9736
   -33.9197 -33.8319 -33.8082 -33.7392 -33.6671 -33.5755 -33.4981 -33.4567
   -18.9578 -18.5969 -18.5328 -18.2999 -18.1720 -17.9828 -17.9234 -17.8125
   -17.7972 -17.6509 -17.2930 -16.9510 -16.6661  -6.3286  -5.9491  -5.9337
    -5.7467  -5.6529  -5.6131  -5.5415  -5.3679  -5.3390  -5.1788  -4.9703
    -4.9271  -4.6574  -4.5131  -4.3896  -4.1811  -4.1766  -3.9365  -3.8709
    -3.7195  -3.6471  -3.5775  -3.4528  -3.4021  -3.3597  -3.2401  -3.1580
    -2.8639  -2.6188  -2.5671  -2.5142  -2.4545  -2.2745  -2.2164  -2.1013
    -1.8202  -1.7864  -1.7126  -1.6478   0.7370   0.9161   1.1100   1.4132
     1.4613   1.6722   1.8454   1.8662   2.0657   2.2058   2.2780   2.3268
     2.4376   2.4435

          k = 0.3750 0.0000 0.0000 ( 40826 PWs)   bands (ev):

   -58.8002 -57.9690 -57.9642 -57.6037 -57.4021 -57.1506 -35.2914 -35.0599
   -34.9844 -34.5164 -34.5101 -34.2510 -34.1936 -34.1860 -34.1832 -34.0771
   -33.9700 -33.9632 -33.7942 -33.7369 -33.7157 -33.6403 -33.4861 -33.4228
   -18.6625 -18.6149 -18.2730 -18.1395 -18.1151 -17.9945 -17.8854 -17.8214
   -17.7839 -17.6012 -17.1928 -16.8847 -16.5825  -6.0507  -5.9522  -5.8718
    -5.7229  -5.6625  -5.6406  -5.5884  -5.4474  -5.3561  -5.2787  -5.2537
    -4.9336  -4.6797  -4.5217  -4.3199  -4.3156  -4.1248  -4.0471  -3.9712
    -3.9151  -3.9073  -3.7761  -3.4239  -3.3860  -3.2425  -3.1242  -3.0687
    -2.6783  -2.6051  -2.5879  -2.4511  -2.3876  -2.2845  -2.2245  -2.1251
    -2.0239  -1.9496  -1.7995  -1.7737   0.4899   1.0961   1.2073   1.3666
     1.6945   1.7583   1.8725   1.9880   1.9980   2.1640   2.2815   2.3585
     2.4971   2.6175

          k = 0.3750 0.1139 0.0000 ( 40790 PWs)   bands (ev):

   -58.8002 -57.9687 -57.9645 -57.6037 -57.4021 -57.1506 -35.2927 -35.0599
   -34.9841 -34.5211 -34.5122 -34.2371 -34.1933 -34.1900 -34.1860 -34.0768
   -33.9704 -33.9620 -33.7942 -33.7708 -33.6793 -33.6403 -33.4861 -33.4243
   -18.8128 -18.4741 -18.3620 -18.1550 -18.0774 -18.0287 -17.8440 -17.7994
   -17.7292 -17.6040 -17.1937 -16.8854 -16.5834  -6.1900  -5.9445  -5.8921
    -5.7319  -5.6305  -5.5548  -5.4843  -5.4747  -5.3197  -5.2462  -5.1726
    -4.9155  -4.6370  -4.5759  -4.3858  -4.2626  -4.1737  -4.0598  -3.9508
    -3.8158  -3.7732  -3.6026  -3.5197  -3.4105  -3.3081  -3.1129  -3.0393
    -2.8641  -2.7298  -2.5083  -2.4709  -2.3670  -2.3395  -2.2634  -2.1048
    -2.0748  -1.9984  -1.8418  -1.8099   0.4765   0.9135   1.2034   1.2545
     1.5669   1.6814   1.9670   1.9774   2.1902   2.2377   2.2894   2.3416
     2.5078   2.5952

          k = 0.3750-0.2277 0.0000 ( 40742 PWs)   bands (ev):

   -58.8002 -57.9683 -57.9649 -57.6037 -57.4021 -57.1506 -35.2939 -35.0599
   -34.9839 -34.5263 -34.5135 -34.2126 -34.2075 -34.1929 -34.1864 -34.0766
   -33.9708 -33.9608 -33.7942 -33.7879 -33.6597 -33.6403 -33.4862 -33.4259
   -18.8839 -18.4585 -18.3694 -18.1967 -18.0773 -17.9981 -17.8472 -17.7669
   -17.6765 -17.6070 -17.1950 -16.8861 -16.5842  -6.2491  -6.0146  -5.8289
    -5.7507  -5.6596  -5.6259  -5.5033  -5.3230  -5.2779  -5.0298  -4.9974
    -4.9701  -4.8417  -4.4249  -4.3341  -4.2294  -4.1317  -4.0679  -4.0246
    -3.9065  -3.7053  -3.7009  -3.5107  -3.3305  -3.2011  -3.1426  -3.0026
    -2.9357  -2.6487  -2.6465  -2.5364  -2.4674  -2.3854  -2.3191  -2.2003
    -1.9752  -1.9180  -1.9178  -1.8966   0.5084   0.6594   1.1322   1.2811
     1.4989   1.6757   1.9541   2.0249   2.1529   2.2639   2.3942   2.4112
     2.5225   2.6037

          k = 0.3750-0.1139 0.0000 ( 40790 PWs)   bands (ev):

   -58.8002 -57.9687 -57.9645 -57.6037 -57.4021 -57.1506 -35.2927 -35.0599
   -34.9841 -34.5211 -34.5122 -34.2371 -34.1933 -34.1900 -34.1860 -34.0768
   -33.9704 -33.9620 -33.7942 -33.7708 -33.6793 -33.6403 -33.4861 -33.4243
   -18.8128 -18.4741 -18.3620 -18.1550 -18.0774 -18.0287 -17.8440 -17.7994
   -17.7292 -17.6040 -17.1937 -16.8854 -16.5834  -6.1900  -5.9445  -5.8921
    -5.7319  -5.6305  -5.5548  -5.4843  -5.4747  -5.3197  -5.2462  -5.1726
    -4.9155  -4.6370  -4.5759  -4.3858  -4.2626  -4.1737  -4.0598  -3.9508
    -3.8158  -3.7732  -3.6026  -3.5197  -3.4105  -3.3081  -3.1129  -3.0393
    -2.8641  -2.7298  -2.5083  -2.4709  -2.3670  -2.3395  -2.2634  -2.1048
    -2.0748  -1.9984  -1.8418  -1.8099   0.4765   0.9135   1.2034   1.2545
     1.5669   1.6814   1.9670   1.9774   2.1902   2.2377   2.2894   2.3416
     2.5077   2.5951

          k =-0.5000 0.0000 0.0000 ( 40852 PWs)   bands (ev):

   -58.7943 -57.9624 -57.9588 -57.5977 -57.3958 -57.1447 -35.3553 -35.0552
   -34.9675 -34.5777 -34.5771 -34.2204 -34.1946 -34.1931 -34.1717 -34.1366
   -34.0363 -33.9592 -33.7998 -33.7785 -33.7065 -33.6272 -33.4808 -33.4110
   -18.6898 -18.4969 -18.2073 -18.1502 -18.0598 -17.9433 -17.8869 -17.8779
   -17.6936 -17.6266 -17.1119 -16.8109 -16.5467  -6.0302  -6.0061  -5.8596
    -5.8448  -5.6495  -5.6208  -5.5061  -5.4874  -5.3611  -5.3388  -5.1378
    -4.7115  -4.6979  -4.6782  -4.5478  -4.4999  -4.1774  -4.1561  -3.9291
    -3.9224  -3.6926  -3.6336  -3.6229  -3.3313  -3.1620  -3.1055  -2.9658
    -2.7196  -2.6395  -2.5503  -2.4752  -2.4652  -2.3626  -2.2652  -2.2377
    -2.1400  -1.8939  -1.7746  -1.7355   0.4464   1.1765   1.3069   1.5511
     1.5565   1.8141   2.0016   2.0193   2.0233   2.0465   2.1141   2.3073
     2.4683   2.5640

          k =-0.5000 0.1139 0.0000 ( 40798 PWs)   bands (ev):

   -58.7943 -57.9624 -57.9588 -57.5977 -57.3958 -57.1447 -35.3566 -35.0552
   -34.9678 -34.5833 -34.5777 -34.2141 -34.1945 -34.1923 -34.1717 -34.1363
   -34.0367 -33.9572 -33.8195 -33.7785 -33.6861 -33.6272 -33.4808 -33.4105
   -18.8527 -18.3923 -18.3174 -18.1483 -18.1381 -17.8799 -17.8727 -17.7004
   -17.6828 -17.6287 -17.1107 -16.8106 -16.5483  -6.4016  -6.1269  -5.9936
    -5.8348  -5.7610  -5.6146  -5.4279  -5.3015  -5.2644  -5.1026  -4.9533
    -4.7937  -4.7107  -4.5682  -4.5124  -4.2317  -4.1844  -4.0689  -3.9346
    -3.9050  -3.8340  -3.6327  -3.5587  -3.3933  -3.0237  -2.9241  -2.8727
    -2.8163  -2.7205  -2.6039  -2.5006  -2.4590  -2.3254  -2.2877  -2.2457
    -2.2359  -2.0286  -1.9015  -1.8183   0.4097   0.8123   1.1939   1.2075
     1.5229   1.8373   2.0154   2.0331   2.0413   2.2005   2.2458   2.3896
     2.4653   2.6527

          k =-0.5000-0.2277 0.0000 ( 40760 PWs)   bands (ev):

   -58.7943 -57.9624 -57.9588 -57.5977 -57.3958 -57.1447 -35.3579 -35.0552
   -34.9681 -34.5887 -34.5784 -34.2081 -34.1945 -34.1916 -34.1717 -34.1360
   -34.0371 -33.9552 -33.8344 -33.7785 -33.6705 -33.6273 -33.4808 -33.4100
   -18.9456 -18.4812 -18.2276 -18.2225 -18.1463 -17.8723 -17.7716 -17.7079
   -17.6308 -17.5884 -17.1094 -16.8102 -16.5499  -6.5813  -6.3092  -5.9480
    -5.9478  -5.8218  -5.6300  -5.2923  -5.1555  -5.1347  -5.0659  -4.9992
    -4.8731  -4.6415  -4.5805  -4.2193  -4.1967  -4.0171  -3.9623  -3.9222
    -3.9126  -3.7608  -3.5887  -3.5753  -3.4117  -3.0272  -2.9988  -2.9329
    -2.6977  -2.6787  -2.5072  -2.4655  -2.4168  -2.4057  -2.3838  -2.3520
    -2.1877  -2.1611  -2.1586  -1.8879   0.3733   0.5192   0.9560   1.2088
     1.4893   1.7306   2.0259   2.0290   2.0362   2.1973   2.4280   2.4484
     2.4720   2.6580

          k =-0.5000-0.1139 0.0000 ( 40798 PWs)   bands (ev):

   -58.7943 -57.9624 -57.9588 -57.5977 -57.3958 -57.1447 -35.3566 -35.0552
   -34.9678 -34.5833 -34.5777 -34.2141 -34.1945 -34.1923 -34.1717 -34.1363
   -34.0367 -33.9572 -33.8195 -33.7785 -33.6861 -33.6272 -33.4808 -33.4105
   -18.8527 -18.3923 -18.3174 -18.1483 -18.1381 -17.8799 -17.8727 -17.7004
   -17.6828 -17.6287 -17.1107 -16.8106 -16.5483  -6.4016  -6.1269  -5.9936
    -5.8348  -5.7610  -5.6146  -5.4279  -5.3015  -5.2644  -5.1026  -4.9533
    -4.7937  -4.7107  -4.5682  -4.5124  -4.2317  -4.1844  -4.0689  -3.9346
    -3.9050  -3.8340  -3.6327  -3.5587  -3.3933  -3.0237  -2.9241  -2.8727
    -2.8163  -2.7205  -2.6039  -2.5006  -2.4590  -2.3254  -2.2877  -2.2457
    -2.2359  -2.0286  -1.9015  -1.8183   0.4097   0.8123   1.1939   1.2075
     1.5229   1.8373   2.0154   2.0331   2.0413   2.2005   2.2459   2.3896
     2.4653   2.6527

          k =-0.3750 0.0000 0.0000 ( 40826 PWs)   bands (ev):

   -58.8002 -57.9690 -57.9642 -57.6037 -57.4021 -57.1506 -35.2914 -35.0599
   -34.9844 -34.5164 -34.5101 -34.2510 -34.1936 -34.1860 -34.1832 -34.0771
   -33.9700 -33.9632 -33.7942 -33.7369 -33.7157 -33.6403 -33.4861 -33.4228
   -18.6625 -18.6149 -18.2730 -18.1395 -18.1151 -17.9945 -17.8854 -17.8214
   -17.7839 -17.6012 -17.1928 -16.8847 -16.5825  -6.0507  -5.9522  -5.8718
    -5.7229  -5.6625  -5.6406  -5.5884  -5.4474  -5.3561  -5.2787  -5.2537
    -4.9336  -4.6797  -4.5217  -4.3199  -4.3156  -4.1248  -4.0471  -3.9712
    -3.9151  -3.9073  -3.7761  -3.4239  -3.3860  -3.2425  -3.1242  -3.0687
    -2.6783  -2.6051  -2.5879  -2.4511  -2.3876  -2.2845  -2.2245  -2.1251
    -2.0239  -1.9496  -1.7995  -1.7737   0.4899   1.0961   1.2073   1.3666
     1.6945   1.7583   1.8725   1.9880   1.9980   2.1640   2.2815   2.3585
     2.4971   2.6175

          k =-0.3750 0.1139 0.0000 ( 40790 PWs)   bands (ev):

   -58.8002 -57.9687 -57.9645 -57.6037 -57.4021 -57.1506 -35.2927 -35.0599
   -34.9841 -34.5211 -34.5122 -34.2371 -34.1933 -34.1900 -34.1860 -34.0768
   -33.9704 -33.9620 -33.7942 -33.7708 -33.6793 -33.6403 -33.4861 -33.4243
   -18.8128 -18.4741 -18.3620 -18.1550 -18.0774 -18.0287 -17.8440 -17.7994
   -17.7292 -17.6040 -17.1937 -16.8854 -16.5834  -6.1900  -5.9445  -5.8921
    -5.7319  -5.6305  -5.5548  -5.4843  -5.4747  -5.3197  -5.2462  -5.1726
    -4.9155  -4.6370  -4.5759  -4.3858  -4.2626  -4.1737  -4.0598  -3.9508
    -3.8158  -3.7732  -3.6026  -3.5197  -3.4105  -3.3081  -3.1129  -3.0393
    -2.8641  -2.7298  -2.5083  -2.4709  -2.3670  -2.3395  -2.2634  -2.1048
    -2.0748  -1.9984  -1.8418  -1.8099   0.4765   0.9135   1.2034   1.2545
     1.5669   1.6814   1.9670   1.9775   2.1903   2.2377   2.2895   2.3417
     2.5078   2.5957

          k =-0.3750-0.2277 0.0000 ( 40742 PWs)   bands (ev):

   -58.8002 -57.9683 -57.9649 -57.6037 -57.4021 -57.1506 -35.2939 -35.0599
   -34.9839 -34.5263 -34.5135 -34.2126 -34.2075 -34.1929 -34.1864 -34.0766
   -33.9708 -33.9608 -33.7942 -33.7879 -33.6597 -33.6403 -33.4862 -33.4259
   -18.8839 -18.4585 -18.3694 -18.1967 -18.0773 -17.9981 -17.8472 -17.7669
   -17.6765 -17.6070 -17.1950 -16.8861 -16.5842  -6.2491  -6.0146  -5.8289
    -5.7507  -5.6596  -5.6259  -5.5033  -5.3230  -5.2779  -5.0298  -4.9974
    -4.9701  -4.8417  -4.4249  -4.3341  -4.2294  -4.1317  -4.0679  -4.0246
    -3.9065  -3.7053  -3.7009  -3.5107  -3.3305  -3.2011  -3.1426  -3.0026
    -2.9357  -2.6487  -2.6465  -2.5364  -2.4674  -2.3854  -2.3191  -2.2003
    -1.9752  -1.9180  -1.9178  -1.8966   0.5084   0.6594   1.1322   1.2811
     1.4989   1.6757   1.9541   2.0249   2.1529   2.2639   2.3942   2.4112
     2.5225   2.6036

          k =-0.3750-0.1139 0.0000 ( 40790 PWs)   bands (ev):

   -58.8002 -57.9687 -57.9645 -57.6037 -57.4021 -57.1506 -35.2927 -35.0599
   -34.9841 -34.5211 -34.5122 -34.2371 -34.1933 -34.1900 -34.1860 -34.0768
   -33.9704 -33.9620 -33.7942 -33.7708 -33.6793 -33.6403 -33.4861 -33.4243
   -18.8128 -18.4741 -18.3620 -18.1550 -18.0774 -18.0287 -17.8440 -17.7994
   -17.7292 -17.6040 -17.1937 -16.8854 -16.5834  -6.1900  -5.9445  -5.8921
    -5.7319  -5.6305  -5.5548  -5.4843  -5.4747  -5.3197  -5.2462  -5.1726
    -4.9155  -4.6370  -4.5759  -4.3858  -4.2626  -4.1737  -4.0598  -3.9508
    -3.8158  -3.7732  -3.6026  -3.5197  -3.4105  -3.3081  -3.1129  -3.0393
    -2.8641  -2.7298  -2.5083  -2.4709  -2.3670  -2.3395  -2.2634  -2.1048
    -2.0748  -1.9984  -1.8418  -1.8099   0.4765   0.9135   1.2034   1.2545
     1.5669   1.6814   1.9670   1.9774   2.1902   2.2377   2.2894   2.3416
     2.5078   2.5952

          k =-0.2500 0.0000 0.0000 ( 40766 PWs)   bands (ev):

   -58.8145 -57.9845 -57.9776 -57.6181 -57.4174 -57.1650 -35.1345 -35.0716
   -35.0245 -34.3626 -34.3498 -34.3027 -34.2215 -34.2019 -34.1814 -33.9728
   -33.9199 -33.8319 -33.8079 -33.7384 -33.6671 -33.5830 -33.4980 -33.4504
   -19.0369 -18.6716 -18.4331 -18.3747 -18.0705 -17.9756 -17.8901 -17.8277
   -17.7462 -17.6635 -17.2946 -16.9513 -16.6664  -6.5652  -6.1777  -6.0407
    -5.8801  -5.7559  -5.6965  -5.5436  -5.3881  -5.3834  -5.0348  -4.9107
    -4.8624  -4.7421  -4.3971  -4.3259  -4.1238  -4.0483  -3.9658  -3.8709
    -3.8279  -3.3967  -3.3837  -3.3586  -3.2849  -3.1968  -3.1541  -2.9759
    -2.7680  -2.6394  -2.6091  -2.5915  -2.4955  -2.3544  -2.1586  -2.1024
    -1.8072  -1.7608  -1.7354  -1.6680   0.7108   0.8874   0.9179   1.4376
     1.4664   1.5311   1.7569   1.8106   2.0452   2.1137   2.2897   2.2927
     2.4046   2.4118

          k =-0.2500 0.1139 0.0000 ( 40754 PWs)   bands (ev):

   -58.8145 -57.9837 -57.9784 -57.6181 -57.4173 -57.1650 -35.1353 -35.0716
   -35.0231 -34.3703 -34.3529 -34.2787 -34.2212 -34.2023 -34.1946 -33.9736
   -33.9197 -33.8319 -33.8082 -33.7392 -33.6671 -33.5755 -33.4981 -33.4567
   -18.9578 -18.5969 -18.5328 -18.2999 -18.1720 -17.9828 -17.9234 -17.8125
   -17.7972 -17.6509 -17.2930 -16.9510 -16.6661  -6.3286  -5.9491  -5.9337
    -5.7467  -5.6529  -5.6131  -5.5415  -5.3679  -5.3390  -5.1788  -4.9703
    -4.9271  -4.6574  -4.5131  -4.3896  -4.1811  -4.1766  -3.9365  -3.8709
    -3.7195  -3.6471  -3.5775  -3.4528  -3.4021  -3.3597  -3.2401  -3.1580
    -2.8639  -2.6188  -2.5671  -2.5142  -2.4545  -2.2745  -2.2164  -2.1013
    -1.8202  -1.7864  -1.7126  -1.6478   0.7370   0.9161   1.1100   1.4132
     1.4613   1.6722   1.8454   1.8662   2.0657   2.2058   2.2780   2.3268
     2.4376   2.4435

          k =-0.2500-0.2277 0.0000 ( 40742 PWs)   bands (ev):

   -58.8145 -57.9826 -57.9795 -57.6181 -57.4173 -57.1650 -35.1362 -35.0716
   -35.0216 -34.3754 -34.3556 -34.2453 -34.2213 -34.2198 -34.2027 -33.9745
   -33.9196 -33.8319 -33.8085 -33.7402 -33.6671 -33.5671 -33.4981 -33.4639
   -18.7596 -18.7534 -18.4331 -18.3569 -18.1208 -18.1041 -17.9746 -17.8179
   -17.7943 -17.6473 -17.2915 -16.9508 -16.6660  -5.9896  -5.8233  -5.7735
    -5.5536  -5.5444  -5.4970  -5.4038  -5.3197  -5.2757  -5.2194  -5.1117
    -4.9354  -4.9280  -4.6843  -4.4478  -4.1973  -4.0558  -4.0401  -4.0083
    -3.9051  -3.8953  -3.6927  -3.5836  -3.4867  -3.4347  -3.2048  -3.1767
    -3.0846  -2.6334  -2.5657  -2.4739  -2.4596  -2.2425  -2.0939  -2.0683
    -1.8835  -1.7850  -1.6748  -1.6324   0.8177   0.8788   1.2468   1.4282
     1.4302   1.7104   1.8678   2.0882   2.1107   2.2786   2.3079   2.3438
     2.4747   2.5431

          k =-0.2500-0.1139 0.0000 ( 40754 PWs)   bands (ev):

   -58.8145 -57.9837 -57.9784 -57.6181 -57.4173 -57.1650 -35.1353 -35.0716
   -35.0231 -34.3703 -34.3529 -34.2787 -34.2212 -34.2023 -34.1946 -33.9736
   -33.9197 -33.8319 -33.8082 -33.7392 -33.6671 -33.5755 -33.4981 -33.4567
   -18.9578 -18.5969 -18.5328 -18.2999 -18.1720 -17.9828 -17.9234 -17.8125
   -17.7972 -17.6509 -17.2930 -16.9510 -16.6661  -6.3286  -5.9491  -5.9337
    -5.7467  -5.6529  -5.6131  -5.5415  -5.3679  -5.3390  -5.1788  -4.9703
    -4.9271  -4.6574  -4.5131  -4.3896  -4.1811  -4.1766  -3.9365  -3.8709
    -3.7195  -3.6471  -3.5775  -3.4528  -3.4021  -3.3597  -3.2401  -3.1580
    -2.8639  -2.6188  -2.5671  -2.5142  -2.4545  -2.2745  -2.2164  -2.1013
    -1.8202  -1.7864  -1.7126  -1.6478   0.7370   0.9161   1.1100   1.4132
     1.4613   1.6722   1.8454   1.8662   2.0657   2.2058   2.2780   2.3268
     2.4375   2.4435

          k =-0.1250 0.0000 0.0000 ( 40652 PWs)   bands (ev):

   -58.8287 -57.9997 -57.9912 -57.6325 -57.4326 -57.1792 -35.0834 -35.0641
   -34.9731 -34.3473 -34.2671 -34.2162 -34.2007 -34.1862 -34.1751 -33.9825
   -33.8690 -33.7621 -33.7562 -33.7250 -33.6080 -33.5150 -33.4766 -33.4197
   -19.3929 -19.0280 -18.6816 -18.3503 -18.2501 -17.9922 -17.8858 -17.8119
   -17.7346 -17.6080 -17.2585 -16.8762 -16.7470  -7.0730  -6.6387  -6.2990
    -6.0303  -5.9159  -5.6671  -5.6219  -5.4576  -5.2770  -5.1350  -4.9334
    -4.7609  -4.5213  -4.3745  -4.1676  -4.0907  -3.8247  -3.7414  -3.5901
    -3.5300  -3.4003  -3.3843  -3.2470  -3.1599  -2.9331  -2.9226  -2.7560
    -2.7271  -2.5341  -2.4806  -2.3697  -2.3162  -2.2716  -2.1163  -1.9902
    -1.7331  -1.6697  -1.6363  -1.3707   0.4774   0.7268   1.0314   1.0571
     1.4323   1.5350   1.5485   1.6589   1.7854   1.7967   2.0312   2.1257
     2.1858   2.7143

          k =-0.1250 0.1139 0.0000 ( 40695 PWs)   bands (ev):

   -58.8287 -57.9986 -57.9923 -57.6325 -57.4325 -57.1793 -35.0834 -35.0616
   -34.9734 -34.3265 -34.2669 -34.2215 -34.2137 -34.1904 -34.1743 -33.9855
   -33.8690 -33.7562 -33.7519 -33.7249 -33.6082 -33.5149 -33.4887 -33.4186
   -19.2815 -18.9197 -18.5787 -18.4820 -18.3566 -18.0161 -17.9078 -17.8757
   -17.7337 -17.6559 -17.2548 -16.8746 -16.7464  -6.7801  -6.3593  -6.1148
    -5.9453  -5.8424  -5.7035  -5.5099  -5.3728  -5.3053  -5.0754  -4.8582
    -4.6829  -4.5419  -4.3893  -4.2331  -4.1424  -4.0713  -3.8955  -3.8239
    -3.7503  -3.6706  -3.4960  -3.4006  -3.2478  -3.0208  -2.9557  -2.8846
    -2.7435  -2.6186  -2.4446  -2.4143  -2.3668  -2.2565  -2.1798  -1.9737
    -1.7490  -1.6638  -1.6056  -1.4304   0.6765   0.7649   1.1256   1.3198
     1.4546   1.6363   1.7284   1.8117   1.8744   1.9733   2.0451   2.1198
     2.2656   2.5851

          k =-0.1250-0.2277 0.0000 ( 40666 PWs)   bands (ev):

   -58.8287 -57.9968 -57.9941 -57.6325 -57.4325 -57.1793 -35.0834 -35.0590
   -34.9737 -34.2852 -34.2665 -34.2620 -34.2158 -34.1879 -34.1766 -33.9885
   -33.8690 -33.7562 -33.7406 -33.7249 -33.6085 -33.5144 -33.5017 -33.4178
   -19.1015 -18.7608 -18.6590 -18.5696 -18.3061 -18.2268 -17.9437 -17.8958
   -17.7163 -17.6982 -17.2520 -16.8733 -16.7461  -6.3559  -6.1181  -5.9553
    -5.8544  -5.6662  -5.5518  -5.3962  -5.3917  -5.2820  -4.8759  -4.8367
    -4.7250  -4.4927  -4.4477  -4.3822  -4.3354  -4.2889  -4.1924  -4.0229
    -3.9918  -3.8194  -3.6860  -3.6296  -3.4963  -3.1315  -3.0445  -2.9628
    -2.7770  -2.5450  -2.5145  -2.4029  -2.2839  -2.2255  -2.0958  -1.9052
    -1.8458  -1.6072  -1.5899  -1.5229   0.7319   0.8504   1.2645   1.4727
     1.4734   1.7026   1.8907   1.9723   2.0176   2.1127   2.1200   2.2237
     2.3961   2.4052

          k =-0.1250-0.1139 0.0000 ( 40695 PWs)   bands (ev):

   -58.8287 -57.9986 -57.9923 -57.6325 -57.4325 -57.1793 -35.0834 -35.0616
   -34.9734 -34.3265 -34.2669 -34.2215 -34.2137 -34.1904 -34.1743 -33.9855
   -33.8690 -33.7562 -33.7519 -33.7249 -33.6082 -33.5149 -33.4887 -33.4186
   -19.2815 -18.9197 -18.5787 -18.4820 -18.3566 -18.0161 -17.9078 -17.8757
   -17.7337 -17.6559 -17.2548 -16.8746 -16.7464  -6.7801  -6.3593  -6.1148
    -5.9453  -5.8424  -5.7035  -5.5099  -5.3728  -5.3053  -5.0754  -4.8582
    -4.6829  -4.5419  -4.3893  -4.2331  -4.1424  -4.0713  -3.8955  -3.8239
    -3.7503  -3.6706  -3.4960  -3.4006  -3.2478  -3.0208  -2.9557  -2.8846
    -2.7435  -2.6186  -2.4446  -2.4143  -2.3668  -2.2565  -2.1798  -1.9737
    -1.7490  -1.6638  -1.6056  -1.4304   0.6765   0.7649   1.1256   1.3198
     1.4546   1.6363   1.7284   1.8117   1.8744   1.9734   2.0452   2.1198
     2.2656   2.5855

     the Fermi energy is    -1.6446 ev

!    total energy              =   -1258.96691060 Ry
     estimated scf accuracy    <       0.00000013 Ry
     smearing contrib. (-TS)   =       0.00099708 Ry
     internal energy E=F+TS    =   -1258.96790768 Ry

     The total energy is F=E-TS. E is the sum of the following terms:
     one-electron contribution =  -12745.99872940 Ry
     hartree contribution      =    6393.74527899 Ry
     xc contribution           =    -204.31085257 Ry
     ewald contribution        =    5421.36679343 Ry
     one-center paw contrib.   =    -123.77039812 Ry

     convergence has been achieved in  30 iterations

     negative rho (up, down):  7.871E-03 0.000E+00

     Forces acting on atoms (cartesian axes, Ry/au):

     atom    1 type  1   force =     0.00000005   -0.00000002    0.15256596
     atom    2 type  1   force =    -0.00000000    0.00000009   -0.06714089
     atom    3 type  1   force =     0.00000007   -0.00000005    0.00042266
     atom    4 type  1   force =    -0.00000002    0.00000000   -0.00159404
     atom    5 type  1   force =     0.00000005   -0.00000057    0.00079889
     atom    6 type  1   force =    -0.00000026   -0.00000009    0.00020530
     atom    7 type  2   force =     0.00000001    0.00000005    0.02326087
     atom    8 type  2   force =     0.00000010   -0.00000006    0.04792634
     atom    9 type  2   force =     0.00000036    0.05139438   -0.04191037
     atom   10 type  2   force =    -0.00000018   -0.05139380   -0.04191079
     atom   11 type  2   force =    -0.00000005    0.00000015   -0.00125851
     atom   12 type  2   force =    -0.00000044   -0.00000004   -0.06887493
     atom   13 type  2   force =     0.00000018   -0.00019322   -0.00036299
     atom   14 type  2   force =    -0.00000014    0.00019309   -0.00036376
     atom   15 type  2   force =     0.00000066   -0.00000011   -0.00029053
     atom   16 type  2   force =     0.00000028   -0.00000021   -0.00046904
     atom   17 type  2   force =    -0.00000052    0.00052599    0.00022608
     atom   18 type  2   force =     0.00000013   -0.00052538    0.00022474
     atom   19 type  2   force =    -0.00000029   -0.00000021   -0.00145500

     Total force =     0.002898     Total SCF correction =     0.000575
     SCF correction compared to forces is large: reduce conv_thr to get better values

     Writing all to output data dir ./tmp_s0_O__u000/s0_O__u000.save/ :
     XML data file, charge density, pseudopotentials, collected wavefunctions

     init_run     :      2.43s CPU      2.52s WALL (       1 calls)
     electrons    :    101.74s CPU    103.09s WALL (       1 calls)
     forces       :      0.73s CPU      0.74s WALL (       1 calls)

     Called by init_run:
     wfcinit      :      1.16s CPU      1.18s WALL (       1 calls)
     potinit      :      0.56s CPU      0.58s WALL (       1 calls)
     hinit0       :      0.37s CPU      0.38s WALL (       1 calls)

     Called by electrons:
     c_bands      :     73.70s CPU     74.51s WALL (      30 calls)
     sum_band     :     15.95s CPU     16.17s WALL (      30 calls)
     v_of_rho     :      3.52s CPU      3.59s WALL (      31 calls)
     newd         :      1.41s CPU      1.44s WALL (      31 calls)
     PAW_pot      :      1.71s CPU      1.77s WALL (      31 calls)
     mix_rho      :      4.93s CPU      5.00s WALL (      30 calls)

     Called by c_bands:
     init_us_2    :      2.53s CPU      2.56s WALL (     248 calls)
     cegterg      :     60.01s CPU     60.65s WALL (     120 calls)

     Called by *egterg:
     cdiaghg      :      3.14s CPU      3.16s WALL (     367 calls)
     h_psi        :     43.66s CPU     44.18s WALL (     371 calls)
     s_psi        :      3.09s CPU      3.11s WALL (     371 calls)
     g_psi        :      0.23s CPU      0.23s WALL (     247 calls)

     Called by h_psi:
     h_psi:calbec :      3.94s CPU      3.97s WALL (     371 calls)
     vloc_psi     :     36.08s CPU     36.52s WALL (     371 calls)
                                        0.00s GPU  (     371 calls)
     add_vuspsi   :      3.16s CPU      3.18s WALL (     371 calls)

     General routines
     calbec       :      5.99s CPU      6.04s WALL (     507 calls)
     fft          :      2.59s CPU      2.63s WALL (     412 calls)
     ffts         :      3.33s CPU      3.36s WALL (    3628 calls)
     fftw         :     41.80s CPU     42.32s WALL (   55960 calls)
     interpolate  :      0.61s CPU      0.61s WALL (      31 calls)

     Parallel routines

     PWSCF        :   1m45.32s CPU   1m47.24s WALL


   This run was terminated on:   2:29: 3  29Aug2026            

=------------------------------------------------------------------------------=
   JOB DONE.
=------------------------------------------------------------------------------=
