
     Program PWSCF v.7.5 starts on 29Aug2026 at  2:31:31 

     This program is part of the open-source Quantum ESPRESSO suite
     for quantum simulation of materials; please cite
         "P. Giannozzi et al., J. Phys.:Condens. Matter 21 395502 (2009);
         "P. Giannozzi et al., J. Phys.:Condens. Matter 29 465901 (2017);
         "P. Giannozzi et al., J. Chem. Phys. 152 154105 (2020);
          URL http://www.quantum-espresso.org", 
     in publications or presentations arising from this work. More details at
     http://www.quantum-espresso.org/quote

     Parallel version (MPI & OpenMP), running on     128 processor cores
     Number of MPI processes:               128
     Threads/MPI process:                     1

     MPI processes distributed on     1 nodes
     228658 MiB available memory on the printing compute node when the environment starts

     Reading input from s0_OH__u000.run.in

     Current dimensions of program PWSCF are:
     Max number of different atomic species (ntypx) = 10
     Max number of k-points (npk) =  40000
     Max angular momentum in pseudopotentials (lmaxx) =  4
     file O.pbe-n-kjpaw_psl.0.1.UPF: wavefunction(s)  2P renormalized

     K-points division:     npool     =       8
     R & G space division:  proc/nbgrp/npool/nimage =      16
     Subspace diagonalization in iterative solution of the eigenvalue problem:
     a serial algorithm will be used


     Parallelization info
     --------------------
     sticks:   dense  smooth     PW     G-vecs:    dense   smooth      PW
     Min         218     108     31                57602    20340    3111
     Max         219     109     32                57627    20361    3126
     Sum        3495    1739    505               921821   325653   49881

     Using Slab Decomposition



     bravais-lattice index     =            0
     lattice parameter (alat)  =       5.5911  a.u.
     unit-cell volume          =    3370.6432 (a.u.)^3
     number of atoms/cell      =           20
     number of atomic types    =            3
     number of electrons       =       151.00
     number of Kohn-Sham states=           91
     kinetic-energy cutoff     =      80.0000  Ry
     charge density cutoff     =     640.0000  Ry
     scf convergence threshold =      1.0E-06
     mixing beta               =       0.3000
     number of iterations used =            8  local-TF  mixing
     Exchange-correlation= SLA  PW   PBX  PBC
                           (   1   4   3   4   0   0   0)

     celldm(1)=   5.591133  celldm(2)=   0.000000  celldm(3)=   0.000000
     celldm(4)=   0.000000  celldm(5)=   0.000000  celldm(6)=   0.000000

     crystal axes: (cart. coord. in units of alat)
               a(1) = (   1.000000   0.000000   0.000000 )  
               a(2) = (   0.000000   2.195719   0.000000 )  
               a(3) = (   0.000000   0.000000   8.782875 )  

     reciprocal axes: (cart. coord. in units 2 pi/alat)
               b(1) = (  1.000000  0.000000  0.000000 )  
               b(2) = (  0.000000  0.455432  0.000000 )  
               b(3) = (  0.000000  0.000000  0.113858 )  


     PseudoPot. # 1 for H  read from file:
     /anvil/projects/x-che260157/pseudo/H.pbe-rrkjus_psl.1.0.0.UPF
     MD5 check sum: f52b6d4d1c606e5624b1dc7b2218f220
     Pseudo is Ultrasoft, Zval =  1.0
     Generated using "atomic" code by A. Dal Corso  v.5.1
     Using radial grid of  929 points,  2 beta functions with: 
                l(1) =   0
                l(2) =   0
     Q(r) pseudized with 0 coefficients 


     PseudoPot. # 2 for Ti read from file:
     /anvil/projects/x-che260157/pseudo/ti_pbe_v1.4.uspp.F.UPF
     MD5 check sum: 88a00a6731bd790ddea75d31a80cb452
     Pseudo is Ultrasoft + core correction, Zval = 12.0
     Generated by new atomic code, or converted to UPF format
     Using radial grid of  851 points,  6 beta functions with: 
                l(1) =   0
                l(2) =   0
                l(3) =   1
                l(4) =   1
                l(5) =   2
                l(6) =   2
     Q(r) pseudized with  6 coefficients,  rinner =    1.000   1.000   1.000
                                                       1.000   1.000

     PseudoPot. # 3 for O  read from file:
     /anvil/projects/x-che260157/pseudo/O.pbe-n-kjpaw_psl.0.1.UPF
     MD5 check sum: 0234752ac141de4415c5fc33072bef88
     Pseudo is Projector augmented-wave + core cor, Zval =  6.0
     Generated using "atomic" code by A. Dal Corso  v.5.0.99 svn rev. 10869
     Shape of augmentation charge: BESSEL
     Using radial grid of 1095 points,  4 beta functions with: 
                l(1) =   0
                l(2) =   0
                l(3) =   1
                l(4) =   1
     Q(r) pseudized with 0 coefficients 


     atomic species   valence    mass     pseudopotential
     H                 1.00     1.00800     H ( 1.00)
     Ti               12.00    47.86700     Ti( 1.00)
     O                 6.00    15.99900     O ( 1.00)

     No symmetry found



   Cartesian axes

     site n.     atom                  positions (alat units)
         1        Ti     tau(   1) = (   0.0000000   1.6467890   3.2935780  )
         2        Ti     tau(   2) = (   0.5000000   0.5489297   3.2935780  )
         3        Ti     tau(   3) = (  -0.0041510   0.5489297   4.4390297  )
         4        Ti     tau(   4) = (   0.4960848   1.6467890   4.4316977  )
         5        Ti     tau(   5) = (  -0.0075957   1.6467890   5.5931891  )
         6        Ti     tau(   6) = (   0.4859661   0.5489297   5.5744680  )
         7        O      tau(   7) = (   0.0000000   0.5489297   3.7217432  )
         8        O      tau(   8) = (   0.0000000   0.5489297   2.8654129  )
         9        O      tau(   9) = (   0.5000000   1.2186239   3.2935780  )
        10        O      tau(  10) = (   0.5000000   2.0749541   3.2935780  )
        11        O      tau(  11) = (  -0.0029345   1.6467890   4.8278864  )
        12        O      tau(  12) = (   0.0000000   1.6467890   3.9632722  )
        13        O      tau(  13) = (   0.4966025   0.1160480   4.3967316  )
        14        O      tau(  14) = (   0.4966025   0.9818113   4.3967316  )
        15        O      tau(  15) = (  -0.0111296   0.5489297   5.9377016  )
        16        O      tau(  16) = (  -0.0061564   0.5489297   5.0632104  )
        17        O      tau(  17) = (   0.4918186   1.2207191   5.5234658  )
        18        O      tau(  18) = (   0.4918186   2.0728589   5.5234658  )
        19        O      tau(  19) = (  -0.0067025   1.6467890   6.2114519  )
        20        H      tau(  20) = (   0.2851101   1.6467890   6.3687342  )

     number of k points=    32  Marzari-Vanderbilt smearing, width (Ry)=  0.0100
                       cart. coord. in units 2pi/alat
        k(    1) = (   0.0000000   0.0000000   0.0000000), wk =   0.0625000
        k(    2) = (   0.0000000   0.1138579   0.0000000), wk =   0.0625000
        k(    3) = (   0.0000000  -0.2277159   0.0000000), wk =   0.0625000
        k(    4) = (   0.0000000  -0.1138579   0.0000000), wk =   0.0625000
        k(    5) = (   0.1250000   0.0000000   0.0000000), wk =   0.0625000
        k(    6) = (   0.1250000   0.1138579   0.0000000), wk =   0.0625000
        k(    7) = (   0.1250000  -0.2277159   0.0000000), wk =   0.0625000
        k(    8) = (   0.1250000  -0.1138579   0.0000000), wk =   0.0625000
        k(    9) = (   0.2500000   0.0000000   0.0000000), wk =   0.0625000
        k(   10) = (   0.2500000   0.1138579   0.0000000), wk =   0.0625000
        k(   11) = (   0.2500000  -0.2277159   0.0000000), wk =   0.0625000
        k(   12) = (   0.2500000  -0.1138579   0.0000000), wk =   0.0625000
        k(   13) = (   0.3750000   0.0000000   0.0000000), wk =   0.0625000
        k(   14) = (   0.3750000   0.1138579   0.0000000), wk =   0.0625000
        k(   15) = (   0.3750000  -0.2277159   0.0000000), wk =   0.0625000
        k(   16) = (   0.3750000  -0.1138579   0.0000000), wk =   0.0625000
        k(   17) = (  -0.5000000   0.0000000   0.0000000), wk =   0.0625000
        k(   18) = (  -0.5000000   0.1138579   0.0000000), wk =   0.0625000
        k(   19) = (  -0.5000000  -0.2277159   0.0000000), wk =   0.0625000
        k(   20) = (  -0.5000000  -0.1138579   0.0000000), wk =   0.0625000
        k(   21) = (  -0.3750000   0.0000000   0.0000000), wk =   0.0625000
        k(   22) = (  -0.3750000   0.1138579   0.0000000), wk =   0.0625000
        k(   23) = (  -0.3750000  -0.2277159   0.0000000), wk =   0.0625000
        k(   24) = (  -0.3750000  -0.1138579   0.0000000), wk =   0.0625000
        k(   25) = (  -0.2500000   0.0000000   0.0000000), wk =   0.0625000
        k(   26) = (  -0.2500000   0.1138579   0.0000000), wk =   0.0625000
        k(   27) = (  -0.2500000  -0.2277159   0.0000000), wk =   0.0625000
        k(   28) = (  -0.2500000  -0.1138579   0.0000000), wk =   0.0625000
        k(   29) = (  -0.1250000   0.0000000   0.0000000), wk =   0.0625000
        k(   30) = (  -0.1250000   0.1138579   0.0000000), wk =   0.0625000
        k(   31) = (  -0.1250000  -0.2277159   0.0000000), wk =   0.0625000
        k(   32) = (  -0.1250000  -0.1138579   0.0000000), wk =   0.0625000

     Dense  grid:   921821 G-vectors     FFT dimensions: (  45, 100, 400)

     Smooth grid:   325653 G-vectors     FFT dimensions: (  32,  72, 288)

     Estimated max dynamical RAM per process >      91.99 MB

     Estimated total dynamical RAM >       9.96 GB

     Check: negative core charge=   -0.000001

     Initial potential from superposition of free atoms

     starting charge     144.9997, renormalised to     151.0000

     negative rho (up, down):  8.448E-03 0.000E+00
     Starting wfcs are  113 randomized atomic wfcs
     Checking if some PAW data can be deallocated... 

     total cpu time spent up to now is        3.1 secs

     per-process dynamical memory:   118.0 Mb

     Self-consistent Calculation

     iteration #  1     ecut=    80.00 Ry     beta= 0.30
     Davidson diagonalization with overlap
     ethr =  1.00E-02,  avg # of iterations =  2.0

     negative rho (up, down):  8.482E-03 0.000E+00

     total cpu time spent up to now is        8.0 secs

     total energy              =   -1260.39102847 Ry
     estimated scf accuracy    <      14.36393827 Ry

     iteration #  2     ecut=    80.00 Ry     beta= 0.30
     Davidson diagonalization with overlap
     ethr =  9.51E-03,  avg # of iterations =  1.0

     negative rho (up, down):  8.925E-03 0.000E+00

     total cpu time spent up to now is       11.4 secs

     total energy              =   -1260.44953359 Ry
     estimated scf accuracy    <       2.98132856 Ry

     iteration #  3     ecut=    80.00 Ry     beta= 0.30
     Davidson diagonalization with overlap
     ethr =  1.97E-03,  avg # of iterations =  1.8

     negative rho (up, down):  8.996E-03 0.000E+00

     total cpu time spent up to now is       14.8 secs

     total energy              =   -1260.43044447 Ry
     estimated scf accuracy    <       2.14355487 Ry

     iteration #  4     ecut=    80.00 Ry     beta= 0.30
     Davidson diagonalization with overlap
     ethr =  1.42E-03,  avg # of iterations =  1.8

     negative rho (up, down):  9.102E-03 0.000E+00

     total cpu time spent up to now is       19.2 secs

     total energy              =   -1260.57001909 Ry
     estimated scf accuracy    <       5.76283762 Ry

     iteration #  5     ecut=    80.00 Ry     beta= 0.30
     Davidson diagonalization with overlap
     ethr =  1.42E-03,  avg # of iterations =  1.0

     negative rho (up, down):  7.537E-03 0.000E+00

     total cpu time spent up to now is       22.2 secs

     total energy              =   -1260.38514476 Ry
     estimated scf accuracy    <       8.52377368 Ry

     iteration #  6     ecut=    80.00 Ry     beta= 0.30
     Davidson diagonalization with overlap
     ethr =  1.42E-03,  avg # of iterations =  2.3

     negative rho (up, down):  7.187E-03 0.000E+00

     total cpu time spent up to now is       25.4 secs

     total energy              =   -1260.47696335 Ry
     estimated scf accuracy    <       1.50671809 Ry

     iteration #  7     ecut=    80.00 Ry     beta= 0.30
     Davidson diagonalization with overlap
     ethr =  9.98E-04,  avg # of iterations =  1.1

     negative rho (up, down):  6.866E-03 0.000E+00

     total cpu time spent up to now is       28.3 secs

     total energy              =   -1260.43428039 Ry
     estimated scf accuracy    <       1.21322740 Ry

     iteration #  8     ecut=    80.00 Ry     beta= 0.30
     Davidson diagonalization with overlap
     ethr =  8.03E-04,  avg # of iterations =  1.8

     negative rho (up, down):  7.765E-03 0.000E+00

     total cpu time spent up to now is       31.4 secs

     total energy              =   -1260.39869332 Ry
     estimated scf accuracy    <       0.88009900 Ry

     iteration #  9     ecut=    80.00 Ry     beta= 0.30
     Davidson diagonalization with overlap
     ethr =  5.83E-04,  avg # of iterations =  3.3

     negative rho (up, down):  7.314E-03 0.000E+00

     total cpu time spent up to now is       34.9 secs

     total energy              =   -1260.41457578 Ry
     estimated scf accuracy    <       0.25636055 Ry

     iteration # 10     ecut=    80.00 Ry     beta= 0.30
     Davidson diagonalization with overlap
     ethr =  1.70E-04,  avg # of iterations = 10.4

     negative rho (up, down):  7.091E-03 0.000E+00

     total cpu time spent up to now is       39.2 secs

     total energy              =   -1260.41465913 Ry
     estimated scf accuracy    <       0.22116496 Ry

     iteration # 11     ecut=    80.00 Ry     beta= 0.30
     Davidson diagonalization with overlap
     ethr =  1.46E-04,  avg # of iterations =  2.6

     negative rho (up, down):  8.983E-03 0.000E+00

     total cpu time spent up to now is       42.5 secs

     total energy              =   -1260.38266813 Ry
     estimated scf accuracy    <       0.72893422 Ry

     iteration # 12     ecut=    80.00 Ry     beta= 0.30
     Davidson diagonalization with overlap
     c_bands:  5 eigenvalues not converged
     ethr =  1.46E-04,  avg # of iterations =  3.4

     negative rho (up, down):  8.725E-03 0.000E+00

     total cpu time spent up to now is       47.9 secs

     total energy              =   -1260.38870158 Ry
     estimated scf accuracy    <       0.12319024 Ry

     iteration # 13     ecut=    80.00 Ry     beta= 0.30
     Davidson diagonalization with overlap
     ethr =  8.16E-05,  avg # of iterations =  2.4

     negative rho (up, down):  9.965E-03 0.000E+00

     total cpu time spent up to now is       51.3 secs

     total energy              =   -1260.38163086 Ry
     estimated scf accuracy    <       0.59373413 Ry

     iteration # 14     ecut=    80.00 Ry     beta= 0.30
     Davidson diagonalization with overlap
     ethr =  8.16E-05,  avg # of iterations =  1.4

     negative rho (up, down):  1.031E-02 0.000E+00

     total cpu time spent up to now is       54.3 secs

     total energy              =   -1260.37279063 Ry
     estimated scf accuracy    <       0.11230190 Ry

     iteration # 15     ecut=    80.00 Ry     beta= 0.30
     Davidson diagonalization with overlap
     c_bands:  1 eigenvalues not converged
     ethr =  7.44E-05,  avg # of iterations =  3.9

     negative rho (up, down):  8.532E-03 0.000E+00

     total cpu time spent up to now is       58.0 secs

     total energy              =   -1260.37322349 Ry
     estimated scf accuracy    <       0.03108388 Ry

     iteration # 16     ecut=    80.00 Ry     beta= 0.30
     Davidson diagonalization with overlap
     ethr =  2.06E-05,  avg # of iterations = 10.5

     negative rho (up, down):  8.780E-03 0.000E+00

     total cpu time spent up to now is       62.2 secs

     total energy              =   -1260.36878639 Ry
     estimated scf accuracy    <       0.26811931 Ry

     iteration # 17     ecut=    80.00 Ry     beta= 0.30
     Davidson diagonalization with overlap
     ethr =  2.06E-05,  avg # of iterations =  3.5

     negative rho (up, down):  8.210E-03 0.000E+00

     total cpu time spent up to now is       65.7 secs

     total energy              =   -1260.37568875 Ry
     estimated scf accuracy    <       0.01782504 Ry

     iteration # 18     ecut=    80.00 Ry     beta= 0.30
     Davidson diagonalization with overlap
     ethr =  1.18E-05,  avg # of iterations =  1.4

     negative rho (up, down):  7.778E-03 0.000E+00

     total cpu time spent up to now is       68.7 secs

     total energy              =   -1260.37471505 Ry
     estimated scf accuracy    <       0.00824168 Ry

     iteration # 19     ecut=    80.00 Ry     beta= 0.30
     Davidson diagonalization with overlap
     ethr =  5.46E-06,  avg # of iterations =  7.2

     negative rho (up, down):  7.848E-03 0.000E+00

     total cpu time spent up to now is       72.8 secs

     total energy              =   -1260.37466939 Ry
     estimated scf accuracy    <       0.00408706 Ry

     iteration # 20     ecut=    80.00 Ry     beta= 0.30
     Davidson diagonalization with overlap
     ethr =  2.71E-06,  avg # of iterations =  5.3

     negative rho (up, down):  8.114E-03 0.000E+00

     total cpu time spent up to now is       76.4 secs

     total energy              =   -1260.37402239 Ry
     estimated scf accuracy    <       0.00308666 Ry

     iteration # 21     ecut=    80.00 Ry     beta= 0.30
     Davidson diagonalization with overlap
     ethr =  2.04E-06,  avg # of iterations = 10.2

     negative rho (up, down):  8.824E-03 0.000E+00

     total cpu time spent up to now is       80.5 secs

     total energy              =   -1260.37418236 Ry
     estimated scf accuracy    <       0.00391164 Ry

     iteration # 22     ecut=    80.00 Ry     beta= 0.30
     Davidson diagonalization with overlap
     ethr =  2.04E-06,  avg # of iterations =  2.4

     negative rho (up, down):  7.581E-03 0.000E+00

     total cpu time spent up to now is       84.0 secs

     total energy              =   -1260.37413892 Ry
     estimated scf accuracy    <       0.00362447 Ry

     iteration # 23     ecut=    80.00 Ry     beta= 0.30
     Davidson diagonalization with overlap
     ethr =  2.04E-06,  avg # of iterations =  1.0

     negative rho (up, down):  7.597E-03 0.000E+00

     total cpu time spent up to now is       87.0 secs

     total energy              =   -1260.37407316 Ry
     estimated scf accuracy    <       0.00238369 Ry

     iteration # 24     ecut=    80.00 Ry     beta= 0.30
     Davidson diagonalization with overlap
     ethr =  1.58E-06,  avg # of iterations =  1.0

     negative rho (up, down):  7.611E-03 0.000E+00

     total cpu time spent up to now is       89.9 secs

     total energy              =   -1260.37393968 Ry
     estimated scf accuracy    <       0.00157382 Ry

     iteration # 25     ecut=    80.00 Ry     beta= 0.30
     Davidson diagonalization with overlap
     ethr =  1.04E-06,  avg # of iterations =  1.0

     negative rho (up, down):  7.790E-03 0.000E+00

     total cpu time spent up to now is       92.8 secs

     total energy              =   -1260.37383714 Ry
     estimated scf accuracy    <       0.00163018 Ry

     iteration # 26     ecut=    80.00 Ry     beta= 0.30
     Davidson diagonalization with overlap
     ethr =  1.04E-06,  avg # of iterations =  1.3

     negative rho (up, down):  8.483E-03 0.000E+00

     total cpu time spent up to now is       95.8 secs

     total energy              =   -1260.37388323 Ry
     estimated scf accuracy    <       0.00063426 Ry

     iteration # 27     ecut=    80.00 Ry     beta= 0.30
     Davidson diagonalization with overlap
     ethr =  4.20E-07,  avg # of iterations =  2.0

     negative rho (up, down):  8.682E-03 0.000E+00

     total cpu time spent up to now is       98.9 secs

     total energy              =   -1260.37387932 Ry
     estimated scf accuracy    <       0.00024664 Ry

     iteration # 28     ecut=    80.00 Ry     beta= 0.30
     Davidson diagonalization with overlap
     ethr =  1.63E-07,  avg # of iterations =  2.0

     negative rho (up, down):  8.887E-03 0.000E+00

     total cpu time spent up to now is      102.1 secs

     total energy              =   -1260.37391055 Ry
     estimated scf accuracy    <       0.00011671 Ry

     iteration # 29     ecut=    80.00 Ry     beta= 0.30
     Davidson diagonalization with overlap
     ethr =  7.73E-08,  avg # of iterations =  2.3

     negative rho (up, down):  9.178E-03 0.000E+00

     total cpu time spent up to now is      105.3 secs

     total energy              =   -1260.37392312 Ry
     estimated scf accuracy    <       0.00004786 Ry

     iteration # 30     ecut=    80.00 Ry     beta= 0.30
     Davidson diagonalization with overlap
     ethr =  3.17E-08,  avg # of iterations =  2.0

     negative rho (up, down):  8.829E-03 0.000E+00

     total cpu time spent up to now is      108.5 secs

     total energy              =   -1260.37392484 Ry
     estimated scf accuracy    <       0.00001341 Ry

     iteration # 31     ecut=    80.00 Ry     beta= 0.30
     Davidson diagonalization with overlap
     ethr =  8.88E-09,  avg # of iterations =  2.2

     negative rho (up, down):  8.057E-03 0.000E+00

     total cpu time spent up to now is      111.8 secs

     total energy              =   -1260.37391845 Ry
     estimated scf accuracy    <       0.00000265 Ry

     iteration # 32     ecut=    80.00 Ry     beta= 0.30
     Davidson diagonalization with overlap
     ethr =  1.75E-09,  avg # of iterations =  4.5

     negative rho (up, down):  8.038E-03 0.000E+00

     total cpu time spent up to now is      115.5 secs

     total energy              =   -1260.37391851 Ry
     estimated scf accuracy    <       0.00000205 Ry

     iteration # 33     ecut=    80.00 Ry     beta= 0.30
     Davidson diagonalization with overlap
     ethr =  1.36E-09,  avg # of iterations =  1.9

     negative rho (up, down):  7.763E-03 0.000E+00

     total cpu time spent up to now is      118.5 secs

     End of self-consistent calculation

          k = 0.0000 0.0000 0.0000 ( 40639 PWs)   bands (ev):

   -58.2564 -57.4779 -57.3759 -57.2289 -57.0287 -56.9230 -34.5155 -34.4990
   -34.3244 -33.7856 -33.7556 -33.6077 -33.6043 -33.5952 -33.5216 -33.5086
   -33.4896 -33.3780 -33.3596 -33.2746 -33.2185 -33.1853 -33.0773 -33.0138
   -18.9468 -18.6436 -18.4868 -18.1164 -17.9229 -17.5790 -17.4736 -17.3846
   -17.1564 -17.1499 -16.9020 -16.6347 -16.2081  -6.6800  -6.2371  -6.0006
    -5.8312  -5.3553  -5.2524  -5.1396  -5.1023  -4.6314  -4.6047  -4.4671
    -4.4318  -4.2487  -3.9379  -3.8229  -3.7981  -3.7174  -3.2916  -3.2513
    -3.1886  -2.9135  -2.8221  -2.7068  -2.5663  -2.3958  -2.3094  -2.2855
    -2.0974  -1.9709  -1.9475  -1.8191  -1.6774  -1.5743  -1.4131  -1.2221
    -1.1643  -1.1021  -0.9707  -0.7541   0.7793   1.3085   1.3363   1.6382
     1.7445   1.8811   1.8910   2.1510   2.3359   2.3793   2.5226   2.5443
     2.5945   2.6264   3.1525

          k = 0.0000 0.1139 0.0000 ( 40609 PWs)   bands (ev):

   -58.2564 -57.4778 -57.3760 -57.2289 -57.0287 -56.9231 -34.5155 -34.4961
   -34.3244 -33.7626 -33.7555 -33.6318 -33.6042 -33.5947 -33.5114 -33.5090
   -33.4896 -33.3819 -33.3595 -33.2746 -33.2186 -33.1964 -33.0773 -33.0139
   -18.8309 -18.5775 -18.4189 -18.0491 -17.9884 -17.7725 -17.5018 -17.3587
   -17.2412 -17.1444 -16.9622 -16.6320 -16.2064  -6.3843  -5.9755  -5.8573
    -5.6926  -5.3636  -5.2028  -5.0622  -5.0106  -4.6422  -4.4317  -4.4176
    -4.4057  -4.2054  -3.9965  -3.9377  -3.8225  -3.7527  -3.5550  -3.5409
    -3.2793  -3.2360  -2.8735  -2.7705  -2.6087  -2.5021  -2.4341  -2.1774
    -2.1355  -2.1264  -1.9642  -1.9044  -1.7374  -1.6742  -1.5272  -1.3396
    -1.1815  -1.1512  -1.0901  -0.8736   1.0034   1.3061   1.6338   1.7787
     1.9040   1.9658   2.1037   2.3711   2.4084   2.4254   2.5156   2.5591
     2.6640   2.8065   3.0061

          k = 0.0000-0.2277 0.0000 ( 40526 PWs)   bands (ev):

   -58.2564 -57.4777 -57.3761 -57.2289 -57.0287 -56.9231 -34.5155 -34.4932
   -34.3243 -33.7554 -33.7230 -33.6723 -33.6043 -33.5943 -33.5095 -33.5003
   -33.4897 -33.3858 -33.3594 -33.2746 -33.2186 -33.2082 -33.0774 -33.0140
   -18.6562 -18.5295 -18.2603 -18.1995 -17.9810 -17.8058 -17.6816 -17.3338
   -17.3294 -17.1356 -17.0137 -16.6307 -16.2050  -5.9886  -5.8973  -5.5363
    -5.4129  -5.3148  -5.2037  -5.0194  -4.8026  -4.5599  -4.4307  -4.3620
    -4.3373  -4.1592  -4.0741  -3.9400  -3.9391  -3.8997  -3.8221  -3.8176
    -3.5634  -3.4380  -3.1290  -2.8543  -2.8423  -2.5756  -2.4674  -2.2952
    -2.1497  -2.1461  -2.0595  -1.9547  -1.7662  -1.7289  -1.3838  -1.3012
    -1.2139  -1.1901  -1.1809  -1.0333   1.1436   1.3044   1.8145   1.9022
     2.0641   2.1346   2.2743   2.4011   2.4494   2.4668   2.6454   2.6974
     2.8710   2.9251   2.9808

          k = 0.0000-0.1139 0.0000 ( 40609 PWs)   bands (ev):

   -58.2564 -57.4778 -57.3760 -57.2289 -57.0287 -56.9231 -34.5155 -34.4961
   -34.3244 -33.7626 -33.7555 -33.6318 -33.6042 -33.5947 -33.5114 -33.5090
   -33.4896 -33.3819 -33.3595 -33.2746 -33.2186 -33.1964 -33.0773 -33.0139
   -18.8309 -18.5775 -18.4189 -18.0491 -17.9884 -17.7725 -17.5018 -17.3587
   -17.2412 -17.1444 -16.9622 -16.6320 -16.2064  -6.3843  -5.9755  -5.8573
    -5.6926  -5.3636  -5.2028  -5.0622  -5.0106  -4.6422  -4.4317  -4.4176
    -4.4057  -4.2054  -3.9965  -3.9377  -3.8225  -3.7527  -3.5550  -3.5409
    -3.2793  -3.2360  -2.8735  -2.7705  -2.6087  -2.5021  -2.4341  -2.1774
    -2.1355  -2.1264  -1.9642  -1.9044  -1.7374  -1.6742  -1.5272  -1.3396
    -1.1815  -1.1512  -1.0901  -0.8736   1.0034   1.3061   1.6338   1.7787
     1.9040   1.9658   2.1037   2.3711   2.4084   2.4254   2.5156   2.5591
     2.6640   2.8065   3.0061

          k = 0.1250 0.0000 0.0000 ( 40652 PWs)   bands (ev):

   -58.2505 -57.4719 -57.3700 -57.2230 -57.0228 -56.9168 -34.5106 -34.4828
   -34.3925 -33.7711 -33.7433 -33.6618 -33.6020 -33.5992 -33.5751 -33.5039
   -33.4885 -33.4233 -33.3739 -33.2593 -33.2110 -33.1825 -33.1467 -33.0822
   -18.8027 -18.5291 -18.3856 -18.0074 -17.8041 -17.6552 -17.3857 -17.2734
   -17.2224 -17.2115 -16.9699 -16.6663 -16.2622  -6.4802  -6.0513  -5.8402
    -5.7548  -5.3803  -5.3276  -5.0687  -5.0502  -4.8870  -4.7156  -4.5578
    -4.4508  -4.2429  -3.9229  -3.8158  -3.6094  -3.5063  -3.2447  -3.1515
    -2.9973  -2.9523  -2.8254  -2.8127  -2.6856  -2.6168  -2.4823  -2.3628
    -2.1846  -2.1773  -1.9624  -1.9293  -1.8043  -1.7573  -1.6716  -1.5253
    -1.4317  -1.1315  -1.0402  -0.8316   1.0611   1.2888   1.6141   1.6332
     1.8230   1.8973   2.0958   2.1860   2.3412   2.3723   2.5505   2.6751
     2.7279   2.7306   3.0863

          k = 0.1250 0.1139 0.0000 ( 40695 PWs)   bands (ev):

   -58.2505 -57.4718 -57.3701 -57.2230 -57.0228 -56.9168 -34.5106 -34.4804
   -34.3928 -33.7521 -33.7432 -33.6621 -33.6247 -33.5989 -33.5723 -33.4954
   -33.4883 -33.4243 -33.3768 -33.2593 -33.2111 -33.1910 -33.1467 -33.0822
   -18.6924 -18.4880 -18.3055 -17.9431 -17.8909 -17.7772 -17.4143 -17.3049
   -17.2826 -17.2040 -17.0148 -16.6637 -16.2607  -6.1874  -5.8366  -5.7349
    -5.5521  -5.3677  -5.2523  -5.1179  -4.9299  -4.7945  -4.7317  -4.5444
    -4.3496  -4.1548  -3.9510  -3.8305  -3.6392  -3.5588  -3.4888  -3.3355
    -3.2316  -3.1757  -3.0955  -2.9271  -2.8313  -2.6574  -2.5233  -2.4072
    -2.3568  -2.2321  -2.1258  -1.9576  -1.8032  -1.7462  -1.6252  -1.5222
    -1.4202  -1.1664  -1.0301  -0.9186   1.2441   1.3400   1.7046   1.8851
     1.9346   1.9971   2.2029   2.3778   2.4104   2.4943   2.5857   2.6739
     2.7320   2.8687   3.0733

          k = 0.1250-0.2277 0.0000 ( 40666 PWs)   bands (ev):

   -58.2505 -57.4718 -57.3702 -57.2229 -57.0228 -56.9169 -34.5106 -34.4778
   -34.3931 -33.7431 -33.7225 -33.6688 -33.6494 -33.5989 -33.5713 -33.4889
   -33.4852 -33.4256 -33.3798 -33.2593 -33.2112 -33.1999 -33.1466 -33.0821
   -18.5191 -18.4565 -18.1589 -18.0900 -17.9690 -17.7009 -17.5927 -17.3750
   -17.2820 -17.1950 -17.0472 -16.6622 -16.2593  -5.8205  -5.7620  -5.4523
    -5.3546  -5.2580  -5.1148  -5.0800  -4.8388  -4.8118  -4.6784  -4.4218
    -4.2589  -4.1637  -3.9474  -3.8492  -3.7859  -3.7560  -3.7243  -3.5802
    -3.4352  -3.4020  -3.2298  -3.1014  -3.0551  -2.9710  -2.6060  -2.5246
    -2.4332  -2.2202  -2.1752  -1.9875  -1.8196  -1.7005  -1.5226  -1.3807
    -1.2462  -1.2078  -1.1822  -0.9955   1.2894   1.4293   1.8487   1.9398
     2.0615   2.1276   2.2666   2.4853   2.5984   2.6022   2.7190   2.7191
     2.8170   2.9113   3.0775

          k = 0.1250-0.1139 0.0000 ( 40695 PWs)   bands (ev):

   -58.2505 -57.4718 -57.3701 -57.2230 -57.0228 -56.9168 -34.5106 -34.4804
   -34.3928 -33.7521 -33.7432 -33.6621 -33.6247 -33.5989 -33.5723 -33.4953
   -33.4883 -33.4243 -33.3768 -33.2593 -33.2111 -33.1910 -33.1467 -33.0822
   -18.6924 -18.4880 -18.3055 -17.9431 -17.8909 -17.7772 -17.4143 -17.3049
   -17.2826 -17.2040 -17.0148 -16.6637 -16.2607  -6.1874  -5.8366  -5.7349
    -5.5521  -5.3677  -5.2523  -5.1179  -4.9299  -4.7945  -4.7317  -4.5444
    -4.3496  -4.1548  -3.9510  -3.8305  -3.6392  -3.5588  -3.4888  -3.3355
    -3.2316  -3.1757  -3.0955  -2.9271  -2.8313  -2.6574  -2.5233  -2.4072
    -2.3568  -2.2321  -2.1258  -1.9576  -1.8032  -1.7462  -1.6252  -1.5222
    -1.4202  -1.1664  -1.0301  -0.9186   1.2441   1.3400   1.7046   1.8851
     1.9346   1.9971   2.2029   2.3778   2.4104   2.4943   2.5857   2.6740
     2.7320   2.8689   3.0737

          k = 0.2500 0.0000 0.0000 ( 40766 PWs)   bands (ev):

   -58.2363 -57.4574 -57.3559 -57.2087 -57.0084 -56.9017 -34.5538 -34.4988
   -34.4434 -33.8338 -33.7362 -33.7353 -33.6988 -33.5950 -33.5878 -33.5850
   -33.4650 -33.4602 -33.3640 -33.3104 -33.2832 -33.2221 -33.1767 -33.1525
   -18.4455 -18.3173 -18.0763 -17.8383 -17.7252 -17.5269 -17.3820 -17.3624
   -17.2239 -17.1339 -17.0446 -16.7038 -16.3376  -6.0748  -5.9723  -5.5915
    -5.4500  -5.3518  -5.2096  -5.1229  -4.9574  -4.8550  -4.8071  -4.4729
    -4.3597  -4.2973  -4.1591  -3.8297  -3.7371  -3.5704  -3.4624  -3.3715
    -3.2834  -3.2546  -2.9915  -2.8051  -2.7659  -2.7203  -2.5998  -2.5700
    -2.3871  -2.2050  -2.0580  -2.0298  -1.9963  -1.9072  -1.7672  -1.7509
    -1.5570  -1.1677  -1.1664  -1.1002   1.2866   1.4572   1.5032   1.9711
     2.0034   2.0805   2.2157   2.2463   2.3964   2.6919   2.7572   2.8026
     2.8231   2.9262   3.0223

          k = 0.2500 0.1139 0.0000 ( 40754 PWs)   bands (ev):

   -58.2363 -57.4573 -57.3560 -57.2087 -57.0084 -56.9017 -34.5546 -34.4988
   -34.4419 -33.8344 -33.7611 -33.6997 -33.6971 -33.5997 -33.5974 -33.5851
   -33.4651 -33.4545 -33.3649 -33.3103 -33.2826 -33.2221 -33.1805 -33.1524
   -18.3670 -18.3080 -18.0084 -17.9380 -17.6608 -17.5986 -17.4169 -17.3701
   -17.2269 -17.1869 -17.0299 -16.7026 -16.3374  -6.0767  -5.7358  -5.3617
    -5.3441  -5.1974  -5.1325  -5.0436  -4.9580  -4.7967  -4.7747  -4.6358
    -4.3867  -4.3575  -4.0922  -3.9141  -3.8083  -3.6438  -3.5884  -3.3629
    -3.2912  -3.1614  -3.0904  -3.0544  -2.9316  -2.8119  -2.7703  -2.6954
    -2.5860  -2.2826  -2.0729  -2.0283  -1.9819  -1.8376  -1.7212  -1.6123
    -1.4953  -1.2296  -1.1954  -1.1078   1.3160   1.4882   1.6952   1.9326
     1.9825   2.0814   2.3780   2.4149   2.4586   2.6879   2.8178   2.8324
     2.8852   2.9397   3.0417

          k = 0.2500-0.2277 0.0000 ( 40742 PWs)   bands (ev):

   -58.2363 -57.4573 -57.3560 -57.2086 -57.0084 -56.9017 -34.5554 -34.4988
   -34.4405 -33.8347 -33.7701 -33.6988 -33.6701 -33.6181 -33.5998 -33.5852
   -33.4651 -33.4491 -33.3657 -33.3102 -33.2818 -33.2221 -33.1844 -33.1524
   -18.3022 -18.1703 -18.1577 -17.8644 -17.7533 -17.5134 -17.4825 -17.4217
   -17.2770 -17.1800 -17.0244 -16.7017 -16.3371  -6.0790  -5.3957  -5.2601
    -5.1906  -4.9852  -4.9846  -4.9142  -4.8133  -4.7694  -4.6891  -4.6792
    -4.5713  -4.3751  -4.3450  -4.1170  -3.8507  -3.6164  -3.5361  -3.4552
    -3.4161  -3.3360  -3.3075  -3.1232  -3.0066  -2.9406  -2.8680  -2.7480
    -2.6604  -2.4884  -2.1579  -2.0413  -1.8986  -1.7894  -1.6140  -1.5216
    -1.3628  -1.2672  -1.2481  -1.1262   1.3985   1.4569   1.8235   1.9521
     1.9930   1.9998   2.3741   2.5562   2.6947   2.7610   2.8481   2.8746
     2.9517   2.9956   3.0868

          k = 0.2500-0.1139 0.0000 ( 40754 PWs)   bands (ev):

   -58.2363 -57.4573 -57.3560 -57.2087 -57.0084 -56.9017 -34.5546 -34.4988
   -34.4419 -33.8344 -33.7611 -33.6997 -33.6971 -33.5997 -33.5974 -33.5851
   -33.4651 -33.4545 -33.3649 -33.3103 -33.2826 -33.2221 -33.1805 -33.1524
   -18.3670 -18.3080 -18.0084 -17.9380 -17.6608 -17.5986 -17.4169 -17.3701
   -17.2269 -17.1869 -17.0299 -16.7026 -16.3374  -6.0767  -5.7358  -5.3617
    -5.3441  -5.1974  -5.1325  -5.0436  -4.9580  -4.7967  -4.7747  -4.6358
    -4.3867  -4.3575  -4.0922  -3.9141  -3.8083  -3.6438  -3.5884  -3.3629
    -3.2912  -3.1614  -3.0904  -3.0544  -2.9316  -2.8119  -2.7703  -2.6954
    -2.5860  -2.2826  -2.0729  -2.0283  -1.9819  -1.8376  -1.7212  -1.6123
    -1.4953  -1.2296  -1.1954  -1.1078   1.3160   1.4882   1.6952   1.9326
     1.9825   2.0814   2.3780   2.4149   2.4586   2.6879   2.8177   2.8323
     2.8852   2.9399   3.0409

          k = 0.3750 0.0000 0.0000 ( 40826 PWs)   bands (ev):

   -58.2220 -57.4427 -57.3418 -57.1943 -56.9940 -56.8866 -34.7106 -34.4871
   -34.4033 -33.9912 -33.8899 -33.7502 -33.7016 -33.6626 -33.5765 -33.5727
   -33.4681 -33.4547 -33.4413 -33.4141 -33.3544 -33.1844 -33.1728 -33.1285
   -18.1495 -18.0694 -18.0202 -17.6884 -17.5685 -17.5417 -17.3726 -17.2978
   -17.2529 -17.2061 -16.9820 -16.5973 -16.2709  -6.5208  -5.4635  -5.3705
    -5.2915  -5.1482  -5.0807  -5.0589  -5.0205  -4.8692  -4.7916  -4.6921
    -4.6902  -4.3509  -4.1368  -3.9339  -3.7456  -3.7293  -3.5737  -3.4763
    -3.4525  -3.3273  -3.1840  -3.1748  -2.8529  -2.7966  -2.6564  -2.5256
    -2.4801  -2.1026  -2.0581  -2.0166  -1.9631  -1.7994  -1.7130  -1.7040
    -1.6052  -1.4447  -1.4002  -1.1601   1.0577   1.6741   1.7896   1.9659
     2.2438   2.2446   2.4476   2.4554   2.5363   2.6149   2.6740   2.8107
     2.8424   2.8960   3.0386

          k = 0.3750 0.1139 0.0000 ( 40790 PWs)   bands (ev):

   -58.2220 -57.4427 -57.3418 -57.1943 -56.9940 -56.8866 -34.7118 -34.4871
   -34.4031 -33.9917 -33.8988 -33.7531 -33.6882 -33.6626 -33.5766 -33.5762
   -33.4679 -33.4547 -33.4473 -33.4058 -33.3532 -33.1844 -33.1716 -33.1284
   -18.2181 -18.1480 -17.8833 -17.7729 -17.5656 -17.5156 -17.4295 -17.2945
   -17.1916 -17.1396 -16.9848 -16.5996 -16.2716  -6.5225  -5.5975  -5.3714
    -5.3125  -5.1463  -5.0619  -4.9824  -4.9262  -4.8942  -4.7290  -4.6834
    -4.5926  -4.3221  -4.0605  -4.0032  -3.7956  -3.6702  -3.6259  -3.5697
    -3.2799  -3.2368  -3.1662  -3.0112  -2.9427  -2.8126  -2.6951  -2.5462
    -2.4373  -2.2869  -2.1964  -2.0043  -1.9385  -1.8383  -1.7723  -1.6956
    -1.6143  -1.4921  -1.3589  -1.2282   1.0452   1.4995   1.7823   1.8356
     1.9823   2.2044   2.3889   2.5393   2.5896   2.7854   2.7991   2.8275
     2.9110   2.9633   3.1175

          k = 0.3750-0.2277 0.0000 ( 40742 PWs)   bands (ev):

   -58.2220 -57.4427 -57.3418 -57.1943 -56.9940 -56.8866 -34.7130 -34.4871
   -34.4028 -33.9922 -33.9068 -33.7559 -33.6749 -33.6626 -33.5806 -33.5766
   -33.4678 -33.4547 -33.4514 -33.3993 -33.3520 -33.1844 -33.1705 -33.1284
   -18.2889 -18.1463 -17.8711 -17.7782 -17.5747 -17.5492 -17.3952 -17.3089
   -17.1600 -17.0773 -16.9881 -16.6022 -16.2723  -6.5243  -5.6539  -5.4424
    -5.2342  -5.1957  -5.0923  -5.0337  -4.9317  -4.7733  -4.6925  -4.4338
    -4.4299  -4.3889  -4.2430  -3.8250  -3.8140  -3.6455  -3.5897  -3.5340
    -3.3556  -3.2789  -3.1435  -3.1124  -2.8511  -2.7678  -2.6167  -2.5725
    -2.4900  -2.3423  -2.1516  -2.0678  -1.9502  -1.9376  -1.8808  -1.8308
    -1.5795  -1.4339  -1.3381  -1.2918   1.0785   1.2502   1.7010   1.8344
     1.8623   2.1936   2.4035   2.4498   2.6924   2.8038   2.8987   2.9214
     2.9337   3.0099   3.1310

          k = 0.3750-0.1139 0.0000 ( 40790 PWs)   bands (ev):

   -58.2220 -57.4427 -57.3418 -57.1943 -56.9940 -56.8866 -34.7118 -34.4871
   -34.4031 -33.9917 -33.8988 -33.7531 -33.6882 -33.6626 -33.5766 -33.5762
   -33.4679 -33.4547 -33.4473 -33.4058 -33.3532 -33.1844 -33.1716 -33.1284
   -18.2181 -18.1480 -17.8833 -17.7729 -17.5656 -17.5156 -17.4295 -17.2945
   -17.1916 -17.1396 -16.9848 -16.5996 -16.2716  -6.5225  -5.5975  -5.3714
    -5.3125  -5.1463  -5.0619  -4.9824  -4.9262  -4.8942  -4.7290  -4.6834
    -4.5926  -4.3221  -4.0605  -4.0032  -3.7956  -3.6702  -3.6259  -3.5697
    -3.2799  -3.2368  -3.1662  -3.0112  -2.9427  -2.8126  -2.6951  -2.5462
    -2.4373  -2.2869  -2.1964  -2.0043  -1.9385  -1.8383  -1.7723  -1.6956
    -1.6143  -1.4921  -1.3589  -1.2282   1.0452   1.4995   1.7823   1.8356
     1.9823   2.2044   2.3889   2.5393   2.5896   2.7853   2.7991   2.8274
     2.9104   2.9632   3.1172

          k =-0.5000 0.0000 0.0000 ( 40852 PWs)   bands (ev):

   -58.2161 -57.4367 -57.3359 -57.1883 -56.9880 -56.8803 -34.7744 -34.4824
   -34.3865 -34.0555 -33.9528 -33.8134 -33.6876 -33.6475 -33.5816 -33.5661
   -33.5300 -33.5013 -33.4498 -33.3941 -33.3504 -33.1719 -33.1686 -33.1160
   -18.0951 -18.0832 -17.9023 -17.6268 -17.6079 -17.4751 -17.3656 -17.2866
   -17.2220 -17.1610 -17.0089 -16.5135 -16.1968  -6.7199  -5.4703  -5.4129
    -5.2716  -5.2699  -5.0652  -5.0358  -4.9253  -4.8863  -4.8443  -4.7461
    -4.5182  -4.1613  -4.1255  -4.0387  -3.9542  -3.9064  -3.6776  -3.5719
    -3.3414  -3.2820  -3.0314  -3.0139  -2.9910  -2.7300  -2.6383  -2.5210
    -2.3964  -2.1010  -2.0573  -1.9969  -1.9746  -1.9139  -1.8660  -1.7804
    -1.5793  -1.4908  -1.4351  -1.1274   1.0146   1.7565   1.8889   2.1039
     2.1959   2.4157   2.5008   2.5236   2.5531   2.5819   2.6275   2.6661
     2.7999   2.8236   3.0773

          k =-0.5000 0.1139 0.0000 ( 40798 PWs)   bands (ev):

   -58.2161 -57.4367 -57.3359 -57.1883 -56.9880 -56.8803 -34.7757 -34.4824
   -34.3868 -34.0560 -33.9604 -33.8163 -33.6794 -33.6475 -33.5817 -33.5655
   -33.5301 -33.5030 -33.4499 -33.3918 -33.3484 -33.1686 -33.1684 -33.1160
   -18.2580 -18.0828 -17.7990 -17.7228 -17.6252 -17.5281 -17.2822 -17.2740
   -17.1734 -17.0590 -17.0108 -16.5138 -16.1964  -6.7213  -5.8082  -5.5497
    -5.4371  -5.2440  -5.2073  -5.0265  -4.8519  -4.7091  -4.6825  -4.5231
    -4.3619  -4.1597  -4.1100  -3.9946  -3.9580  -3.6899  -3.5980  -3.4857
    -3.3496  -3.2737  -3.1886  -3.0210  -2.9414  -2.7693  -2.4913  -2.3221
    -2.2902  -2.2413  -2.1671  -2.0972  -1.9863  -1.8694  -1.8553  -1.7593
    -1.6560  -1.6362  -1.5263  -1.2068   0.9742   1.4005   1.7638   1.7743
     2.0903   2.1685   2.4684   2.5609   2.5986   2.6640   2.7926   2.8036
     2.9299   3.0213   3.0731

          k =-0.5000-0.2277 0.0000 ( 40760 PWs)   bands (ev):

   -58.2161 -57.4367 -57.3359 -57.1883 -56.9880 -56.8803 -34.7770 -34.4824
   -34.3871 -34.0565 -33.9675 -33.8192 -33.6716 -33.6475 -33.5818 -33.5649
   -33.5302 -33.5046 -33.4499 -33.3896 -33.3464 -33.1686 -33.1648 -33.1160
   -18.3508 -18.0824 -17.8887 -17.6280 -17.6236 -17.6141 -17.2577 -17.1900
   -17.1801 -17.0128 -16.9680 -16.5142 -16.1961  -6.7226  -5.9862  -5.7325
    -5.3996  -5.3927  -5.2285  -5.0359  -4.7259  -4.5586  -4.5329  -4.5106
    -4.3931  -4.2479  -4.0452  -3.9857  -3.8561  -3.4280  -3.4068  -3.3455
    -3.3376  -3.3251  -3.1326  -2.9922  -2.9851  -2.7775  -2.4351  -2.4291
    -2.3074  -2.1935  -2.1849  -2.0276  -1.9934  -1.8880  -1.8550  -1.8160
    -1.7758  -1.7281  -1.6692  -1.2726   0.9336   1.1078   1.5359   1.7895
     1.8644   2.1395   2.4324   2.5615   2.6104   2.6618   2.8035   2.9729
     2.9832   3.0234   3.0673

          k =-0.5000-0.1139 0.0000 ( 40798 PWs)   bands (ev):

   -58.2161 -57.4367 -57.3359 -57.1883 -56.9880 -56.8803 -34.7757 -34.4824
   -34.3868 -34.0560 -33.9604 -33.8163 -33.6794 -33.6475 -33.5817 -33.5655
   -33.5301 -33.5030 -33.4499 -33.3918 -33.3484 -33.1686 -33.1684 -33.1160
   -18.2580 -18.0828 -17.7990 -17.7228 -17.6252 -17.5281 -17.2822 -17.2740
   -17.1734 -17.0590 -17.0108 -16.5138 -16.1964  -6.7213  -5.8082  -5.5497
    -5.4371  -5.2440  -5.2073  -5.0265  -4.8519  -4.7091  -4.6825  -4.5231
    -4.3619  -4.1597  -4.1100  -3.9946  -3.9580  -3.6899  -3.5980  -3.4857
    -3.3496  -3.2737  -3.1886  -3.0210  -2.9414  -2.7693  -2.4913  -2.3221
    -2.2902  -2.2413  -2.1671  -2.0972  -1.9863  -1.8694  -1.8553  -1.7593
    -1.6560  -1.6362  -1.5263  -1.2068   0.9742   1.4005   1.7638   1.7743
     2.0903   2.1685   2.4684   2.5609   2.5986   2.6640   2.7926   2.8036
     2.9304   3.0213   3.0732

          k =-0.3750 0.0000 0.0000 ( 40826 PWs)   bands (ev):

   -58.2220 -57.4427 -57.3418 -57.1943 -56.9940 -56.8866 -34.7106 -34.4871
   -34.4033 -33.9912 -33.8899 -33.7502 -33.7016 -33.6626 -33.5765 -33.5727
   -33.4681 -33.4547 -33.4413 -33.4141 -33.3544 -33.1844 -33.1728 -33.1285
   -18.1495 -18.0694 -18.0202 -17.6884 -17.5685 -17.5417 -17.3726 -17.2978
   -17.2529 -17.2061 -16.9820 -16.5973 -16.2709  -6.5208  -5.4635  -5.3705
    -5.2915  -5.1482  -5.0807  -5.0589  -5.0205  -4.8692  -4.7916  -4.6921
    -4.6902  -4.3509  -4.1368  -3.9339  -3.7456  -3.7293  -3.5737  -3.4763
    -3.4525  -3.3273  -3.1840  -3.1748  -2.8529  -2.7966  -2.6564  -2.5256
    -2.4801  -2.1026  -2.0581  -2.0166  -1.9631  -1.7994  -1.7130  -1.7040
    -1.6052  -1.4447  -1.4002  -1.1601   1.0577   1.6741   1.7896   1.9659
     2.2438   2.2446   2.4476   2.4554   2.5362   2.6149   2.6740   2.8106
     2.8421   2.8961   3.0386

          k =-0.3750 0.1139 0.0000 ( 40790 PWs)   bands (ev):

   -58.2220 -57.4427 -57.3418 -57.1943 -56.9940 -56.8866 -34.7118 -34.4871
   -34.4031 -33.9917 -33.8988 -33.7531 -33.6882 -33.6626 -33.5766 -33.5762
   -33.4679 -33.4547 -33.4473 -33.4058 -33.3532 -33.1844 -33.1716 -33.1284
   -18.2181 -18.1480 -17.8833 -17.7729 -17.5656 -17.5156 -17.4295 -17.2945
   -17.1916 -17.1396 -16.9848 -16.5996 -16.2716  -6.5225  -5.5975  -5.3714
    -5.3125  -5.1463  -5.0619  -4.9824  -4.9262  -4.8942  -4.7290  -4.6834
    -4.5926  -4.3221  -4.0605  -4.0032  -3.7956  -3.6702  -3.6259  -3.5697
    -3.2799  -3.2368  -3.1662  -3.0112  -2.9427  -2.8126  -2.6951  -2.5462
    -2.4373  -2.2869  -2.1964  -2.0043  -1.9385  -1.8383  -1.7723  -1.6956
    -1.6143  -1.4921  -1.3589  -1.2282   1.0452   1.4995   1.7823   1.8356
     1.9823   2.2044   2.3889   2.5393   2.5895   2.7852   2.7992   2.8274
     2.9106   2.9634   3.1156

          k =-0.3750-0.2277 0.0000 ( 40742 PWs)   bands (ev):

   -58.2220 -57.4427 -57.3418 -57.1943 -56.9940 -56.8866 -34.7130 -34.4871
   -34.4028 -33.9922 -33.9068 -33.7559 -33.6749 -33.6626 -33.5806 -33.5766
   -33.4678 -33.4547 -33.4514 -33.3993 -33.3520 -33.1844 -33.1705 -33.1284
   -18.2889 -18.1463 -17.8711 -17.7782 -17.5747 -17.5492 -17.3952 -17.3089
   -17.1600 -17.0773 -16.9881 -16.6022 -16.2723  -6.5243  -5.6539  -5.4424
    -5.2342  -5.1957  -5.0923  -5.0337  -4.9317  -4.7733  -4.6925  -4.4338
    -4.4299  -4.3889  -4.2430  -3.8250  -3.8140  -3.6455  -3.5897  -3.5340
    -3.3556  -3.2789  -3.1435  -3.1124  -2.8511  -2.7678  -2.6167  -2.5725
    -2.4900  -2.3423  -2.1516  -2.0678  -1.9502  -1.9376  -1.8808  -1.8308
    -1.5795  -1.4339  -1.3381  -1.2918   1.0785   1.2502   1.7010   1.8344
     1.8623   2.1936   2.4035   2.4498   2.6924   2.8038   2.8987   2.9216
     2.9339   3.0099   3.1310

          k =-0.3750-0.1139 0.0000 ( 40790 PWs)   bands (ev):

   -58.2220 -57.4427 -57.3418 -57.1943 -56.9940 -56.8866 -34.7118 -34.4871
   -34.4031 -33.9917 -33.8988 -33.7531 -33.6882 -33.6626 -33.5766 -33.5762
   -33.4679 -33.4547 -33.4473 -33.4058 -33.3532 -33.1844 -33.1716 -33.1284
   -18.2181 -18.1480 -17.8833 -17.7729 -17.5656 -17.5156 -17.4295 -17.2945
   -17.1916 -17.1396 -16.9848 -16.5996 -16.2716  -6.5225  -5.5975  -5.3714
    -5.3125  -5.1463  -5.0619  -4.9824  -4.9262  -4.8942  -4.7290  -4.6834
    -4.5926  -4.3221  -4.0605  -4.0032  -3.7956  -3.6702  -3.6259  -3.5697
    -3.2799  -3.2368  -3.1662  -3.0112  -2.9427  -2.8126  -2.6951  -2.5462
    -2.4373  -2.2869  -2.1964  -2.0043  -1.9385  -1.8383  -1.7723  -1.6956
    -1.6143  -1.4921  -1.3589  -1.2282   1.0452   1.4995   1.7823   1.8356
     1.9823   2.2044   2.3889   2.5393   2.5896   2.7853   2.7993   2.8275
     2.9106   2.9632   3.1175

          k =-0.2500 0.0000 0.0000 ( 40766 PWs)   bands (ev):

   -58.2363 -57.4574 -57.3559 -57.2087 -57.0084 -56.9017 -34.5538 -34.4988
   -34.4434 -33.8338 -33.7362 -33.7353 -33.6988 -33.5950 -33.5878 -33.5850
   -33.4650 -33.4602 -33.3640 -33.3104 -33.2832 -33.2221 -33.1767 -33.1525
   -18.4455 -18.3173 -18.0763 -17.8383 -17.7252 -17.5269 -17.3820 -17.3624
   -17.2239 -17.1339 -17.0446 -16.7038 -16.3376  -6.0748  -5.9723  -5.5915
    -5.4500  -5.3518  -5.2096  -5.1229  -4.9574  -4.8550  -4.8071  -4.4729
    -4.3597  -4.2973  -4.1591  -3.8297  -3.7371  -3.5704  -3.4624  -3.3715
    -3.2834  -3.2546  -2.9915  -2.8051  -2.7659  -2.7203  -2.5998  -2.5700
    -2.3871  -2.2050  -2.0580  -2.0298  -1.9963  -1.9072  -1.7672  -1.7509
    -1.5570  -1.1677  -1.1664  -1.1002   1.2866   1.4572   1.5032   1.9711
     2.0034   2.0805   2.2157   2.2463   2.3964   2.6919   2.7572   2.8026
     2.8231   2.9263   3.0227

          k =-0.2500 0.1139 0.0000 ( 40754 PWs)   bands (ev):

   -58.2363 -57.4573 -57.3560 -57.2087 -57.0084 -56.9017 -34.5546 -34.4988
   -34.4419 -33.8344 -33.7611 -33.6997 -33.6971 -33.5997 -33.5974 -33.5851
   -33.4651 -33.4545 -33.3649 -33.3103 -33.2826 -33.2221 -33.1805 -33.1524
   -18.3670 -18.3080 -18.0084 -17.9380 -17.6608 -17.5986 -17.4169 -17.3701
   -17.2269 -17.1869 -17.0299 -16.7026 -16.3374  -6.0767  -5.7358  -5.3617
    -5.3441  -5.1974  -5.1325  -5.0436  -4.9580  -4.7967  -4.7747  -4.6358
    -4.3867  -4.3575  -4.0922  -3.9141  -3.8083  -3.6438  -3.5884  -3.3629
    -3.2912  -3.1614  -3.0904  -3.0544  -2.9316  -2.8119  -2.7703  -2.6954
    -2.5860  -2.2826  -2.0729  -2.0283  -1.9819  -1.8376  -1.7212  -1.6123
    -1.4953  -1.2296  -1.1954  -1.1078   1.3160   1.4882   1.6952   1.9326
     1.9825   2.0814   2.3780   2.4149   2.4585   2.6879   2.8177   2.8323
     2.8852   2.9395   3.0413

          k =-0.2500-0.2277 0.0000 ( 40742 PWs)   bands (ev):

   -58.2363 -57.4573 -57.3560 -57.2086 -57.0084 -56.9017 -34.5554 -34.4988
   -34.4405 -33.8347 -33.7701 -33.6988 -33.6701 -33.6181 -33.5998 -33.5852
   -33.4651 -33.4491 -33.3657 -33.3102 -33.2818 -33.2221 -33.1844 -33.1524
   -18.3022 -18.1703 -18.1577 -17.8644 -17.7533 -17.5134 -17.4825 -17.4217
   -17.2770 -17.1800 -17.0244 -16.7017 -16.3371  -6.0790  -5.3957  -5.2601
    -5.1906  -4.9852  -4.9846  -4.9142  -4.8133  -4.7694  -4.6891  -4.6792
    -4.5713  -4.3751  -4.3450  -4.1170  -3.8507  -3.6164  -3.5361  -3.4552
    -3.4161  -3.3360  -3.3075  -3.1232  -3.0066  -2.9406  -2.8680  -2.7480
    -2.6604  -2.4884  -2.1579  -2.0413  -1.8986  -1.7894  -1.6140  -1.5216
    -1.3628  -1.2672  -1.2481  -1.1262   1.3985   1.4569   1.8235   1.9521
     1.9930   1.9998   2.3741   2.5562   2.6947   2.7610   2.8481   2.8746
     2.9518   2.9955   3.0869

          k =-0.2500-0.1139 0.0000 ( 40754 PWs)   bands (ev):

   -58.2363 -57.4573 -57.3560 -57.2087 -57.0084 -56.9017 -34.5546 -34.4988
   -34.4419 -33.8344 -33.7611 -33.6997 -33.6971 -33.5997 -33.5974 -33.5851
   -33.4651 -33.4545 -33.3649 -33.3103 -33.2826 -33.2221 -33.1805 -33.1524
   -18.3670 -18.3080 -18.0084 -17.9380 -17.6608 -17.5986 -17.4169 -17.3701
   -17.2269 -17.1869 -17.0299 -16.7026 -16.3374  -6.0767  -5.7358  -5.3617
    -5.3441  -5.1974  -5.1325  -5.0436  -4.9580  -4.7967  -4.7747  -4.6358
    -4.3867  -4.3575  -4.0922  -3.9141  -3.8083  -3.6438  -3.5884  -3.3629
    -3.2912  -3.1614  -3.0904  -3.0544  -2.9316  -2.8119  -2.7703  -2.6954
    -2.5860  -2.2826  -2.0729  -2.0283  -1.9819  -1.8376  -1.7212  -1.6123
    -1.4953  -1.2296  -1.1954  -1.1078   1.3160   1.4882   1.6952   1.9326
     1.9825   2.0814   2.3780   2.4149   2.4586   2.6879   2.8178   2.8324
     2.8852   2.9397   3.0417

          k =-0.1250 0.0000 0.0000 ( 40652 PWs)   bands (ev):

   -58.2505 -57.4719 -57.3700 -57.2230 -57.0228 -56.9168 -34.5106 -34.4828
   -34.3925 -33.7711 -33.7433 -33.6618 -33.6020 -33.5992 -33.5751 -33.5039
   -33.4885 -33.4233 -33.3739 -33.2593 -33.2110 -33.1825 -33.1467 -33.0822
   -18.8027 -18.5291 -18.3856 -18.0074 -17.8041 -17.6552 -17.3857 -17.2734
   -17.2224 -17.2115 -16.9699 -16.6663 -16.2622  -6.4802  -6.0513  -5.8402
    -5.7548  -5.3803  -5.3276  -5.0687  -5.0502  -4.8870  -4.7156  -4.5578
    -4.4508  -4.2429  -3.9229  -3.8158  -3.6094  -3.5063  -3.2447  -3.1515
    -2.9973  -2.9523  -2.8254  -2.8127  -2.6856  -2.6168  -2.4823  -2.3628
    -2.1846  -2.1773  -1.9624  -1.9293  -1.8043  -1.7573  -1.6716  -1.5253
    -1.4317  -1.1315  -1.0402  -0.8316   1.0611   1.2888   1.6141   1.6332
     1.8230   1.8973   2.0958   2.1860   2.3412   2.3723   2.5506   2.6751
     2.7280   2.7306   3.0857

          k =-0.1250 0.1139 0.0000 ( 40695 PWs)   bands (ev):

   -58.2505 -57.4718 -57.3701 -57.2230 -57.0228 -56.9168 -34.5106 -34.4804
   -34.3928 -33.7521 -33.7432 -33.6621 -33.6247 -33.5989 -33.5723 -33.4953
   -33.4883 -33.4243 -33.3768 -33.2593 -33.2111 -33.1910 -33.1467 -33.0822
   -18.6924 -18.4880 -18.3055 -17.9431 -17.8909 -17.7772 -17.4143 -17.3049
   -17.2826 -17.2040 -17.0148 -16.6637 -16.2607  -6.1874  -5.8366  -5.7349
    -5.5521  -5.3677  -5.2523  -5.1179  -4.9299  -4.7945  -4.7317  -4.5444
    -4.3496  -4.1548  -3.9510  -3.8305  -3.6392  -3.5588  -3.4888  -3.3355
    -3.2316  -3.1757  -3.0955  -2.9271  -2.8313  -2.6574  -2.5233  -2.4072
    -2.3568  -2.2321  -2.1258  -1.9576  -1.8032  -1.7462  -1.6252  -1.5222
    -1.4202  -1.1664  -1.0301  -0.9186   1.2441   1.3400   1.7046   1.8851
     1.9346   1.9971   2.2029   2.3778   2.4104   2.4943   2.5857   2.6740
     2.7320   2.8688   3.0739

          k =-0.1250-0.2277 0.0000 ( 40666 PWs)   bands (ev):

   -58.2505 -57.4718 -57.3702 -57.2229 -57.0228 -56.9169 -34.5106 -34.4778
   -34.3931 -33.7431 -33.7225 -33.6688 -33.6494 -33.5989 -33.5713 -33.4889
   -33.4852 -33.4256 -33.3798 -33.2593 -33.2112 -33.1999 -33.1466 -33.0821
   -18.5191 -18.4565 -18.1589 -18.0900 -17.9690 -17.7009 -17.5927 -17.3750
   -17.2820 -17.1950 -17.0472 -16.6622 -16.2593  -5.8205  -5.7620  -5.4523
    -5.3546  -5.2580  -5.1148  -5.0800  -4.8388  -4.8118  -4.6784  -4.4218
    -4.2589  -4.1637  -3.9474  -3.8492  -3.7859  -3.7560  -3.7243  -3.5802
    -3.4352  -3.4020  -3.2298  -3.1014  -3.0551  -2.9710  -2.6060  -2.5246
    -2.4332  -2.2202  -2.1752  -1.9875  -1.8196  -1.7005  -1.5226  -1.3807
    -1.2462  -1.2078  -1.1822  -0.9955   1.2894   1.4293   1.8487   1.9398
     2.0615   2.1276   2.2666   2.4853   2.5984   2.6022   2.7190   2.7191
     2.8172   2.9113   3.0775

          k =-0.1250-0.1139 0.0000 ( 40695 PWs)   bands (ev):

   -58.2505 -57.4718 -57.3701 -57.2230 -57.0228 -56.9168 -34.5106 -34.4804
   -34.3928 -33.7521 -33.7432 -33.6621 -33.6247 -33.5989 -33.5723 -33.4954
   -33.4883 -33.4243 -33.3768 -33.2593 -33.2111 -33.1910 -33.1467 -33.0822
   -18.6924 -18.4880 -18.3055 -17.9431 -17.8909 -17.7772 -17.4143 -17.3049
   -17.2826 -17.2040 -17.0148 -16.6637 -16.2607  -6.1874  -5.8366  -5.7349
    -5.5521  -5.3677  -5.2523  -5.1179  -4.9299  -4.7945  -4.7317  -4.5444
    -4.3496  -4.1548  -3.9510  -3.8305  -3.6392  -3.5588  -3.4888  -3.3355
    -3.2316  -3.1757  -3.0955  -2.9271  -2.8313  -2.6574  -2.5233  -2.4072
    -2.3568  -2.2321  -2.1258  -1.9576  -1.8032  -1.7462  -1.6252  -1.5222
    -1.4202  -1.1664  -1.0301  -0.9186   1.2441   1.3400   1.7046   1.8851
     1.9346   1.9971   2.2029   2.3778   2.4104   2.4943   2.5857   2.6739
     2.7320   2.8687   3.0733

     the Fermi energy is    -1.0385 ev

!    total energy              =   -1260.37391802 Ry
     estimated scf accuracy    <       0.00000039 Ry
     smearing contrib. (-TS)   =       0.00259554 Ry
     internal energy E=F+TS    =   -1260.37651356 Ry

     The total energy is F=E-TS. E is the sum of the following terms:
     one-electron contribution =  -12848.14799534 Ry
     hartree contribution      =    6447.83042555 Ry
     xc contribution           =    -205.24204739 Ry
     ewald contribution        =    5468.91516857 Ry
     one-center paw contrib.   =    -123.73206495 Ry

     convergence has been achieved in  33 iterations

     negative rho (up, down):  7.763E-03 0.000E+00

     Forces acting on atoms (cartesian axes, Ry/au):

     atom    1 type  2   force =    -0.00001555    0.00000002    0.14995058
     atom    2 type  2   force =    -0.00012300   -0.00000025   -0.06670701
     atom    3 type  2   force =     0.00030709    0.00000007   -0.00016146
     atom    4 type  2   force =     0.00011416   -0.00000003   -0.00123305
     atom    5 type  2   force =    -0.00075215   -0.00000053   -0.00040940
     atom    6 type  2   force =     0.00102884   -0.00000026   -0.00075018
     atom    7 type  3   force =    -0.00060611    0.00000004    0.02179595
     atom    8 type  3   force =     0.00007321   -0.00000008    0.04673020
     atom    9 type  3   force =    -0.00000310    0.05378649   -0.04179360
     atom   10 type  3   force =    -0.00000296   -0.05378605   -0.04179394
     atom   11 type  3   force =     0.00014071   -0.00000016    0.00073064
     atom   12 type  3   force =    -0.00126842   -0.00000004   -0.06570488
     atom   13 type  3   force =     0.00017819    0.00063964   -0.00016385
     atom   14 type  3   force =     0.00017836   -0.00063981   -0.00016451
     atom   15 type  3   force =     0.00072580    0.00000059    0.00010534
     atom   16 type  3   force =     0.00017455    0.00000010    0.00122890
     atom   17 type  3   force =     0.00007043   -0.00077438   -0.00061496
     atom   18 type  3   force =     0.00006995    0.00077461   -0.00061497
     atom   19 type  3   force =    -0.00085902    0.00000006   -0.00145036
     atom   20 type  1   force =     0.00056901   -0.00000005    0.00102056

     Total force =     0.003708     Total SCF correction =     0.001084
     SCF correction compared to forces is large: reduce conv_thr to get better values

     Writing all to output data dir ./tmp_s0_OH__u000/s0_OH__u000.save/ :
     XML data file, charge density, pseudopotentials, collected wavefunctions

     init_run     :      2.64s CPU      2.78s WALL (       1 calls)
     electrons    :    114.00s CPU    115.45s WALL (       1 calls)
     forces       :      0.76s CPU      0.77s WALL (       1 calls)

     Called by init_run:
     wfcinit      :      1.11s CPU      1.16s WALL (       1 calls)
     potinit      :      0.80s CPU      0.82s WALL (       1 calls)
     hinit0       :      0.38s CPU      0.43s WALL (       1 calls)

     Called by electrons:
     c_bands      :     83.24s CPU     84.21s WALL (      33 calls)
     sum_band     :     18.31s CPU     18.52s WALL (      33 calls)
     v_of_rho     :      3.72s CPU      3.77s WALL (      34 calls)
     newd         :      1.60s CPU      1.62s WALL (      34 calls)
     PAW_pot      :      1.77s CPU      1.85s WALL (      34 calls)
     mix_rho      :      4.74s CPU      4.81s WALL (      33 calls)

     Called by c_bands:
     init_us_2    :      3.03s CPU      3.08s WALL (     272 calls)
     cegterg      :     67.24s CPU     68.04s WALL (     132 calls)

     Called by *egterg:
     cdiaghg      :      4.57s CPU      4.60s WALL (     560 calls)
     h_psi        :     46.26s CPU     46.85s WALL (     564 calls)
     s_psi        :      3.81s CPU      3.85s WALL (     564 calls)
     g_psi        :      0.27s CPU      0.27s WALL (     428 calls)

     Called by h_psi:
     h_psi:calbec :      4.35s CPU      4.39s WALL (     564 calls)
     vloc_psi     :     37.38s CPU     37.88s WALL (     564 calls)
                                        0.00s GPU  (     564 calls)
     add_vuspsi   :      3.84s CPU      3.87s WALL (     564 calls)

     General routines
     calbec       :      6.50s CPU      6.56s WALL (     712 calls)
     fft          :      2.62s CPU      2.66s WALL (     451 calls)
     ffts         :      3.26s CPU      3.30s WALL (    4003 calls)
     fftw         :     42.61s CPU     43.16s WALL (   63350 calls)
     interpolate  :      0.62s CPU      0.63s WALL (      34 calls)

     Parallel routines

     PWSCF        :   1m58.31s CPU   2m 0.09s WALL


   This run was terminated on:   2:33:31  29Aug2026            

=------------------------------------------------------------------------------=
   JOB DONE.
=------------------------------------------------------------------------------=
