
     Program PWSCF v.7.5 starts on 29Aug2026 at  2:24:30 

     This program is part of the open-source Quantum ESPRESSO suite
     for quantum simulation of materials; please cite
         "P. Giannozzi et al., J. Phys.:Condens. Matter 21 395502 (2009);
         "P. Giannozzi et al., J. Phys.:Condens. Matter 29 465901 (2017);
         "P. Giannozzi et al., J. Chem. Phys. 152 154105 (2020);
          URL http://www.quantum-espresso.org", 
     in publications or presentations arising from this work. More details at
     http://www.quantum-espresso.org/quote

     Parallel version (MPI & OpenMP), running on     128 processor cores
     Number of MPI processes:               128
     Threads/MPI process:                     1

     MPI processes distributed on     1 nodes
     225283 MiB available memory on the printing compute node when the environment starts

     Reading input from slab__u000.run.in

     Current dimensions of program PWSCF are:
     Max number of different atomic species (ntypx) = 10
     Max number of k-points (npk) =  40000
     Max angular momentum in pseudopotentials (lmaxx) =  4
     file O.pbe-n-kjpaw_psl.0.1.UPF: wavefunction(s)  2P renormalized

     K-points division:     npool     =       8
     R & G space division:  proc/nbgrp/npool/nimage =      16
     Subspace diagonalization in iterative solution of the eigenvalue problem:
     a serial algorithm will be used


     Parallelization info
     --------------------
     sticks:   dense  smooth     PW     G-vecs:    dense   smooth      PW
     Min         218     108     31                57602    20340    3111
     Max         219     109     32                57627    20361    3126
     Sum        3495    1739    505               921821   325653   49881

     Using Slab Decomposition



     bravais-lattice index     =            0
     lattice parameter (alat)  =       5.5911  a.u.
     unit-cell volume          =    3370.6432 (a.u.)^3
     number of atoms/cell      =           18
     number of atomic types    =            2
     number of electrons       =       144.00
     number of Kohn-Sham states=           86
     kinetic-energy cutoff     =      80.0000  Ry
     charge density cutoff     =     640.0000  Ry
     scf convergence threshold =      1.0E-06
     mixing beta               =       0.3000
     number of iterations used =            8  local-TF  mixing
     Exchange-correlation= SLA  PW   PBX  PBC
                           (   1   4   3   4   0   0   0)

     celldm(1)=   5.591133  celldm(2)=   0.000000  celldm(3)=   0.000000
     celldm(4)=   0.000000  celldm(5)=   0.000000  celldm(6)=   0.000000

     crystal axes: (cart. coord. in units of alat)
               a(1) = (   1.000000   0.000000   0.000000 )  
               a(2) = (   0.000000   2.195719   0.000000 )  
               a(3) = (   0.000000   0.000000   8.782875 )  

     reciprocal axes: (cart. coord. in units 2 pi/alat)
               b(1) = (  1.000000  0.000000  0.000000 )  
               b(2) = (  0.000000  0.455432  0.000000 )  
               b(3) = (  0.000000  0.000000  0.113858 )  


     PseudoPot. # 1 for Ti read from file:
     /anvil/projects/x-che260157/pseudo/ti_pbe_v1.4.uspp.F.UPF
     MD5 check sum: 88a00a6731bd790ddea75d31a80cb452
     Pseudo is Ultrasoft + core correction, Zval = 12.0
     Generated by new atomic code, or converted to UPF format
     Using radial grid of  851 points,  6 beta functions with: 
                l(1) =   0
                l(2) =   0
                l(3) =   1
                l(4) =   1
                l(5) =   2
                l(6) =   2
     Q(r) pseudized with  6 coefficients,  rinner =    1.000   1.000   1.000
                                                       1.000   1.000

     PseudoPot. # 2 for O  read from file:
     /anvil/projects/x-che260157/pseudo/O.pbe-n-kjpaw_psl.0.1.UPF
     MD5 check sum: 0234752ac141de4415c5fc33072bef88
     Pseudo is Projector augmented-wave + core cor, Zval =  6.0
     Generated using "atomic" code by A. Dal Corso  v.5.0.99 svn rev. 10869
     Shape of augmentation charge: BESSEL
     Using radial grid of 1095 points,  4 beta functions with: 
                l(1) =   0
                l(2) =   0
                l(3) =   1
                l(4) =   1
     Q(r) pseudized with 0 coefficients 


     atomic species   valence    mass     pseudopotential
     Ti               12.00    47.86700     Ti( 1.00)
     O                 6.00    15.99900     O ( 1.00)

     No symmetry found



   Cartesian axes

     site n.     atom                  positions (alat units)
         1        Ti     tau(   1) = (   0.0000000   1.6467890   3.2935780  )
         2        Ti     tau(   2) = (   0.5000000   0.5489297   3.2935780  )
         3        Ti     tau(   3) = (  -0.0000000   0.5489298   4.4146148  )
         4        Ti     tau(   4) = (   0.5000000   1.6467892   4.3792827  )
         5        Ti     tau(   5) = (  -0.0000000   1.6467890   5.4515374  )
         6        Ti     tau(   6) = (   0.5000000   0.5489297   5.5611018  )
         7        O      tau(   7) = (   0.0000000   0.5489297   3.7217432  )
         8        O      tau(   8) = (   0.0000000   0.5489297   2.8654129  )
         9        O      tau(   9) = (   0.5000000   1.2186239   3.2935780  )
        10        O      tau(  10) = (   0.5000000   2.0749541   3.2935780  )
        11        O      tau(  11) = (   0.0000000   1.6467890   4.8333101  )
        12        O      tau(  12) = (   0.0000000   1.6467890   3.9632722  )
        13        O      tau(  13) = (   0.5000000   0.1054949   4.3946730  )
        14        O      tau(  14) = (   0.5000000   0.9923644   4.3946730  )
        15        O      tau(  15) = (  -0.0000000   0.5489297   5.9254435  )
        16        O      tau(  16) = (  -0.0000000   0.5489297   5.0568404  )
        17        O      tau(  17) = (   0.5000000   1.2371542   5.5624246  )
        18        O      tau(  18) = (   0.5000000   2.0564238   5.5624246  )

     number of k points=    32  Marzari-Vanderbilt smearing, width (Ry)=  0.0100
                       cart. coord. in units 2pi/alat
        k(    1) = (   0.0000000   0.0000000   0.0000000), wk =   0.0625000
        k(    2) = (   0.0000000   0.1138579   0.0000000), wk =   0.0625000
        k(    3) = (   0.0000000  -0.2277159   0.0000000), wk =   0.0625000
        k(    4) = (   0.0000000  -0.1138579   0.0000000), wk =   0.0625000
        k(    5) = (   0.1250000   0.0000000   0.0000000), wk =   0.0625000
        k(    6) = (   0.1250000   0.1138579   0.0000000), wk =   0.0625000
        k(    7) = (   0.1250000  -0.2277159   0.0000000), wk =   0.0625000
        k(    8) = (   0.1250000  -0.1138579   0.0000000), wk =   0.0625000
        k(    9) = (   0.2500000   0.0000000   0.0000000), wk =   0.0625000
        k(   10) = (   0.2500000   0.1138579   0.0000000), wk =   0.0625000
        k(   11) = (   0.2500000  -0.2277159   0.0000000), wk =   0.0625000
        k(   12) = (   0.2500000  -0.1138579   0.0000000), wk =   0.0625000
        k(   13) = (   0.3750000   0.0000000   0.0000000), wk =   0.0625000
        k(   14) = (   0.3750000   0.1138579   0.0000000), wk =   0.0625000
        k(   15) = (   0.3750000  -0.2277159   0.0000000), wk =   0.0625000
        k(   16) = (   0.3750000  -0.1138579   0.0000000), wk =   0.0625000
        k(   17) = (  -0.5000000   0.0000000   0.0000000), wk =   0.0625000
        k(   18) = (  -0.5000000   0.1138579   0.0000000), wk =   0.0625000
        k(   19) = (  -0.5000000  -0.2277159   0.0000000), wk =   0.0625000
        k(   20) = (  -0.5000000  -0.1138579   0.0000000), wk =   0.0625000
        k(   21) = (  -0.3750000   0.0000000   0.0000000), wk =   0.0625000
        k(   22) = (  -0.3750000   0.1138579   0.0000000), wk =   0.0625000
        k(   23) = (  -0.3750000  -0.2277159   0.0000000), wk =   0.0625000
        k(   24) = (  -0.3750000  -0.1138579   0.0000000), wk =   0.0625000
        k(   25) = (  -0.2500000   0.0000000   0.0000000), wk =   0.0625000
        k(   26) = (  -0.2500000   0.1138579   0.0000000), wk =   0.0625000
        k(   27) = (  -0.2500000  -0.2277159   0.0000000), wk =   0.0625000
        k(   28) = (  -0.2500000  -0.1138579   0.0000000), wk =   0.0625000
        k(   29) = (  -0.1250000   0.0000000   0.0000000), wk =   0.0625000
        k(   30) = (  -0.1250000   0.1138579   0.0000000), wk =   0.0625000
        k(   31) = (  -0.1250000  -0.2277159   0.0000000), wk =   0.0625000
        k(   32) = (  -0.1250000  -0.1138579   0.0000000), wk =   0.0625000

     Dense  grid:   921821 G-vectors     FFT dimensions: (  45, 100, 400)

     Smooth grid:   325653 G-vectors     FFT dimensions: (  32,  72, 288)

     Estimated max dynamical RAM per process >      86.51 MB

     Estimated total dynamical RAM >       9.27 GB

     Check: negative core charge=   -0.000001

     Initial potential from superposition of free atoms

     starting charge     137.9997, renormalised to     144.0000

     negative rho (up, down):  8.622E-03 0.000E+00
     Starting wfcs are  108 randomized atomic wfcs
     Checking if some PAW data can be deallocated... 

     total cpu time spent up to now is        2.7 secs

     per-process dynamical memory:   113.0 Mb

     Self-consistent Calculation

     iteration #  1     ecut=    80.00 Ry     beta= 0.30
     Davidson diagonalization with overlap
     ethr =  1.00E-02,  avg # of iterations =  2.0

     negative rho (up, down):  9.229E-03 0.000E+00

     total cpu time spent up to now is        6.5 secs

     total energy              =   -1217.64422916 Ry
     estimated scf accuracy    <       4.09024457 Ry

     iteration #  2     ecut=    80.00 Ry     beta= 0.30
     Davidson diagonalization with overlap
     ethr =  2.84E-03,  avg # of iterations =  1.0

     negative rho (up, down):  1.009E-02 0.000E+00

     total cpu time spent up to now is        9.3 secs

     total energy              =   -1217.15429069 Ry
     estimated scf accuracy    <       1.63617425 Ry

     iteration #  3     ecut=    80.00 Ry     beta= 0.30
     Davidson diagonalization with overlap
     ethr =  1.14E-03,  avg # of iterations =  3.8

     negative rho (up, down):  8.474E-03 0.000E+00

     total cpu time spent up to now is       12.7 secs

     total energy              =   -1217.51461916 Ry
     estimated scf accuracy    <       0.51835123 Ry

     iteration #  4     ecut=    80.00 Ry     beta= 0.30
     Davidson diagonalization with overlap
     ethr =  3.60E-04,  avg # of iterations =  3.5

     negative rho (up, down):  7.659E-03 0.000E+00

     total cpu time spent up to now is       16.6 secs

     total energy              =   -1217.63978203 Ry
     estimated scf accuracy    <       0.17765724 Ry

     iteration #  5     ecut=    80.00 Ry     beta= 0.30
     Davidson diagonalization with overlap
     ethr =  1.23E-04,  avg # of iterations =  3.1

     negative rho (up, down):  7.685E-03 0.000E+00

     total cpu time spent up to now is       20.0 secs

     total energy              =   -1217.59104751 Ry
     estimated scf accuracy    <       0.15756966 Ry

     iteration #  6     ecut=    80.00 Ry     beta= 0.30
     Davidson diagonalization with overlap
     ethr =  1.09E-04,  avg # of iterations =  5.0

     negative rho (up, down):  7.660E-03 0.000E+00

     total cpu time spent up to now is       23.5 secs

     total energy              =   -1217.61498278 Ry
     estimated scf accuracy    <       0.01311462 Ry

     iteration #  7     ecut=    80.00 Ry     beta= 0.30
     Davidson diagonalization with overlap
     ethr =  9.11E-06,  avg # of iterations = 13.2

     negative rho (up, down):  7.607E-03 0.000E+00

     total cpu time spent up to now is       28.7 secs

     total energy              =   -1217.61883107 Ry
     estimated scf accuracy    <       0.00893383 Ry

     iteration #  8     ecut=    80.00 Ry     beta= 0.30
     Davidson diagonalization with overlap
     ethr =  6.20E-06,  avg # of iterations =  4.5

     negative rho (up, down):  7.498E-03 0.000E+00

     total cpu time spent up to now is       32.1 secs

     total energy              =   -1217.61746234 Ry
     estimated scf accuracy    <       0.01836746 Ry

     iteration #  9     ecut=    80.00 Ry     beta= 0.30
     Davidson diagonalization with overlap
     ethr =  6.20E-06,  avg # of iterations =  3.2

     negative rho (up, down):  7.495E-03 0.000E+00

     total cpu time spent up to now is       36.5 secs

     total energy              =   -1217.61577442 Ry
     estimated scf accuracy    <       0.01000915 Ry

     iteration # 10     ecut=    80.00 Ry     beta= 0.30
     Davidson diagonalization with overlap
     ethr =  6.20E-06,  avg # of iterations =  4.2

     negative rho (up, down):  7.566E-03 0.000E+00

     total cpu time spent up to now is       39.7 secs

     total energy              =   -1217.61686112 Ry
     estimated scf accuracy    <       0.00155802 Ry

     iteration # 11     ecut=    80.00 Ry     beta= 0.30
     Davidson diagonalization with overlap
     ethr =  1.08E-06,  avg # of iterations =  5.4

     negative rho (up, down):  7.720E-03 0.000E+00

     total cpu time spent up to now is       43.1 secs

     total energy              =   -1217.61665690 Ry
     estimated scf accuracy    <       0.00144804 Ry

     iteration # 12     ecut=    80.00 Ry     beta= 0.30
     Davidson diagonalization with overlap
     ethr =  1.01E-06,  avg # of iterations =  6.9

     negative rho (up, down):  7.642E-03 0.000E+00

     total cpu time spent up to now is       46.9 secs

     total energy              =   -1217.61692482 Ry
     estimated scf accuracy    <       0.00116334 Ry

     iteration # 13     ecut=    80.00 Ry     beta= 0.30
     Davidson diagonalization with overlap
     ethr =  8.08E-07,  avg # of iterations =  2.4

     negative rho (up, down):  7.634E-03 0.000E+00

     total cpu time spent up to now is       49.9 secs

     total energy              =   -1217.61669894 Ry
     estimated scf accuracy    <       0.00121856 Ry

     iteration # 14     ecut=    80.00 Ry     beta= 0.30
     Davidson diagonalization with overlap
     ethr =  8.08E-07,  avg # of iterations =  5.2

     negative rho (up, down):  8.103E-03 0.000E+00

     total cpu time spent up to now is       53.2 secs

     total energy              =   -1217.61688971 Ry
     estimated scf accuracy    <       0.00091750 Ry

     iteration # 15     ecut=    80.00 Ry     beta= 0.30
     Davidson diagonalization with overlap
     ethr =  6.37E-07,  avg # of iterations =  2.4

     negative rho (up, down):  8.867E-03 0.000E+00

     total cpu time spent up to now is       56.2 secs

     total energy              =   -1217.61672661 Ry
     estimated scf accuracy    <       0.00093851 Ry

     iteration # 16     ecut=    80.00 Ry     beta= 0.30
     Davidson diagonalization with overlap
     ethr =  6.37E-07,  avg # of iterations =  4.8

     negative rho (up, down):  8.301E-03 0.000E+00

     total cpu time spent up to now is       59.6 secs

     total energy              =   -1217.61679609 Ry
     estimated scf accuracy    <       0.00032915 Ry

     iteration # 17     ecut=    80.00 Ry     beta= 0.30
     Davidson diagonalization with overlap
     ethr =  2.29E-07,  avg # of iterations =  3.2

     negative rho (up, down):  7.894E-03 0.000E+00

     total cpu time spent up to now is       62.9 secs

     total energy              =   -1217.61682500 Ry
     estimated scf accuracy    <       0.00010399 Ry

     iteration # 18     ecut=    80.00 Ry     beta= 0.30
     Davidson diagonalization with overlap
     ethr =  7.22E-08,  avg # of iterations =  4.7

     negative rho (up, down):  7.748E-03 0.000E+00

     total cpu time spent up to now is       66.3 secs

     total energy              =   -1217.61684252 Ry
     estimated scf accuracy    <       0.00002720 Ry

     iteration # 19     ecut=    80.00 Ry     beta= 0.30
     Davidson diagonalization with overlap
     ethr =  1.89E-08,  avg # of iterations =  5.5

     negative rho (up, down):  7.747E-03 0.000E+00

     total cpu time spent up to now is       70.2 secs

     total energy              =   -1217.61683827 Ry
     estimated scf accuracy    <       0.00009239 Ry

     iteration # 20     ecut=    80.00 Ry     beta= 0.30
     Davidson diagonalization with overlap
     ethr =  1.89E-08,  avg # of iterations =  5.0

     negative rho (up, down):  7.657E-03 0.000E+00

     total cpu time spent up to now is       73.8 secs

     total energy              =   -1217.61685751 Ry
     estimated scf accuracy    <       0.00001257 Ry

     iteration # 21     ecut=    80.00 Ry     beta= 0.30
     Davidson diagonalization with overlap
     ethr =  8.73E-09,  avg # of iterations =  4.0

     negative rho (up, down):  7.692E-03 0.000E+00

     total cpu time spent up to now is       77.1 secs

     total energy              =   -1217.61686131 Ry
     estimated scf accuracy    <       0.00000423 Ry

     iteration # 22     ecut=    80.00 Ry     beta= 0.30
     Davidson diagonalization with overlap
     ethr =  2.94E-09,  avg # of iterations =  2.2

     negative rho (up, down):  7.742E-03 0.000E+00

     total cpu time spent up to now is       80.0 secs

     total energy              =   -1217.61686192 Ry
     estimated scf accuracy    <       0.00000217 Ry

     iteration # 23     ecut=    80.00 Ry     beta= 0.30
     Davidson diagonalization with overlap
     ethr =  1.51E-09,  avg # of iterations =  2.6

     negative rho (up, down):  7.763E-03 0.000E+00

     total cpu time spent up to now is       83.2 secs

     total energy              =   -1217.61686161 Ry
     estimated scf accuracy    <       0.00000118 Ry

     iteration # 24     ecut=    80.00 Ry     beta= 0.30
     Davidson diagonalization with overlap
     ethr =  8.20E-10,  avg # of iterations =  4.3

     negative rho (up, down):  7.802E-03 0.000E+00

     total cpu time spent up to now is       86.6 secs

     End of self-consistent calculation

          k = 0.0000 0.0000 0.0000 ( 40639 PWs)   bands (ev):

   -58.6908 -58.4430 -58.1678 -57.7851 -57.2714 -56.7565 -35.0142 -34.9031
   -34.7524 -34.7271 -34.6234 -34.6130 -34.5298 -34.4226 -34.2322 -34.0742
   -33.9311 -33.9232 -33.5726 -33.5476 -33.3282 -33.1704 -32.9935 -32.7696
   -19.4906 -19.1016 -18.8383 -18.5882 -18.3323 -17.8251 -17.6094 -17.5411
   -17.5024 -17.3152 -16.7419 -15.6845  -7.0327  -6.8834  -6.6353  -6.6151
    -5.8656  -5.5592  -5.3845  -5.1614  -5.1502  -5.0031  -4.7718  -4.6674
    -4.5532  -4.1576  -3.9024  -3.8249  -3.7256  -3.6646  -3.6253  -3.5194
    -3.4793  -3.2960  -2.9903  -2.9158  -2.8739  -2.8117  -2.3773  -2.3685
    -2.1976  -1.8292  -1.7098  -1.3862  -1.2370  -0.8699  -0.8514  -0.7812
     0.2363   0.5443   0.7328   0.7650   0.9708   1.0252   1.3081   1.7735
     1.7783   1.9836   2.0340   2.1400   2.2963   2.4120

          k = 0.0000 0.1139 0.0000 ( 40609 PWs)   bands (ev):

   -58.6908 -58.4429 -58.1678 -57.7851 -57.2714 -56.7565 -35.0142 -34.9013
   -34.7524 -34.7271 -34.6233 -34.6066 -34.5299 -34.4195 -34.2322 -34.0815
   -33.9312 -33.9232 -33.5764 -33.5476 -33.3282 -33.1732 -32.9935 -32.7696
   -19.4421 -19.0037 -18.7470 -18.5379 -18.3243 -17.9929 -17.8037 -17.6529
   -17.4502 -17.2744 -16.7392 -15.6825  -7.0095  -6.6098  -6.3658  -6.3298
    -5.7112  -5.5590  -5.3478  -5.1611  -4.9918  -4.9704  -4.7136  -4.6871
    -4.5847  -4.2921  -4.1544  -4.0828  -3.8567  -3.7370  -3.6413  -3.5243
    -3.5034  -3.4589  -3.1687  -2.9422  -2.8999  -2.6925  -2.6300  -2.6186
    -2.2653  -1.9582  -1.7504  -1.7355  -1.3388  -0.9561  -0.8601  -0.8106
     0.2563   0.7305   0.7667   1.1003   1.2464   1.3198   1.4362   1.6445
     1.8179   2.0849   2.1321   2.3033   2.4366   2.5728

          k = 0.0000-0.2277 0.0000 ( 40526 PWs)   bands (ev):

   -58.6908 -58.4429 -58.1678 -57.7851 -57.2714 -56.7565 -35.0142 -34.8995
   -34.7524 -34.7271 -34.6233 -34.6000 -34.5300 -34.4164 -34.2322 -34.0890
   -33.9313 -33.9232 -33.5802 -33.5476 -33.3282 -33.1760 -32.9935 -32.7696
   -19.3928 -18.8692 -18.6209 -18.4784 -18.2981 -18.1837 -17.9732 -17.8247
   -17.4225 -17.2488 -16.7371 -15.6806  -7.0040  -6.2277  -6.0557  -5.9136
    -5.5589  -5.4860  -5.3090  -5.1574  -4.9360  -4.8318  -4.6603  -4.6504
    -4.5318  -4.4603  -4.4148  -4.2542  -4.2363  -4.1506  -3.8235  -3.6112
    -3.6025  -3.4663  -3.3177  -3.0192  -2.9504  -2.9091  -2.6910  -2.5428
    -2.1735  -2.0463  -2.0181  -1.7571  -1.4594  -0.9988  -0.8665  -0.8344
     0.2637   0.7287   0.9220   1.3597   1.4717   1.5858   1.5900   1.6158
     1.9064   2.1236   2.1427   2.3678   2.5071   2.5497

          k = 0.0000-0.1139 0.0000 ( 40609 PWs)   bands (ev):

   -58.6908 -58.4429 -58.1678 -57.7851 -57.2714 -56.7565 -35.0142 -34.9013
   -34.7524 -34.7271 -34.6233 -34.6066 -34.5299 -34.4195 -34.2322 -34.0815
   -33.9312 -33.9232 -33.5764 -33.5476 -33.3282 -33.1732 -32.9935 -32.7696
   -19.4421 -19.0037 -18.7470 -18.5379 -18.3243 -17.9929 -17.8037 -17.6529
   -17.4502 -17.2744 -16.7392 -15.6825  -7.0095  -6.6098  -6.3658  -6.3298
    -5.7112  -5.5590  -5.3478  -5.1611  -4.9918  -4.9704  -4.7136  -4.6871
    -4.5847  -4.2921  -4.1544  -4.0828  -3.8567  -3.7370  -3.6413  -3.5243
    -3.5034  -3.4589  -3.1687  -2.9422  -2.8999  -2.6925  -2.6300  -2.6186
    -2.2653  -1.9582  -1.7504  -1.7355  -1.3388  -0.9561  -0.8601  -0.8106
     0.2563   0.7305   0.7667   1.1003   1.2464   1.3198   1.4362   1.6445
     1.8179   2.0849   2.1321   2.3033   2.4366   2.5728

          k = 0.1250 0.0000 0.0000 ( 40652 PWs)   bands (ev):

   -58.6850 -58.4371 -58.1618 -57.7794 -57.2652 -56.7506 -35.0087 -34.8874
   -34.7951 -34.7365 -34.6922 -34.6058 -34.5241 -34.4068 -34.3017 -34.0619
   -33.9949 -33.9178 -33.5684 -33.5387 -33.3974 -33.1660 -32.9782 -32.8385
   -19.3460 -18.9756 -18.7125 -18.4812 -18.3822 -17.9023 -17.6049 -17.5671
   -17.4932 -17.2276 -16.7876 -15.7161  -6.8287  -6.6913  -6.4634  -6.4234
    -5.8127  -5.7593  -5.5058  -5.3802  -5.2120  -5.0996  -4.6643  -4.5442
    -4.5089  -4.1708  -4.0817  -3.7964  -3.6657  -3.5359  -3.4698  -3.4144
    -3.2971  -3.2491  -3.1756  -3.0696  -2.9220  -2.8435  -2.7988  -2.4157
    -2.3954  -1.8972  -1.8548  -1.6869  -1.3991  -1.3643  -0.9500  -0.6833
     0.4559   0.7675   0.8011   0.9935   1.0645   1.0651   1.1728   1.7128
     1.7846   2.0816   2.1576   2.1919   2.2648   2.4953

          k = 0.1250 0.1139 0.0000 ( 40695 PWs)   bands (ev):

   -58.6850 -58.4370 -58.1618 -57.7794 -57.2652 -56.7506 -35.0087 -34.8859
   -34.7953 -34.7365 -34.6922 -34.6009 -34.5242 -34.4041 -34.3020 -34.0681
   -33.9943 -33.9178 -33.5713 -33.5387 -33.3974 -33.1681 -32.9782 -32.8385
   -19.3032 -18.8855 -18.6292 -18.4262 -18.3676 -18.0444 -17.7869 -17.7011
   -17.4160 -17.2038 -16.7855 -15.7146  -6.8144  -6.4164  -6.1709  -6.1597
    -5.8300  -5.6205  -5.4431  -5.3142  -5.1855  -5.0581  -4.7022  -4.6059
    -4.3724  -4.1714  -4.1604  -3.9896  -3.8711  -3.6742  -3.5788  -3.5236
    -3.4426  -3.3874  -3.3721  -3.2710  -3.1144  -2.9958  -2.6110  -2.5640
    -2.4027  -1.9794  -1.8577  -1.7946  -1.4355  -1.3857  -0.9787  -0.6874
     0.4539   0.8176   0.9900   1.1361   1.2110   1.2903   1.4200   1.7454
     1.8702   1.9945   2.1623   2.3320   2.3952   2.5988

          k = 0.1250-0.2277 0.0000 ( 40666 PWs)   bands (ev):

   -58.6850 -58.4370 -58.1618 -57.7795 -57.2652 -56.7506 -35.0087 -34.8843
   -34.7955 -34.7365 -34.6922 -34.5959 -34.5243 -34.4014 -34.3023 -34.0743
   -33.9938 -33.9178 -33.5741 -33.5387 -33.3974 -33.1702 -32.9782 -32.8385
   -19.2599 -18.7598 -18.5109 -18.3715 -18.3200 -18.2095 -17.9514 -17.8793
   -17.3851 -17.1866 -16.7838 -15.7131  -6.8121  -6.0123  -5.8545  -5.8197
    -5.7487  -5.5009  -5.4076  -5.1843  -5.1242  -4.9929  -4.7600  -4.5764
    -4.4614  -4.3777  -4.1846  -4.0484  -4.0382  -3.9662  -3.7644  -3.7178
    -3.6332  -3.6238  -3.5760  -3.4649  -3.3855  -3.1035  -2.5205  -2.4202
    -2.3257  -2.0430  -1.8914  -1.7787  -1.4804  -1.4245  -0.9941  -0.6939
     0.4510   0.8434   1.1226   1.2724   1.3088   1.4031   1.6987   1.8549
     1.9180   2.0793   2.0859   2.3978   2.4569   2.6645

          k = 0.1250-0.1139 0.0000 ( 40695 PWs)   bands (ev):

   -58.6850 -58.4370 -58.1618 -57.7794 -57.2652 -56.7506 -35.0087 -34.8859
   -34.7953 -34.7365 -34.6922 -34.6009 -34.5242 -34.4041 -34.3020 -34.0681
   -33.9943 -33.9178 -33.5713 -33.5387 -33.3974 -33.1681 -32.9782 -32.8385
   -19.3032 -18.8855 -18.6292 -18.4262 -18.3676 -18.0444 -17.7869 -17.7011
   -17.4160 -17.2038 -16.7855 -15.7146  -6.8144  -6.4164  -6.1709  -6.1597
    -5.8300  -5.6205  -5.4431  -5.3142  -5.1855  -5.0581  -4.7022  -4.6059
    -4.3724  -4.1714  -4.1604  -3.9896  -3.8711  -3.6742  -3.5788  -3.5236
    -3.4426  -3.3874  -3.3721  -3.2710  -3.1144  -2.9958  -2.6110  -2.5640
    -2.4027  -1.9794  -1.8577  -1.7946  -1.4355  -1.3857  -0.9787  -0.6874
     0.4539   0.8176   0.9900   1.1361   1.2110   1.2903   1.4200   1.7454
     1.8702   1.9945   2.1623   2.3320   2.3952   2.5987

          k = 0.2500 0.0000 0.0000 ( 40766 PWs)   bands (ev):

   -58.6708 -58.4228 -58.1474 -57.7657 -57.2502 -56.7364 -34.9982 -34.9552
   -34.8492 -34.8486 -34.6979 -34.5887 -34.5191 -34.4619 -34.3680 -34.1459
   -34.0317 -33.9053 -33.5965 -33.5584 -33.4808 -33.1554 -33.0016 -32.9409
   -18.9825 -18.7297 -18.5104 -18.3372 -18.2239 -18.0877 -17.7665 -17.7162
   -17.2591 -17.0362 -16.8843 -15.7413  -6.3280  -6.2400  -6.0363  -5.9973
    -5.9368  -5.8577  -5.5557  -5.3793  -5.3565  -5.1205  -4.9802  -4.8268
    -4.4889  -4.3246  -4.1118  -4.0570  -3.9640  -3.6252  -3.5596  -3.4837
    -3.3112  -3.2343  -3.0637  -3.0252  -2.9584  -2.8887  -2.7617  -2.6480
    -2.3748  -2.3612  -2.1031  -1.9753  -1.9358  -1.5862  -0.9555  -0.7193
     0.8190   0.8270   1.0378   1.1506   1.1794   1.1964   1.5686   1.6809
     1.8651   2.0835   2.1264   2.1891   2.3651   2.6467

          k = 0.2500 0.1139 0.0000 ( 40754 PWs)   bands (ev):

   -58.6708 -58.4227 -58.1474 -57.7657 -57.2502 -56.7364 -34.9982 -34.9557
   -34.8488 -34.8483 -34.6979 -34.5879 -34.5193 -34.4626 -34.3665 -34.1433
   -34.0350 -33.9053 -33.5964 -33.5591 -33.4808 -33.1559 -33.0015 -32.9409
   -18.9573 -18.6965 -18.4777 -18.2715 -18.1895 -18.1487 -17.8639 -17.8049
   -17.2430 -17.0322 -16.8839 -15.7411  -6.3289  -6.1076  -5.9113  -5.7980
    -5.7358  -5.6902  -5.4996  -5.3510  -5.3201  -5.1802  -4.9607  -4.7293
    -4.6108  -4.4163  -4.2968  -4.1314  -3.9899  -3.7236  -3.6285  -3.5844
    -3.4841  -3.3262  -3.2811  -3.1543  -3.1017  -2.9606  -2.8889  -2.6716
    -2.2655  -2.1524  -2.0619  -1.9878  -1.8733  -1.5944  -1.0132  -0.7074
     0.8193   0.8802   1.0181   1.1217   1.2475   1.3594   1.6694   1.8080
     1.8692   2.0128   2.0984   2.3130   2.5120   2.6120

          k = 0.2500-0.2277 0.0000 ( 40742 PWs)   bands (ev):

   -58.6708 -58.4227 -58.1474 -57.7657 -57.2502 -56.7364 -34.9982 -34.9562
   -34.8489 -34.8474 -34.6979 -34.5871 -34.5196 -34.4633 -34.3650 -34.1406
   -34.0385 -33.9053 -33.5963 -33.5599 -33.4807 -33.1564 -33.0014 -32.9409
   -18.9318 -18.6627 -18.3897 -18.3112 -18.1328 -18.0544 -18.0148 -17.9647
   -17.2301 -17.0287 -16.8835 -15.7410  -6.3314  -6.0733  -5.6570  -5.5258
    -5.5251  -5.3852  -5.3353  -5.3098  -5.2996  -5.1787  -4.8870  -4.8659
    -4.7429  -4.7148  -4.4563  -4.1356  -3.9095  -3.8736  -3.7452  -3.6629
    -3.6447  -3.5318  -3.5279  -3.4165  -3.4145  -2.9899  -2.8608  -2.4516
    -2.1958  -2.0251  -1.9897  -1.9763  -1.8718  -1.5878  -1.0557  -0.7001
     0.8277   0.9629   1.0241   1.0697   1.2094   1.5035   1.6676   1.7818
     2.0364   2.0755   2.1664   2.4830   2.5011   2.6269

          k = 0.2500-0.1139 0.0000 ( 40754 PWs)   bands (ev):

   -58.6708 -58.4227 -58.1474 -57.7657 -57.2502 -56.7364 -34.9982 -34.9557
   -34.8488 -34.8483 -34.6979 -34.5879 -34.5193 -34.4626 -34.3665 -34.1433
   -34.0350 -33.9053 -33.5964 -33.5591 -33.4808 -33.1559 -33.0015 -32.9409
   -18.9573 -18.6965 -18.4777 -18.2715 -18.1895 -18.1487 -17.8639 -17.8049
   -17.2430 -17.0322 -16.8839 -15.7411  -6.3289  -6.1076  -5.9113  -5.7980
    -5.7358  -5.6902  -5.4996  -5.3510  -5.3201  -5.1802  -4.9607  -4.7293
    -4.6108  -4.4163  -4.2968  -4.1314  -3.9899  -3.7236  -3.6285  -3.5844
    -3.4841  -3.3262  -3.2811  -3.1543  -3.1017  -2.9606  -2.8889  -2.6716
    -2.2655  -2.1524  -2.0619  -1.9878  -1.8733  -1.5944  -1.0132  -0.7074
     0.8193   0.8802   1.0181   1.1217   1.2475   1.3594   1.6694   1.8080
     1.8692   2.0128   2.0984   2.3130   2.5120   2.6120

          k = 0.3750 0.0000 0.0000 ( 40826 PWs)   bands (ev):

   -58.6566 -58.4084 -58.1328 -57.7519 -57.2351 -56.7221 -35.1110 -35.0306
   -34.9574 -34.8105 -34.6609 -34.6265 -34.5718 -34.5035 -34.3287 -34.2930
   -34.0010 -33.8945 -33.7540 -33.5484 -33.4574 -33.1598 -33.1448 -32.9033
   -18.7740 -18.5843 -18.2752 -18.2717 -18.0302 -17.9674 -17.9332 -17.8606
   -17.2044 -16.9505 -16.7945 -15.6705  -6.2005  -6.0013  -5.9415  -5.8855
    -5.6117  -5.5632  -5.4467  -5.3378  -5.3102  -5.2463  -5.1335  -5.0898
    -4.6582  -4.6324  -4.4117  -4.4099  -3.8515  -3.7708  -3.6802  -3.6279
    -3.4610  -3.4094  -3.2892  -3.2176  -2.8117  -2.7955  -2.7826  -2.6683
    -2.2575  -2.2384  -2.1206  -2.0216  -1.9217  -1.7157  -0.9724  -0.8717
     0.5314   1.2120   1.3094   1.3813   1.4203   1.4288   1.5348   1.9322
     1.9882   2.0634   2.1927   2.2129   2.3477   2.3850

          k = 0.3750 0.1139 0.0000 ( 40790 PWs)   bands (ev):

   -58.6566 -58.4084 -58.1328 -57.7519 -57.2351 -56.7221 -35.1118 -35.0308
   -34.9574 -34.8103 -34.6611 -34.6276 -34.5770 -34.5035 -34.3285 -34.2865
   -34.0017 -33.8945 -33.7537 -33.5473 -33.4574 -33.1597 -33.1438 -32.9033
   -18.7721 -18.5842 -18.4547 -18.1061 -18.0999 -18.0847 -17.8621 -17.7350
   -17.1988 -16.9513 -16.7955 -15.6708  -6.1934  -6.0672  -5.9759  -5.8355
    -5.7332  -5.4874  -5.4507  -5.4094  -5.2751  -5.1674  -4.9836  -4.9085
    -4.7999  -4.5316  -4.4259  -4.1254  -3.9952  -3.8597  -3.7233  -3.5945
    -3.4635  -3.3843  -3.3164  -3.2236  -2.9682  -2.8553  -2.8148  -2.6047
    -2.3319  -2.2323  -2.0886  -1.9788  -1.8804  -1.7648  -0.9852  -0.9252
     0.5037   1.0554   1.2005   1.2399   1.3512   1.4209   1.5121   1.8553
     2.0114   2.1157   2.1945   2.2675   2.4759   2.5010

          k = 0.3750-0.2277 0.0000 ( 40742 PWs)   bands (ev):

   -58.6566 -58.4084 -58.1328 -57.7519 -57.2351 -56.7221 -35.1126 -35.0309
   -34.9575 -34.8101 -34.6613 -34.6286 -34.5820 -34.5035 -34.3283 -34.2801
   -34.0025 -33.8945 -33.7533 -33.5462 -33.4574 -33.1595 -33.1429 -32.9033
   -18.7699 -18.5807 -18.5352 -18.1660 -18.1436 -18.0164 -17.8219 -17.6685
   -17.1922 -16.9521 -16.7965 -15.6711  -6.1849  -6.1047  -5.9602  -5.8276
    -5.8247  -5.5896  -5.4448  -5.3842  -5.2178  -5.0563  -4.9814  -4.6312
    -4.6081  -4.5681  -4.4712  -4.0712  -3.8999  -3.8215  -3.8058  -3.6563
    -3.6361  -3.4071  -3.4037  -3.2011  -3.0050  -2.9911  -2.9048  -2.5176
    -2.2910  -2.2448  -1.9972  -1.9701  -1.8878  -1.7896  -1.0293  -0.9542
     0.5032   0.8412   0.9969   1.1504   1.3081   1.4501   1.5564   1.8531
     2.0396   2.1394   2.2045   2.3166   2.5436   2.6129

          k = 0.3750-0.1139 0.0000 ( 40790 PWs)   bands (ev):

   -58.6566 -58.4084 -58.1328 -57.7519 -57.2351 -56.7221 -35.1118 -35.0308
   -34.9574 -34.8103 -34.6611 -34.6276 -34.5770 -34.5035 -34.3285 -34.2865
   -34.0017 -33.8945 -33.7537 -33.5473 -33.4574 -33.1597 -33.1438 -32.9033
   -18.7721 -18.5842 -18.4547 -18.1061 -18.0999 -18.0847 -17.8621 -17.7350
   -17.1988 -16.9513 -16.7955 -15.6708  -6.1934  -6.0672  -5.9759  -5.8355
    -5.7332  -5.4874  -5.4507  -5.4094  -5.2751  -5.1674  -4.9836  -4.9085
    -4.7999  -4.5316  -4.4259  -4.1254  -3.9952  -3.8597  -3.7233  -3.5945
    -3.4635  -3.3843  -3.3164  -3.2236  -2.9682  -2.8553  -2.8148  -2.6047
    -2.3319  -2.2323  -2.0886  -1.9788  -1.8804  -1.7648  -0.9852  -0.9252
     0.5037   1.0554   1.2005   1.2399   1.3512   1.4209   1.5121   1.8553
     2.0114   2.1157   2.1945   2.2675   2.4759   2.5010

          k =-0.5000 0.0000 0.0000 ( 40852 PWs)   bands (ev):

   -58.6508 -58.4024 -58.1268 -57.7462 -57.2289 -56.7161 -35.1744 -35.0836
   -34.9618 -34.7943 -34.6990 -34.6344 -34.5649 -34.5026 -34.3530 -34.3122
   -33.9881 -33.8931 -33.8176 -33.5444 -33.4448 -33.2241 -33.1404 -32.8876
   -18.8277 -18.4014 -18.3475 -18.1534 -18.0027 -17.9201 -17.8984 -17.8558
   -17.2349 -16.9711 -16.6808 -15.6109  -6.4738  -5.9305  -5.8412  -5.8334
    -5.6605  -5.4113  -5.3952  -5.3127  -5.3056  -5.2126  -5.1174  -4.9991
    -4.9338  -4.7514  -4.2763  -4.1412  -4.0239  -3.9528  -3.8475  -3.7573
    -3.6082  -3.4230  -3.3232  -3.0620  -2.9876  -2.9442  -2.7019  -2.5697
    -2.2121  -2.1873  -2.0356  -2.0226  -1.7588  -1.5884  -1.2404  -0.8573
     0.4701   1.2308   1.3681   1.4441   1.4970   1.5642   1.8355   1.9709
     2.0311   2.0810   2.1895   2.2948   2.2987   2.3337

          k =-0.5000 0.1139 0.0000 ( 40798 PWs)   bands (ev):

   -58.6508 -58.4024 -58.1268 -57.7462 -57.2289 -56.7161 -35.1753 -35.0838
   -34.9618 -34.7944 -34.7003 -34.6344 -34.5740 -34.5026 -34.3433 -34.3126
   -33.9878 -33.8931 -33.8172 -33.5425 -33.4448 -33.2239 -33.1389 -32.8876
   -18.8273 -18.5079 -18.4000 -18.1600 -18.1305 -17.9793 -17.7587 -17.6237
   -17.2362 -16.9719 -16.6807 -15.6104  -6.4703  -6.2414  -5.9751  -5.7737
    -5.7434  -5.6078  -5.3844  -5.3600  -5.3159  -5.0921  -5.0458  -4.7556
    -4.6111  -4.3377  -4.3035  -4.2249  -4.1036  -4.0304  -3.7526  -3.6963
    -3.5433  -3.3875  -3.2206  -3.1667  -2.9598  -2.9159  -2.7104  -2.6118
    -2.3878  -2.1678  -2.0524  -2.0229  -1.8113  -1.5976  -1.2282  -0.9266
     0.3831   1.0090   1.2070   1.2519   1.3894   1.5217   1.6081   1.8191
     1.9006   2.2080   2.2432   2.3353   2.5204   2.5927

          k =-0.5000-0.2277 0.0000 ( 40760 PWs)   bands (ev):

   -58.6508 -58.4024 -58.1268 -57.7462 -57.2289 -56.7161 -35.1761 -35.0840
   -34.9618 -34.7946 -34.7015 -34.6345 -34.5824 -34.5026 -34.3343 -34.3130
   -33.9875 -33.8930 -33.8168 -33.5407 -33.4448 -33.2237 -33.1373 -32.8876
   -18.8269 -18.6000 -18.3987 -18.2619 -18.2011 -17.8820 -17.6874 -17.5099
   -17.2376 -16.9726 -16.6806 -15.6099  -6.4671  -6.3835  -6.1711  -5.8978
    -5.6695  -5.6060  -5.3736  -5.3570  -5.3482  -5.2115  -4.7211  -4.6184
    -4.4505  -4.3856  -4.2896  -4.2416  -3.8868  -3.7848  -3.6965  -3.6700
    -3.5061  -3.3935  -3.2928  -3.2053  -3.1075  -2.8801  -2.6378  -2.6301
    -2.3444  -2.3153  -2.0919  -2.0208  -1.8955  -1.6207  -1.2136  -0.9717
     0.2825   0.7940   0.8845   1.2897   1.3267   1.4065   1.5758   1.7460
     1.8797   2.2013   2.2428   2.3497   2.6577   2.6754

          k =-0.5000-0.1139 0.0000 ( 40798 PWs)   bands (ev):

   -58.6508 -58.4024 -58.1268 -57.7462 -57.2289 -56.7161 -35.1753 -35.0838
   -34.9618 -34.7944 -34.7003 -34.6344 -34.5740 -34.5026 -34.3433 -34.3126
   -33.9878 -33.8931 -33.8172 -33.5425 -33.4448 -33.2239 -33.1389 -32.8876
   -18.8273 -18.5079 -18.4000 -18.1600 -18.1305 -17.9793 -17.7587 -17.6237
   -17.2362 -16.9719 -16.6807 -15.6104  -6.4703  -6.2414  -5.9751  -5.7737
    -5.7434  -5.6078  -5.3844  -5.3600  -5.3159  -5.0921  -5.0458  -4.7556
    -4.6111  -4.3377  -4.3035  -4.2249  -4.1036  -4.0304  -3.7526  -3.6963
    -3.5433  -3.3875  -3.2206  -3.1667  -2.9598  -2.9159  -2.7104  -2.6118
    -2.3878  -2.1678  -2.0524  -2.0229  -1.8113  -1.5976  -1.2282  -0.9266
     0.3831   1.0090   1.2070   1.2519   1.3894   1.5217   1.6081   1.8191
     1.9006   2.2080   2.2432   2.3353   2.5204   2.5926

          k =-0.3750 0.0000 0.0000 ( 40826 PWs)   bands (ev):

   -58.6566 -58.4084 -58.1328 -57.7519 -57.2351 -56.7221 -35.1110 -35.0306
   -34.9574 -34.8105 -34.6609 -34.6265 -34.5718 -34.5035 -34.3287 -34.2930
   -34.0010 -33.8945 -33.7540 -33.5484 -33.4574 -33.1598 -33.1448 -32.9033
   -18.7740 -18.5843 -18.2752 -18.2717 -18.0302 -17.9674 -17.9332 -17.8606
   -17.2044 -16.9505 -16.7945 -15.6705  -6.2005  -6.0013  -5.9415  -5.8855
    -5.6117  -5.5632  -5.4467  -5.3378  -5.3102  -5.2463  -5.1335  -5.0898
    -4.6582  -4.6324  -4.4117  -4.4099  -3.8515  -3.7708  -3.6802  -3.6279
    -3.4610  -3.4094  -3.2892  -3.2176  -2.8117  -2.7955  -2.7826  -2.6683
    -2.2575  -2.2384  -2.1206  -2.0216  -1.9217  -1.7157  -0.9724  -0.8717
     0.5314   1.2120   1.3094   1.3813   1.4203   1.4288   1.5348   1.9322
     1.9882   2.0634   2.1927   2.2128   2.3476   2.3849

          k =-0.3750 0.1139 0.0000 ( 40790 PWs)   bands (ev):

   -58.6566 -58.4084 -58.1328 -57.7519 -57.2351 -56.7221 -35.1118 -35.0308
   -34.9574 -34.8103 -34.6611 -34.6276 -34.5770 -34.5035 -34.3285 -34.2865
   -34.0017 -33.8945 -33.7537 -33.5473 -33.4574 -33.1597 -33.1438 -32.9033
   -18.7721 -18.5842 -18.4547 -18.1061 -18.0999 -18.0847 -17.8621 -17.7350
   -17.1988 -16.9513 -16.7955 -15.6708  -6.1934  -6.0672  -5.9759  -5.8355
    -5.7332  -5.4874  -5.4507  -5.4094  -5.2751  -5.1674  -4.9836  -4.9085
    -4.7999  -4.5316  -4.4259  -4.1254  -3.9952  -3.8597  -3.7233  -3.5945
    -3.4635  -3.3843  -3.3164  -3.2236  -2.9682  -2.8553  -2.8148  -2.6047
    -2.3319  -2.2323  -2.0886  -1.9788  -1.8804  -1.7648  -0.9852  -0.9252
     0.5037   1.0554   1.2005   1.2399   1.3512   1.4209   1.5121   1.8553
     2.0114   2.1157   2.1945   2.2675   2.4759   2.5010

          k =-0.3750-0.2277 0.0000 ( 40742 PWs)   bands (ev):

   -58.6566 -58.4084 -58.1328 -57.7519 -57.2351 -56.7221 -35.1126 -35.0309
   -34.9575 -34.8101 -34.6613 -34.6286 -34.5820 -34.5035 -34.3283 -34.2801
   -34.0025 -33.8945 -33.7533 -33.5462 -33.4574 -33.1595 -33.1429 -32.9033
   -18.7699 -18.5807 -18.5352 -18.1660 -18.1436 -18.0164 -17.8219 -17.6685
   -17.1922 -16.9521 -16.7965 -15.6711  -6.1849  -6.1047  -5.9602  -5.8276
    -5.8247  -5.5896  -5.4448  -5.3842  -5.2178  -5.0563  -4.9814  -4.6312
    -4.6081  -4.5681  -4.4712  -4.0712  -3.8999  -3.8215  -3.8058  -3.6563
    -3.6361  -3.4071  -3.4037  -3.2011  -3.0050  -2.9911  -2.9048  -2.5176
    -2.2910  -2.2448  -1.9972  -1.9701  -1.8878  -1.7896  -1.0293  -0.9542
     0.5032   0.8412   0.9969   1.1504   1.3081   1.4501   1.5564   1.8531
     2.0396   2.1394   2.2045   2.3166   2.5436   2.6128

          k =-0.3750-0.1139 0.0000 ( 40790 PWs)   bands (ev):

   -58.6566 -58.4084 -58.1328 -57.7519 -57.2351 -56.7221 -35.1118 -35.0308
   -34.9574 -34.8103 -34.6611 -34.6276 -34.5770 -34.5035 -34.3285 -34.2865
   -34.0017 -33.8945 -33.7537 -33.5473 -33.4574 -33.1597 -33.1438 -32.9033
   -18.7721 -18.5842 -18.4547 -18.1061 -18.0999 -18.0847 -17.8621 -17.7350
   -17.1988 -16.9513 -16.7955 -15.6708  -6.1934  -6.0672  -5.9759  -5.8355
    -5.7332  -5.4874  -5.4507  -5.4094  -5.2751  -5.1674  -4.9836  -4.9085
    -4.7999  -4.5316  -4.4259  -4.1254  -3.9952  -3.8597  -3.7233  -3.5945
    -3.4635  -3.3843  -3.3164  -3.2236  -2.9682  -2.8553  -2.8148  -2.6047
    -2.3319  -2.2323  -2.0886  -1.9788  -1.8804  -1.7648  -0.9852  -0.9252
     0.5037   1.0554   1.2005   1.2399   1.3512   1.4209   1.5121   1.8553
     2.0114   2.1157   2.1945   2.2675   2.4757   2.5009

          k =-0.2500 0.0000 0.0000 ( 40766 PWs)   bands (ev):

   -58.6708 -58.4228 -58.1474 -57.7657 -57.2502 -56.7364 -34.9982 -34.9552
   -34.8492 -34.8486 -34.6979 -34.5887 -34.5191 -34.4619 -34.3680 -34.1459
   -34.0317 -33.9053 -33.5965 -33.5584 -33.4808 -33.1554 -33.0016 -32.9409
   -18.9825 -18.7297 -18.5104 -18.3372 -18.2239 -18.0877 -17.7665 -17.7162
   -17.2591 -17.0362 -16.8843 -15.7413  -6.3280  -6.2400  -6.0363  -5.9973
    -5.9368  -5.8577  -5.5557  -5.3793  -5.3565  -5.1205  -4.9802  -4.8268
    -4.4889  -4.3246  -4.1118  -4.0570  -3.9640  -3.6252  -3.5596  -3.4837
    -3.3112  -3.2343  -3.0637  -3.0252  -2.9584  -2.8887  -2.7617  -2.6480
    -2.3748  -2.3612  -2.1031  -1.9753  -1.9358  -1.5862  -0.9555  -0.7193
     0.8190   0.8270   1.0378   1.1506   1.1794   1.1964   1.5686   1.6809
     1.8651   2.0835   2.1264   2.1891   2.3651   2.6465

          k =-0.2500 0.1139 0.0000 ( 40754 PWs)   bands (ev):

   -58.6708 -58.4227 -58.1474 -57.7657 -57.2502 -56.7364 -34.9982 -34.9557
   -34.8488 -34.8483 -34.6979 -34.5879 -34.5193 -34.4626 -34.3665 -34.1433
   -34.0350 -33.9053 -33.5964 -33.5591 -33.4808 -33.1559 -33.0015 -32.9409
   -18.9573 -18.6965 -18.4777 -18.2715 -18.1895 -18.1487 -17.8639 -17.8049
   -17.2430 -17.0322 -16.8839 -15.7411  -6.3289  -6.1076  -5.9113  -5.7980
    -5.7358  -5.6902  -5.4996  -5.3510  -5.3201  -5.1802  -4.9607  -4.7293
    -4.6108  -4.4163  -4.2968  -4.1314  -3.9899  -3.7236  -3.6285  -3.5844
    -3.4841  -3.3262  -3.2811  -3.1543  -3.1017  -2.9606  -2.8889  -2.6716
    -2.2655  -2.1524  -2.0619  -1.9878  -1.8733  -1.5944  -1.0132  -0.7074
     0.8193   0.8802   1.0181   1.1217   1.2475   1.3594   1.6694   1.8080
     1.8692   2.0128   2.0984   2.3130   2.5120   2.6120

          k =-0.2500-0.2277 0.0000 ( 40742 PWs)   bands (ev):

   -58.6708 -58.4227 -58.1474 -57.7657 -57.2502 -56.7364 -34.9982 -34.9562
   -34.8489 -34.8474 -34.6979 -34.5871 -34.5196 -34.4633 -34.3650 -34.1406
   -34.0385 -33.9053 -33.5963 -33.5599 -33.4807 -33.1564 -33.0014 -32.9409
   -18.9318 -18.6627 -18.3897 -18.3112 -18.1328 -18.0544 -18.0148 -17.9647
   -17.2301 -17.0287 -16.8835 -15.7410  -6.3314  -6.0733  -5.6570  -5.5258
    -5.5251  -5.3852  -5.3353  -5.3098  -5.2996  -5.1787  -4.8870  -4.8659
    -4.7429  -4.7148  -4.4563  -4.1356  -3.9095  -3.8736  -3.7452  -3.6629
    -3.6447  -3.5318  -3.5279  -3.4165  -3.4145  -2.9899  -2.8608  -2.4516
    -2.1958  -2.0251  -1.9897  -1.9763  -1.8718  -1.5878  -1.0557  -0.7001
     0.8277   0.9629   1.0241   1.0697   1.2094   1.5035   1.6676   1.7818
     2.0364   2.0755   2.1664   2.4830   2.5011   2.6269

          k =-0.2500-0.1139 0.0000 ( 40754 PWs)   bands (ev):

   -58.6708 -58.4227 -58.1474 -57.7657 -57.2502 -56.7364 -34.9982 -34.9557
   -34.8488 -34.8483 -34.6979 -34.5879 -34.5193 -34.4626 -34.3665 -34.1433
   -34.0350 -33.9053 -33.5964 -33.5591 -33.4808 -33.1559 -33.0015 -32.9409
   -18.9573 -18.6965 -18.4777 -18.2715 -18.1895 -18.1487 -17.8639 -17.8049
   -17.2430 -17.0322 -16.8839 -15.7411  -6.3289  -6.1076  -5.9113  -5.7980
    -5.7358  -5.6902  -5.4996  -5.3510  -5.3201  -5.1802  -4.9607  -4.7293
    -4.6108  -4.4163  -4.2968  -4.1314  -3.9899  -3.7236  -3.6285  -3.5844
    -3.4841  -3.3262  -3.2811  -3.1543  -3.1017  -2.9606  -2.8889  -2.6716
    -2.2655  -2.1524  -2.0619  -1.9878  -1.8733  -1.5944  -1.0132  -0.7074
     0.8193   0.8802   1.0181   1.1217   1.2475   1.3594   1.6694   1.8080
     1.8692   2.0128   2.0984   2.3130   2.5120   2.6120

          k =-0.1250 0.0000 0.0000 ( 40652 PWs)   bands (ev):

   -58.6850 -58.4371 -58.1618 -57.7794 -57.2652 -56.7506 -35.0087 -34.8874
   -34.7951 -34.7365 -34.6922 -34.6058 -34.5241 -34.4068 -34.3017 -34.0619
   -33.9949 -33.9178 -33.5684 -33.5387 -33.3974 -33.1660 -32.9782 -32.8385
   -19.3460 -18.9756 -18.7125 -18.4812 -18.3822 -17.9023 -17.6049 -17.5671
   -17.4932 -17.2276 -16.7876 -15.7161  -6.8287  -6.6913  -6.4634  -6.4234
    -5.8127  -5.7593  -5.5058  -5.3802  -5.2120  -5.0996  -4.6643  -4.5442
    -4.5089  -4.1708  -4.0817  -3.7964  -3.6657  -3.5359  -3.4698  -3.4144
    -3.2971  -3.2491  -3.1756  -3.0696  -2.9220  -2.8435  -2.7988  -2.4157
    -2.3954  -1.8972  -1.8548  -1.6869  -1.3991  -1.3643  -0.9500  -0.6833
     0.4559   0.7675   0.8011   0.9935   1.0645   1.0651   1.1728   1.7128
     1.7846   2.0816   2.1577   2.1919   2.2648   2.4953

          k =-0.1250 0.1139 0.0000 ( 40695 PWs)   bands (ev):

   -58.6850 -58.4370 -58.1618 -57.7794 -57.2652 -56.7506 -35.0087 -34.8859
   -34.7953 -34.7365 -34.6922 -34.6009 -34.5242 -34.4041 -34.3020 -34.0681
   -33.9943 -33.9178 -33.5713 -33.5387 -33.3974 -33.1681 -32.9782 -32.8385
   -19.3032 -18.8855 -18.6292 -18.4262 -18.3676 -18.0444 -17.7869 -17.7011
   -17.4160 -17.2038 -16.7855 -15.7146  -6.8144  -6.4164  -6.1709  -6.1597
    -5.8300  -5.6205  -5.4431  -5.3142  -5.1855  -5.0581  -4.7022  -4.6059
    -4.3724  -4.1714  -4.1604  -3.9896  -3.8711  -3.6742  -3.5788  -3.5236
    -3.4426  -3.3874  -3.3721  -3.2710  -3.1144  -2.9958  -2.6110  -2.5640
    -2.4027  -1.9794  -1.8577  -1.7946  -1.4355  -1.3857  -0.9787  -0.6874
     0.4539   0.8176   0.9900   1.1361   1.2110   1.2903   1.4200   1.7454
     1.8702   1.9945   2.1623   2.3320   2.3952   2.5988

          k =-0.1250-0.2277 0.0000 ( 40666 PWs)   bands (ev):

   -58.6850 -58.4370 -58.1618 -57.7795 -57.2652 -56.7506 -35.0087 -34.8843
   -34.7955 -34.7365 -34.6922 -34.5959 -34.5243 -34.4014 -34.3023 -34.0743
   -33.9938 -33.9178 -33.5741 -33.5387 -33.3974 -33.1702 -32.9782 -32.8385
   -19.2599 -18.7598 -18.5109 -18.3715 -18.3200 -18.2095 -17.9514 -17.8793
   -17.3851 -17.1866 -16.7838 -15.7131  -6.8121  -6.0123  -5.8545  -5.8197
    -5.7487  -5.5009  -5.4076  -5.1843  -5.1242  -4.9929  -4.7600  -4.5764
    -4.4614  -4.3777  -4.1846  -4.0484  -4.0382  -3.9662  -3.7644  -3.7178
    -3.6332  -3.6238  -3.5760  -3.4649  -3.3855  -3.1035  -2.5205  -2.4202
    -2.3257  -2.0430  -1.8914  -1.7787  -1.4804  -1.4245  -0.9941  -0.6939
     0.4510   0.8434   1.1226   1.2724   1.3088   1.4031   1.6987   1.8549
     1.9180   2.0793   2.0859   2.3978   2.4569   2.6645

          k =-0.1250-0.1139 0.0000 ( 40695 PWs)   bands (ev):

   -58.6850 -58.4370 -58.1618 -57.7794 -57.2652 -56.7506 -35.0087 -34.8859
   -34.7953 -34.7365 -34.6922 -34.6009 -34.5242 -34.4041 -34.3020 -34.0681
   -33.9943 -33.9178 -33.5713 -33.5387 -33.3974 -33.1681 -32.9782 -32.8385
   -19.3032 -18.8855 -18.6292 -18.4262 -18.3676 -18.0444 -17.7869 -17.7011
   -17.4160 -17.2038 -16.7855 -15.7146  -6.8144  -6.4164  -6.1709  -6.1597
    -5.8300  -5.6205  -5.4431  -5.3142  -5.1855  -5.0581  -4.7022  -4.6059
    -4.3724  -4.1714  -4.1604  -3.9896  -3.8711  -3.6742  -3.5788  -3.5236
    -3.4426  -3.3874  -3.3721  -3.2710  -3.1144  -2.9958  -2.6110  -2.5640
    -2.4027  -1.9794  -1.8577  -1.7946  -1.4355  -1.3857  -0.9787  -0.6874
     0.4539   0.8176   0.9900   1.1361   1.2110   1.2903   1.4200   1.7454
     1.8702   1.9945   2.1623   2.3320   2.3952   2.5987

     the Fermi energy is    -0.1168 ev

!    total energy              =   -1217.61686167 Ry
     estimated scf accuracy    <       0.00000053 Ry
     smearing contrib. (-TS)   =       0.00000002 Ry
     internal energy E=F+TS    =   -1217.61686168 Ry

     The total energy is F=E-TS. E is the sum of the following terms:
     one-electron contribution =  -12679.09644440 Ry
     hartree contribution      =    6358.07958603 Ry
     xc contribution           =    -197.27911919 Ry
     ewald contribution        =    5414.87944925 Ry
     one-center paw contrib.   =    -114.20033337 Ry

     convergence has been achieved in  24 iterations

     negative rho (up, down):  7.802E-03 0.000E+00

     Forces acting on atoms (cartesian axes, Ry/au):

     atom    1 type  1   force =     0.00000002    0.00000034    0.08844353
     atom    2 type  1   force =    -0.00000022   -0.00000004   -0.12280465
     atom    3 type  1   force =    -0.00000005   -0.00000138    0.00019170
     atom    4 type  1   force =     0.00000010    0.00000123    0.00122735
     atom    5 type  1   force =     0.00000002    0.00000257   -0.00060964
     atom    6 type  1   force =     0.00000015   -0.00000174    0.00022157
     atom    7 type  2   force =    -0.00000003   -0.00000002    0.07027279
     atom    8 type  2   force =    -0.00000010    0.00000012    0.06273652
     atom    9 type  2   force =    -0.00000009    0.07377045   -0.03112765
     atom   10 type  2   force =    -0.00000011   -0.07377070   -0.03112735
     atom   11 type  2   force =     0.00000017    0.00000025   -0.00057450
     atom   12 type  2   force =     0.00000020    0.00000015   -0.03758975
     atom   13 type  2   force =    -0.00000015    0.00007043   -0.00024132
     atom   14 type  2   force =     0.00000021   -0.00007076   -0.00024125
     atom   15 type  2   force =    -0.00000005   -0.00000046    0.00021622
     atom   16 type  2   force =    -0.00000016   -0.00000027    0.00156600
     atom   17 type  2   force =     0.00000011    0.00049344   -0.00027967
     atom   18 type  2   force =    -0.00000003   -0.00049361   -0.00027990

     Total force =     0.002359     Total SCF correction =     0.002746
     SCF correction compared to forces is large: reduce conv_thr to get better values

     Writing all to output data dir ./tmp_slab__u000/slab__u000.save/ :
     XML data file, charge density, pseudopotentials, collected wavefunctions

     init_run     :      2.31s CPU      2.45s WALL (       1 calls)
     electrons    :     82.86s CPU     84.00s WALL (       1 calls)
     forces       :      0.69s CPU      0.71s WALL (       1 calls)

     Called by init_run:
     wfcinit      :      1.04s CPU      1.08s WALL (       1 calls)
     potinit      :      0.53s CPU      0.55s WALL (       1 calls)
     hinit0       :      0.38s CPU      0.41s WALL (       1 calls)

     Called by electrons:
     c_bands      :     61.65s CPU     62.38s WALL (      24 calls)
     sum_band     :     11.48s CPU     11.66s WALL (      24 calls)
     v_of_rho     :      2.79s CPU      2.85s WALL (      25 calls)
     newd         :      1.08s CPU      1.10s WALL (      25 calls)
     PAW_pot      :      0.91s CPU      0.97s WALL (      25 calls)
     mix_rho      :      4.55s CPU      4.61s WALL (      24 calls)

     Called by c_bands:
     init_us_2    :      2.21s CPU      2.25s WALL (     200 calls)
     cegterg      :     55.30s CPU     55.91s WALL (      96 calls)

     Called by *egterg:
     cdiaghg      :      3.93s CPU      3.96s WALL (     501 calls)
     h_psi        :     36.76s CPU     37.24s WALL (     505 calls)
     s_psi        :      2.95s CPU      2.98s WALL (     505 calls)
     g_psi        :      0.22s CPU      0.22s WALL (     405 calls)

     Called by h_psi:
     h_psi:calbec :      3.73s CPU      3.76s WALL (     505 calls)
     vloc_psi     :     29.50s CPU     29.91s WALL (     505 calls)
                                        0.00s GPU  (     505 calls)
     add_vuspsi   :      3.04s CPU      3.06s WALL (     505 calls)

     General routines
     calbec       :      5.19s CPU      5.24s WALL (     617 calls)
     fft          :      2.24s CPU      2.29s WALL (     334 calls)
     ffts         :      2.94s CPU      2.97s WALL (    2878 calls)
     fftw         :     32.89s CPU     33.33s WALL (   47932 calls)
     interpolate  :      0.57s CPU      0.58s WALL (      25 calls)

     Parallel routines

     PWSCF        :   1m26.39s CPU   1m27.87s WALL


   This run was terminated on:   2:25:57  29Aug2026            

=------------------------------------------------------------------------------=
   JOB DONE.
=------------------------------------------------------------------------------=
