
     Program PWSCF v.7.5 starts on  7Aug2026 at  5:33:52 

     This program is part of the open-source Quantum ESPRESSO suite
     for quantum simulation of materials; please cite
         "P. Giannozzi et al., J. Phys.:Condens. Matter 21 395502 (2009);
         "P. Giannozzi et al., J. Phys.:Condens. Matter 29 465901 (2017);
         "P. Giannozzi et al., J. Chem. Phys. 152 154105 (2020);
          URL http://www.quantum-espresso.org", 
     in publications or presentations arising from this work. More details at
     http://www.quantum-espresso.org/quote

     Parallel version (MPI & OpenMP), running on       4 processor cores
     Number of MPI processes:                 4
     Threads/MPI process:                     1

     MPI processes distributed on     1 nodes
     12908 MiB available memory on the printing compute node when the environment starts

     Reading input from s0_O__base.run.in

     Current dimensions of program PWSCF are:
     Max number of different atomic species (ntypx) = 10
     Max number of k-points (npk) =  40000
     Max angular momentum in pseudopotentials (lmaxx) =  4
     file O.pbe-n-kjpaw_psl.0.1.UPF: wavefunction(s)  2P renormalized
     Message from routine setup:
     using ibrav=0 with symmetry is DISCOURAGED, use correct ibrav instead

     K-points division:     npool     =       4
     Subspace diagonalization in iterative solution of the eigenvalue problem:
     a serial algorithm will be used


     G-vector sticks info
     --------------------
     sticks:   dense  smooth     PW     G-vecs:    dense   smooth      PW
     Sum        3639    1825    519               941385   332621   50331

     Using Slab Decomposition



     bravais-lattice index     =            0
     lattice parameter (alat)  =       5.9602  a.u.
     unit-cell volume          =    3444.9838 (a.u.)^3
     number of atoms/cell      =           19
     number of atomic types    =            2
     number of electrons       =       168.00
     number of Kohn-Sham states=          101
     kinetic-energy cutoff     =      80.0000  Ry
     charge density cutoff     =     640.0000  Ry
     scf convergence threshold =      1.0E-06
     mixing beta               =       0.3000
     number of iterations used =            8  local-TF  mixing
     Exchange-correlation= SLA  PW   PBX  PBC
                           (   1   4   3   4   0   0   0)

     celldm(1)=   5.960196  celldm(2)=   0.000000  celldm(3)=   0.000000
     celldm(4)=   0.000000  celldm(5)=   0.000000  celldm(6)=   0.000000

     crystal axes: (cart. coord. in units of alat)
               a(1) = (   1.000000   0.000000   0.000000 )  
               a(2) = (   0.000000   2.016846   0.000000 )  
               a(3) = (   0.000000   0.000000   8.067384 )  

     reciprocal axes: (cart. coord. in units 2 pi/alat)
               b(1) = (  1.000000  0.000000  0.000000 )  
               b(2) = (  0.000000  0.495824  0.000000 )  
               b(3) = (  0.000000  0.000000  0.123956 )  


     PseudoPot. # 1 for Ir read from file:
     /usr/share/espresso/pseudo/Ir_pbe_v1.2.uspp.F.UPF
     MD5 check sum: 8836f839c3459d2b385c504ce6d91f2c
     Pseudo is Ultrasoft + core correction, Zval = 15.0
     Generated by new atomic code, or converted to UPF format
     Using radial grid of  983 points,  7 beta functions with: 
                l(1) =   0
                l(2) =   0
                l(3) =   1
                l(4) =   1
                l(5) =   1
                l(6) =   2
                l(7) =   2
     Q(r) pseudized with  8 coefficients,  rinner =    1.400   1.400   1.400
                                                       1.400   1.400

     PseudoPot. # 2 for O  read from file:
     /usr/share/espresso/pseudo/O.pbe-n-kjpaw_psl.0.1.UPF
     MD5 check sum: 0234752ac141de4415c5fc33072bef88
     Pseudo is Projector augmented-wave + core cor, Zval =  6.0
     Generated using "atomic" code by A. Dal Corso  v.5.0.99 svn rev. 10869
     Shape of augmentation charge: BESSEL
     Using radial grid of 1095 points,  4 beta functions with: 
                l(1) =   0
                l(2) =   0
                l(3) =   1
                l(4) =   1
     Q(r) pseudized with 0 coefficients 


     atomic species   valence    mass     pseudopotential
     Ir               15.00   192.21700     Ir( 1.00)
     O                 6.00    15.99900     O ( 1.00)

      4 Sym. Ops. (no inversion) found ( 2 have fractional translation)



   Cartesian axes

     site n.     atom                  positions (alat units)
         1        Ir     tau(   1) = (   0.0000000   1.5126346   3.0252692  )
         2        Ir     tau(   2) = (   0.5000000   0.5042115   3.0252692  )
         3        Ir     tau(   3) = (   0.0000000   0.5042115   4.0428594  )
         4        Ir     tau(   4) = (   0.5000000   1.5126346   4.0366227  )
         5        Ir     tau(   5) = (   0.0000000   1.5126346   5.0840887  )
         6        Ir     tau(   6) = (   0.5000000   0.5042115   5.0650004  )
         7        O      tau(   7) = (   0.0000000   0.5042115   3.4185541  )
         8        O      tau(   8) = (   0.0000000   0.5042115   2.6319842  )
         9        O      tau(   9) = (   0.5000000   1.1193496   3.0252692  )
        10        O      tau(  10) = (   0.5000000   1.9059196   3.0252692  )
        11        O      tau(  11) = (   0.0000000   1.5126346   4.4373140  )
        12        O      tau(  12) = (   0.0000000   1.5126346   3.6404072  )
        13        O      tau(  13) = (   0.5000000   0.1175415   4.0363811  )
        14        O      tau(  14) = (   0.5000000   0.8908815   4.0363811  )
        15        O      tau(  15) = (   0.0000000   0.5042115   5.4382077  )
        16        O      tau(  16) = (   0.0000000   0.5042115   4.6686519  )
        17        O      tau(  17) = (   0.5000000   1.1266233   5.0418396  )
        18        O      tau(  18) = (   0.5000000   1.8986459   5.0418396  )
        19        O      tau(  19) = (   0.0000000   1.5126346   5.6443569  )

     number of k points=    15  Marzari-Vanderbilt smearing, width (Ry)=  0.0100
                       cart. coord. in units 2pi/alat
        k(    1) = (   0.0000000   0.0000000   0.0000000), wk =   0.0625000
        k(    2) = (   0.0000000   0.1239559   0.0000000), wk =   0.1250000
        k(    3) = (   0.0000000  -0.2479118   0.0000000), wk =   0.0625000
        k(    4) = (   0.1250000   0.0000000   0.0000000), wk =   0.1250000
        k(    5) = (   0.1250000   0.1239559   0.0000000), wk =   0.2500000
        k(    6) = (   0.1250000  -0.2479118   0.0000000), wk =   0.1250000
        k(    7) = (   0.2500000   0.0000000   0.0000000), wk =   0.1250000
        k(    8) = (   0.2500000   0.1239559   0.0000000), wk =   0.2500000
        k(    9) = (   0.2500000  -0.2479118   0.0000000), wk =   0.1250000
        k(   10) = (   0.3750000   0.0000000   0.0000000), wk =   0.1250000
        k(   11) = (   0.3750000   0.1239559   0.0000000), wk =   0.2500000
        k(   12) = (   0.3750000  -0.2479118   0.0000000), wk =   0.1250000
        k(   13) = (  -0.5000000   0.0000000   0.0000000), wk =   0.0625000
        k(   14) = (  -0.5000000   0.1239559   0.0000000), wk =   0.1250000
        k(   15) = (  -0.5000000  -0.2479118   0.0000000), wk =   0.0625000

     Dense  grid:   941385 G-vectors     FFT dimensions: (  48, 100, 400)

     Smooth grid:   332621 G-vectors     FFT dimensions: (  36,  72, 288)

     Estimated max dynamical RAM per process >       2.00 GB

     Estimated total dynamical RAM >       7.31 GB

     Initial potential from superposition of free atoms

     starting charge     164.9998, renormalised to     168.0000

     negative rho (up, down):  2.225E+00 0.000E+00
     Starting wfcs are  124 randomized atomic wfcs
     Checking if some PAW data can be deallocated... 

     total cpu time spent up to now is       39.2 secs

     per-process dynamical memory:   862.5 Mb

     Self-consistent Calculation

     iteration #  1     ecut=    80.00 Ry     beta= 0.30
     Davidson diagonalization with overlap
     ethr =  1.00E-02,  avg # of iterations =  2.9

     negative rho (up, down):  2.050E+00 0.000E+00

     total cpu time spent up to now is      122.6 secs

     total energy              =   -1631.63954131 Ry
     estimated scf accuracy    <      50.20237920 Ry

     iteration #  2     ecut=    80.00 Ry     beta= 0.30
     Davidson diagonalization with overlap
     ethr =  1.00E-02,  avg # of iterations =  1.0

     negative rho (up, down):  1.955E+00 0.000E+00

     total cpu time spent up to now is      194.3 secs

     total energy              =   -1631.63958881 Ry
     estimated scf accuracy    <       6.89552595 Ry

     iteration #  3     ecut=    80.00 Ry     beta= 0.30
     Davidson diagonalization with overlap
     ethr =  4.10E-03,  avg # of iterations =  1.0

     negative rho (up, down):  1.860E+00 0.000E+00

     total cpu time spent up to now is      265.2 secs

     total energy              =   -1631.08554191 Ry
     estimated scf accuracy    <       2.50980490 Ry

     iteration #  4     ecut=    80.00 Ry     beta= 0.30
     Davidson diagonalization with overlap
     ethr =  1.49E-03,  avg # of iterations =  4.0

     negative rho (up, down):  1.882E+00 0.000E+00

     total cpu time spent up to now is      349.5 secs

     total energy              =   -1631.38334563 Ry
     estimated scf accuracy    <       0.40919617 Ry

     iteration #  5     ecut=    80.00 Ry     beta= 0.30
     Davidson diagonalization with overlap
     ethr =  2.44E-04,  avg # of iterations =  6.6

     negative rho (up, down):  1.919E+00 0.000E+00

     total cpu time spent up to now is      437.7 secs

     total energy              =   -1631.34534543 Ry
     estimated scf accuracy    <       0.38870898 Ry

     iteration #  6     ecut=    80.00 Ry     beta= 0.30
     Davidson diagonalization with overlap
     ethr =  2.31E-04,  avg # of iterations =  1.0

     negative rho (up, down):  1.920E+00 0.000E+00

     total cpu time spent up to now is      514.8 secs

     total energy              =   -1631.34216144 Ry
     estimated scf accuracy    <       0.13348716 Ry

     iteration #  7     ecut=    80.00 Ry     beta= 0.30
     Davidson diagonalization with overlap
     ethr =  7.95E-05,  avg # of iterations =  2.0

     negative rho (up, down):  1.952E+00 0.000E+00

     total cpu time spent up to now is      590.4 secs

     total energy              =   -1631.34381701 Ry
     estimated scf accuracy    <       0.12086686 Ry

     iteration #  8     ecut=    80.00 Ry     beta= 0.30
     Davidson diagonalization with overlap
     ethr =  7.19E-05,  avg # of iterations =  2.2

     negative rho (up, down):  1.966E+00 0.000E+00

     total cpu time spent up to now is      670.5 secs

     total energy              =   -1631.34492181 Ry
     estimated scf accuracy    <       0.02492512 Ry

     iteration #  9     ecut=    80.00 Ry     beta= 0.30
     Davidson diagonalization with overlap
     c_bands:  2 eigenvalues not converged
     ethr =  1.48E-05,  avg # of iterations =  7.7

     negative rho (up, down):  1.973E+00 0.000E+00

     total cpu time spent up to now is      758.9 secs

     total energy              =   -1631.34363220 Ry
     estimated scf accuracy    <       0.01207215 Ry

     iteration # 10     ecut=    80.00 Ry     beta= 0.30
     Davidson diagonalization with overlap
     ethr =  7.19E-06,  avg # of iterations =  7.1

     negative rho (up, down):  1.979E+00 0.000E+00

     total cpu time spent up to now is      842.9 secs

     total energy              =   -1631.34221119 Ry
     estimated scf accuracy    <       0.00743018 Ry

     iteration # 11     ecut=    80.00 Ry     beta= 0.30
     Davidson diagonalization with overlap
     ethr =  4.42E-06,  avg # of iterations =  8.1

     negative rho (up, down):  1.955E+00 0.000E+00

     total cpu time spent up to now is      930.7 secs

     total energy              =   -1631.34149014 Ry
     estimated scf accuracy    <       0.00626988 Ry

     iteration # 12     ecut=    80.00 Ry     beta= 0.30
     Davidson diagonalization with overlap
     ethr =  3.73E-06,  avg # of iterations =  8.0

     negative rho (up, down):  1.929E+00 0.000E+00

     total cpu time spent up to now is     1017.9 secs

     total energy              =   -1631.34057898 Ry
     estimated scf accuracy    <       0.00428193 Ry

     iteration # 13     ecut=    80.00 Ry     beta= 0.30
     Davidson diagonalization with overlap
     ethr =  2.55E-06,  avg # of iterations =  8.7

     negative rho (up, down):  1.919E+00 0.000E+00

     total cpu time spent up to now is     1102.3 secs

     total energy              =   -1631.34006047 Ry
     estimated scf accuracy    <       0.00176043 Ry

     iteration # 14     ecut=    80.00 Ry     beta= 0.30
     Davidson diagonalization with overlap
     c_bands:  1 eigenvalues not converged
     ethr =  1.05E-06,  avg # of iterations =  7.0

     negative rho (up, down):  1.915E+00 0.000E+00

     total cpu time spent up to now is     1186.9 secs

     total energy              =   -1631.33957181 Ry
     estimated scf accuracy    <       0.00138164 Ry

     iteration # 15     ecut=    80.00 Ry     beta= 0.30
     Davidson diagonalization with overlap
     ethr =  8.22E-07,  avg # of iterations =  5.6

     negative rho (up, down):  1.916E+00 0.000E+00

     total cpu time spent up to now is     1269.8 secs

     total energy              =   -1631.33940563 Ry
     estimated scf accuracy    <       0.00032366 Ry

     iteration # 16     ecut=    80.00 Ry     beta= 0.30
     Davidson diagonalization with overlap
     ethr =  1.93E-07,  avg # of iterations =  1.9

     negative rho (up, down):  1.912E+00 0.000E+00

     total cpu time spent up to now is     1345.3 secs

     total energy              =   -1631.33930371 Ry
     estimated scf accuracy    <       0.00014564 Ry

     iteration # 17     ecut=    80.00 Ry     beta= 0.30
     Davidson diagonalization with overlap
     ethr =  8.67E-08,  avg # of iterations =  3.7

     negative rho (up, down):  1.907E+00 0.000E+00

     total cpu time spent up to now is     1427.3 secs

     total energy              =   -1631.33926568 Ry
     estimated scf accuracy    <       0.00004835 Ry

     iteration # 18     ecut=    80.00 Ry     beta= 0.30
     Davidson diagonalization with overlap
     ethr =  2.88E-08,  avg # of iterations =  1.9

     negative rho (up, down):  1.905E+00 0.000E+00

     total cpu time spent up to now is     1503.3 secs

     total energy              =   -1631.33924905 Ry
     estimated scf accuracy    <       0.00002875 Ry

     iteration # 19     ecut=    80.00 Ry     beta= 0.30
     Davidson diagonalization with overlap
     ethr =  1.71E-08,  avg # of iterations =  4.0

     negative rho (up, down):  1.904E+00 0.000E+00

     total cpu time spent up to now is     1593.2 secs

     total energy              =   -1631.33924355 Ry
     estimated scf accuracy    <       0.00000616 Ry

     iteration # 20     ecut=    80.00 Ry     beta= 0.30
     Davidson diagonalization with overlap
     ethr =  3.67E-09,  avg # of iterations =  1.4

     negative rho (up, down):  1.904E+00 0.000E+00

     total cpu time spent up to now is     1669.8 secs

     total energy              =   -1631.33924052 Ry
     estimated scf accuracy    <       0.00000261 Ry

     iteration # 21     ecut=    80.00 Ry     beta= 0.30
     Davidson diagonalization with overlap
     ethr =  1.55E-09,  avg # of iterations =  1.9

     negative rho (up, down):  1.903E+00 0.000E+00

     total cpu time spent up to now is     1751.5 secs

     total energy              =   -1631.33923800 Ry
     estimated scf accuracy    <       0.00000285 Ry

     iteration # 22     ecut=    80.00 Ry     beta= 0.30
     Davidson diagonalization with overlap
     ethr =  1.55E-09,  avg # of iterations =  1.5

     negative rho (up, down):  1.903E+00 0.000E+00

     total cpu time spent up to now is     1819.2 secs

     End of self-consistent calculation

          k = 0.0000 0.0000 0.0000 ( 41611 PWs)   bands (ev):

   -50.1257 -49.8192 -49.6598 -49.2166 -49.1847 -49.1093 -49.0944 -49.0081
   -48.9848 -48.9448 -48.9349 -48.8583 -48.8091 -48.7606 -48.7039 -48.6821
   -48.6742 -48.4649 -19.7831 -19.5302 -19.3297 -18.9280 -18.4766 -18.2710
   -17.9684 -17.8693 -17.7977 -17.7319 -16.8250 -16.6152 -16.3544  -8.6239
    -8.4874  -8.4322  -7.7864  -7.2030  -7.0649  -6.8107  -6.5683  -6.5395
    -6.3233  -6.1289  -6.0901  -5.9100  -5.6477  -5.1564  -4.6281  -4.0926
    -3.9409  -3.7404  -3.4758  -3.4711  -3.3782  -3.3364  -3.1531  -3.1360
    -3.0017  -2.9372  -2.7817  -2.7135  -2.6831  -2.5690  -2.4701  -2.2146
    -1.8973  -1.8855  -1.6159  -1.5144  -1.3950  -1.2436  -1.2026  -1.1209
    -1.0970  -1.0362  -1.0096  -0.8170  -0.7459  -0.5754  -0.2328  -0.0964
     0.3826   0.5545   0.8527   1.2874   1.4221   1.5618   1.6023   1.9843
     2.3591   2.9252   3.5204   3.9602   4.7450   4.8848   4.9228   5.4361
     5.4511   5.5111   5.8422   5.9351   6.3252

          k = 0.0000 0.1240 0.0000 ( 41688 PWs)   bands (ev):

   -50.1257 -49.8192 -49.6593 -49.2172 -49.1843 -49.1082 -49.0944 -49.0077
   -48.9851 -48.9448 -48.9349 -48.8595 -48.8091 -48.7606 -48.7039 -48.6822
   -48.6742 -48.4654 -19.6485 -19.3882 -19.1971 -18.9766 -18.5258 -18.3731
   -18.0138 -17.9606 -17.9345 -17.8841 -16.8172 -16.6192 -16.3511  -8.1247
    -7.9735  -7.8965  -7.7808  -7.2024  -6.9947  -6.7328  -6.5379  -6.4779
    -6.2127  -6.1278  -5.9961  -5.9088  -5.4648  -5.1899  -4.7896  -4.5681
    -4.4411  -4.3078  -4.1759  -4.0953  -3.8431  -3.7079  -3.5881  -3.4023
    -3.3318  -2.9125  -2.7654  -2.7578  -2.6815  -2.6020  -2.4687  -2.2440
    -2.0229  -1.7763  -1.6171  -1.3804  -1.2365  -1.0323  -0.9249  -0.8005
    -0.6769  -0.6164  -0.5812  -0.4922  -0.4891  -0.3836  -0.2142   0.0055
     0.3803   0.5473   0.9015   1.2701   1.3092   1.4540   1.6424   1.7798
     2.1734   3.4548   4.1658   4.3769   4.6370   4.7455   5.0002   5.1497
     5.1511   5.5155   5.8444   5.9092   6.2950

          k = 0.0000-0.2479 0.0000 ( 41774 PWs)   bands (ev):

   -50.1257 -49.8192 -49.6587 -49.2179 -49.1840 -49.1071 -49.0944 -49.0074
   -48.9854 -48.9448 -48.9349 -48.8607 -48.8090 -48.7606 -48.7039 -48.6822
   -48.6742 -48.4659 -19.3994 -19.2467 -19.1486 -18.8300 -18.6902 -18.6123
   -18.1413 -18.1077 -17.9975 -17.9359 -16.8089 -16.6248 -16.3486  -7.7965
    -7.3441  -7.2040  -7.1331  -6.9590  -6.9169  -6.6457  -6.5355  -6.3749
    -6.1766  -6.1256  -5.9065  -5.6953  -5.5843  -5.4939  -5.4663  -5.3353
    -5.1568  -4.8744  -4.7874  -4.2997  -3.9998  -3.9801  -3.9653  -3.8676
    -3.5756  -2.9154  -2.7772  -2.7650  -2.7222  -2.3826  -2.3611  -2.0651
    -1.9902  -1.7887  -1.4117  -1.3899  -1.2760  -1.1452  -0.7654  -0.7037
    -0.6024  -0.3809  -0.2656  -0.1977  -0.1500   0.0026   0.1551   0.3424
     0.4864   0.5946   0.6436   1.1391   1.2547   1.3471   1.6075   1.6456
     2.0616   3.9613   4.3193   4.4287   4.7464   4.8196   4.8384   5.1009
     5.3792   5.5165   5.6530   5.8458   6.2650

          k = 0.1250 0.0000 0.0000 ( 41611 PWs)   bands (ev):

   -50.1247 -49.8350 -49.6574 -49.2157 -49.1836 -49.1079 -49.0933 -49.0245
   -49.0008 -48.9611 -48.9324 -48.8562 -48.8248 -48.7596 -48.7015 -48.6985
   -48.6719 -48.4626 -19.6426 -19.4044 -19.2109 -18.8294 -18.4063 -18.1843
   -18.0266 -17.9529 -17.8779 -17.8143 -16.8148 -16.6611 -16.3962  -8.4387
    -8.3033  -8.2537  -7.5994  -7.1713  -7.0052  -6.7677  -6.6174  -6.5364
    -6.2089  -6.1046  -5.6632  -5.6079  -5.4555  -4.9833  -4.7335  -4.5045
    -4.0640  -3.9366  -3.8229  -3.8179  -3.7585  -3.6283  -3.6178  -3.2418
    -3.0871  -2.8963  -2.8439  -2.7754  -2.7648  -2.6744  -2.5811  -2.5038
    -2.4178  -2.0821  -2.0176  -1.4675  -1.3723  -1.2106  -1.0321  -0.9359
    -0.7520  -0.7141  -0.6882  -0.6753  -0.3238  -0.1424  -0.1243   0.1845
     0.7136   0.7829   0.9435   1.1743   1.3157   1.4371   1.7209   1.8338
     2.1997   3.1639   3.7527   4.1359   4.3869   4.5743   4.8407   5.0444
     5.0851   5.1611   5.3818   6.0353   6.4790

          k = 0.1250 0.1240 0.0000 ( 41692 PWs)   bands (ev):

   -50.1247 -49.8351 -49.6569 -49.2163 -49.1833 -49.1072 -49.0933 -49.0240
   -49.0011 -48.9611 -48.9325 -48.8572 -48.8248 -48.7596 -48.7015 -48.6985
   -48.6719 -48.4630 -19.5133 -19.2671 -19.0795 -18.8780 -18.4525 -18.3051
   -18.0724 -18.0282 -17.9978 -17.9399 -16.8046 -16.6682 -16.3935  -7.9625
    -7.8142  -7.7460  -7.5976  -7.1737  -6.9175  -6.6756  -6.6218  -6.4390
    -6.2926  -5.8351  -5.6645  -5.6098  -5.3637  -4.9955  -4.7801  -4.7036
    -4.5590  -4.4751  -4.2730  -4.2355  -4.1575  -4.0610  -3.9463  -3.7596
    -3.4858  -3.2542  -2.9588  -2.8902  -2.7790  -2.6108  -2.4107  -2.3928
    -2.2230  -1.8095  -1.7146  -1.4360  -1.2783  -1.0407  -0.8337  -0.7275
    -0.5943  -0.4865  -0.3959  -0.2657  -0.1926  -0.1167   0.0601   0.2590
     0.7053   0.8224   0.9299   1.1778   1.2129   1.3459   1.5860   1.7853
     2.0757   3.5922   4.0918   4.3490   4.3767   4.4321   4.6484   4.8252
     5.0193   5.2342   5.3815   5.9922   6.3897

          k = 0.1250-0.2479 0.0000 ( 41706 PWs)   bands (ev):

   -50.1247 -49.8351 -49.6564 -49.2168 -49.1830 -49.1066 -49.0933 -49.0234
   -49.0014 -48.9611 -48.9325 -48.8581 -48.8247 -48.7596 -48.7015 -48.6985
   -48.6719 -48.4633 -19.2716 -19.1199 -19.0308 -18.7220 -18.6315 -18.5660
   -18.2123 -18.1536 -18.0118 -17.9916 -16.7928 -16.6778 -16.3913  -7.6088
    -7.1777  -7.1117  -6.9643  -6.9021  -6.7534  -6.7206  -6.6205  -6.5861
    -6.3113  -5.6733  -5.6260  -5.4906  -5.3584  -5.2316  -5.2053  -5.1580
    -5.0376  -4.9755  -4.8683  -4.8594  -4.6824  -4.4713  -4.0133  -3.8949
    -3.8894  -3.2539  -3.0233  -2.9599  -2.7777  -2.4636  -2.2223  -2.1717
    -1.9610  -1.8118  -1.4241  -1.3691  -1.2340  -1.1936  -0.7369  -0.6356
    -0.4958  -0.4504  -0.3596  -0.0627   0.1175   0.2765   0.4956   0.5214
     0.6702   0.7242   0.9794   1.0699   1.0840   1.3568   1.5209   1.5489
     2.0801   3.7923   4.0777   4.1302   4.2652   4.3507   4.6856   5.0288
     5.2027   5.3905   5.4417   5.7096   6.4501

          k = 0.2500 0.0000 0.0000 ( 41623 PWs)   bands (ev):

   -50.1223 -49.8731 -49.6514 -49.2137 -49.1809 -49.1046 -49.0909 -49.0641
   -49.0392 -49.0003 -48.9265 -48.8625 -48.8511 -48.7573 -48.7380 -48.6958
   -48.6664 -48.4569 -19.2768 -19.0885 -18.9147 -18.6118 -18.2848 -18.1487
   -18.1477 -18.0673 -18.0044 -18.0007 -16.8065 -16.7029 -16.4468  -7.9477
    -7.8159  -7.7762  -7.1074  -6.9871  -6.8185  -6.6563  -6.6148  -6.3292
    -6.1027  -5.9177  -5.5762  -5.3181  -5.1617  -5.0615  -4.9834  -4.8878
    -4.8675  -4.8144  -4.2068  -4.1943  -3.8867  -3.7605  -3.6791  -3.5455
    -3.4872  -3.4535  -3.3888  -3.1859  -2.9403  -2.6816  -2.6215  -2.5416
    -2.2277  -2.1098  -1.6169  -1.5273  -1.4764  -1.2429  -1.0162  -0.7945
    -0.5723  -0.4553  -0.3199  -0.3002   0.1198   0.3645   0.5060   0.6828
     0.7957   0.8399   1.0528   1.0762   1.1762   1.2580   1.5121   1.7742
     1.8613   3.5479   3.7912   3.8846   4.0307   4.2521   4.3147   4.4040
     4.5696   4.6129   5.2756   5.7691   6.8260

          k = 0.2500 0.1240 0.0000 ( 41653 PWs)   bands (ev):

   -50.1223 -49.8732 -49.6511 -49.2139 -49.1808 -49.1058 -49.0909 -49.0622
   -49.0394 -49.0003 -48.9265 -48.8625 -48.8516 -48.7573 -48.7378 -48.6958
   -48.6664 -48.4571 -19.1698 -18.9764 -18.8009 -18.6579 -18.3739 -18.2607
   -18.1713 -18.1571 -18.1070 -17.9736 -16.7911 -16.7174 -16.4460  -7.5742
    -7.4346  -7.3968  -7.1066  -6.9867  -6.6707  -6.6478  -6.4581  -6.2161
    -6.1988  -5.9886  -5.5794  -5.4544  -5.4107  -5.3680  -5.2284  -5.0667
    -4.8366  -4.6625  -4.2743  -4.1896  -4.1019  -3.9410  -3.8641  -3.8502
    -3.7896  -3.6539  -3.3485  -3.0455  -2.9253  -2.7917  -2.6448  -2.4684
    -2.2126  -2.1282  -1.5896  -1.5460  -1.4207  -1.3337  -0.8384  -0.6369
    -0.3918  -0.2240  -0.1565  -0.1073   0.0969   0.3288   0.5544   0.6378
     0.7964   0.8937   0.9851   1.1083   1.1681   1.2524   1.4304   1.5986
     2.0089   3.3442   3.5996   3.7299   3.8036   3.8485   4.4656   4.5921
     4.8363   5.0167   5.4066   5.8198   6.8854

          k = 0.2500-0.2479 0.0000 ( 41680 PWs)   bands (ev):

   -50.1223 -49.8733 -49.6509 -49.2141 -49.1808 -49.1070 -49.0909 -49.0604
   -49.0397 -49.0002 -48.9266 -48.8625 -48.8520 -48.7573 -48.7377 -48.6958
   -48.6664 -48.4573 -18.9631 -18.8253 -18.7448 -18.6080 -18.5111 -18.4822
   -18.3499 -18.1897 -18.1043 -17.9715 -16.7574 -16.7504 -16.4453  -7.1151
    -7.0165  -6.9174  -6.7778  -6.7427  -6.6649  -6.4550  -6.2821  -6.2754
    -6.2244  -6.1057  -6.1038  -5.9601  -5.7603  -5.3438  -5.1979  -5.1233
    -4.8947  -4.5789  -4.5508  -4.4411  -4.3766  -4.2429  -4.1390  -4.0329
    -4.0302  -3.8183  -3.3642  -3.0814  -2.8457  -2.5334  -2.3537  -2.2713
    -2.1706  -2.1118  -1.8280  -1.5925  -1.3541  -1.2259  -0.7148  -0.5824
    -0.4176  -0.3360  -0.1968   0.2556   0.2969   0.3434   0.7142   0.7433
     0.7990   0.8324   0.9495   1.1228   1.2169   1.2905   1.4219   1.4663
     2.0910   2.8914   3.2180   3.3379   3.7767   3.8541   4.5921   4.8606
     4.9425   5.4401   5.5463   5.7746   6.9912

          k = 0.3750 0.0000 0.0000 ( 41645 PWs)   bands (ev):

   -50.1199 -49.9109 -49.6454 -49.2116 -49.1782 -49.1035 -49.1013 -49.0890
   -49.0773 -49.0388 -48.9207 -48.8998 -48.8459 -48.7771 -48.7550 -48.6900
   -48.6609 -48.4512 -18.8432 -18.7504 -18.6030 -18.5059 -18.3365 -18.2509
   -18.2433 -18.1839 -18.1819 -17.8931 -16.7728 -16.6630 -16.4118  -7.3909
    -7.2321  -7.2145  -6.8183  -6.6738  -6.6088  -6.5720  -6.5210  -6.3327
    -6.2618  -6.0289  -5.9788  -5.7910  -5.7617  -5.4441  -5.2368  -4.8777
    -4.8447  -4.5175  -4.3641  -4.2790  -4.1542  -4.0554  -3.6691  -3.6314
    -3.5263  -3.3166  -3.2584  -3.0086  -2.9877  -2.8572  -2.5549  -2.3406
    -2.0391  -2.0386  -1.6964  -1.6209  -1.2543  -1.2493  -1.0393  -0.6363
    -0.5829  -0.4031  -0.2243  -0.2089   0.2228   0.3135   0.3441   0.5094
     0.6026   0.7296   0.9101   1.1079   1.2045   1.4273   1.5769   1.6911
     1.8221   3.2145   3.3138   3.4552   3.7650   3.8978   4.1373   4.1877
     4.4785   4.7169   5.3543   5.4169   7.6123

          k = 0.3750 0.1240 0.0000 ( 41549 PWs)   bands (ev):

   -50.1199 -49.9110 -49.6454 -49.2115 -49.1784 -49.1136 -49.0910 -49.0889
   -49.0775 -49.0387 -48.9206 -48.8999 -48.8459 -48.7768 -48.7550 -48.6900
   -48.6609 -48.4512 -18.8099 -18.7347 -18.6257 -18.5357 -18.3775 -18.3304
   -18.1855 -18.1610 -18.1535 -17.8964 -16.7584 -16.6779 -16.4119  -7.2440
    -7.1191  -7.0793  -6.9135  -6.7109  -6.6733  -6.6159  -6.5098  -6.4501
    -6.3245  -6.2331  -5.8554  -5.6467  -5.5223  -5.3928  -5.3144  -4.9876
    -4.6317  -4.4546  -4.3186  -4.2171  -3.9958  -3.9679  -3.6966  -3.6644
    -3.5405  -3.3598  -3.3239  -3.1336  -2.8665  -2.7445  -2.5505  -2.4710
    -2.1715  -2.0662  -1.9365  -1.6346  -1.4899  -1.2983  -0.9181  -0.7994
    -0.4444  -0.4193  -0.3549  -0.2783  -0.0600   0.1391   0.2381   0.3294
     0.4715   0.7969   1.2808   1.3638   1.3909   1.4593   1.5421   1.6901
     1.8539   2.6898   3.0099   3.1942   3.2788   3.4850   4.1469   4.8715
     5.1334   5.3380   5.5235   5.5724   7.7103

          k = 0.3750-0.2479 0.0000 ( 41514 PWs)   bands (ev):

   -50.1199 -49.9112 -49.6453 -49.2115 -49.1787 -49.1181 -49.0889 -49.0862
   -49.0777 -49.0387 -48.9206 -48.9000 -48.8460 -48.7764 -48.7550 -48.6900
   -48.6609 -48.4512 -18.7397 -18.7348 -18.6698 -18.5622 -18.4042 -18.3790
   -18.1614 -18.1392 -18.1382 -17.8999 -16.7336 -16.7033 -16.4119  -7.1192
    -7.0063  -6.8403  -6.8234  -6.7410  -6.7377  -6.7004  -6.6472  -6.5608
    -6.4605  -6.3784  -5.6535  -5.6474  -5.4634  -5.1758  -5.1084  -5.0056
    -4.6704  -4.5378  -4.2638  -4.1484  -3.8814  -3.8518  -3.8079  -3.6647
    -3.5959  -3.4438  -3.3464  -3.1073  -2.8588  -2.6934  -2.5105  -2.3717
    -2.2659  -2.2340  -1.8475  -1.7175  -1.6414  -1.6061  -0.9921  -0.9098
    -0.8140  -0.4014  -0.3410  -0.2072  -0.0125   0.0699   0.2294   0.3431
     0.3664   0.7519   1.2502   1.3999   1.4855   1.6287   1.6886   1.7194
     1.9762   2.2292   2.5764   2.7465   3.2915   3.5041   4.1478   5.3064
     5.3420   5.6465   5.6732   5.9473   7.8102

          k =-0.5000 0.0000 0.0000 ( 41440 PWs)   bands (ev):

   -50.1189 -49.9264 -49.6429 -49.2108 -49.1770 -49.1197 -49.1000 -49.0930
   -49.0886 -49.0542 -48.9182 -48.9152 -48.8438 -48.7932 -48.7540 -48.6876
   -48.6586 -48.4489 -18.6014 -18.6011 -18.5260 -18.4630 -18.4120 -18.3253
   -18.2966 -18.2557 -18.1421 -17.8789 -16.7374 -16.6291 -16.3699  -7.2569
    -6.9383  -6.8646  -6.8496  -6.7382  -6.6780  -6.5421  -6.4847  -6.4436
    -6.1349  -6.0999  -6.0097  -5.9128  -5.7427  -5.6670  -5.5984  -4.8079
    -4.5622  -4.5056  -4.4858  -4.2600  -4.1768  -4.0625  -3.9807  -3.6167
    -3.3360  -3.2549  -3.2533  -2.9400  -2.7725  -2.6278  -2.4522  -2.0994
    -1.9744  -1.9590  -1.8900  -1.6072  -1.2293  -1.1788  -1.1424  -0.5921
    -0.5497  -0.5066  -0.3405  -0.2699  -0.1903   0.0984   0.1352   0.3092
     0.5168   0.7834   0.7939   1.0741   1.4134   1.4853   1.5478   1.7911
     2.0329   2.9914   3.0928   3.4015   3.5745   3.7266   4.0456   4.2028
     4.5227   4.7055   5.3358   5.4466   8.1999

          k =-0.5000 0.1240 0.0000 ( 41518 PWs)   bands (ev):

   -50.1189 -49.9266 -49.6430 -49.2106 -49.1774 -49.1255 -49.0942 -49.0931
   -49.0886 -49.0542 -48.9182 -48.9153 -48.8436 -48.7928 -48.7540 -48.6876
   -48.6586 -48.4488 -18.7134 -18.6470 -18.6217 -18.5979 -18.2866 -18.2751
   -18.1811 -18.1523 -18.1271 -17.8822 -16.7215 -16.6450 -16.3692  -7.2147
    -7.1609  -7.1128  -6.9169  -6.8592  -6.7675  -6.7445  -6.6140  -6.4329
    -6.1830  -6.0477  -5.9135  -5.6941  -5.4117  -5.2132  -4.8838  -4.7301
    -4.6447  -4.5357  -4.4846  -4.4187  -4.2576  -3.9005  -3.4875  -3.4313
    -3.3688  -3.2846  -3.2157  -3.0052  -2.7646  -2.6269  -2.5388  -2.2207
    -1.9980  -1.9955  -1.9275  -1.8308  -1.5027  -1.3656  -1.1468  -0.6917
    -0.6473  -0.5313  -0.5232  -0.3484  -0.2874  -0.2317  -0.1778   0.0477
     0.0550   0.7895   1.4689   1.4895   1.5331   1.5848   1.6564   1.7602
     1.9449   2.4276   2.7831   2.9883   3.0373   3.4252   4.0477   5.1099
     5.2608   5.4371   5.5212   5.5438   8.3554

          k =-0.5000-0.2479 0.0000 ( 41524 PWs)   bands (ev):

   -50.1189 -49.9268 -49.6430 -49.2104 -49.1778 -49.1296 -49.0933 -49.0900
   -49.0886 -49.0541 -48.9182 -48.9154 -48.8435 -48.7924 -48.7540 -48.6876
   -48.6586 -48.4487 -18.7845 -18.7191 -18.7080 -18.5948 -18.2749 -18.1975
   -18.1642 -18.0976 -18.0406 -17.8854 -16.6843 -16.6823 -16.3685  -7.4333
    -7.3321  -7.1541  -7.0246  -6.7964  -6.7441  -6.6994  -6.6272  -6.4671
    -6.2000  -6.1891  -5.9083  -5.8196  -4.9602  -4.7124  -4.6699  -4.5652
    -4.4862  -4.4804  -4.3741  -4.1482  -4.0090  -3.9198  -3.6889  -3.4637
    -3.4193  -3.2241  -3.2062  -2.8534  -2.6411  -2.5536  -2.4524  -2.3644
    -2.2829  -2.1817  -1.9400  -1.9326  -1.9157  -1.4326  -1.2425  -1.1305
    -0.9723  -0.6977  -0.5194  -0.5177  -0.3404  -0.2105  -0.1841  -0.0452
    -0.0413   0.8032   1.4471   1.5126   1.5907   1.8522   1.8587   1.8659
     1.9473   1.9973   2.3826   2.5786   3.0726   3.4469   4.0495   5.5373
     5.5860   5.6368   5.7434   6.0711   8.5128

     the Fermi energy is     1.2569 ev

!    total energy              =   -1631.33923785 Ry
     estimated scf accuracy    <       0.00000083 Ry
     smearing contrib. (-TS)   =      -0.00164144 Ry
     internal energy E=F+TS    =   -1631.33759640 Ry

     The total energy is F=E-TS. E is the sum of the following terms:
     one-electron contribution =  -15339.19554039 Ry
     hartree contribution      =    7711.52969297 Ry
     xc contribution           =    -397.66284389 Ry
     ewald contribution        =    6517.74619189 Ry
     one-center paw contrib.   =    -123.75509699 Ry

     convergence has been achieved in  22 iterations

     negative rho (up, down):  1.903E+00 0.000E+00

     Forces acting on atoms (cartesian axes, Ry/au):

     atom    1 type  1   force =     0.00000000    0.00000000    0.03521633
     atom    2 type  1   force =     0.00000000    0.00000000   -0.04036012
     atom    3 type  1   force =     0.00000000    0.00000000   -0.00082400
     atom    4 type  1   force =     0.00000000    0.00000000   -0.00007379
     atom    5 type  1   force =     0.00000000    0.00000000   -0.00033677
     atom    6 type  1   force =     0.00000000    0.00000000   -0.00141691
     atom    7 type  2   force =     0.00000000    0.00000000   -0.00253073
     atom    8 type  2   force =     0.00000000    0.00000000    0.03559377
     atom    9 type  2   force =     0.00000000    0.02069270   -0.02426926
     atom   10 type  2   force =     0.00000000   -0.02069270   -0.02426926
     atom   11 type  2   force =     0.00000000    0.00000000   -0.00048609
     atom   12 type  2   force =     0.00000000    0.00000000    0.02150678
     atom   13 type  2   force =     0.00000000    0.00072767    0.00147012
     atom   14 type  2   force =     0.00000000   -0.00072767    0.00147012
     atom   15 type  2   force =     0.00000000    0.00000000   -0.00109575
     atom   16 type  2   force =     0.00000000    0.00000000   -0.00132457
     atom   17 type  2   force =     0.00000000    0.00046799    0.00099908
     atom   18 type  2   force =     0.00000000   -0.00046799    0.00099908
     atom   19 type  2   force =     0.00000000    0.00000000   -0.00026803

     Total force =     0.003726     Total SCF correction =     0.004995
     SCF correction compared to forces is large: reduce conv_thr to get better values

     Writing all to output data dir ./tmp_s0_O__base/s0_O__base.save/ :
     XML data file, charge density, pseudopotentials, collected wavefunctions

     init_run     :     35.52s CPU     38.97s WALL (       1 calls)
     electrons    :   1648.23s CPU   1780.00s WALL (       1 calls)
     forces       :     14.72s CPU     16.60s WALL (       1 calls)

     Called by init_run:
     wfcinit      :     25.98s CPU     27.75s WALL (       1 calls)
     potinit      :      3.35s CPU      3.84s WALL (       1 calls)
     hinit0       :      3.38s CPU      3.65s WALL (       1 calls)

     Called by electrons:
     c_bands      :   1139.60s CPU   1211.29s WALL (      22 calls)
     sum_band     :    286.50s CPU    316.73s WALL (      22 calls)
     v_of_rho     :     34.32s CPU     39.07s WALL (      23 calls)
     newd         :     50.06s CPU     68.01s WALL (      23 calls)
     PAW_pot      :     12.19s CPU     12.67s WALL (      23 calls)
     mix_rho      :    125.20s CPU    132.55s WALL (      22 calls)

     Called by c_bands:
     init_us_2    :     21.82s CPU     22.93s WALL (     184 calls)
     cegterg      :   1064.27s CPU   1132.85s WALL (      88 calls)

     Called by *egterg:
     cdiaghg      :      7.63s CPU      7.95s WALL (     578 calls)
     h_psi        :    830.97s CPU    873.11s WALL (     582 calls)
     s_psi        :     55.78s CPU     58.09s WALL (     582 calls)
     g_psi        :      5.77s CPU      5.99s WALL (     490 calls)

     Called by h_psi:
     h_psi:calbec :     62.15s CPU     64.81s WALL (     582 calls)
     vloc_psi     :    705.22s CPU    735.82s WALL (     582 calls)
                                        0.00s GPU  (     582 calls)
     add_vuspsi   :     59.23s CPU     61.62s WALL (     582 calls)

     General routines
     calbec       :     90.00s CPU     93.80s WALL (     686 calls)
     fft          :     16.88s CPU     17.62s WALL (     308 calls)
     ffts         :     42.80s CPU     44.46s WALL (    2628 calls)
     fftw         :    658.54s CPU    687.46s WALL (   47406 calls)
     interpolate  :      3.11s CPU      3.27s WALL (      23 calls)

     Parallel routines

     PWSCF        :  28m19.00s CPU  30m36.40s WALL


   This run was terminated on:   6: 4:28   7Aug2026            

=------------------------------------------------------------------------------=
   JOB DONE.
=------------------------------------------------------------------------------=
