
     Program PWSCF v.7.5 starts on  7Aug2026 at  6:14:57 

     This program is part of the open-source Quantum ESPRESSO suite
     for quantum simulation of materials; please cite
         "P. Giannozzi et al., J. Phys.:Condens. Matter 21 395502 (2009);
         "P. Giannozzi et al., J. Phys.:Condens. Matter 29 465901 (2017);
         "P. Giannozzi et al., J. Chem. Phys. 152 154105 (2020);
          URL http://www.quantum-espresso.org", 
     in publications or presentations arising from this work. More details at
     http://www.quantum-espresso.org/quote

     Parallel version (MPI & OpenMP), running on       4 processor cores
     Number of MPI processes:                 4
     Threads/MPI process:                     1

     MPI processes distributed on     1 nodes
     13145 MiB available memory on the printing compute node when the environment starts

     Reading input from s0_OOH__base.run.in

     Current dimensions of program PWSCF are:
     Max number of different atomic species (ntypx) = 10
     Max number of k-points (npk) =  40000
     Max angular momentum in pseudopotentials (lmaxx) =  4
     file O.pbe-n-kjpaw_psl.0.1.UPF: wavefunction(s)  2P renormalized
     Message from routine setup:
     using ibrav=0 with symmetry is DISCOURAGED, use correct ibrav instead

     K-points division:     npool     =       4
     Subspace diagonalization in iterative solution of the eigenvalue problem:
     a serial algorithm will be used


     G-vector sticks info
     --------------------
     sticks:   dense  smooth     PW     G-vecs:    dense   smooth      PW
     Sum        3639    1825    519               941385   332621   50331

     Using Slab Decomposition



     bravais-lattice index     =            0
     lattice parameter (alat)  =       5.9602  a.u.
     unit-cell volume          =    3444.9838 (a.u.)^3
     number of atoms/cell      =           21
     number of atomic types    =            3
     number of electrons       =       175.00
     number of Kohn-Sham states=          106
     kinetic-energy cutoff     =      80.0000  Ry
     charge density cutoff     =     640.0000  Ry
     scf convergence threshold =      1.0E-06
     mixing beta               =       0.3000
     number of iterations used =            8  local-TF  mixing
     Exchange-correlation= SLA  PW   PBX  PBC
                           (   1   4   3   4   0   0   0)

     celldm(1)=   5.960196  celldm(2)=   0.000000  celldm(3)=   0.000000
     celldm(4)=   0.000000  celldm(5)=   0.000000  celldm(6)=   0.000000

     crystal axes: (cart. coord. in units of alat)
               a(1) = (   1.000000   0.000000   0.000000 )  
               a(2) = (   0.000000   2.016846   0.000000 )  
               a(3) = (   0.000000   0.000000   8.067384 )  

     reciprocal axes: (cart. coord. in units 2 pi/alat)
               b(1) = (  1.000000  0.000000  0.000000 )  
               b(2) = (  0.000000  0.495824  0.000000 )  
               b(3) = (  0.000000  0.000000  0.123956 )  


     PseudoPot. # 1 for H  read from file:
     /usr/share/espresso/pseudo/H.pbe-rrkjus_psl.1.0.0.UPF
     MD5 check sum: f52b6d4d1c606e5624b1dc7b2218f220
     Pseudo is Ultrasoft, Zval =  1.0
     Generated using "atomic" code by A. Dal Corso  v.5.1
     Using radial grid of  929 points,  2 beta functions with: 
                l(1) =   0
                l(2) =   0
     Q(r) pseudized with 0 coefficients 


     PseudoPot. # 2 for Ir read from file:
     /usr/share/espresso/pseudo/Ir_pbe_v1.2.uspp.F.UPF
     MD5 check sum: 8836f839c3459d2b385c504ce6d91f2c
     Pseudo is Ultrasoft + core correction, Zval = 15.0
     Generated by new atomic code, or converted to UPF format
     Using radial grid of  983 points,  7 beta functions with: 
                l(1) =   0
                l(2) =   0
                l(3) =   1
                l(4) =   1
                l(5) =   1
                l(6) =   2
                l(7) =   2
     Q(r) pseudized with  8 coefficients,  rinner =    1.400   1.400   1.400
                                                       1.400   1.400

     PseudoPot. # 3 for O  read from file:
     /usr/share/espresso/pseudo/O.pbe-n-kjpaw_psl.0.1.UPF
     MD5 check sum: 0234752ac141de4415c5fc33072bef88
     Pseudo is Projector augmented-wave + core cor, Zval =  6.0
     Generated using "atomic" code by A. Dal Corso  v.5.0.99 svn rev. 10869
     Shape of augmentation charge: BESSEL
     Using radial grid of 1095 points,  4 beta functions with: 
                l(1) =   0
                l(2) =   0
                l(3) =   1
                l(4) =   1
     Q(r) pseudized with 0 coefficients 


     atomic species   valence    mass     pseudopotential
     H                 1.00     1.00800     H ( 1.00)
     Ir               15.00   192.21700     Ir( 1.00)
     O                 6.00    15.99900     O ( 1.00)

      2 Sym. Ops. (no inversion) found ( 1 have fractional translation)



   Cartesian axes

     site n.     atom                  positions (alat units)
         1        Ir     tau(   1) = (   0.0000000   1.5126346   3.0252692  )
         2        Ir     tau(   2) = (   0.5000000   0.5042115   3.0252692  )
         3        Ir     tau(   3) = (  -0.0023840   0.5042115   4.0424363  )
         4        Ir     tau(   4) = (   0.4990610   1.5126346   4.0354930  )
         5        Ir     tau(   5) = (   0.0012848   1.5126346   5.0614101  )
         6        Ir     tau(   6) = (   0.4948989   0.5042115   5.0639483  )
         7        O      tau(   7) = (   0.0000000   0.5042115   3.4185541  )
         8        O      tau(   8) = (   0.0000000   0.5042115   2.6319842  )
         9        O      tau(   9) = (   0.5000000   1.1193496   3.0252692  )
        10        O      tau(  10) = (   0.5000000   1.9059196   3.0252692  )
        11        O      tau(  11) = (  -0.0006886   1.5126346   4.4334117  )
        12        O      tau(  12) = (   0.0000000   1.5126346   3.6404072  )
        13        O      tau(  13) = (   0.4978055   0.1177569   4.0372497  )
        14        O      tau(  14) = (   0.4978055   0.8906661   4.0372497  )
        15        O      tau(  15) = (  -0.0045322   0.5042115   5.4396437  )
        16        O      tau(  16) = (  -0.0052389   0.5042115   4.6686027  )
        17        O      tau(  17) = (   0.4950664   1.1230207   5.0499889  )
        18        O      tau(  18) = (   0.4950664   1.9022485   5.0499889  )
        19        O      tau(  19) = (  -0.1157108   1.5126346   5.6562437  )
        20        O      tau(  20) = (   0.1683169   1.5126346   6.0083143  )
        21        H      tau(  21) = (  -0.0522583   1.5126346   6.2279178  )

     number of k points=    15  Marzari-Vanderbilt smearing, width (Ry)=  0.0100
                       cart. coord. in units 2pi/alat
        k(    1) = (   0.0000000   0.0000000   0.0000000), wk =   0.0625000
        k(    2) = (   0.0000000   0.1239559   0.0000000), wk =   0.1250000
        k(    3) = (   0.0000000  -0.2479118   0.0000000), wk =   0.0625000
        k(    4) = (   0.1250000   0.0000000   0.0000000), wk =   0.1250000
        k(    5) = (   0.1250000   0.1239559   0.0000000), wk =   0.2500000
        k(    6) = (   0.1250000  -0.2479118   0.0000000), wk =   0.1250000
        k(    7) = (   0.2500000   0.0000000   0.0000000), wk =   0.1250000
        k(    8) = (   0.2500000   0.1239559   0.0000000), wk =   0.2500000
        k(    9) = (   0.2500000  -0.2479118   0.0000000), wk =   0.1250000
        k(   10) = (   0.3750000   0.0000000   0.0000000), wk =   0.1250000
        k(   11) = (   0.3750000   0.1239559   0.0000000), wk =   0.2500000
        k(   12) = (   0.3750000  -0.2479118   0.0000000), wk =   0.1250000
        k(   13) = (  -0.5000000   0.0000000   0.0000000), wk =   0.0625000
        k(   14) = (  -0.5000000   0.1239559   0.0000000), wk =   0.1250000
        k(   15) = (  -0.5000000  -0.2479118   0.0000000), wk =   0.0625000

     Dense  grid:   941385 G-vectors     FFT dimensions: (  48, 100, 400)

     Smooth grid:   332621 G-vectors     FFT dimensions: (  36,  72, 288)

     Estimated max dynamical RAM per process >       2.06 GB

     Estimated total dynamical RAM >       7.56 GB

     Initial potential from superposition of free atoms

     starting charge     171.9998, renormalised to     175.0000

     negative rho (up, down):  2.222E+00 0.000E+00
     Starting wfcs are  129 randomized atomic wfcs
     Checking if some PAW data can be deallocated... 

     total cpu time spent up to now is       38.9 secs

     per-process dynamical memory:   907.4 Mb

     Self-consistent Calculation

     iteration #  1     ecut=    80.00 Ry     beta= 0.30
     Davidson diagonalization with overlap
     ethr =  1.00E-02,  avg # of iterations =  3.3

     negative rho (up, down):  2.055E+00 0.000E+00

     total cpu time spent up to now is      122.5 secs

     total energy              =   -1674.68566894 Ry
     estimated scf accuracy    <      66.80128651 Ry

     iteration #  2     ecut=    80.00 Ry     beta= 0.30
     Davidson diagonalization with overlap
     ethr =  1.00E-02,  avg # of iterations =  1.0

     negative rho (up, down):  1.922E+00 0.000E+00

     total cpu time spent up to now is      191.7 secs

     total energy              =   -1674.05550443 Ry
     estimated scf accuracy    <      12.43814077 Ry

     iteration #  3     ecut=    80.00 Ry     beta= 0.30
     Davidson diagonalization with overlap
     ethr =  7.11E-03,  avg # of iterations =  1.1

     negative rho (up, down):  1.860E+00 0.000E+00

     total cpu time spent up to now is      262.2 secs

     total energy              =   -1673.99054837 Ry
     estimated scf accuracy    <       3.70981464 Ry

     iteration #  4     ecut=    80.00 Ry     beta= 0.30
     Davidson diagonalization with overlap
     ethr =  2.12E-03,  avg # of iterations =  5.0

     negative rho (up, down):  1.898E+00 0.000E+00

     total cpu time spent up to now is      341.6 secs

     total energy              =   -1674.13216616 Ry
     estimated scf accuracy    <       0.59583763 Ry

     iteration #  5     ecut=    80.00 Ry     beta= 0.30
     Davidson diagonalization with overlap
     ethr =  3.40E-04,  avg # of iterations =  5.5

     negative rho (up, down):  1.923E+00 0.000E+00

     total cpu time spent up to now is      423.9 secs

     total energy              =   -1674.12758248 Ry
     estimated scf accuracy    <       1.47111412 Ry

     iteration #  6     ecut=    80.00 Ry     beta= 0.30
     Davidson diagonalization with overlap
     ethr =  3.40E-04,  avg # of iterations =  1.1

     negative rho (up, down):  1.944E+00 0.000E+00

     total cpu time spent up to now is      496.7 secs

     total energy              =   -1674.10145241 Ry
     estimated scf accuracy    <       1.00570675 Ry

     iteration #  7     ecut=    80.00 Ry     beta= 0.30
     Davidson diagonalization with overlap
     ethr =  3.40E-04,  avg # of iterations =  1.9

     negative rho (up, down):  1.963E+00 0.000E+00

     total cpu time spent up to now is      587.4 secs

     total energy              =   -1674.10158300 Ry
     estimated scf accuracy    <       0.19371668 Ry

     iteration #  8     ecut=    80.00 Ry     beta= 0.30
     Davidson diagonalization with overlap
     ethr =  1.11E-04,  avg # of iterations =  3.1

     negative rho (up, down):  1.969E+00 0.000E+00

     total cpu time spent up to now is      667.3 secs

     total energy              =   -1674.09322782 Ry
     estimated scf accuracy    <       0.10957178 Ry

     iteration #  9     ecut=    80.00 Ry     beta= 0.30
     Davidson diagonalization with overlap
     ethr =  6.26E-05,  avg # of iterations =  7.0

     negative rho (up, down):  1.961E+00 0.000E+00

     total cpu time spent up to now is      751.8 secs

     total energy              =   -1674.09412628 Ry
     estimated scf accuracy    <       0.01775312 Ry

     iteration # 10     ecut=    80.00 Ry     beta= 0.30
     Davidson diagonalization with overlap
     c_bands:  1 eigenvalues not converged
     ethr =  1.01E-05,  avg # of iterations =  8.5

     negative rho (up, down):  1.943E+00 0.000E+00

     total cpu time spent up to now is      836.1 secs

     total energy              =   -1674.09281095 Ry
     estimated scf accuracy    <       0.00785443 Ry

     iteration # 11     ecut=    80.00 Ry     beta= 0.30
     Davidson diagonalization with overlap
     ethr =  4.49E-06,  avg # of iterations =  9.5

     negative rho (up, down):  1.920E+00 0.000E+00

     total cpu time spent up to now is      916.1 secs

     total energy              =   -1674.09204564 Ry
     estimated scf accuracy    <       0.00487580 Ry

     iteration # 12     ecut=    80.00 Ry     beta= 0.30
     Davidson diagonalization with overlap
     ethr =  2.79E-06,  avg # of iterations =  7.3

     negative rho (up, down):  1.902E+00 0.000E+00

     total cpu time spent up to now is      998.3 secs

     total energy              =   -1674.09163555 Ry
     estimated scf accuracy    <       0.00714325 Ry

     iteration # 13     ecut=    80.00 Ry     beta= 0.30
     Davidson diagonalization with overlap
     ethr =  2.79E-06,  avg # of iterations =  6.3

     negative rho (up, down):  1.902E+00 0.000E+00

     total cpu time spent up to now is     1077.7 secs

     total energy              =   -1674.09165592 Ry
     estimated scf accuracy    <       0.00139510 Ry

     iteration # 14     ecut=    80.00 Ry     beta= 0.30
     Davidson diagonalization with overlap
     ethr =  7.97E-07,  avg # of iterations =  3.7

     negative rho (up, down):  1.906E+00 0.000E+00

     total cpu time spent up to now is     1155.9 secs

     total energy              =   -1674.09164700 Ry
     estimated scf accuracy    <       0.00076379 Ry

     iteration # 15     ecut=    80.00 Ry     beta= 0.30
     Davidson diagonalization with overlap
     ethr =  4.36E-07,  avg # of iterations =  6.2

     negative rho (up, down):  1.913E+00 0.000E+00

     total cpu time spent up to now is     1238.5 secs

     total energy              =   -1674.09164866 Ry
     estimated scf accuracy    <       0.00050141 Ry

     iteration # 16     ecut=    80.00 Ry     beta= 0.30
     Davidson diagonalization with overlap
     ethr =  2.87E-07,  avg # of iterations =  6.5

     negative rho (up, down):  1.914E+00 0.000E+00

     total cpu time spent up to now is     1319.9 secs

     total energy              =   -1674.09166862 Ry
     estimated scf accuracy    <       0.00027416 Ry

     iteration # 17     ecut=    80.00 Ry     beta= 0.30
     Davidson diagonalization with overlap
     ethr =  1.57E-07,  avg # of iterations =  3.8

     negative rho (up, down):  1.915E+00 0.000E+00

     total cpu time spent up to now is     1400.0 secs

     total energy              =   -1674.09170693 Ry
     estimated scf accuracy    <       0.00020612 Ry

     iteration # 18     ecut=    80.00 Ry     beta= 0.30
     Davidson diagonalization with overlap
     ethr =  1.18E-07,  avg # of iterations =  5.4

     negative rho (up, down):  1.913E+00 0.000E+00

     total cpu time spent up to now is     1478.2 secs

     total energy              =   -1674.09175104 Ry
     estimated scf accuracy    <       0.00010747 Ry

     iteration # 19     ecut=    80.00 Ry     beta= 0.30
     Davidson diagonalization with overlap
     ethr =  6.14E-08,  avg # of iterations =  3.4

     negative rho (up, down):  1.911E+00 0.000E+00

     total cpu time spent up to now is     1556.7 secs

     total energy              =   -1674.09176875 Ry
     estimated scf accuracy    <       0.00003615 Ry

     iteration # 20     ecut=    80.00 Ry     beta= 0.30
     Davidson diagonalization with overlap
     ethr =  2.07E-08,  avg # of iterations =  4.9

     negative rho (up, down):  1.910E+00 0.000E+00

     total cpu time spent up to now is     1633.7 secs

     total energy              =   -1674.09176868 Ry
     estimated scf accuracy    <       0.00002175 Ry

     iteration # 21     ecut=    80.00 Ry     beta= 0.30
     Davidson diagonalization with overlap
     ethr =  1.24E-08,  avg # of iterations =  6.1

     negative rho (up, down):  1.909E+00 0.000E+00

     total cpu time spent up to now is     1714.5 secs

     total energy              =   -1674.09176347 Ry
     estimated scf accuracy    <       0.00000558 Ry

     iteration # 22     ecut=    80.00 Ry     beta= 0.30
     Davidson diagonalization with overlap
     ethr =  3.19E-09,  avg # of iterations =  7.5

     negative rho (up, down):  1.909E+00 0.000E+00

     total cpu time spent up to now is     1797.4 secs

     total energy              =   -1674.09176351 Ry
     estimated scf accuracy    <       0.00000154 Ry

     iteration # 23     ecut=    80.00 Ry     beta= 0.30
     Davidson diagonalization with overlap
     ethr =  8.78E-10,  avg # of iterations =  1.9

     negative rho (up, down):  1.909E+00 0.000E+00

     total cpu time spent up to now is     1868.2 secs

     End of self-consistent calculation

          k = 0.0000 0.0000 0.0000 ( 41611 PWs)   bands (ev):

   -48.2258 -48.1498 -48.0418 -48.0066 -48.0001 -47.9744 -47.9416 -47.9199
   -47.8864 -47.8632 -47.8194 -47.7468 -47.6702 -47.6514 -47.6507 -47.5690
   -47.5365 -47.3520 -21.1418 -18.6703 -18.3348 -18.2011 -17.8982 -17.3476
   -17.1451 -16.9854 -16.7071 -16.6484 -16.6045 -15.4938 -15.2417 -14.5889
    -7.4027  -7.3765  -7.3171  -6.9109  -6.0981  -6.0680  -5.7166  -5.6703
    -5.5445  -5.4557  -5.2343  -5.0127  -4.9805  -4.7870  -4.5487  -4.2145
    -3.5826  -3.5400  -2.8478  -2.8451  -2.6441  -2.6390  -2.3368  -2.2676
    -2.1791  -2.0214  -1.9724  -1.9048  -1.8982  -1.6831  -1.4995  -1.4659
    -1.3378  -1.1467  -0.9469  -0.7631  -0.6265  -0.3138  -0.2166  -0.1921
    -0.1506  -0.0467  -0.0287   0.0120   0.0711   0.1232   0.1485   0.2230
     0.7276   0.7509   0.8847   1.1952   1.4884   1.5849   1.9682   2.4893
     2.6150   2.7193   3.1560   3.4958   3.9010   4.5492   5.0656   5.4634
     5.8191   6.0402   6.4123   6.5551   6.5663   6.6225   6.6251   6.9256
     7.1300   7.3528

          k = 0.0000 0.1240 0.0000 ( 41688 PWs)   bands (ev):

   -48.2258 -48.1485 -48.0414 -48.0056 -48.0001 -47.9744 -47.9430 -47.9196
   -47.8867 -47.8633 -47.8195 -47.7479 -47.6702 -47.6514 -47.6507 -47.5691
   -47.5365 -47.3525 -21.1415 -18.5429 -18.1856 -18.0712 -17.9317 -17.3882
   -17.2495 -16.9857 -16.8407 -16.8031 -16.7636 -15.4900 -15.2383 -14.5879
    -6.9686  -6.8692  -6.8286  -6.7680  -6.0944  -6.0702  -5.6339  -5.5945
    -5.5434  -5.3658  -5.1178  -5.0113  -4.8961  -4.7859  -4.3676  -4.2156
    -3.7297  -3.5312  -3.4454  -3.3385  -3.1990  -3.0634  -2.9086  -2.7094
    -2.5274  -2.4715  -2.4512  -2.2552  -1.9721  -1.6379  -1.6084  -1.4711
    -1.3052  -1.1630  -1.1135  -0.9044  -0.5057  -0.3800  -0.2156  -0.1522
     0.1214   0.1836   0.3366   0.4711   0.5528   0.6121   0.6161   0.7032
     0.7729   0.8356   0.9096   1.2293   1.4896   1.5974   2.0149   2.3860
     2.5361   2.7252   2.9197   3.2953   4.3959   5.0301   5.4881   5.6553
     5.8625   6.1147   6.1408   6.2644   6.2711   6.6280   6.7937   6.9279
     7.1481   7.4155

          k = 0.0000-0.2479 0.0000 ( 41774 PWs)   bands (ev):

   -48.2258 -48.1472 -48.0410 -48.0045 -48.0000 -47.9744 -47.9444 -47.9194
   -47.8869 -47.8633 -47.8195 -47.7490 -47.6701 -47.6514 -47.6506 -47.5692
   -47.5365 -47.3530 -21.1412 -18.3234 -18.1307 -17.9304 -17.7310 -17.5483
   -17.4959 -17.0375 -16.9675 -16.9456 -16.8620 -15.4871 -15.2355 -14.5873
    -6.9283  -6.1737  -6.0922  -6.0276  -5.9200  -5.8459  -5.5455  -5.5338
    -5.5173  -5.2632  -5.0742  -5.0085  -4.7837  -4.5126  -4.4486  -4.3770
    -4.3561  -4.3143  -4.2152  -3.8307  -3.8253  -3.4208  -2.9970  -2.9492
    -2.8943  -2.8528  -2.7312  -2.4282  -2.2253  -1.6507  -1.6301  -1.2521
    -1.1847  -1.1713  -0.9474  -0.8583  -0.6527  -0.2928  -0.2642  -0.1976
     0.1278   0.2481   0.6292   0.7125   0.7278   0.8532   0.9114   0.9941
     1.0860   1.1511   1.2865   1.4539   1.5292   1.7245   1.7535   2.2504
     2.3774   2.7269   2.7437   3.1365   4.9262   5.0749   5.7465   5.7909
     5.9330   5.9599   6.0002   6.2543   6.4207   6.6289   6.7975   6.9293
     7.2675   7.4623

          k = 0.1250 0.0000 0.0000 ( 41611 PWs)   bands (ev):

   -48.2256 -48.1484 -48.0407 -48.0154 -48.0053 -47.9734 -47.9396 -47.9358
   -47.9031 -47.8608 -47.8357 -47.7446 -47.6859 -47.6497 -47.6491 -47.5854
   -47.5342 -47.3497 -21.1097 -18.5300 -18.2120 -18.0821 -17.7955 -17.2797
   -17.0582 -17.0512 -16.7869 -16.7276 -16.6885 -15.5443 -15.2834 -14.5940
    -7.2226  -7.1937  -7.1385  -6.7606  -6.1049  -6.0519  -5.7005  -5.6113
    -5.5667  -5.4235  -5.0918  -5.0239  -4.5608  -4.4935  -4.4091  -4.3633
    -3.6151  -3.4545  -3.3072  -2.8274  -2.7447  -2.7443  -2.6687  -2.5869
    -2.5418  -2.5122  -2.2543  -2.0686  -1.8324  -1.7916  -1.6649  -1.6488
    -1.4371  -1.3925  -1.2946  -1.2066  -0.8856  -0.6849  -0.1996  -0.1634
     0.0758   0.1260   0.1618   0.3132   0.4025   0.4210   0.5792   0.8216
     0.9434   0.9643   1.0045   1.3127   1.8061   1.8966   2.0123   2.3653
     2.5611   2.7698   3.0079   3.3356   4.1086   4.7593   5.2229   5.3280
     5.7374   5.9532   6.0409   6.1618   6.1994   6.2631   6.4681   6.8113
     7.2890   7.5650

          k = 0.1250 0.1240 0.0000 ( 41692 PWs)   bands (ev):

   -48.2257 -48.1474 -48.0404 -48.0152 -48.0046 -47.9734 -47.9409 -47.9357
   -47.9031 -47.8608 -47.8356 -47.7456 -47.6859 -47.6497 -47.6491 -47.5854
   -47.5342 -47.3501 -21.1095 -18.4084 -18.0688 -17.9521 -17.8292 -17.3153
   -17.1818 -17.0431 -16.9069 -16.8749 -16.8178 -15.5414 -15.2806 -14.5931
    -6.8187  -6.7125  -6.6744  -6.6238  -6.1024  -6.0534  -5.6045  -5.5723
    -5.5153  -5.3262  -5.1809  -4.7547  -4.5645  -4.4933  -4.4137  -4.2447
    -3.6473  -3.5200  -3.4535  -3.4233  -3.2707  -3.1449  -3.1093  -3.0088
    -2.9564  -2.8873  -2.5959  -2.4642  -2.2146  -1.9842  -1.7804  -1.4774
    -1.3583  -1.2731  -1.2198  -0.9546  -0.7681  -0.4107  -0.3116  -0.1919
     0.2580   0.3168   0.5272   0.5670   0.6686   0.7936   0.8470   0.8955
     0.9967   1.0359   1.1863   1.3900   1.8102   1.9430   2.0041   2.3069
     2.4171   2.7086   2.8895   3.1847   4.5001   5.1028   5.3553   5.4810
     5.6715   5.7243   5.9303   5.9803   6.1273   6.3421   6.4671   6.9433
     7.3265   7.4704

          k = 0.1250-0.2479 0.0000 ( 41706 PWs)   bands (ev):

   -48.2257 -48.1464 -48.0401 -48.0150 -48.0039 -47.9734 -47.9421 -47.9355
   -47.9031 -47.8608 -47.8356 -47.7465 -47.6858 -47.6497 -47.6491 -47.5855
   -47.5342 -47.3504 -21.1092 -18.2005 -18.0031 -17.8116 -17.6192 -17.4825
   -17.4512 -17.1090 -17.0141 -17.0073 -16.8794 -15.5389 -15.2783 -14.5924
    -6.7781  -6.1629  -6.0547  -5.8040  -5.7390  -5.6428  -5.6346  -5.6145
    -5.5572  -5.4716  -5.1968  -4.5707  -4.5012  -4.4465  -4.2895  -4.2206
    -4.0976  -4.0518  -4.0041  -3.9374  -3.8997  -3.6805  -3.5681  -3.4522
    -3.3129  -2.8993  -2.8300  -2.6788  -2.3508  -2.0430  -1.7795  -1.3619
    -1.2348  -1.0284  -0.9976  -0.8284  -0.6659  -0.4962  -0.2634  -0.2063
     0.2764   0.5478   0.5565   0.6399   0.7279   0.8125   0.9357   1.0868
     1.3769   1.4274   1.6149   1.6167   1.8200   1.8230   2.0566   2.1976
     2.3108   2.6258   2.6576   3.1512   4.8671   5.1532   5.2580   5.3136
     5.3814   5.5491   6.0679   6.1344   6.3657   6.4820   6.5236   6.8595
     7.4479   7.6092

          k = 0.2500 0.0000 0.0000 ( 41623 PWs)   bands (ev):

   -48.2260 -48.1450 -48.0515 -48.0380 -48.0020 -47.9741 -47.9710 -47.9431
   -47.9348 -47.8746 -47.8550 -47.7395 -47.7236 -47.6473 -47.6434 -47.6249
   -47.5287 -47.3440 -21.0307 -18.1642 -17.9052 -17.7853 -17.5586 -17.2056
   -17.1499 -16.9748 -16.9132 -16.8832 -16.8777 -15.6182 -15.3338 -14.6097
    -6.7768  -6.7050  -6.6609  -6.4971  -6.0144  -5.8601  -5.6056  -5.5913
    -5.4351  -5.2136  -5.0482  -4.7463  -4.6654  -4.5192  -4.1801  -3.9698
    -3.9027  -3.8544  -3.7538  -3.7122  -3.2827  -3.1434  -3.0435  -2.6569
    -2.5808  -2.4886  -2.4230  -2.3793  -2.2900  -2.1971  -2.1567  -2.0316
    -1.8017  -1.5186  -1.2266  -1.0981  -0.5245  -0.5121  -0.4746  -0.3770
     0.1026   0.3352   0.4960   0.5257   0.5757   0.8051   1.0587   1.1222
     1.3222   1.4482   1.6158   1.8182   1.8827   1.9493   2.1594   2.2032
     2.3776   2.6679   2.9028   2.9152   4.4023   4.8398   5.0672   5.2898
     5.3306   5.4301   5.5176   5.6429   5.7100   5.8961   6.4482   6.8794
     7.6750   7.7970

          k = 0.2500 0.1240 0.0000 ( 41653 PWs)   bands (ev):

   -48.2261 -48.1450 -48.0508 -48.0379 -48.0027 -47.9741 -47.9710 -47.9420
   -47.9358 -47.8743 -47.8550 -47.7399 -47.7236 -47.6473 -47.6434 -47.6247
   -47.5287 -47.3442 -21.0306 -18.0657 -17.7925 -17.6704 -17.5917 -17.2545
   -17.1716 -17.0672 -17.0364 -17.0230 -16.8486 -15.6171 -15.3330 -14.6090
    -6.5849  -6.3343  -6.3139  -6.2815  -6.0130  -5.8594  -5.5912  -5.4471
    -5.2702  -5.1242  -5.0775  -4.8040  -4.7370  -4.3628  -4.3124  -4.2787
    -4.2249  -4.0995  -3.9548  -3.6244  -3.3382  -3.1421  -3.0100  -2.9528
    -2.8220  -2.7189  -2.6982  -2.6550  -2.4582  -2.2638  -2.0756  -1.8492
    -1.6093  -1.5612  -1.2544  -1.0611  -0.7357  -0.4690  -0.3847  -0.3075
    -0.0541   0.3893   0.6162   0.8078   0.9034   0.9855   1.0598   1.1828
     1.2098   1.5565   1.6620   1.8196   1.8938   1.9867   2.2061   2.2247
     2.3197   2.5214   2.7131   3.0808   4.5105   4.7103   4.7736   4.9062
     4.9303   5.3594   5.6779   5.7527   6.1121   6.2590   6.5700   6.9692
     7.7787   7.8668

          k = 0.2500-0.2479 0.0000 ( 41680 PWs)   bands (ev):

   -48.2262 -48.1449 -48.0500 -48.0379 -48.0034 -47.9741 -47.9710 -47.9408
   -47.9368 -47.8740 -47.8550 -47.7404 -47.7237 -47.6473 -47.6434 -47.6246
   -47.5287 -47.3444 -21.0304 -17.9000 -17.7009 -17.5401 -17.4561 -17.3809
   -17.3589 -17.2540 -17.1232 -17.0634 -16.8463 -15.6162 -15.3323 -14.6083
    -6.5568  -6.0429  -5.8654  -5.7058  -5.6731  -5.6258  -5.5963  -5.1785
    -5.1647  -5.1197  -5.0192  -5.0166  -4.9350  -4.8411  -4.7883  -4.5751
    -4.1991  -3.9803  -3.7851  -3.7108  -3.4850  -3.4622  -3.3496  -3.3047
    -3.1031  -2.9821  -2.9126  -2.7330  -2.7151  -2.3742  -1.9767  -1.4951
    -1.4243  -1.1631  -1.1449  -0.9637  -0.9483  -0.7224  -0.3499  -0.2676
     0.1884   0.3601   0.5636   0.6500   0.8337   1.0196   1.2310   1.3742
     1.4086   1.6631   1.8014   1.9062   1.9093   2.0302   2.2296   2.3328
     2.3506   2.4504   2.5006   3.1643   4.2715   4.3269   4.4535   4.5979
     4.9607   5.4689   5.6832   5.9855   6.2664   6.6630   6.7737   6.9223
     7.9838   8.0126

          k = 0.3750 0.0000 0.0000 ( 41645 PWs)   bands (ev):

   -48.2280 -48.1416 -48.0858 -48.0352 -48.0121 -47.9988 -47.9833 -47.9685
   -47.9300 -47.9130 -47.8491 -47.7610 -47.7343 -47.6641 -47.6449 -47.6378
   -47.5232 -47.3383 -20.9493 -17.7297 -17.5914 -17.4732 -17.4246 -17.2414
   -17.1562 -17.1215 -17.0926 -17.0670 -16.7730 -15.5924 -15.2987 -14.6304
    -6.6212  -6.1720  -6.1231  -6.0805  -5.7957  -5.6340  -5.5403  -5.4370
    -5.3938  -5.3317  -5.1621  -4.8861  -4.8726  -4.7847  -4.6590  -4.4879
    -4.1227  -3.8790  -3.8074  -3.6662  -3.3785  -3.1931  -3.0393  -2.9734
    -2.8382  -2.6604  -2.4686  -2.3260  -2.3222  -2.1519  -1.9699  -1.8184
    -1.7858  -1.6566  -1.0715  -0.9210  -0.5467  -0.5209  -0.2958  -0.2745
    -0.0597   0.5069   0.5511   0.5573   0.6578   0.8911   0.9255   1.3075
     1.4247   1.4677   1.6367   1.6384   1.7722   1.8739   2.1288   2.2340
     2.4516   2.7092   2.7483   2.8970   4.2555   4.3765   4.7842   4.8817
     5.0106   5.2253   5.2527   5.4866   5.8070   5.9060   6.4561   7.0149
     8.2966   8.5992

          k = 0.3750 0.1240 0.0000 ( 41549 PWs)   bands (ev):

   -48.2282 -48.1430 -48.0839 -48.0355 -48.0122 -48.0045 -47.9775 -47.9684
   -47.9319 -47.9112 -47.8491 -47.7611 -47.7343 -47.6637 -47.6449 -47.6378
   -47.5232 -47.3383 -20.9492 -17.6984 -17.5727 -17.5052 -17.4535 -17.2787
   -17.2177 -17.0765 -17.0706 -17.0388 -16.7759 -15.5922 -15.2988 -14.6301
    -6.6132  -6.0451  -6.0107  -5.9628  -5.7953  -5.6690  -5.5871  -5.4998
    -5.4746  -5.3491  -5.3250  -5.1838  -4.7649  -4.5384  -4.4838  -4.2777
    -4.2053  -3.9539  -3.8682  -3.4650  -3.2758  -3.1401  -3.0766  -2.8543
    -2.8234  -2.5787  -2.4711  -2.4021  -2.2588  -2.2219  -2.1228  -1.9251
    -1.5368  -1.4433  -1.3578  -0.9140  -0.8203  -0.5354  -0.3944  -0.2522
    -0.1857   0.3673   0.5536   0.6119   0.7098   0.7659   0.7924   1.0012
     1.0554   1.3194   1.4419   1.5591   1.8678   2.3487   2.3926   2.4267
     2.5637   2.5997   2.7845   2.9316   4.0665   4.1313   4.3100   4.3307
     4.4131   5.2509   5.5878   6.0591   6.3959   6.5250   6.6408   7.0758
     8.4161   8.7034

          k = 0.3750-0.2479 0.0000 ( 41514 PWs)   bands (ev):

   -48.2283 -48.1444 -48.0821 -48.0358 -48.0123 -48.0084 -47.9736 -47.9682
   -47.9336 -47.9097 -47.8491 -47.7612 -47.7344 -47.6634 -47.6449 -47.6378
   -47.5232 -47.3383 -20.9492 -17.6450 -17.5642 -17.5387 -17.4918 -17.3031
   -17.2590 -17.0548 -17.0483 -17.0216 -16.7788 -15.5920 -15.2989 -14.6299
    -6.6098  -5.9170  -5.8400  -5.8214  -5.7183  -5.6528  -5.6232  -5.5940
    -5.5235  -5.5060  -5.4467  -5.3791  -4.8152  -4.5354  -4.2304  -4.0620
    -3.9761  -3.9066  -3.8985  -3.3767  -3.2319  -3.2059  -3.0905  -2.9579
    -2.7103  -2.6757  -2.4859  -2.4764  -2.3746  -2.2958  -1.9421  -1.8343
    -1.4928  -1.4337  -1.1698  -0.9848  -0.7548  -0.6536  -0.6409  -0.4330
    -0.0725   0.0486   0.1257   0.3897   0.6359   0.8592   0.8805   0.9076
     1.1764   1.3170   1.3883   1.4561   1.8317   2.3559   2.4202   2.5585
     2.7265   2.7483   2.8001   3.0678   3.6330   3.6828   3.8636   4.3712
     4.4048   5.2524   5.6633   6.4371   6.5630   6.9586   7.0700   7.0895
     8.5885   8.8134

          k =-0.5000 0.0000 0.0000 ( 41440 PWs)   bands (ev):

   -48.2295 -48.1402 -48.0992 -48.0341 -48.0277 -47.9995 -47.9974 -47.9682
   -47.9284 -47.9280 -47.8467 -47.7764 -47.7321 -47.6802 -47.6439 -47.6354
   -47.5209 -47.3360 -20.9148 -17.5547 -17.4326 -17.3780 -17.3374 -17.2635
   -17.2295 -17.1655 -17.1401 -17.1197 -16.7601 -15.5459 -15.2567 -14.6405
    -6.6667  -6.0716  -5.8505  -5.7768  -5.7497  -5.6069  -5.5941  -5.4979
    -5.3944  -5.3384  -5.2651  -4.9925  -4.9625  -4.8384  -4.6539  -4.5333
    -4.4804  -3.9917  -3.4963  -3.3896  -3.3705  -3.1305  -3.0944  -3.0785
    -2.9990  -2.9825  -2.5735  -2.3155  -2.1903  -2.0589  -1.8344  -1.7186
    -1.6064  -1.0520  -0.9492  -0.9305  -0.8770  -0.4660  -0.3114  -0.2427
     0.1110   0.5016   0.5213   0.5338   0.5565   0.7604   0.8402   0.9410
     1.2158   1.2748   1.4537   1.6328   1.8143   1.8957   1.9849   2.4124
     2.5441   2.5548   2.9169   3.1109   4.0951   4.2667   4.5944   4.6925
     4.8390   5.1586   5.2664   5.6088   5.7817   5.8304   6.5114   7.1410
     8.8237   9.2369

          k =-0.5000 0.1240 0.0000 ( 41518 PWs)   bands (ev):

   -48.2298 -48.1426 -48.0964 -48.0345 -48.0279 -48.0106 -47.9863 -47.9682
   -47.9344 -47.9220 -47.8467 -47.7765 -47.7320 -47.6798 -47.6439 -47.6354
   -47.5209 -47.3359 -20.9148 -17.5525 -17.5375 -17.5105 -17.5004 -17.2492
   -17.1346 -17.0686 -17.0315 -17.0148 -16.7625 -15.5447 -15.2560 -14.6406
    -6.6678  -6.0483  -5.9911  -5.9339  -5.8053  -5.7583  -5.7163  -5.6490
    -5.6089  -5.4779  -5.3049  -5.1085  -4.6832  -4.5799  -4.2931  -4.1296
    -4.0169  -3.6430  -3.4735  -3.4437  -3.4203  -3.3194  -3.1580  -3.1308
    -3.0336  -2.3617  -2.2676  -2.2103  -2.1941  -2.1090  -1.9901  -1.8715
    -1.4093  -1.2974  -0.9414  -0.8530  -0.8385  -0.7117  -0.5308  -0.2809
    -0.0145   0.3349   0.4963   0.5188   0.5290   0.5810   0.6235   0.7610
     0.8791   0.9050   0.9700   1.1814   1.8320   2.4849   2.5441   2.5889
     2.6467   2.7643   2.8429   3.0380   3.8548   3.8981   4.1048   4.1525
     4.2957   5.1610   5.7174   6.2100   6.5257   6.5847   6.6663   7.1873
     8.8976   9.3934

          k =-0.5000-0.2479 0.0000 ( 41524 PWs)   bands (ev):

   -48.2301 -48.1448 -48.0939 -48.0349 -48.0280 -48.0156 -47.9813 -47.9682
   -47.9369 -47.9194 -47.8467 -47.7766 -47.7319 -47.6793 -47.6439 -47.6354
   -47.5209 -47.3358 -20.9147 -17.6047 -17.5953 -17.5838 -17.5501 -17.2294
   -17.1546 -16.9840 -16.9475 -16.9286 -16.7649 -15.5436 -15.2554 -14.6407
    -6.6696  -6.2465  -6.1654  -6.0389  -5.8703  -5.7836  -5.6844  -5.5951
    -5.5802  -5.5116  -5.3421  -5.1134  -4.7957  -4.7046  -4.1974  -3.5514
    -3.4642  -3.4607  -3.4468  -3.3830  -3.2200  -3.1590  -3.0899  -2.9487
    -2.8061  -2.7462  -2.4579  -2.2681  -2.1056  -2.0609  -1.8144  -1.7496
    -1.3007  -1.2419  -1.2019  -0.8713  -0.8207  -0.7881  -0.6630  -0.4329
    -0.3116  -0.1541   0.1294   0.2027   0.5277   0.5444   0.5568   0.6008
     0.7612   0.9007   0.9475   1.0711   1.8222   2.5077   2.5555   2.6526
     2.8962   2.9778   2.9779   3.0542   3.4444   3.4905   3.6961   4.1948
     4.3199   5.1631   5.7691   6.6495   6.7124   7.0527   7.2013   7.2211
     8.9832   9.5530

     the Fermi energy is     2.3813 ev

!    total energy              =   -1674.09176109 Ry
     estimated scf accuracy    <       0.00000067 Ry
     smearing contrib. (-TS)   =      -0.00221039 Ry
     internal energy E=F+TS    =   -1674.08955070 Ry

     The total energy is F=E-TS. E is the sum of the following terms:
     one-electron contribution =  -15403.13123780 Ry
     hartree contribution      =    7753.60491646 Ry
     xc contribution           =    -405.84700784 Ry
     ewald contribution        =    6514.55670889 Ry
     one-center paw contrib.   =    -133.27293042 Ry

     convergence has been achieved in  23 iterations

     negative rho (up, down):  1.909E+00 0.000E+00

     Forces acting on atoms (cartesian axes, Ry/au):

     atom    1 type  2   force =    -0.00006862    0.00000000    0.03848925
     atom    2 type  2   force =     0.00019761    0.00000000   -0.03910296
     atom    3 type  2   force =     0.00051275    0.00000000   -0.00037487
     atom    4 type  2   force =     0.00075219    0.00000000   -0.00019984
     atom    5 type  2   force =    -0.00008837    0.00000000   -0.00026651
     atom    6 type  2   force =    -0.00018294    0.00000000    0.00085662
     atom    7 type  3   force =    -0.00107172    0.00000000   -0.00203748
     atom    8 type  3   force =     0.00008446    0.00000000    0.03281898
     atom    9 type  3   force =     0.00014798    0.02164490   -0.02535698
     atom   10 type  3   force =     0.00014798   -0.02164490   -0.02535698
     atom   11 type  3   force =     0.00090304    0.00000000   -0.00029820
     atom   12 type  3   force =    -0.00190445    0.00000000    0.01966681
     atom   13 type  3   force =     0.00064342    0.00081440    0.00056924
     atom   14 type  3   force =     0.00064342   -0.00081440    0.00056924
     atom   15 type  3   force =    -0.00118253    0.00000000    0.00093232
     atom   16 type  3   force =     0.00057865    0.00000000   -0.00022437
     atom   17 type  3   force =    -0.00011053    0.00056303   -0.00044118
     atom   18 type  3   force =    -0.00011053   -0.00056303   -0.00044118
     atom   19 type  3   force =     0.00094750    0.00000000    0.00003512
     atom   20 type  3   force =    -0.00075500    0.00000000    0.00039749
     atom   21 type  1   force =    -0.00008430    0.00000000   -0.00023454

     Total force =     0.003309     Total SCF correction =     0.003251
     SCF correction compared to forces is large: reduce conv_thr to get better values

     Writing all to output data dir ./tmp_s0_OOH__base/s0_OOH__base.save/ :
     XML data file, charge density, pseudopotentials, collected wavefunctions

     init_run     :     34.78s CPU     38.45s WALL (       1 calls)
     electrons    :   1672.69s CPU   1829.37s WALL (       1 calls)
     forces       :     13.68s CPU     15.85s WALL (       1 calls)

     Called by init_run:
     wfcinit      :     24.48s CPU     26.37s WALL (       1 calls)
     potinit      :      3.07s CPU      3.57s WALL (       1 calls)
     hinit0       :      4.20s CPU      4.51s WALL (       1 calls)

     Called by electrons:
     c_bands      :   1170.51s CPU   1252.25s WALL (      23 calls)
     sum_band     :    281.25s CPU    317.31s WALL (      23 calls)
     v_of_rho     :     36.86s CPU     42.32s WALL (      24 calls)
     newd         :     57.73s CPU     84.14s WALL (      24 calls)
     PAW_pot      :     11.15s CPU     11.58s WALL (      24 calls)
     mix_rho      :    115.15s CPU    122.25s WALL (      23 calls)

     Called by c_bands:
     init_us_2    :     21.23s CPU     22.28s WALL (     192 calls)
     cegterg      :   1089.62s CPU   1168.08s WALL (      92 calls)

     Called by *egterg:
     cdiaghg      :      9.47s CPU      9.88s WALL (     693 calls)
     h_psi        :    801.75s CPU    846.33s WALL (     697 calls)
     s_psi        :     60.44s CPU     62.98s WALL (     697 calls)
     g_psi        :      7.39s CPU      7.69s WALL (     601 calls)

     Called by h_psi:
     h_psi:calbec :     67.59s CPU     70.59s WALL (     697 calls)
     vloc_psi     :    663.43s CPU    693.18s WALL (     697 calls)
                                        0.00s GPU  (     697 calls)
     add_vuspsi   :     64.83s CPU     67.52s WALL (     697 calls)

     General routines
     calbec       :     96.74s CPU    100.90s WALL (     805 calls)
     fft          :     16.94s CPU     17.62s WALL (     321 calls)
     ffts         :     40.96s CPU     42.60s WALL (    2753 calls)
     fftw         :    625.23s CPU    652.99s WALL (   52310 calls)
     interpolate  :      2.76s CPU      2.87s WALL (      24 calls)

     Parallel routines

     PWSCF        :  28m42.05s CPU  31m24.89s WALL


   This run was terminated on:   6:46:22   7Aug2026            

=------------------------------------------------------------------------------=
   JOB DONE.
=------------------------------------------------------------------------------=
