
     Program PWSCF v.7.5 starts on  7Aug2026 at  4:18:43 

     This program is part of the open-source Quantum ESPRESSO suite
     for quantum simulation of materials; please cite
         "P. Giannozzi et al., J. Phys.:Condens. Matter 21 395502 (2009);
         "P. Giannozzi et al., J. Phys.:Condens. Matter 29 465901 (2017);
         "P. Giannozzi et al., J. Chem. Phys. 152 154105 (2020);
          URL http://www.quantum-espresso.org", 
     in publications or presentations arising from this work. More details at
     http://www.quantum-espresso.org/quote

     Parallel version (MPI & OpenMP), running on       4 processor cores
     Number of MPI processes:                 4
     Threads/MPI process:                     1

     MPI processes distributed on     1 nodes
     14936 MiB available memory on the printing compute node when the environment starts

     Reading input from slab__base.run.in

     Current dimensions of program PWSCF are:
     Max number of different atomic species (ntypx) = 10
     Max number of k-points (npk) =  40000
     Max angular momentum in pseudopotentials (lmaxx) =  4
     file O.pbe-n-kjpaw_psl.0.1.UPF: wavefunction(s)  2P renormalized

     K-points division:     npool     =       4
     Subspace diagonalization in iterative solution of the eigenvalue problem:
     a serial algorithm will be used


     G-vector sticks info
     --------------------
     sticks:   dense  smooth     PW     G-vecs:    dense   smooth      PW
     Sum        3639    1825    519               941385   332621   50331

     Using Slab Decomposition



     bravais-lattice index     =            0
     lattice parameter (alat)  =       5.9602  a.u.
     unit-cell volume          =    3444.9838 (a.u.)^3
     number of atoms/cell      =           18
     number of atomic types    =            2
     number of electrons       =       162.00
     number of Kohn-Sham states=           97
     kinetic-energy cutoff     =      80.0000  Ry
     charge density cutoff     =     640.0000  Ry
     scf convergence threshold =      1.0E-06
     mixing beta               =       0.3000
     number of iterations used =            8  local-TF  mixing
     Exchange-correlation= SLA  PW   PBX  PBC
                           (   1   4   3   4   0   0   0)

     celldm(1)=   5.960196  celldm(2)=   0.000000  celldm(3)=   0.000000
     celldm(4)=   0.000000  celldm(5)=   0.000000  celldm(6)=   0.000000

     crystal axes: (cart. coord. in units of alat)
               a(1) = (   1.000000   0.000000   0.000000 )  
               a(2) = (   0.000000   2.016846   0.000000 )  
               a(3) = (   0.000000   0.000000   8.067384 )  

     reciprocal axes: (cart. coord. in units 2 pi/alat)
               b(1) = (  1.000000  0.000000  0.000000 )  
               b(2) = (  0.000000  0.495824  0.000000 )  
               b(3) = (  0.000000  0.000000  0.123956 )  


     PseudoPot. # 1 for Ir read from file:
     /usr/share/espresso/pseudo/Ir_pbe_v1.2.uspp.F.UPF
     MD5 check sum: 8836f839c3459d2b385c504ce6d91f2c
     Pseudo is Ultrasoft + core correction, Zval = 15.0
     Generated by new atomic code, or converted to UPF format
     Using radial grid of  983 points,  7 beta functions with: 
                l(1) =   0
                l(2) =   0
                l(3) =   1
                l(4) =   1
                l(5) =   1
                l(6) =   2
                l(7) =   2
     Q(r) pseudized with  8 coefficients,  rinner =    1.400   1.400   1.400
                                                       1.400   1.400

     PseudoPot. # 2 for O  read from file:
     /usr/share/espresso/pseudo/O.pbe-n-kjpaw_psl.0.1.UPF
     MD5 check sum: 0234752ac141de4415c5fc33072bef88
     Pseudo is Projector augmented-wave + core cor, Zval =  6.0
     Generated using "atomic" code by A. Dal Corso  v.5.0.99 svn rev. 10869
     Shape of augmentation charge: BESSEL
     Using radial grid of 1095 points,  4 beta functions with: 
                l(1) =   0
                l(2) =   0
                l(3) =   1
                l(4) =   1
     Q(r) pseudized with 0 coefficients 


     atomic species   valence    mass     pseudopotential
     Ir               15.00   192.21700     Ir( 1.00)
     O                 6.00    15.99900     O ( 1.00)

     No symmetry found



   Cartesian axes

     site n.     atom                  positions (alat units)
         1        Ir     tau(   1) = (   0.0000000   1.5126346   3.0252692  )
         2        Ir     tau(   2) = (   0.5000000   0.5042115   3.0252692  )
         3        Ir     tau(   3) = (  -0.0000000   0.5042115   4.0490144  )
         4        Ir     tau(   4) = (   0.4999999   1.5126345   4.0369655  )
         5        Ir     tau(   5) = (  -0.0000001   1.5126347   5.0521139  )
         6        Ir     tau(   6) = (   0.5000000   0.5042117   5.0842459  )
         7        O      tau(   7) = (   0.0000000   0.5042115   3.4185541  )
         8        O      tau(   8) = (   0.0000000   0.5042115   2.6319842  )
         9        O      tau(   9) = (   0.5000000   1.1193496   3.0252692  )
        10        O      tau(  10) = (   0.5000000   1.9059196   3.0252692  )
        11        O      tau(  11) = (  -0.0000001   1.5126339   4.4343023  )
        12        O      tau(  12) = (   0.0000000   1.5126346   3.6404072  )
        13        O      tau(  13) = (   0.5000000   0.1171043   4.0441494  )
        14        O      tau(  14) = (   0.5000000   0.8913186   4.0441490  )
        15        O      tau(  15) = (  -0.0000000   0.5042117   5.4603797  )
        16        O      tau(  16) = (  -0.0000000   0.5042116   4.6811465  )
        17        O      tau(  17) = (   0.5000000   1.1288945   5.0949094  )
        18        O      tau(  18) = (   0.5000000   1.8963749   5.0949092  )

     number of k points=    32  Marzari-Vanderbilt smearing, width (Ry)=  0.0100
                       cart. coord. in units 2pi/alat
        k(    1) = (   0.0000000   0.0000000   0.0000000), wk =   0.0625000
        k(    2) = (   0.0000000   0.1239559   0.0000000), wk =   0.0625000
        k(    3) = (   0.0000000  -0.2479118   0.0000000), wk =   0.0625000
        k(    4) = (   0.0000000  -0.1239559   0.0000000), wk =   0.0625000
        k(    5) = (   0.1250000   0.0000000   0.0000000), wk =   0.0625000
        k(    6) = (   0.1250000   0.1239559   0.0000000), wk =   0.0625000
        k(    7) = (   0.1250000  -0.2479118   0.0000000), wk =   0.0625000
        k(    8) = (   0.1250000  -0.1239559   0.0000000), wk =   0.0625000
        k(    9) = (   0.2500000   0.0000000   0.0000000), wk =   0.0625000
        k(   10) = (   0.2500000   0.1239559   0.0000000), wk =   0.0625000
        k(   11) = (   0.2500000  -0.2479118   0.0000000), wk =   0.0625000
        k(   12) = (   0.2500000  -0.1239559   0.0000000), wk =   0.0625000
        k(   13) = (   0.3750000   0.0000000   0.0000000), wk =   0.0625000
        k(   14) = (   0.3750000   0.1239559   0.0000000), wk =   0.0625000
        k(   15) = (   0.3750000  -0.2479118   0.0000000), wk =   0.0625000
        k(   16) = (   0.3750000  -0.1239559   0.0000000), wk =   0.0625000
        k(   17) = (  -0.5000000   0.0000000   0.0000000), wk =   0.0625000
        k(   18) = (  -0.5000000   0.1239559   0.0000000), wk =   0.0625000
        k(   19) = (  -0.5000000  -0.2479118   0.0000000), wk =   0.0625000
        k(   20) = (  -0.5000000  -0.1239559   0.0000000), wk =   0.0625000
        k(   21) = (  -0.3750000   0.0000000   0.0000000), wk =   0.0625000
        k(   22) = (  -0.3750000   0.1239559   0.0000000), wk =   0.0625000
        k(   23) = (  -0.3750000  -0.2479118   0.0000000), wk =   0.0625000
        k(   24) = (  -0.3750000  -0.1239559   0.0000000), wk =   0.0625000
        k(   25) = (  -0.2500000   0.0000000   0.0000000), wk =   0.0625000
        k(   26) = (  -0.2500000   0.1239559   0.0000000), wk =   0.0625000
        k(   27) = (  -0.2500000  -0.2479118   0.0000000), wk =   0.0625000
        k(   28) = (  -0.2500000  -0.1239559   0.0000000), wk =   0.0625000
        k(   29) = (  -0.1250000   0.0000000   0.0000000), wk =   0.0625000
        k(   30) = (  -0.1250000   0.1239559   0.0000000), wk =   0.0625000
        k(   31) = (  -0.1250000  -0.2479118   0.0000000), wk =   0.0625000
        k(   32) = (  -0.1250000  -0.1239559   0.0000000), wk =   0.0625000

     Dense  grid:   941385 G-vectors     FFT dimensions: (  48, 100, 400)

     Smooth grid:   332621 G-vectors     FFT dimensions: (  36,  72, 288)

     Estimated max dynamical RAM per process >       2.21 GB

     Estimated total dynamical RAM >       8.16 GB

     Initial potential from superposition of free atoms

     starting charge     158.9998, renormalised to     162.0000

     negative rho (up, down):  2.226E+00 0.000E+00
     Starting wfcs are  120 randomized atomic wfcs
     Checking if some PAW data can be deallocated... 

     total cpu time spent up to now is       61.9 secs

     per-process dynamical memory:  1082.8 Mb

     Self-consistent Calculation

     iteration #  1     ecut=    80.00 Ry     beta= 0.30
     Davidson diagonalization with overlap
     ethr =  1.00E-02,  avg # of iterations =  3.1

     negative rho (up, down):  2.089E+00 0.000E+00

     total cpu time spent up to now is      204.0 secs

     total energy              =   -1590.60209572 Ry
     estimated scf accuracy    <      13.99356298 Ry

     iteration #  2     ecut=    80.00 Ry     beta= 0.30
     Davidson diagonalization with overlap
     ethr =  8.64E-03,  avg # of iterations =  1.0

     negative rho (up, down):  1.910E+00 0.000E+00

     total cpu time spent up to now is      329.2 secs

     total energy              =   -1589.02805405 Ry
     estimated scf accuracy    <       5.45782744 Ry

     iteration #  3     ecut=    80.00 Ry     beta= 0.30
     Davidson diagonalization with overlap
     ethr =  3.37E-03,  avg # of iterations =  2.2

     negative rho (up, down):  1.916E+00 0.000E+00

     total cpu time spent up to now is      484.1 secs

     total energy              =   -1589.79795033 Ry
     estimated scf accuracy    <       0.40905023 Ry

     iteration #  4     ecut=    80.00 Ry     beta= 0.30
     Davidson diagonalization with overlap
     ethr =  2.53E-04,  avg # of iterations =  8.3

     negative rho (up, down):  1.940E+00 0.000E+00

     total cpu time spent up to now is      641.3 secs

     total energy              =   -1589.74562985 Ry
     estimated scf accuracy    <       0.20665781 Ry

     iteration #  5     ecut=    80.00 Ry     beta= 0.30
     Davidson diagonalization with overlap
     ethr =  1.28E-04,  avg # of iterations =  2.0

     negative rho (up, down):  1.955E+00 0.000E+00

     total cpu time spent up to now is      785.6 secs

     total energy              =   -1589.74868364 Ry
     estimated scf accuracy    <       0.05988229 Ry

     iteration #  6     ecut=    80.00 Ry     beta= 0.30
     Davidson diagonalization with overlap
     ethr =  3.70E-05,  avg # of iterations =  8.4

     negative rho (up, down):  1.972E+00 0.000E+00

     total cpu time spent up to now is      947.4 secs

     total energy              =   -1589.75432510 Ry
     estimated scf accuracy    <       0.01546419 Ry

     iteration #  7     ecut=    80.00 Ry     beta= 0.30
     Davidson diagonalization with overlap
     ethr =  9.55E-06,  avg # of iterations =  4.8

     negative rho (up, down):  1.987E+00 0.000E+00

     total cpu time spent up to now is     1085.5 secs

     total energy              =   -1589.75333740 Ry
     estimated scf accuracy    <       0.01212963 Ry

     iteration #  8     ecut=    80.00 Ry     beta= 0.30
     Davidson diagonalization with overlap
     ethr =  7.49E-06,  avg # of iterations =  5.6

     negative rho (up, down):  2.000E+00 0.000E+00

     total cpu time spent up to now is     1222.4 secs

     total energy              =   -1589.75205477 Ry
     estimated scf accuracy    <       0.00892567 Ry

     iteration #  9     ecut=    80.00 Ry     beta= 0.30
     Davidson diagonalization with overlap
     c_bands:  2 eigenvalues not converged
     ethr =  5.51E-06,  avg # of iterations =  6.5

     negative rho (up, down):  1.989E+00 0.000E+00

     total cpu time spent up to now is     1364.9 secs

     total energy              =   -1589.75108401 Ry
     estimated scf accuracy    <       0.00550970 Ry

     iteration # 10     ecut=    80.00 Ry     beta= 0.30
     Davidson diagonalization with overlap
     ethr =  3.40E-06,  avg # of iterations =  7.0

     negative rho (up, down):  1.960E+00 0.000E+00

     total cpu time spent up to now is     1507.8 secs

     total energy              =   -1589.74996389 Ry
     estimated scf accuracy    <       0.00350124 Ry

     iteration # 11     ecut=    80.00 Ry     beta= 0.30
     Davidson diagonalization with overlap
     c_bands:  1 eigenvalues not converged
     ethr =  2.16E-06,  avg # of iterations = 11.4

     negative rho (up, down):  1.946E+00 0.000E+00

     total cpu time spent up to now is     1660.0 secs

     total energy              =   -1589.74940515 Ry
     estimated scf accuracy    <       0.00198930 Ry

     iteration # 12     ecut=    80.00 Ry     beta= 0.30
     Davidson diagonalization with overlap
     c_bands:  2 eigenvalues not converged
     ethr =  1.23E-06,  avg # of iterations = 12.0

     negative rho (up, down):  1.936E+00 0.000E+00

     total cpu time spent up to now is     1813.6 secs

     total energy              =   -1589.74876583 Ry
     estimated scf accuracy    <       0.00104182 Ry

     iteration # 13     ecut=    80.00 Ry     beta= 0.30
     Davidson diagonalization with overlap
     c_bands:  1 eigenvalues not converged
     c_bands:  1 eigenvalues not converged
     ethr =  6.43E-07,  avg # of iterations = 12.3

     negative rho (up, down):  1.931E+00 0.000E+00

     total cpu time spent up to now is     1969.6 secs

     total energy              =   -1589.74830399 Ry
     estimated scf accuracy    <       0.00048437 Ry

     iteration # 14     ecut=    80.00 Ry     beta= 0.30
     Davidson diagonalization with overlap
     c_bands:  1 eigenvalues not converged
     ethr =  2.99E-07,  avg # of iterations =  8.8

     negative rho (up, down):  1.927E+00 0.000E+00

     total cpu time spent up to now is     2121.2 secs

     total energy              =   -1589.74827222 Ry
     estimated scf accuracy    <       0.00012620 Ry

     iteration # 15     ecut=    80.00 Ry     beta= 0.30
     Davidson diagonalization with overlap
     ethr =  7.79E-08,  avg # of iterations =  4.7

     negative rho (up, down):  1.922E+00 0.000E+00

     total cpu time spent up to now is     2263.4 secs

     total energy              =   -1589.74824819 Ry
     estimated scf accuracy    <       0.00006230 Ry

     iteration # 16     ecut=    80.00 Ry     beta= 0.30
     Davidson diagonalization with overlap
     c_bands:  3 eigenvalues not converged
     ethr =  3.85E-08,  avg # of iterations =  5.5

     negative rho (up, down):  1.919E+00 0.000E+00

     total cpu time spent up to now is     2404.2 secs

     total energy              =   -1589.74823063 Ry
     estimated scf accuracy    <       0.00001072 Ry

     iteration # 17     ecut=    80.00 Ry     beta= 0.30
     Davidson diagonalization with overlap
     ethr =  6.62E-09,  avg # of iterations =  3.6

     negative rho (up, down):  1.918E+00 0.000E+00

     total cpu time spent up to now is     2542.5 secs

     total energy              =   -1589.74822737 Ry
     estimated scf accuracy    <       0.00000214 Ry

     iteration # 18     ecut=    80.00 Ry     beta= 0.30
     Davidson diagonalization with overlap
     ethr =  1.32E-09,  avg # of iterations =  2.3

     negative rho (up, down):  1.917E+00 0.000E+00

     total cpu time spent up to now is     2670.7 secs

     End of self-consistent calculation

          k = 0.0000 0.0000 0.0000 ( 41611 PWs)   bands (ev):

   -48.8990 -48.7911 -48.7839 -48.7556 -48.7307 -48.6918 -48.6533 -48.5659
   -48.5284 -48.5013 -48.4677 -48.4141 -48.4013 -48.3955 -48.3876 -48.2810
   -48.1847 -48.1407 -19.5061 -19.1404 -19.0434 -18.7655 -18.0672 -17.9248
   -17.8615 -17.5607 -17.4873 -17.4170 -16.2660 -16.0714  -8.2269  -8.1660
    -8.0504  -7.6921  -6.7708  -6.5434  -6.4158  -6.3300  -6.3006  -5.9792
    -5.7141  -5.6627  -5.5516  -5.1487  -4.6853  -4.1461  -3.6912  -3.5051
    -3.4522  -3.2664  -3.0973  -3.0901  -3.0473  -2.9051  -2.8054  -2.7732
    -2.6353  -2.4712  -2.2422  -2.1547  -1.7876  -1.5698  -1.2670  -1.1214
    -1.0363  -1.0093  -0.8728  -0.8189  -0.7781  -0.7380  -0.7267  -0.6660
    -0.6021  -0.5907  -0.0161   0.0142   0.0939   0.6475   0.8783   0.8787
     1.4838   1.6117   1.8757   2.3288   2.3651   2.6832   3.4025   4.2177
     4.3345   4.9848   5.3240   5.6942   5.7188   5.7890   5.8800   6.0818
     6.3084

          k = 0.0000 0.1240 0.0000 ( 41688 PWs)   bands (ev):

   -48.8986 -48.7899 -48.7839 -48.7552 -48.7306 -48.6918 -48.6534 -48.5672
   -48.5283 -48.5012 -48.4677 -48.4141 -48.4013 -48.3955 -48.3877 -48.2810
   -48.1852 -48.1412 -19.3834 -18.9939 -18.9157 -18.7870 -18.1260 -17.9962
   -17.9093 -17.7027 -17.6448 -17.5305 -16.2607 -16.0683  -7.7482  -7.6728
    -7.6117  -7.5328  -6.7696  -6.4652  -6.4141  -6.2525  -6.2103  -5.8762
    -5.6622  -5.6190  -5.5514  -4.9906  -4.6934  -4.3704  -4.2193  -4.1168
    -3.9867  -3.7516  -3.7244  -3.5178  -3.3581  -3.3085  -3.1780  -2.9624
    -2.4746  -2.3570  -2.3144  -2.2613  -1.9747  -1.6817  -1.3260  -1.2125
    -1.1494  -0.9795  -0.7907  -0.6606  -0.3873  -0.2668  -0.2250  -0.1892
    -0.1298  -0.0850   0.0459   0.1579   0.2325   0.6467   0.8780   0.9638
     1.5387   1.5604   1.6862   2.1298   2.2691   2.6861   3.8463   4.6820
     4.8819   4.9854   5.4060   5.4185   5.5609   5.6153   5.7956   6.3507
     6.5033

          k = 0.0000-0.2479 0.0000 ( 41774 PWs)   bands (ev):

   -48.8983 -48.7887 -48.7839 -48.7548 -48.7305 -48.6918 -48.6535 -48.5685
   -48.5283 -48.5012 -48.4676 -48.4142 -48.4013 -48.3954 -48.3878 -48.2811
   -48.1856 -48.1417 -19.1907 -18.9393 -18.7569 -18.6045 -18.3261 -18.2177
   -17.9104 -17.8871 -17.7642 -17.5984 -16.2567 -16.0658  -7.7026  -6.8754
    -6.7670  -6.7055  -6.6906  -6.4169  -6.3719  -6.1654  -6.1070  -5.8269
    -5.6607  -5.5511  -5.3316  -5.2341  -5.1367  -5.0785  -5.0538  -4.7074
    -4.5770  -4.2502  -3.7700  -3.7389  -3.7284  -3.6304  -3.4176  -3.3267
    -2.4641  -2.3972  -2.0717  -2.0222  -1.7571  -1.7201  -1.4787  -1.4066
    -1.1088  -1.0966  -0.7035  -0.6608  -0.1195  -0.1155   0.0053   0.0698
     0.2242   0.2981   0.4287   0.5483   0.5841   0.7184   0.8463   0.9590
     1.2752   1.4122   1.7828   1.9193   2.0527   2.7933   4.1382   4.9876
     5.0878   5.0908   5.1841   5.3309   5.3787   5.7950   5.8891   6.0844
     6.5036

          k = 0.0000-0.1240 0.0000 ( 41688 PWs)   bands (ev):

   -48.8986 -48.7899 -48.7839 -48.7552 -48.7306 -48.6918 -48.6534 -48.5672
   -48.5283 -48.5012 -48.4677 -48.4141 -48.4013 -48.3955 -48.3877 -48.2810
   -48.1852 -48.1412 -19.3834 -18.9939 -18.9157 -18.7870 -18.1260 -17.9962
   -17.9093 -17.7027 -17.6448 -17.5305 -16.2607 -16.0683  -7.7482  -7.6728
    -7.6117  -7.5328  -6.7696  -6.4652  -6.4141  -6.2525  -6.2103  -5.8762
    -5.6622  -5.6190  -5.5514  -4.9906  -4.6934  -4.3704  -4.2193  -4.1168
    -3.9867  -3.7516  -3.7244  -3.5178  -3.3581  -3.3085  -3.1780  -2.9624
    -2.4746  -2.3570  -2.3144  -2.2613  -1.9747  -1.6817  -1.3260  -1.2125
    -1.1494  -0.9795  -0.7907  -0.6606  -0.3873  -0.2668  -0.2250  -0.1892
    -0.1298  -0.0850   0.0459   0.1579   0.2325   0.6467   0.8780   0.9638
     1.5387   1.5604   1.6862   2.1298   2.2691   2.6861   3.8463   4.6820
     4.8819   4.9854   5.4059   5.4185   5.5609   5.6159   5.7958   6.3507
     6.5030

          k = 0.1250 0.0000 0.0000 ( 41611 PWs)   bands (ev):

   -48.8979 -48.7897 -48.7828 -48.7545 -48.7473 -48.6893 -48.6695 -48.5638
   -48.5441 -48.5173 -48.4667 -48.4305 -48.4047 -48.3990 -48.3943 -48.2787
   -48.1823 -48.1383 -19.3665 -19.0184 -18.9227 -18.6625 -17.9998 -17.9922
   -17.7666 -17.6408 -17.5666 -17.5002 -16.3166 -16.1163  -8.0408  -7.9874
    -7.8692  -7.5039  -6.7298  -6.5118  -6.4491  -6.2846  -6.2463  -5.8138
    -5.7883  -5.3038  -5.1882  -4.9630  -4.5233  -4.4273  -4.0103  -3.7309
    -3.5989  -3.4983  -3.4567  -3.3862  -3.3062  -3.0985  -2.8923  -2.8162
    -2.6886  -2.5207  -2.4652  -2.2871  -2.1959  -2.1041  -1.9281  -1.4291
    -1.0075  -0.9109  -0.8900  -0.7034  -0.5984  -0.4920  -0.3947  -0.3904
    -0.2074  -0.0070   0.2383   0.3001   0.4260   0.7834   0.9942   1.2647
     1.3121   1.7137   1.8292   2.2064   2.3369   2.5148   3.6194   4.3406
     4.4376   4.8316   5.1354   5.3037   5.3539   5.5073   5.5444   5.6380
     6.5448

          k = 0.1250 0.1240 0.0000 ( 41692 PWs)   bands (ev):

   -48.8976 -48.7892 -48.7828 -48.7542 -48.7467 -48.6893 -48.6697 -48.5649
   -48.5440 -48.5173 -48.4666 -48.4305 -48.4047 -48.3990 -48.3943 -48.2787
   -48.1827 -48.1387 -19.2498 -18.8771 -18.7957 -18.6821 -18.0628 -18.0021
   -17.8992 -17.7708 -17.7031 -17.5772 -16.3125 -16.1138  -7.5691  -7.5035
    -7.4615  -7.3770  -6.7301  -6.4535  -6.4174  -6.1896  -6.1596  -5.9158
    -5.5087  -5.3023  -5.1841  -4.9289  -4.5365  -4.3623  -4.3014  -4.2420
    -4.0389  -3.9596  -3.8935  -3.8511  -3.7273  -3.6003  -3.3264  -3.2221
    -2.8355  -2.6030  -2.3483  -2.1859  -2.0838  -2.0506  -1.5697  -1.2053
    -1.1650  -1.0133  -0.8782  -0.4500  -0.2961  -0.2646  -0.0215  -0.0064
     0.0600   0.1603   0.2158   0.4750   0.6253   0.8661   1.0076   1.2414
     1.3824   1.4632   1.7890   2.0797   2.1630   2.6135   3.9770   4.5545
     4.6690   4.8613   4.9148   5.1534   5.2906   5.3375   5.5948   5.7861
     6.5721

          k = 0.1250-0.2479 0.0000 ( 41706 PWs)   bands (ev):

   -48.8974 -48.7887 -48.7828 -48.7539 -48.7460 -48.6893 -48.6698 -48.5659
   -48.5440 -48.5172 -48.4666 -48.4305 -48.4046 -48.3991 -48.3943 -48.2787
   -48.1831 -48.1391 -19.0689 -18.8094 -18.6373 -18.4905 -18.2867 -18.1721
   -17.9754 -17.9544 -17.7941 -17.6076 -16.3091 -16.1117  -7.5108  -6.7313
    -6.6454  -6.5013  -6.4873  -6.4560  -6.4262  -6.3170  -6.2609  -5.9324
    -5.3049  -5.1901  -5.0710  -5.0215  -4.9056  -4.8188  -4.8038  -4.7353
    -4.7015  -4.5100  -4.4317  -4.2768  -3.8182  -3.8087  -3.6906  -3.4700
    -2.8298  -2.6191  -2.1864  -2.0234  -1.8691  -1.7291  -1.6384  -1.2378
    -1.1119  -1.0278  -0.8814  -0.2491  -0.2356  -0.1734  -0.0398   0.0598
     0.2833   0.5373   0.6975   0.7174   0.8815   1.0119   1.0163   1.1671
     1.3223   1.4103   1.6406   1.7756   2.1591   2.7188   4.2535   4.4441
     4.5268   4.6697   4.7070   5.3006   5.3118   5.5025   5.6524   5.9754
     6.6900

          k = 0.1250-0.1240 0.0000 ( 41692 PWs)   bands (ev):

   -48.8976 -48.7892 -48.7828 -48.7542 -48.7467 -48.6893 -48.6697 -48.5649
   -48.5440 -48.5173 -48.4666 -48.4305 -48.4047 -48.3990 -48.3943 -48.2787
   -48.1827 -48.1387 -19.2498 -18.8771 -18.7957 -18.6821 -18.0628 -18.0021
   -17.8992 -17.7708 -17.7031 -17.5772 -16.3125 -16.1138  -7.5691  -7.5035
    -7.4615  -7.3770  -6.7301  -6.4535  -6.4174  -6.1896  -6.1596  -5.9158
    -5.5087  -5.3023  -5.1841  -4.9289  -4.5365  -4.3623  -4.3014  -4.2420
    -4.0389  -3.9596  -3.8935  -3.8511  -3.7273  -3.6003  -3.3264  -3.2221
    -2.8355  -2.6030  -2.3483  -2.1859  -2.0838  -2.0506  -1.5697  -1.2053
    -1.1650  -1.0133  -0.8782  -0.4500  -0.2961  -0.2646  -0.0215  -0.0064
     0.0600   0.1603   0.2158   0.4750   0.6253   0.8661   1.0076   1.2414
     1.3824   1.4632   1.7890   2.0797   2.1630   2.6135   3.9770   4.5545
     4.6690   4.8613   4.9148   5.1534   5.2906   5.3375   5.5948   5.7861
     6.5721

          k = 0.2500 0.0000 0.0000 ( 41623 PWs)   bands (ev):

   -48.8952 -48.7870 -48.7863 -48.7803 -48.7517 -48.7085 -48.6832 -48.5817
   -48.5588 -48.5559 -48.4700 -48.4642 -48.4453 -48.3935 -48.3918 -48.2730
   -48.1767 -48.1325 -19.0024 -18.7166 -18.6207 -18.4181 -18.1483 -17.8752
   -17.8295 -17.7514 -17.6945 -17.5704 -16.3938 -16.1730  -7.5515  -7.5102
    -7.3851  -7.0041  -6.5358  -6.4117  -6.4018  -6.1240  -6.0134  -5.7404
    -5.5789  -5.2979  -4.9640  -4.7530  -4.7315  -4.5858  -4.4981  -4.4699
    -4.4256  -3.8078  -3.6701  -3.4575  -3.3404  -3.2212  -3.1864  -3.1443
    -3.0727  -2.9317  -2.7913  -2.6498  -2.3724  -2.1416  -1.9066  -1.3495
    -1.2020  -1.1720  -0.5369  -0.5345  -0.3796  -0.3074  -0.0551  -0.0385
     0.3116   0.4870   0.6523   0.6584   0.9420   1.0684   1.0871   1.1335
     1.3942   1.5410   1.8330   2.0552   2.1074   2.2597   3.9000   4.1019
     4.4009   4.5771   4.6731   4.7855   4.8119   4.8551   4.9450   5.6247
     7.0534

          k = 0.2500 0.1240 0.0000 ( 41653 PWs)   bands (ev):

   -48.8952 -48.7950 -48.7803 -48.7776 -48.7517 -48.7087 -48.6832 -48.5818
   -48.5593 -48.5559 -48.4698 -48.4642 -48.4451 -48.3935 -48.3918 -48.2730
   -48.1768 -48.1327 -18.9091 -18.6052 -18.5083 -18.4342 -18.1550 -17.9986
   -17.9028 -17.8632 -17.8030 -17.5508 -16.3923 -16.1722  -7.1718  -7.1305
    -7.0082  -6.9885  -6.5344  -6.4117  -6.2476  -5.9746  -5.8931  -5.8414
    -5.6291  -5.2292  -5.1625  -5.0936  -4.9873  -4.8528  -4.6249  -4.4714
    -4.2265  -3.9190  -3.7714  -3.6440  -3.5518  -3.5127  -3.4187  -3.3484
    -3.3433  -2.9822  -2.7143  -2.4450  -2.2965  -2.0360  -1.8710  -1.4090
    -1.2748  -1.1347  -0.7931  -0.5076  -0.2919   0.0209   0.1407   0.3206
     0.3659   0.5218   0.6546   0.7530   0.9682   1.0801   1.0937   1.1957
     1.3979   1.4807   1.6626   1.7950   2.2409   2.4485   3.9040   4.0193
     4.0438   4.1201   4.2759   4.8390   4.8740   5.3024   5.4784   5.8136
     7.1184

          k = 0.2500-0.2479 0.0000 ( 41680 PWs)   bands (ev):

   -48.8952 -48.7983 -48.7803 -48.7737 -48.7518 -48.7089 -48.6833 -48.5818
   -48.5598 -48.5559 -48.4697 -48.4642 -48.4449 -48.3936 -48.3918 -48.2730
   -48.1770 -48.1329 -18.7686 -18.4960 -18.3816 -18.2732 -18.2199 -18.1612
   -18.1168 -18.0621 -17.8072 -17.5445 -16.3911 -16.1716  -7.0047  -6.5478
    -6.5211  -6.4631  -6.4201  -6.2989  -6.0167  -5.9034  -5.8889  -5.8503
    -5.8376  -5.6859  -5.5758  -5.5012  -4.9430  -4.8761  -4.6229  -4.4093
    -4.3111  -4.1794  -4.1526  -4.0076  -3.9622  -3.7962  -3.6314  -3.5238
    -3.5061  -2.9025  -2.3066  -2.2477  -2.0117  -1.8148  -1.8004  -1.5967
    -1.5406  -1.0961  -0.5613  -0.4901  -0.4325  -0.0980   0.0955   0.4929
     0.5474   0.5776   0.8772   0.8944   1.0766   1.1695   1.1800   1.3037
     1.3138   1.4828   1.5368   1.6214   2.3290   2.5600   3.4855   3.6077
     3.7670   4.0641   4.2384   4.8505   5.0960   5.4769   5.8146   6.0545
     7.2319

          k = 0.2500-0.1240 0.0000 ( 41653 PWs)   bands (ev):

   -48.8952 -48.7950 -48.7803 -48.7776 -48.7517 -48.7087 -48.6832 -48.5818
   -48.5593 -48.5559 -48.4698 -48.4642 -48.4451 -48.3935 -48.3918 -48.2730
   -48.1768 -48.1327 -18.9091 -18.6052 -18.5083 -18.4342 -18.1550 -17.9986
   -17.9028 -17.8632 -17.8030 -17.5508 -16.3923 -16.1722  -7.1718  -7.1305
    -7.0082  -6.9885  -6.5344  -6.4117  -6.2476  -5.9746  -5.8931  -5.8414
    -5.6291  -5.2292  -5.1625  -5.0936  -4.9873  -4.8528  -4.6249  -4.4714
    -4.2265  -3.9190  -3.7714  -3.6440  -3.5518  -3.5127  -3.4187  -3.3484
    -3.3433  -2.9822  -2.7143  -2.4450  -2.2965  -2.0360  -1.8710  -1.4090
    -1.2748  -1.1347  -0.7931  -0.5076  -0.2919   0.0209   0.1407   0.3206
     0.3659   0.5218   0.6546   0.7530   0.9682   1.0801   1.0937   1.1957
     1.3979   1.4807   1.6626   1.7950   2.2409   2.4485   3.9040   4.0193
     4.0438   4.1201   4.2759   4.8390   4.8740   5.3024   5.4784   5.8136
     7.1184

          k = 0.3750 0.0000 0.0000 ( 41645 PWs)   bands (ev):

   -48.8925 -48.8265 -48.7829 -48.7779 -48.7489 -48.7472 -48.6772 -48.6191
   -48.5941 -48.5537 -48.5091 -48.4858 -48.4618 -48.3893 -48.3880 -48.2674
   -48.1710 -48.1267 -18.5664 -18.4319 -18.3107 -18.2588 -18.1997 -18.0116
   -17.9276 -17.8803 -17.8263 -17.4580 -16.3709 -16.1404  -6.9723  -6.9605
    -6.7988  -6.5317  -6.3612  -6.2688  -6.2249  -6.2177  -5.9643  -5.8509
    -5.6681  -5.5887  -5.4768  -5.4629  -5.0403  -4.8533  -4.5758  -4.5005
    -4.0943  -3.8850  -3.8097  -3.7515  -3.5870  -3.2924  -3.2217  -3.1675
    -2.9517  -2.7330  -2.6084  -2.5981  -2.5375  -1.9723  -1.7088  -1.4086
    -1.3368  -0.9726  -0.6136  -0.3991  -0.2124   0.0250   0.0348   0.0532
     0.1351   0.5456   0.6485   0.6705   0.8337   0.9971   1.0359   1.1881
     1.3851   1.4080   1.9127   1.9309   2.0602   2.1395   3.4506   4.0289
     4.0654   4.1661   4.2870   4.4302   4.4553   4.8712   5.0055   5.5552
     7.8518

          k = 0.3750 0.1240 0.0000 ( 41549 PWs)   bands (ev):

   -48.8927 -48.8292 -48.7800 -48.7779 -48.7493 -48.7474 -48.6772 -48.6192
   -48.5942 -48.5537 -48.5088 -48.4853 -48.4618 -48.3893 -48.3880 -48.2674
   -48.1709 -48.1267 -18.5400 -18.4167 -18.3348 -18.2753 -18.2177 -18.0355
   -17.9148 -17.8928 -17.8026 -17.4599 -16.3710 -16.1404  -6.8656  -6.8206
    -6.6550  -6.5517  -6.4304  -6.3048  -6.2399  -6.1716  -6.1053  -6.0203
    -6.0077  -5.3388  -5.2610  -5.1501  -5.0890  -4.9139  -4.6380  -4.2266
    -4.0834  -3.9723  -3.7520  -3.6866  -3.4092  -3.3758  -3.2982  -3.0660
    -3.0466  -2.8941  -2.7485  -2.4154  -2.3102  -2.1529  -1.6877  -1.6435
    -1.3357  -1.1113  -0.7919  -0.3664  -0.3268  -0.2350  -0.0726   0.1619
     0.1988   0.2361   0.2936   0.5543   0.6789   0.9089   1.3609   1.3792
     1.6076   1.6772   1.7861   1.9688   2.1340   2.2761   3.2734   3.4484
     3.5075   3.5863   4.1089   4.4381   5.1930   5.5500   5.6859   5.7724
     7.9517

          k = 0.3750-0.2479 0.0000 ( 41514 PWs)   bands (ev):

   -48.8930 -48.8316 -48.7779 -48.7773 -48.7497 -48.7476 -48.6772 -48.6192
   -48.5942 -48.5537 -48.5084 -48.4848 -48.4618 -48.3893 -48.3880 -48.2674
   -48.1709 -48.1267 -18.5012 -18.4054 -18.3681 -18.2872 -18.2372 -18.0583
   -17.9051 -17.8990 -17.7854 -17.4617 -16.3711 -16.1405  -6.7513  -6.6139
    -6.5373  -6.4866  -6.4691  -6.4406  -6.2369  -6.2034  -6.2012  -6.1512
    -6.1173  -5.2985  -5.2727  -4.9438  -4.9034  -4.7335  -4.6889  -4.1438
    -4.0922  -3.8459  -3.8212  -3.5904  -3.5155  -3.4331  -3.3880  -3.1815
    -3.1490  -3.0203  -2.6011  -2.2628  -2.2067  -1.9860  -1.6090  -1.5870
    -1.4739  -1.4640  -0.9407  -0.7732  -0.5309  -0.4381  -0.2851   0.0713
     0.3324   0.3750   0.4800   0.5512   0.5769   0.7128   1.4183   1.4597
     1.5670   1.8751   1.9253   1.9478   2.2691   2.4222   2.8526   3.0143
     3.1416   3.5235   4.1325   4.4368   5.5226   5.7538   6.1130   6.2154
     8.0549

          k = 0.3750-0.1240 0.0000 ( 41549 PWs)   bands (ev):

   -48.8927 -48.8292 -48.7800 -48.7779 -48.7493 -48.7474 -48.6772 -48.6192
   -48.5942 -48.5537 -48.5088 -48.4853 -48.4618 -48.3893 -48.3880 -48.2674
   -48.1709 -48.1267 -18.5400 -18.4167 -18.3348 -18.2753 -18.2177 -18.0355
   -17.9148 -17.8928 -17.8026 -17.4599 -16.3710 -16.1404  -6.8656  -6.8206
    -6.6550  -6.5517  -6.4304  -6.3048  -6.2399  -6.1716  -6.1053  -6.0203
    -6.0077  -5.3388  -5.2610  -5.1501  -5.0890  -4.9139  -4.6380  -4.2266
    -4.0834  -3.9723  -3.7520  -3.6866  -3.4092  -3.3758  -3.2982  -3.0660
    -3.0466  -2.8941  -2.7485  -2.4154  -2.3102  -2.1529  -1.6877  -1.6435
    -1.3357  -1.1113  -0.7919  -0.3664  -0.3268  -0.2350  -0.0726   0.1619
     0.1988   0.2361   0.2936   0.5543   0.6789   0.9089   1.3609   1.3792
     1.6076   1.6772   1.7861   1.9688   2.1340   2.2761   3.2734   3.4484
     3.5075   3.5863   4.1089   4.4381   5.1930   5.5500   5.6859   5.7724
     7.9517

          k =-0.5000 0.0000 0.0000 ( 41440 PWs)   bands (ev):

   -48.8914 -48.8427 -48.7815 -48.7769 -48.7631 -48.7478 -48.6747 -48.6345
   -48.6098 -48.5516 -48.5253 -48.5024 -48.4608 -48.3883 -48.3858 -48.2650
   -48.1686 -48.1243 -18.4181 -18.2848 -18.2159 -18.2001 -18.1479 -18.0852
   -17.9984 -17.9550 -17.8320 -17.4448 -16.3239 -16.0980  -6.8895  -6.5928
    -6.4838  -6.4664  -6.3980  -6.3431  -6.2751  -6.1228  -6.0432  -5.8261
    -5.6989  -5.6810  -5.4916  -5.4455  -5.4193  -5.2229  -4.2536  -4.2205
    -4.1086  -3.9395  -3.9123  -3.8793  -3.8031  -3.3822  -3.3278  -3.0060
    -2.9561  -2.6584  -2.4194  -2.3845  -1.9926  -1.7602  -1.7121  -1.6943
    -1.2585  -1.0639  -0.3191  -0.3130  -0.2985  -0.1386  -0.0270   0.0001
     0.0834   0.1099   0.4039   0.6368   0.6575   0.7854   1.0515   1.2748
     1.5310   1.5653   1.6176   2.0173   2.1413   2.2792   3.2270   3.8387
     3.9943   4.1053   4.1054   4.3567   4.4464   4.8326   4.9805   5.6058
     8.4561

          k =-0.5000 0.1240 0.0000 ( 41518 PWs)   bands (ev):

   -48.8918 -48.8450 -48.7792 -48.7769 -48.7633 -48.7484 -48.6747 -48.6346
   -48.6099 -48.5514 -48.5248 -48.5018 -48.4608 -48.3883 -48.3858 -48.2650
   -48.1685 -48.1242 -18.4167 -18.3987 -18.3625 -18.2660 -18.1943 -17.9337
   -17.8665 -17.8428 -17.8377 -17.4465 -16.3233 -16.0973  -6.8731  -6.8478
    -6.6349  -6.5740  -6.4955  -6.4528  -6.3655  -6.2845  -5.9995  -5.9389
    -5.8329  -5.5476  -5.3121  -4.9713  -4.8021  -4.4544  -4.3247  -4.2747
    -4.2541  -4.1701  -4.0337  -3.8719  -3.2413  -3.2197  -3.1017  -3.0177
    -2.9405  -2.7060  -2.6965  -2.2358  -2.1630  -1.7397  -1.6746  -1.6565
    -1.5306  -1.2162  -0.5721  -0.4977  -0.3040  -0.2588  -0.1990  -0.0425
     0.0134   0.0388   0.0584   0.1127   0.1161   0.5116   1.5369   1.5672
     1.7490   1.8736   1.9376   2.0480   2.1255   2.2143   3.0562   3.2572
     3.2721   3.3421   4.1299   4.3556   5.3846   5.6718   5.6965   5.8178
     8.6113

          k =-0.5000-0.2479 0.0000 ( 41524 PWs)   bands (ev):

   -48.8922 -48.8472 -48.7770 -48.7769 -48.7635 -48.7489 -48.6747 -48.6346
   -48.6100 -48.5512 -48.5244 -48.5012 -48.4608 -48.3883 -48.3858 -48.2650
   -48.1684 -48.1241 -18.4719 -18.4459 -18.4153 -18.3353 -18.1884 -17.8497
   -17.8437 -17.7799 -17.7707 -17.4482 -16.3227 -16.0966  -7.0830  -6.8778
    -6.8071  -6.8055  -6.4443  -6.3882  -6.3695  -6.1443  -6.0155  -5.9586
    -5.8332  -5.6639  -5.4226  -4.5102  -4.3689  -4.2921  -4.2386  -4.1973
    -4.0562  -3.8895  -3.7977  -3.5061  -3.4831  -3.4468  -3.1995  -2.9190
    -2.9187  -2.8426  -2.5941  -2.1423  -2.0293  -2.0036  -1.6583  -1.6547
    -1.6167  -1.1119  -1.1021  -0.9498  -0.7424  -0.7370  -0.2889  -0.2397
     0.0370   0.0603   0.0892   0.1138   0.2081   0.2381   1.5777   1.5952
     1.7749   2.1230   2.1574   2.1611   2.1629   2.2780   2.6702   2.8473
     2.9548   3.3070   4.1545   4.3537   5.7341   5.9017   6.2082   6.3497
     8.7689

          k =-0.5000-0.1240 0.0000 ( 41518 PWs)   bands (ev):

   -48.8918 -48.8450 -48.7792 -48.7769 -48.7633 -48.7484 -48.6747 -48.6346
   -48.6099 -48.5514 -48.5248 -48.5018 -48.4608 -48.3883 -48.3858 -48.2650
   -48.1685 -48.1242 -18.4167 -18.3987 -18.3625 -18.2660 -18.1943 -17.9337
   -17.8665 -17.8428 -17.8377 -17.4465 -16.3233 -16.0973  -6.8731  -6.8478
    -6.6349  -6.5740  -6.4955  -6.4528  -6.3655  -6.2845  -5.9995  -5.9389
    -5.8329  -5.5476  -5.3121  -4.9713  -4.8021  -4.4544  -4.3247  -4.2747
    -4.2541  -4.1701  -4.0337  -3.8719  -3.2413  -3.2197  -3.1017  -3.0177
    -2.9405  -2.7060  -2.6965  -2.2358  -2.1630  -1.7397  -1.6746  -1.6565
    -1.5306  -1.2162  -0.5721  -0.4977  -0.3040  -0.2588  -0.1990  -0.0425
     0.0134   0.0388   0.0584   0.1127   0.1161   0.5116   1.5369   1.5672
     1.7490   1.8736   1.9376   2.0480   2.1255   2.2143   3.0562   3.2572
     3.2721   3.3421   4.1299   4.3556   5.3846   5.6718   5.6965   5.8178
     8.6113

          k =-0.3750 0.0000 0.0000 ( 41645 PWs)   bands (ev):

   -48.8925 -48.8265 -48.7829 -48.7779 -48.7489 -48.7472 -48.6772 -48.6191
   -48.5941 -48.5537 -48.5091 -48.4858 -48.4618 -48.3893 -48.3880 -48.2674
   -48.1710 -48.1267 -18.5664 -18.4319 -18.3107 -18.2588 -18.1997 -18.0116
   -17.9276 -17.8803 -17.8263 -17.4580 -16.3709 -16.1404  -6.9723  -6.9605
    -6.7988  -6.5317  -6.3612  -6.2688  -6.2249  -6.2177  -5.9643  -5.8509
    -5.6681  -5.5887  -5.4768  -5.4629  -5.0403  -4.8533  -4.5758  -4.5005
    -4.0943  -3.8850  -3.8097  -3.7515  -3.5870  -3.2924  -3.2217  -3.1675
    -2.9517  -2.7330  -2.6084  -2.5981  -2.5375  -1.9723  -1.7088  -1.4086
    -1.3368  -0.9726  -0.6136  -0.3991  -0.2124   0.0250   0.0348   0.0532
     0.1351   0.5456   0.6485   0.6705   0.8337   0.9971   1.0359   1.1881
     1.3851   1.4080   1.9127   1.9309   2.0602   2.1395   3.4506   4.0289
     4.0654   4.1661   4.2870   4.4302   4.4553   4.8712   5.0055   5.5552
     7.8518

          k =-0.3750 0.1240 0.0000 ( 41549 PWs)   bands (ev):

   -48.8927 -48.8292 -48.7800 -48.7779 -48.7493 -48.7474 -48.6772 -48.6192
   -48.5942 -48.5537 -48.5088 -48.4853 -48.4618 -48.3893 -48.3880 -48.2674
   -48.1709 -48.1267 -18.5400 -18.4167 -18.3348 -18.2753 -18.2177 -18.0355
   -17.9148 -17.8928 -17.8026 -17.4599 -16.3710 -16.1404  -6.8656  -6.8206
    -6.6550  -6.5517  -6.4304  -6.3048  -6.2399  -6.1716  -6.1053  -6.0203
    -6.0077  -5.3388  -5.2610  -5.1501  -5.0890  -4.9139  -4.6380  -4.2266
    -4.0834  -3.9723  -3.7520  -3.6866  -3.4092  -3.3758  -3.2982  -3.0660
    -3.0466  -2.8941  -2.7485  -2.4154  -2.3102  -2.1529  -1.6877  -1.6435
    -1.3357  -1.1113  -0.7919  -0.3664  -0.3268  -0.2350  -0.0726   0.1619
     0.1988   0.2361   0.2936   0.5543   0.6789   0.9089   1.3609   1.3792
     1.6076   1.6772   1.7861   1.9688   2.1340   2.2761   3.2734   3.4484
     3.5075   3.5863   4.1089   4.4381   5.1930   5.5500   5.6859   5.7724
     7.9517

          k =-0.3750-0.2479 0.0000 ( 41514 PWs)   bands (ev):

   -48.8930 -48.8316 -48.7779 -48.7773 -48.7497 -48.7476 -48.6772 -48.6192
   -48.5942 -48.5537 -48.5084 -48.4848 -48.4618 -48.3893 -48.3880 -48.2674
   -48.1709 -48.1267 -18.5012 -18.4054 -18.3681 -18.2872 -18.2372 -18.0583
   -17.9051 -17.8990 -17.7854 -17.4617 -16.3711 -16.1405  -6.7513  -6.6139
    -6.5373  -6.4866  -6.4691  -6.4406  -6.2369  -6.2034  -6.2012  -6.1512
    -6.1173  -5.2985  -5.2727  -4.9438  -4.9034  -4.7335  -4.6889  -4.1438
    -4.0922  -3.8459  -3.8212  -3.5904  -3.5155  -3.4331  -3.3880  -3.1815
    -3.1490  -3.0203  -2.6011  -2.2628  -2.2067  -1.9860  -1.6090  -1.5870
    -1.4739  -1.4640  -0.9407  -0.7732  -0.5309  -0.4381  -0.2851   0.0713
     0.3324   0.3750   0.4800   0.5512   0.5769   0.7128   1.4183   1.4597
     1.5670   1.8751   1.9253   1.9478   2.2691   2.4222   2.8526   3.0143
     3.1416   3.5235   4.1325   4.4368   5.5226   5.7538   6.1130   6.2154
     8.0549

          k =-0.3750-0.1240 0.0000 ( 41549 PWs)   bands (ev):

   -48.8927 -48.8292 -48.7800 -48.7779 -48.7493 -48.7474 -48.6772 -48.6192
   -48.5942 -48.5537 -48.5088 -48.4853 -48.4618 -48.3893 -48.3880 -48.2674
   -48.1709 -48.1267 -18.5400 -18.4167 -18.3348 -18.2753 -18.2177 -18.0355
   -17.9148 -17.8928 -17.8026 -17.4599 -16.3710 -16.1404  -6.8656  -6.8206
    -6.6550  -6.5517  -6.4304  -6.3048  -6.2399  -6.1716  -6.1053  -6.0203
    -6.0077  -5.3388  -5.2610  -5.1501  -5.0890  -4.9139  -4.6380  -4.2266
    -4.0834  -3.9723  -3.7520  -3.6866  -3.4092  -3.3758  -3.2982  -3.0660
    -3.0466  -2.8941  -2.7485  -2.4154  -2.3102  -2.1529  -1.6877  -1.6435
    -1.3357  -1.1113  -0.7919  -0.3664  -0.3268  -0.2350  -0.0726   0.1619
     0.1988   0.2361   0.2936   0.5543   0.6789   0.9089   1.3609   1.3792
     1.6076   1.6772   1.7861   1.9688   2.1340   2.2761   3.2734   3.4484
     3.5075   3.5863   4.1089   4.4381   5.1930   5.5500   5.6859   5.7724
     7.9517

          k =-0.2500 0.0000 0.0000 ( 41623 PWs)   bands (ev):

   -48.8952 -48.7870 -48.7863 -48.7803 -48.7517 -48.7085 -48.6832 -48.5817
   -48.5588 -48.5559 -48.4700 -48.4642 -48.4453 -48.3935 -48.3918 -48.2730
   -48.1767 -48.1325 -19.0024 -18.7166 -18.6207 -18.4181 -18.1483 -17.8752
   -17.8295 -17.7514 -17.6945 -17.5704 -16.3938 -16.1730  -7.5515  -7.5102
    -7.3851  -7.0041  -6.5358  -6.4117  -6.4018  -6.1240  -6.0134  -5.7404
    -5.5789  -5.2979  -4.9640  -4.7530  -4.7315  -4.5858  -4.4981  -4.4699
    -4.4256  -3.8078  -3.6701  -3.4575  -3.3404  -3.2212  -3.1864  -3.1443
    -3.0727  -2.9317  -2.7913  -2.6498  -2.3724  -2.1416  -1.9066  -1.3495
    -1.2020  -1.1720  -0.5369  -0.5345  -0.3796  -0.3074  -0.0551  -0.0385
     0.3116   0.4870   0.6523   0.6584   0.9420   1.0684   1.0871   1.1335
     1.3942   1.5410   1.8330   2.0552   2.1074   2.2597   3.9000   4.1019
     4.4009   4.5771   4.6731   4.7855   4.8119   4.8551   4.9450   5.6247
     7.0534

          k =-0.2500 0.1240 0.0000 ( 41653 PWs)   bands (ev):

   -48.8952 -48.7950 -48.7803 -48.7776 -48.7517 -48.7087 -48.6832 -48.5818
   -48.5593 -48.5559 -48.4698 -48.4642 -48.4451 -48.3935 -48.3918 -48.2730
   -48.1768 -48.1327 -18.9091 -18.6052 -18.5083 -18.4342 -18.1550 -17.9986
   -17.9028 -17.8632 -17.8030 -17.5508 -16.3923 -16.1722  -7.1718  -7.1305
    -7.0082  -6.9885  -6.5344  -6.4117  -6.2476  -5.9746  -5.8931  -5.8414
    -5.6291  -5.2292  -5.1625  -5.0936  -4.9873  -4.8528  -4.6249  -4.4714
    -4.2265  -3.9190  -3.7714  -3.6440  -3.5518  -3.5127  -3.4187  -3.3484
    -3.3433  -2.9822  -2.7143  -2.4450  -2.2965  -2.0360  -1.8710  -1.4090
    -1.2748  -1.1347  -0.7931  -0.5076  -0.2919   0.0209   0.1407   0.3206
     0.3659   0.5218   0.6546   0.7530   0.9682   1.0801   1.0937   1.1957
     1.3979   1.4807   1.6626   1.7950   2.2409   2.4485   3.9040   4.0193
     4.0438   4.1201   4.2759   4.8390   4.8740   5.3024   5.4784   5.8136
     7.1184

          k =-0.2500-0.2479 0.0000 ( 41680 PWs)   bands (ev):

   -48.8952 -48.7983 -48.7803 -48.7737 -48.7518 -48.7089 -48.6833 -48.5818
   -48.5598 -48.5559 -48.4697 -48.4642 -48.4449 -48.3936 -48.3918 -48.2730
   -48.1770 -48.1329 -18.7686 -18.4960 -18.3816 -18.2732 -18.2199 -18.1612
   -18.1168 -18.0621 -17.8072 -17.5445 -16.3911 -16.1716  -7.0047  -6.5478
    -6.5211  -6.4631  -6.4201  -6.2989  -6.0167  -5.9034  -5.8889  -5.8503
    -5.8376  -5.6859  -5.5758  -5.5012  -4.9430  -4.8761  -4.6229  -4.4093
    -4.3111  -4.1794  -4.1526  -4.0076  -3.9622  -3.7962  -3.6314  -3.5238
    -3.5061  -2.9025  -2.3066  -2.2477  -2.0117  -1.8148  -1.8004  -1.5967
    -1.5406  -1.0961  -0.5613  -0.4901  -0.4325  -0.0980   0.0955   0.4929
     0.5474   0.5776   0.8772   0.8944   1.0766   1.1695   1.1800   1.3037
     1.3138   1.4828   1.5368   1.6214   2.3290   2.5600   3.4855   3.6077
     3.7670   4.0641   4.2384   4.8505   5.0960   5.4769   5.8146   6.0545
     7.2319

          k =-0.2500-0.1240 0.0000 ( 41653 PWs)   bands (ev):

   -48.8952 -48.7950 -48.7803 -48.7776 -48.7517 -48.7087 -48.6832 -48.5818
   -48.5593 -48.5559 -48.4698 -48.4642 -48.4451 -48.3935 -48.3918 -48.2730
   -48.1768 -48.1327 -18.9091 -18.6052 -18.5083 -18.4342 -18.1550 -17.9986
   -17.9028 -17.8632 -17.8030 -17.5508 -16.3923 -16.1722  -7.1718  -7.1305
    -7.0082  -6.9885  -6.5344  -6.4117  -6.2476  -5.9746  -5.8931  -5.8414
    -5.6291  -5.2292  -5.1625  -5.0936  -4.9873  -4.8528  -4.6249  -4.4714
    -4.2265  -3.9190  -3.7714  -3.6440  -3.5518  -3.5127  -3.4187  -3.3484
    -3.3433  -2.9822  -2.7143  -2.4450  -2.2965  -2.0360  -1.8710  -1.4090
    -1.2748  -1.1347  -0.7931  -0.5076  -0.2919   0.0209   0.1407   0.3206
     0.3659   0.5218   0.6546   0.7530   0.9682   1.0801   1.0937   1.1957
     1.3979   1.4807   1.6626   1.7950   2.2409   2.4485   3.9040   4.0193
     4.0438   4.1201   4.2759   4.8390   4.8740   5.3024   5.4784   5.8136
     7.1183

          k =-0.1250 0.0000 0.0000 ( 41611 PWs)   bands (ev):

   -48.8979 -48.7897 -48.7828 -48.7545 -48.7473 -48.6893 -48.6695 -48.5638
   -48.5441 -48.5173 -48.4667 -48.4305 -48.4047 -48.3990 -48.3943 -48.2787
   -48.1823 -48.1383 -19.3665 -19.0184 -18.9227 -18.6625 -17.9998 -17.9922
   -17.7666 -17.6408 -17.5666 -17.5002 -16.3166 -16.1163  -8.0408  -7.9874
    -7.8692  -7.5039  -6.7298  -6.5118  -6.4491  -6.2846  -6.2463  -5.8138
    -5.7883  -5.3038  -5.1882  -4.9630  -4.5233  -4.4273  -4.0103  -3.7309
    -3.5989  -3.4983  -3.4567  -3.3862  -3.3062  -3.0985  -2.8923  -2.8162
    -2.6886  -2.5207  -2.4652  -2.2871  -2.1959  -2.1041  -1.9281  -1.4291
    -1.0075  -0.9109  -0.8900  -0.7034  -0.5984  -0.4920  -0.3947  -0.3904
    -0.2074  -0.0070   0.2383   0.3001   0.4260   0.7834   0.9942   1.2647
     1.3121   1.7137   1.8292   2.2064   2.3369   2.5148   3.6194   4.3406
     4.4376   4.8316   5.1354   5.3037   5.3539   5.5073   5.5444   5.6380
     6.5447

          k =-0.1250 0.1240 0.0000 ( 41692 PWs)   bands (ev):

   -48.8976 -48.7892 -48.7828 -48.7542 -48.7467 -48.6893 -48.6697 -48.5649
   -48.5440 -48.5173 -48.4666 -48.4305 -48.4047 -48.3990 -48.3943 -48.2787
   -48.1827 -48.1387 -19.2498 -18.8771 -18.7957 -18.6821 -18.0628 -18.0021
   -17.8992 -17.7708 -17.7031 -17.5772 -16.3125 -16.1138  -7.5691  -7.5035
    -7.4615  -7.3770  -6.7301  -6.4535  -6.4174  -6.1896  -6.1596  -5.9158
    -5.5087  -5.3023  -5.1841  -4.9289  -4.5365  -4.3623  -4.3014  -4.2420
    -4.0389  -3.9596  -3.8935  -3.8511  -3.7273  -3.6003  -3.3264  -3.2221
    -2.8355  -2.6030  -2.3483  -2.1859  -2.0838  -2.0506  -1.5697  -1.2053
    -1.1650  -1.0133  -0.8782  -0.4500  -0.2961  -0.2646  -0.0215  -0.0064
     0.0600   0.1603   0.2158   0.4750   0.6253   0.8661   1.0076   1.2414
     1.3824   1.4632   1.7890   2.0797   2.1630   2.6135   3.9770   4.5545
     4.6690   4.8613   4.9148   5.1534   5.2906   5.3375   5.5948   5.7861
     6.5721

          k =-0.1250-0.2479 0.0000 ( 41706 PWs)   bands (ev):

   -48.8974 -48.7887 -48.7828 -48.7539 -48.7460 -48.6893 -48.6698 -48.5659
   -48.5440 -48.5172 -48.4666 -48.4305 -48.4046 -48.3991 -48.3943 -48.2787
   -48.1831 -48.1391 -19.0689 -18.8094 -18.6373 -18.4905 -18.2867 -18.1721
   -17.9754 -17.9544 -17.7941 -17.6076 -16.3091 -16.1117  -7.5108  -6.7313
    -6.6454  -6.5013  -6.4873  -6.4560  -6.4262  -6.3170  -6.2609  -5.9324
    -5.3049  -5.1901  -5.0710  -5.0215  -4.9056  -4.8188  -4.8038  -4.7353
    -4.7015  -4.5100  -4.4317  -4.2768  -3.8182  -3.8087  -3.6906  -3.4700
    -2.8298  -2.6191  -2.1864  -2.0234  -1.8691  -1.7291  -1.6384  -1.2378
    -1.1119  -1.0278  -0.8814  -0.2491  -0.2356  -0.1734  -0.0398   0.0598
     0.2833   0.5373   0.6975   0.7174   0.8815   1.0119   1.0163   1.1671
     1.3223   1.4103   1.6406   1.7756   2.1591   2.7188   4.2535   4.4441
     4.5268   4.6697   4.7070   5.3006   5.3118   5.5025   5.6524   5.9754
     6.6900

          k =-0.1250-0.1240 0.0000 ( 41692 PWs)   bands (ev):

   -48.8976 -48.7892 -48.7828 -48.7542 -48.7467 -48.6893 -48.6697 -48.5649
   -48.5440 -48.5173 -48.4666 -48.4305 -48.4047 -48.3990 -48.3943 -48.2787
   -48.1827 -48.1387 -19.2498 -18.8771 -18.7957 -18.6821 -18.0628 -18.0021
   -17.8992 -17.7708 -17.7031 -17.5772 -16.3125 -16.1138  -7.5691  -7.5035
    -7.4615  -7.3770  -6.7301  -6.4535  -6.4174  -6.1896  -6.1596  -5.9158
    -5.5087  -5.3023  -5.1841  -4.9289  -4.5365  -4.3623  -4.3014  -4.2420
    -4.0389  -3.9596  -3.8935  -3.8511  -3.7273  -3.6003  -3.3264  -3.2221
    -2.8355  -2.6030  -2.3483  -2.1859  -2.0838  -2.0506  -1.5697  -1.2053
    -1.1650  -1.0133  -0.8782  -0.4500  -0.2961  -0.2646  -0.0215  -0.0064
     0.0600   0.1603   0.2158   0.4750   0.6253   0.8661   1.0076   1.2414
     1.3824   1.4632   1.7890   2.0797   2.1630   2.6135   3.9770   4.5545
     4.6690   4.8613   4.9148   5.1534   5.2906   5.3375   5.5948   5.7861
     6.5721

     the Fermi energy is     1.5227 ev

!    total energy              =   -1589.74822600 Ry
     estimated scf accuracy    <       0.00000080 Ry
     smearing contrib. (-TS)   =      -0.00016261 Ry
     internal energy E=F+TS    =   -1589.74806339 Ry

     The total energy is F=E-TS. E is the sum of the following terms:
     one-electron contribution =  -14880.21019401 Ry
     hartree contribution      =    7481.36836011 Ry
     xc contribution           =    -390.42097136 Ry
     ewald contribution        =    6313.72977162 Ry
     one-center paw contrib.   =    -114.21502975 Ry

     convergence has been achieved in  18 iterations

     negative rho (up, down):  1.917E+00 0.000E+00

     Forces acting on atoms (cartesian axes, Ry/au):

     atom    1 type  1   force =     0.00000028    0.00000005    0.03384606
     atom    2 type  1   force =    -0.00000032    0.00000001   -0.03983932
     atom    3 type  1   force =    -0.00000005    0.00000017    0.00116339
     atom    4 type  1   force =     0.00000058   -0.00000001   -0.00022397
     atom    5 type  1   force =     0.00000041    0.00000131    0.00067121
     atom    6 type  1   force =     0.00000025   -0.00000028   -0.00129895
     atom    7 type  2   force =    -0.00000027    0.00000041    0.00983206
     atom    8 type  2   force =    -0.00000020    0.00000061    0.03432372
     atom    9 type  2   force =    -0.00000061    0.02222326   -0.02521624
     atom   10 type  2   force =     0.00000035   -0.02222426   -0.02521601
     atom   11 type  2   force =     0.00000026   -0.00000114   -0.00044738
     atom   12 type  2   force =    -0.00000005    0.00000028    0.00953918
     atom   13 type  2   force =    -0.00000050   -0.00065000    0.00183940
     atom   14 type  2   force =     0.00000080    0.00064910    0.00184071
     atom   15 type  2   force =    -0.00000066   -0.00000140   -0.00165777
     atom   16 type  2   force =    -0.00000075   -0.00000019    0.00042573
     atom   17 type  2   force =     0.00000038   -0.00030250    0.00020889
     atom   18 type  2   force =     0.00000009    0.00030458    0.00020928

     Total force =     0.003816     Total SCF correction =     0.001989
     SCF correction compared to forces is large: reduce conv_thr to get better values

     Writing all to output data dir ./tmp_slab__base/slab__base.save/ :
     XML data file, charge density, pseudopotentials, collected wavefunctions

     init_run     :     56.50s CPU     61.61s WALL (       1 calls)
     electrons    :   2411.79s CPU   2608.84s WALL (       1 calls)
     forces       :     18.65s CPU     20.73s WALL (       1 calls)

     Called by init_run:
     wfcinit      :     43.44s CPU     46.62s WALL (       1 calls)
     potinit      :      2.88s CPU      3.38s WALL (       1 calls)
     hinit0       :      3.78s CPU      4.10s WALL (       1 calls)

     Called by electrons:
     c_bands      :   1845.61s CPU   1977.27s WALL (      18 calls)
     sum_band     :    385.68s CPU    421.29s WALL (      18 calls)
     v_of_rho     :     31.23s CPU     36.31s WALL (      19 calls)
     newd         :     37.06s CPU     55.14s WALL (      19 calls)
     PAW_pot      :      5.38s CPU      5.63s WALL (      19 calls)
     mix_rho      :    107.33s CPU    114.73s WALL (      18 calls)

     Called by c_bands:
     init_us_2    :     29.95s CPU     31.78s WALL (     304 calls)
     cegterg      :   1654.41s CPU   1776.94s WALL (     144 calls)

     Called by *egterg:
     cdiaghg      :     14.54s CPU     15.28s WALL (    1225 calls)
     h_psi        :   1209.71s CPU   1277.69s WALL (    1233 calls)
     s_psi        :     91.71s CPU     95.84s WALL (    1233 calls)
     g_psi        :     10.44s CPU     10.88s WALL (    1081 calls)

     Called by h_psi:
     h_psi:calbec :    101.81s CPU    106.76s WALL (    1233 calls)
     vloc_psi     :    999.90s CPU   1045.44s WALL (    1233 calls)
                                        0.00s GPU  (    1233 calls)
     add_vuspsi   :     99.01s CPU    103.14s WALL (    1233 calls)

     General routines
     calbec       :    143.80s CPU    150.72s WALL (    1409 calls)
     fft          :     15.15s CPU     15.69s WALL (     256 calls)
     ffts         :     35.20s CPU     36.76s WALL (    2128 calls)
     fftw         :    936.08s CPU    978.45s WALL (   77696 calls)
     interpolate  :      2.57s CPU      2.70s WALL (      19 calls)

     Parallel routines

     PWSCF        :  41m27.69s CPU  44m52.42s WALL


   This run was terminated on:   5: 3:35   7Aug2026            

=------------------------------------------------------------------------------=
   JOB DONE.
=------------------------------------------------------------------------------=
