
     Program PWSCF v.7.5 starts on 21Aug2026 at 12:45: 0 

     This program is part of the open-source Quantum ESPRESSO suite
     for quantum simulation of materials; please cite
         "P. Giannozzi et al., J. Phys.:Condens. Matter 21 395502 (2009);
         "P. Giannozzi et al., J. Phys.:Condens. Matter 29 465901 (2017);
         "P. Giannozzi et al., J. Chem. Phys. 152 154105 (2020);
          URL http://www.quantum-espresso.org", 
     in publications or presentations arising from this work. More details at
     http://www.quantum-espresso.org/quote

     Parallel version (MPI & OpenMP), running on      20 processor cores
     Number of MPI processes:                20
     Threads/MPI process:                     1

     MPI processes distributed on     1 nodes
     21530 MiB available memory on the printing compute node when the environment starts

     Reading input from s0_OOH__u0.0__g1.run.in

     Current dimensions of program PWSCF are:
     Max number of different atomic species (ntypx) = 10
     Max number of k-points (npk) =  40000
     Max angular momentum in pseudopotentials (lmaxx) =  4
     file O.pbe-n-kjpaw_psl.0.1.UPF: wavefunction(s)  2P renormalized
     Message from routine setup:
     using ibrav=0 with symmetry is DISCOURAGED, use correct ibrav instead

     K-points division:     npool     =       4
     R & G space division:  proc/nbgrp/npool/nimage =       5
     Subspace diagonalization in iterative solution of the eigenvalue problem:
     a serial algorithm will be used


     Parallelization info
     --------------------
     sticks:   dense  smooth     PW     G-vecs:    dense   smooth      PW
     Min         664     330     94               168246    59478    8976
     Max         665     331     95               168255    59487    8990
     Sum        3323    1653    471               841263   297421   44917

     Using Slab Decomposition



     bravais-lattice index     =            0
     lattice parameter (alat)  =       5.5104  a.u.
     unit-cell volume          =    3076.9124 (a.u.)^3
     number of atoms/cell      =           21
     number of atomic types    =            3
     number of electrons       =       169.00
     number of Kohn-Sham states=          102
     kinetic-energy cutoff     =      80.0000  Ry
     charge density cutoff     =     640.0000  Ry
     scf convergence threshold =      1.0E-06
     mixing beta               =       0.3000
     number of iterations used =            8  local-TF  mixing
     Exchange-correlation= SLA  PW   PBX  PBC
                           (   1   4   3   4   0   0   0)

     celldm(1)=   5.510441  celldm(2)=   0.000000  celldm(3)=   0.000000
     celldm(4)=   0.000000  celldm(5)=   0.000000  celldm(6)=   0.000000

     crystal axes: (cart. coord. in units of alat)
               a(1) = (   1.000000   0.000000   0.000000 )  
               a(2) = (   0.000000   2.144115   0.000000 )  
               a(3) = (   0.000000   0.000000   8.576458 )  

     reciprocal axes: (cart. coord. in units 2 pi/alat)
               b(1) = (  1.000000  0.000000  0.000000 )  
               b(2) = (  0.000000  0.466393  0.000000 )  
               b(3) = (  0.000000  0.000000  0.116598 )  


     PseudoPot. # 1 for Cr read from file:
     /usr/share/espresso/pseudo/cr_pbe_v1.5.uspp.F.UPF
     MD5 check sum: 0d52af634a40206e4dee301ad30da4bf
     Pseudo is Ultrasoft + core correction, Zval = 14.0
     Generated by new atomic code, or converted to UPF format
     Using radial grid of  857 points,  6 beta functions with: 
                l(1) =   0
                l(2) =   0
                l(3) =   1
                l(4) =   1
                l(5) =   2
                l(6) =   2
     Q(r) pseudized with  8 coefficients,  rinner =    0.950   0.950   0.950
                                                       0.950   0.950

     PseudoPot. # 2 for H  read from file:
     /usr/share/espresso/pseudo/H.pbe-rrkjus_psl.1.0.0.UPF
     MD5 check sum: f52b6d4d1c606e5624b1dc7b2218f220
     Pseudo is Ultrasoft, Zval =  1.0
     Generated using "atomic" code by A. Dal Corso  v.5.1
     Using radial grid of  929 points,  2 beta functions with: 
                l(1) =   0
                l(2) =   0
     Q(r) pseudized with 0 coefficients 


     PseudoPot. # 3 for O  read from file:
     /usr/share/espresso/pseudo/O.pbe-n-kjpaw_psl.0.1.UPF
     MD5 check sum: 0234752ac141de4415c5fc33072bef88
     Pseudo is Projector augmented-wave + core cor, Zval =  6.0
     Generated using "atomic" code by A. Dal Corso  v.5.0.99 svn rev. 10869
     Shape of augmentation charge: BESSEL
     Using radial grid of 1095 points,  4 beta functions with: 
                l(1) =   0
                l(2) =   0
                l(3) =   1
                l(4) =   1
     Q(r) pseudized with 0 coefficients 


     atomic species   valence    mass     pseudopotential
     Cr               14.00    51.99600     Cr( 1.00)
     H                 1.00     1.00800     H ( 1.00)
     O                 6.00    15.99900     O ( 1.00)

     Starting magnetic structure 
     atomic species   magnetization
     Cr              0.600
     H               0.000
     O               0.000

      2 Sym. Ops. (no inversion) found ( 1 have fractional translation)



   Cartesian axes

     site n.     atom                  positions (alat units)
         1        Cr     tau(   1) = (   0.0000000   0.5360286   3.2161719  )
         2        Cr     tau(   2) = (   0.5000000   1.6080859   3.2161719  )
         3        Cr     tau(   3) = (   0.0011527   1.6080859   4.3089263  )
         4        Cr     tau(   4) = (   0.4993817   0.5360286   4.2961656  )
         5        Cr     tau(   5) = (  -0.0085889   0.5360286   5.3745755  )
         6        Cr     tau(   6) = (   0.5028693   1.6080859   5.4254587  )
         7        O      tau(   7) = (   0.0000000   1.6080859   3.6342742  )
         8        O      tau(   8) = (   0.0000000   1.6080859   2.7980695  )
         9        O      tau(   9) = (   0.5000000   0.1179263   3.2161719  )
        10        O      tau(  10) = (   0.5000000   0.9541310   3.2161719  )
        11        O      tau(  11) = (  -0.0015627   0.5360286   4.7288986  )
        12        O      tau(  12) = (   0.0000000   0.5360286   3.8701268  )
        13        O      tau(  13) = (   0.5010389   1.1848813   4.3017892  )
        14        O      tau(  14) = (   0.5010389   2.0312906   4.3017892  )
        15        O      tau(  15) = (  -0.0029502   1.6080859   5.8123958  )
        16        O      tau(  16) = (   0.0026206   1.6080859   4.9663566  )
        17        O      tau(  17) = (   0.4972029   0.1158953   5.4026833  )
        18        O      tau(  18) = (   0.4972029   0.9561620   5.4026833  )
        19        O      tau(  19) = (   0.0860179   0.5360286   6.0803268  )
        20        O      tau(  20) = (  -0.1886167   0.5360286   6.4573034  )
        21        H      tau(  21) = (  -0.5167581   0.5360286   6.3029246  )

     number of k points=    15  Marzari-Vanderbilt smearing, width (Ry)=  0.0100
                       cart. coord. in units 2pi/alat
        k(    1) = (   0.0000000   0.0000000   0.0000000), wk =   0.0277778
        k(    2) = (   0.0000000   0.1165982   0.0000000), wk =   0.0555556
        k(    3) = (   0.0000000  -0.2331965   0.0000000), wk =   0.0277778
        k(    4) = (   0.1111111   0.0000000   0.0000000), wk =   0.0555556
        k(    5) = (   0.1111111   0.1165982   0.0000000), wk =   0.1111111
        k(    6) = (   0.1111111  -0.2331965   0.0000000), wk =   0.0555556
        k(    7) = (   0.2222222   0.0000000   0.0000000), wk =   0.0555556
        k(    8) = (   0.2222222   0.1165982   0.0000000), wk =   0.1111111
        k(    9) = (   0.2222222  -0.2331965   0.0000000), wk =   0.0555556
        k(   10) = (   0.3333333   0.0000000   0.0000000), wk =   0.0555556
        k(   11) = (   0.3333333   0.1165982   0.0000000), wk =   0.1111111
        k(   12) = (   0.3333333  -0.2331965   0.0000000), wk =   0.0555556
        k(   13) = (   0.4444444   0.0000000   0.0000000), wk =   0.0555556
        k(   14) = (   0.4444444   0.1165982   0.0000000), wk =   0.1111111
        k(   15) = (   0.4444444  -0.2331965   0.0000000), wk =   0.0555556

     Dense  grid:   841263 G-vectors     FFT dimensions: (  45,  96, 384)

     Smooth grid:   297421 G-vectors     FFT dimensions: (  32,  72, 270)

     Estimated max dynamical RAM per process >     449.43 MB

     Estimated total dynamical RAM >       7.57 GB

     Check: negative core charge=   -0.000001
     Generating pointlists ...
     new r_m :   0.2589 (alat units)  1.4267 (a.u.) for type    1
     new r_m :   0.1496 (alat units)  0.8243 (a.u.) for type    2
     new r_m :   0.1496 (alat units)  0.8243 (a.u.) for type    3

     Initial potential from superposition of free atoms

     starting charge     162.9999, renormalised to     169.0000

     negative rho (up, down):  4.250E-03 1.037E-03
     Starting wfcs are  117 randomized atomic wfcs
     Checking if some PAW data can be deallocated... 

     total cpu time spent up to now is       29.7 secs

     per-process dynamical memory:   263.9 Mb

     Self-consistent Calculation

     iteration #  1     ecut=    80.00 Ry     beta= 0.30
     Davidson diagonalization with overlap
     ethr =  1.00E-02,  avg # of iterations =  5.1

     negative rho (up, down):  7.036E-03 1.070E-02

     total cpu time spent up to now is      116.7 secs

     total energy              =   -1636.91752003 Ry
     estimated scf accuracy    <     295.92166060 Ry

     total magnetization       =    20.59 Bohr mag/cell
     absolute magnetization    =    21.58 Bohr mag/cell

     iteration #  2     ecut=    80.00 Ry     beta= 0.30
     Davidson diagonalization with overlap
     ethr =  1.00E-02,  avg # of iterations =  1.6

     negative rho (up, down):  1.022E-02 2.668E-02

     total cpu time spent up to now is      179.2 secs

     total energy              =   -1636.50866326 Ry
     estimated scf accuracy    <      78.76733664 Ry

     total magnetization       =    14.88 Bohr mag/cell
     absolute magnetization    =    21.35 Bohr mag/cell

     iteration #  3     ecut=    80.00 Ry     beta= 0.30
     Davidson diagonalization with overlap
     ethr =  1.00E-02,  avg # of iterations =  3.3

     negative rho (up, down):  1.247E-02 3.687E-02

     total cpu time spent up to now is      250.7 secs

     total energy              =   -1637.68355543 Ry
     estimated scf accuracy    <      29.39201945 Ry

     total magnetization       =    13.58 Bohr mag/cell
     absolute magnetization    =    21.32 Bohr mag/cell

     iteration #  4     ecut=    80.00 Ry     beta= 0.30
     Davidson diagonalization with overlap
     ethr =  1.00E-02,  avg # of iterations =  2.1

     negative rho (up, down):  2.034E-02 5.439E-02

     total cpu time spent up to now is      315.5 secs

     total energy              =   -1637.07733910 Ry
     estimated scf accuracy    <      14.62077616 Ry

     total magnetization       =    12.33 Bohr mag/cell
     absolute magnetization    =    19.81 Bohr mag/cell

     iteration #  5     ecut=    80.00 Ry     beta= 0.30
     Davidson diagonalization with overlap
     ethr =  8.65E-03,  avg # of iterations =  3.1

     negative rho (up, down):  2.448E-02 5.935E-02

     total cpu time spent up to now is      385.0 secs

     total energy              =   -1637.80896371 Ry
     estimated scf accuracy    <       4.68270791 Ry

     total magnetization       =    12.33 Bohr mag/cell
     absolute magnetization    =    16.59 Bohr mag/cell

     iteration #  6     ecut=    80.00 Ry     beta= 0.30
     Davidson diagonalization with overlap
     ethr =  2.77E-03,  avg # of iterations =  6.0

     negative rho (up, down):  2.286E-02 5.301E-02

     total cpu time spent up to now is      474.6 secs

     total energy              =   -1638.27870703 Ry
     estimated scf accuracy    <       2.21313129 Ry

     total magnetization       =    11.22 Bohr mag/cell
     absolute magnetization    =    14.97 Bohr mag/cell

     iteration #  7     ecut=    80.00 Ry     beta= 0.30
     Davidson diagonalization with overlap
     ethr =  1.31E-03,  avg # of iterations =  2.2

     negative rho (up, down):  2.252E-02 4.900E-02

     total cpu time spent up to now is      542.5 secs

     total energy              =   -1638.06456365 Ry
     estimated scf accuracy    <       1.99367877 Ry

     total magnetization       =    11.11 Bohr mag/cell
     absolute magnetization    =    15.00 Bohr mag/cell

     iteration #  8     ecut=    80.00 Ry     beta= 0.30
     Davidson diagonalization with overlap
     ethr =  1.18E-03,  avg # of iterations =  3.4

     negative rho (up, down):  1.858E-02 4.047E-02

     total cpu time spent up to now is      616.7 secs

     total energy              =   -1637.69799785 Ry
     estimated scf accuracy    <       1.81973133 Ry

     total magnetization       =    11.11 Bohr mag/cell
     absolute magnetization    =    14.77 Bohr mag/cell

     iteration #  9     ecut=    80.00 Ry     beta= 0.30
     Davidson diagonalization with overlap
     ethr =  1.08E-03,  avg # of iterations =  4.8

     negative rho (up, down):  1.973E-02 4.008E-02

     total cpu time spent up to now is      691.0 secs

     total energy              =   -1638.39641943 Ry
     estimated scf accuracy    <      11.16617855 Ry

     total magnetization       =    14.14 Bohr mag/cell
     absolute magnetization    =    15.67 Bohr mag/cell

     iteration # 10     ecut=    80.00 Ry     beta= 0.30
     Davidson diagonalization with overlap
     ethr =  1.08E-03,  avg # of iterations =  1.0

     negative rho (up, down):  2.127E-02 4.210E-02

     total cpu time spent up to now is      752.6 secs

     total energy              =   -1638.15548408 Ry
     estimated scf accuracy    <      10.82690618 Ry

     total magnetization       =    14.23 Bohr mag/cell
     absolute magnetization    =    15.49 Bohr mag/cell

     iteration # 11     ecut=    80.00 Ry     beta= 0.30
     Davidson diagonalization with overlap
     ethr =  1.08E-03,  avg # of iterations =  1.0

     negative rho (up, down):  2.137E-02 4.195E-02

     total cpu time spent up to now is      807.4 secs

     total energy              =   -1638.00478177 Ry
     estimated scf accuracy    <       6.74320866 Ry

     total magnetization       =    13.80 Bohr mag/cell
     absolute magnetization    =    15.08 Bohr mag/cell

     iteration # 12     ecut=    80.00 Ry     beta= 0.30
     Davidson diagonalization with overlap
     ethr =  1.08E-03,  avg # of iterations =  1.0

     negative rho (up, down):  2.001E-02 3.979E-02

     total cpu time spent up to now is      861.4 secs

     total energy              =   -1638.07212673 Ry
     estimated scf accuracy    <       3.46339797 Ry

     total magnetization       =    13.19 Bohr mag/cell
     absolute magnetization    =    14.83 Bohr mag/cell

     iteration # 13     ecut=    80.00 Ry     beta= 0.30
     Davidson diagonalization with overlap
     ethr =  1.08E-03,  avg # of iterations =  1.0

     negative rho (up, down):  1.726E-02 3.626E-02

     total cpu time spent up to now is      913.8 secs

     total energy              =   -1637.81667596 Ry
     estimated scf accuracy    <       5.60735333 Ry

     total magnetization       =    13.83 Bohr mag/cell
     absolute magnetization    =    15.11 Bohr mag/cell

     iteration # 14     ecut=    80.00 Ry     beta= 0.30
     Davidson diagonalization with overlap
     ethr =  1.08E-03,  avg # of iterations =  1.2

     negative rho (up, down):  1.579E-02 3.449E-02

     total cpu time spent up to now is      955.8 secs

     total energy              =   -1637.92068748 Ry
     estimated scf accuracy    <       0.33318727 Ry

     total magnetization       =    11.02 Bohr mag/cell
     absolute magnetization    =    14.11 Bohr mag/cell

     iteration # 15     ecut=    80.00 Ry     beta= 0.30
     Davidson diagonalization with overlap
     ethr =  1.97E-04,  avg # of iterations =  2.7

     negative rho (up, down):  1.303E-02 3.139E-02

     total cpu time spent up to now is     1008.1 secs

     total energy              =   -1637.92307659 Ry
     estimated scf accuracy    <       0.15102541 Ry

     total magnetization       =    11.20 Bohr mag/cell
     absolute magnetization    =    14.14 Bohr mag/cell

     iteration # 16     ecut=    80.00 Ry     beta= 0.30
     Davidson diagonalization with overlap
     ethr =  8.94E-05,  avg # of iterations =  3.1

     negative rho (up, down):  1.052E-02 2.895E-02

     total cpu time spent up to now is     1060.9 secs

     total energy              =   -1637.91358246 Ry
     estimated scf accuracy    <       0.49164366 Ry

     total magnetization       =    10.94 Bohr mag/cell
     absolute magnetization    =    13.98 Bohr mag/cell

     iteration # 17     ecut=    80.00 Ry     beta= 0.30
     Davidson diagonalization with overlap
     ethr =  8.94E-05,  avg # of iterations =  1.0

     negative rho (up, down):  4.879E-03 2.366E-02

     total cpu time spent up to now is     1107.6 secs

     total energy              =   -1637.87573757 Ry
     estimated scf accuracy    <       0.37041464 Ry

     total magnetization       =    11.00 Bohr mag/cell
     absolute magnetization    =    13.95 Bohr mag/cell

     iteration # 18     ecut=    80.00 Ry     beta= 0.30
     Davidson diagonalization with overlap
     ethr =  8.94E-05,  avg # of iterations =  2.0

     negative rho (up, down):  4.017E-03 2.272E-02

     total cpu time spent up to now is     1157.8 secs

     total energy              =   -1637.89287454 Ry
     estimated scf accuracy    <       0.80102204 Ry

     total magnetization       =    12.15 Bohr mag/cell
     absolute magnetization    =    14.38 Bohr mag/cell

     iteration # 19     ecut=    80.00 Ry     beta= 0.30
     Davidson diagonalization with overlap
     ethr =  8.94E-05,  avg # of iterations =  1.0

     negative rho (up, down):  8.809E-04 1.954E-02

     total cpu time spent up to now is     1202.1 secs

     total energy              =   -1637.89544402 Ry
     estimated scf accuracy    <       0.12546728 Ry

     total magnetization       =    11.64 Bohr mag/cell
     absolute magnetization    =    14.24 Bohr mag/cell

     iteration # 20     ecut=    80.00 Ry     beta= 0.30
     Davidson diagonalization with overlap
     ethr =  7.42E-05,  avg # of iterations =  1.0

     negative rho (up, down):  1.200E-03 2.014E-02

     total cpu time spent up to now is     1244.9 secs

     total energy              =   -1637.89765244 Ry
     estimated scf accuracy    <       0.10389815 Ry

     total magnetization       =    11.27 Bohr mag/cell
     absolute magnetization    =    14.54 Bohr mag/cell

     iteration # 21     ecut=    80.00 Ry     beta= 0.30
     Davidson diagonalization with overlap
     ethr =  6.15E-05,  avg # of iterations =  1.0

     negative rho (up, down):  2.249E-03 2.109E-02

     total cpu time spent up to now is     1286.7 secs

     total energy              =   -1637.90238566 Ry
     estimated scf accuracy    <       0.06329304 Ry

     total magnetization       =    10.95 Bohr mag/cell
     absolute magnetization    =    14.79 Bohr mag/cell

     iteration # 22     ecut=    80.00 Ry     beta= 0.30
     Davidson diagonalization with overlap
     ethr =  3.75E-05,  avg # of iterations =  1.6

     negative rho (up, down):  7.918E-03 2.639E-02

     total cpu time spent up to now is     1335.8 secs

     total energy              =   -1637.89894912 Ry
     estimated scf accuracy    <       0.11283015 Ry

     total magnetization       =    11.00 Bohr mag/cell
     absolute magnetization    =    14.92 Bohr mag/cell

     iteration # 23     ecut=    80.00 Ry     beta= 0.30
     Davidson diagonalization with overlap
     ethr =  3.75E-05,  avg # of iterations =  2.0

     negative rho (up, down):  8.146E-03 2.678E-02

     total cpu time spent up to now is     1387.0 secs

     total energy              =   -1637.89817477 Ry
     estimated scf accuracy    <       0.10629531 Ry

     total magnetization       =    11.00 Bohr mag/cell
     absolute magnetization    =    15.01 Bohr mag/cell

     iteration # 24     ecut=    80.00 Ry     beta= 0.30
     Davidson diagonalization with overlap
     ethr =  3.75E-05,  avg # of iterations =  1.0

     negative rho (up, down):  3.918E-03 2.294E-02

     total cpu time spent up to now is     1430.2 secs

     total energy              =   -1637.89394083 Ry
     estimated scf accuracy    <       0.09502961 Ry

     total magnetization       =    11.00 Bohr mag/cell
     absolute magnetization    =    15.01 Bohr mag/cell

     iteration # 25     ecut=    80.00 Ry     beta= 0.30
     Davidson diagonalization with overlap
     ethr =  3.75E-05,  avg # of iterations =  1.1

     negative rho (up, down):  2.011E-03 2.119E-02

     total cpu time spent up to now is     1474.3 secs

     total energy              =   -1637.89378853 Ry
     estimated scf accuracy    <       0.02506910 Ry

     total magnetization       =    11.00 Bohr mag/cell
     absolute magnetization    =    14.84 Bohr mag/cell

     iteration # 26     ecut=    80.00 Ry     beta= 0.30
     Davidson diagonalization with overlap
     ethr =  1.48E-05,  avg # of iterations =  5.7

     negative rho (up, down):  1.913E-03 2.109E-02

     total cpu time spent up to now is     1533.3 secs

     total energy              =   -1637.89629454 Ry
     estimated scf accuracy    <       0.03210670 Ry

     total magnetization       =    11.00 Bohr mag/cell
     absolute magnetization    =    14.48 Bohr mag/cell

     iteration # 27     ecut=    80.00 Ry     beta= 0.30
     Davidson diagonalization with overlap
     ethr =  1.48E-05,  avg # of iterations =  1.0

     negative rho (up, down):  1.904E-03 2.109E-02

     total cpu time spent up to now is     1580.8 secs

     total energy              =   -1637.89673515 Ry
     estimated scf accuracy    <       0.02794980 Ry

     total magnetization       =    11.00 Bohr mag/cell
     absolute magnetization    =    14.50 Bohr mag/cell

     iteration # 28     ecut=    80.00 Ry     beta= 0.30
     Davidson diagonalization with overlap
     ethr =  1.48E-05,  avg # of iterations =  1.0

     negative rho (up, down):  1.851E-03 2.104E-02

     total cpu time spent up to now is     1624.1 secs

     total energy              =   -1637.89687920 Ry
     estimated scf accuracy    <       0.04210808 Ry

     total magnetization       =    11.00 Bohr mag/cell
     absolute magnetization    =    14.45 Bohr mag/cell

     iteration # 29     ecut=    80.00 Ry     beta= 0.30
     Davidson diagonalization with overlap
     ethr =  1.48E-05,  avg # of iterations =  1.0

     negative rho (up, down):  1.792E-03 2.093E-02

     total cpu time spent up to now is     1670.0 secs

     total energy              =   -1637.89892435 Ry
     estimated scf accuracy    <       0.04549527 Ry

     total magnetization       =    11.00 Bohr mag/cell
     absolute magnetization    =    14.44 Bohr mag/cell

     iteration # 30     ecut=    80.00 Ry     beta= 0.30
     Davidson diagonalization with overlap
     ethr =  1.48E-05,  avg # of iterations =  1.6

     negative rho (up, down):  1.722E-03 2.086E-02

     total cpu time spent up to now is     1724.4 secs

     total energy              =   -1637.89991338 Ry
     estimated scf accuracy    <       0.20889941 Ry

     total magnetization       =    11.00 Bohr mag/cell
     absolute magnetization    =    14.17 Bohr mag/cell

     iteration # 31     ecut=    80.00 Ry     beta= 0.30
     Davidson diagonalization with overlap
     ethr =  1.48E-05,  avg # of iterations =  1.0

     negative rho (up, down):  8.654E-04 2.001E-02

     total cpu time spent up to now is     1783.4 secs

     total energy              =   -1637.90020481 Ry
     estimated scf accuracy    <       0.19312194 Ry

     total magnetization       =    11.00 Bohr mag/cell
     absolute magnetization    =    14.19 Bohr mag/cell

     iteration # 32     ecut=    80.00 Ry     beta= 0.30
     Davidson diagonalization with overlap
     ethr =  1.48E-05,  avg # of iterations =  1.0

     negative rho (up, down):  1.398E-03 2.059E-02

     total cpu time spent up to now is     1840.2 secs

     total energy              =   -1637.90040700 Ry
     estimated scf accuracy    <       0.19205865 Ry

     total magnetization       =    11.00 Bohr mag/cell
     absolute magnetization    =    14.18 Bohr mag/cell

     iteration # 33     ecut=    80.00 Ry     beta= 0.30
     Davidson diagonalization with overlap
     ethr =  1.48E-05,  avg # of iterations =  1.2

     negative rho (up, down):  9.745E-05 1.926E-02

     total cpu time spent up to now is     1892.8 secs

     total energy              =   -1637.89143416 Ry
     estimated scf accuracy    <       0.20539431 Ry

     total magnetization       =    11.00 Bohr mag/cell
     absolute magnetization    =    14.16 Bohr mag/cell

     iteration # 34     ecut=    80.00 Ry     beta= 0.30
     Davidson diagonalization with overlap
     ethr =  1.48E-05,  avg # of iterations =  1.5

     negative rho (up, down):  2.177E-04 1.925E-02

     total cpu time spent up to now is     1945.1 secs

     total energy              =   -1637.89554128 Ry
     estimated scf accuracy    <       0.00301088 Ry

     total magnetization       =    11.00 Bohr mag/cell
     absolute magnetization    =    14.64 Bohr mag/cell

     iteration # 35     ecut=    80.00 Ry     beta= 0.30
     Davidson diagonalization with overlap
     c_bands:  1 eigenvalues not converged
     ethr =  1.78E-06,  avg # of iterations =  9.5

     negative rho (up, down):  1.820E-03 2.053E-02

     total cpu time spent up to now is     2051.0 secs

     total energy              =   -1637.89511920 Ry
     estimated scf accuracy    <       0.00355278 Ry

     total magnetization       =    11.00 Bohr mag/cell
     absolute magnetization    =    14.57 Bohr mag/cell

     iteration # 36     ecut=    80.00 Ry     beta= 0.30
     Davidson diagonalization with overlap
     ethr =  1.78E-06,  avg # of iterations =  2.8

     negative rho (up, down):  2.066E-03 2.056E-02

     total cpu time spent up to now is     2142.3 secs

     total energy              =   -1637.89528006 Ry
     estimated scf accuracy    <       0.00095938 Ry

     total magnetization       =    11.00 Bohr mag/cell
     absolute magnetization    =    14.56 Bohr mag/cell

     iteration # 37     ecut=    80.00 Ry     beta= 0.30
     Davidson diagonalization with overlap
     ethr =  5.68E-07,  avg # of iterations =  2.5

     negative rho (up, down):  1.424E-03 1.965E-02

     total cpu time spent up to now is     2247.8 secs

     total energy              =   -1637.89537674 Ry
     estimated scf accuracy    <       0.00025111 Ry

     total magnetization       =    11.00 Bohr mag/cell
     absolute magnetization    =    14.57 Bohr mag/cell

     iteration # 38     ecut=    80.00 Ry     beta= 0.30
     Davidson diagonalization with overlap
     ethr =  1.49E-07,  avg # of iterations =  2.7

     negative rho (up, down):  1.507E-03 1.944E-02

     total cpu time spent up to now is     2355.0 secs

     total energy              =   -1637.89542918 Ry
     estimated scf accuracy    <       0.00009575 Ry

     total magnetization       =    11.00 Bohr mag/cell
     absolute magnetization    =    14.57 Bohr mag/cell

     iteration # 39     ecut=    80.00 Ry     beta= 0.30
     Davidson diagonalization with overlap
     ethr =  5.67E-08,  avg # of iterations =  2.2

     negative rho (up, down):  1.946E-03 1.967E-02

     total cpu time spent up to now is     2448.1 secs

     total energy              =   -1637.89545450 Ry
     estimated scf accuracy    <       0.00006719 Ry

     total magnetization       =    11.00 Bohr mag/cell
     absolute magnetization    =    14.57 Bohr mag/cell

     iteration # 40     ecut=    80.00 Ry     beta= 0.30
     Davidson diagonalization with overlap
     ethr =  3.98E-08,  avg # of iterations =  2.0

     negative rho (up, down):  1.974E-03 1.964E-02

     total cpu time spent up to now is     2539.7 secs

     total energy              =   -1637.89546044 Ry
     estimated scf accuracy    <       0.00001288 Ry

     total magnetization       =    11.00 Bohr mag/cell
     absolute magnetization    =    14.58 Bohr mag/cell

     iteration # 41     ecut=    80.00 Ry     beta= 0.30
     Davidson diagonalization with overlap
     ethr =  7.62E-09,  avg # of iterations =  4.1

     negative rho (up, down):  1.988E-03 1.963E-02

     total cpu time spent up to now is     2667.1 secs

     total energy              =   -1637.89546268 Ry
     estimated scf accuracy    <       0.00000337 Ry

     total magnetization       =    11.00 Bohr mag/cell
     absolute magnetization    =    14.58 Bohr mag/cell

     iteration # 42     ecut=    80.00 Ry     beta= 0.30
     Davidson diagonalization with overlap
     ethr =  1.99E-09,  avg # of iterations =  2.8

     negative rho (up, down):  1.981E-03 1.959E-02

     total cpu time spent up to now is     2775.0 secs

     total energy              =   -1637.89546391 Ry
     estimated scf accuracy    <       0.00000183 Ry

     total magnetization       =    11.00 Bohr mag/cell
     absolute magnetization    =    14.58 Bohr mag/cell

     iteration # 43     ecut=    80.00 Ry     beta= 0.30
     Davidson diagonalization with overlap
     ethr =  1.08E-09,  avg # of iterations =  2.0

     negative rho (up, down):  2.005E-03 1.961E-02

     total cpu time spent up to now is     2867.6 secs

     total energy              =   -1637.89546437 Ry
     estimated scf accuracy    <       0.00000107 Ry

     total magnetization       =    11.00 Bohr mag/cell
     absolute magnetization    =    14.58 Bohr mag/cell

     iteration # 44     ecut=    80.00 Ry     beta= 0.30
     Davidson diagonalization with overlap
     ethr =  6.34E-10,  avg # of iterations =  2.0

     negative rho (up, down):  2.006E-03 1.961E-02

     Magnetic moment per site  (integrated on atomic sphere of radius R)
     atom   1 (R=0.259)  charge= 10.4298  magn=  1.9388
     atom   2 (R=0.259)  charge= 10.3520  magn=  1.4653
     atom   3 (R=0.259)  charge= 10.3736  magn=  1.7114
     atom   4 (R=0.259)  charge= 10.3794  magn=  1.7343
     atom   5 (R=0.259)  charge= 10.3902  magn=  1.7618
     atom   6 (R=0.259)  charge= 10.3530  magn=  1.4348
     atom   7 (R=0.150)  charge=  2.2815  magn= -0.0464
     atom   8 (R=0.150)  charge=  2.2548  magn= -0.0761
     atom   9 (R=0.150)  charge=  2.2865  magn= -0.0315
     atom  10 (R=0.150)  charge=  2.2865  magn= -0.0315
     atom  11 (R=0.150)  charge=  2.2814  magn= -0.0385
     atom  12 (R=0.150)  charge=  2.2794  magn= -0.0452
     atom  13 (R=0.150)  charge=  2.2872  magn= -0.0364
     atom  14 (R=0.150)  charge=  2.2872  magn= -0.0364
     atom  15 (R=0.150)  charge=  2.2623  magn= -0.0704
     atom  16 (R=0.150)  charge=  2.2743  magn= -0.0465
     atom  17 (R=0.150)  charge=  2.2863  magn= -0.0322
     atom  18 (R=0.150)  charge=  2.2863  magn= -0.0322
     atom  19 (R=0.150)  charge=  2.2632  magn= -0.1481
     atom  20 (R=0.150)  charge=  2.2684  magn= -0.1297
     atom  21 (R=0.150)  charge=  0.4284  magn=  0.0016

     total cpu time spent up to now is     2946.1 secs

     End of self-consistent calculation

 ------ SPIN UP ------------


          k = 0.0000 0.0000 0.0000 ( 37133 PWs)   bands (ev):

   -73.0824 -73.0434 -72.9599 -72.9500 -72.9480 -72.9435 -44.4178 -44.4077
   -44.3892 -44.3755 -44.3401 -44.3351 -44.3153 -44.3013 -44.2839 -44.2350
   -44.2185 -44.2150 -44.2032 -44.1911 -44.1707 -44.1678 -44.1330 -44.1111
   -23.5352 -19.0480 -18.7060 -18.4394 -18.0523 -17.5574 -17.4479 -17.3434
   -17.3034 -17.2196 -17.1453 -16.6368 -16.2122 -14.3266  -7.7284  -6.8988
    -6.8017  -6.7307  -6.3760  -5.7157  -5.6021  -5.2751  -5.1076  -4.9801
    -4.8769  -4.8385  -4.8075  -4.5497  -4.5160  -4.4602  -4.4558  -3.9331
    -3.6683  -3.5923  -3.2815  -3.1898  -3.1165  -3.0053  -2.8375  -2.6555
    -2.5328  -2.4742  -2.3931  -2.2244  -1.9886  -1.9088  -1.8268  -1.6603
    -1.3724  -1.1720  -1.1046  -1.0109  -0.9392  -0.8805  -0.8021  -0.6610
    -0.6547  -0.6498  -0.6168  -0.5724  -0.5248  -0.4936  -0.0937   0.0731
     0.1986   0.3109   0.4646   0.6732   0.9618   1.2576   1.3475   1.4411
     1.5304   1.6446   2.1472   2.7655   3.3863   3.8516

          k = 0.0000 0.1166 0.0000 ( 37130 PWs)   bands (ev):

   -73.0824 -73.0434 -72.9599 -72.9498 -72.9479 -72.9437 -44.4161 -44.4077
   -44.3873 -44.3755 -44.3378 -44.3350 -44.3153 -44.3013 -44.2839 -44.2349
   -44.2205 -44.2167 -44.2032 -44.1935 -44.1708 -44.1678 -44.1327 -44.1114
   -23.5350 -18.9311 -18.5858 -18.3265 -18.2080 -17.7780 -17.6149 -17.3473
   -17.2474 -17.2111 -17.1113 -16.6330 -16.2031 -14.3259  -7.7199  -6.6216
    -6.5173  -6.4380  -6.3288  -5.7234  -5.4517  -5.2560  -4.9364  -4.9226
    -4.8078  -4.8048  -4.7761  -4.5600  -4.5207  -4.4551  -4.3502  -4.0409
    -3.9270  -3.7926  -3.7053  -3.5227  -3.3440  -3.2126  -2.9883  -2.8609
    -2.6471  -2.5516  -2.4509  -2.3714  -2.2430  -1.9904  -1.8447  -1.8046
    -1.5683  -1.2926  -1.2878  -1.0802  -0.9774  -0.8782  -0.6744  -0.6271
    -0.4217  -0.3550  -0.2965  -0.2753  -0.1665  -0.1250   0.0203   0.1083
     0.2645   0.3095   0.4759   0.6738   0.9269   1.1941   1.2514   1.3359
     1.4697   1.6359   2.4607   3.0126   3.5403   3.8669

          k = 0.0000-0.2332 0.0000 ( 37126 PWs)   bands (ev):

   -73.0824 -73.0434 -72.9599 -72.9497 -72.9479 -72.9439 -44.4144 -44.4077
   -44.3854 -44.3755 -44.3354 -44.3349 -44.3154 -44.3012 -44.2839 -44.2348
   -44.2226 -44.2185 -44.2032 -44.1960 -44.1708 -44.1679 -44.1324 -44.1117
   -23.5349 -18.7064 -18.4910 -18.3656 -18.0800 -18.0692 -17.8772 -17.3421
   -17.2432 -17.2092 -17.0725 -16.6305 -16.1949 -14.3252  -7.7149  -6.4716
    -6.1271  -6.0645  -6.0077  -5.7303  -5.4098  -4.9619  -4.8589  -4.8051
    -4.7362  -4.7237  -4.7109  -4.5710  -4.5236  -4.5155  -4.4533  -4.2167
    -4.1167  -4.0851  -4.0617  -3.8945  -3.7571  -3.5786  -3.0448  -2.9244
    -2.8387  -2.7948  -2.7246  -2.4872  -2.4139  -1.9263  -1.8251  -1.6419
    -1.5857  -1.3589  -1.2651  -1.1235  -0.9135  -0.8230  -0.7720  -0.6363
    -0.2189  -0.2139  -0.1822  -0.1556   0.0131   0.2140   0.2303   0.2900
     0.3015   0.4700   0.6497   0.7143   0.7491   0.9011   1.0950   1.2483
     1.3486   1.8026   2.8243   3.0347   3.8609   3.8615

          k = 0.1111 0.0000 0.0000 ( 37175 PWs)   bands (ev):

   -73.0809 -73.0419 -72.9583 -72.9484 -72.9464 -72.9420 -44.4160 -44.4056
   -44.3873 -44.3729 -44.3381 -44.3345 -44.3192 -44.3124 -44.2828 -44.2534
   -44.2157 -44.2121 -44.2003 -44.1900 -44.1883 -44.1867 -44.1527 -44.1302
   -23.4490 -18.9362 -18.6063 -18.3493 -17.9771 -17.5009 -17.4177 -17.3370
   -17.3293 -17.2444 -17.1722 -16.6636 -16.2267 -14.4954  -7.9278  -6.7512
    -6.6702  -6.6064  -6.2519  -5.6399  -5.5060  -5.2707  -5.2359  -5.1277
    -5.0920  -5.0575  -4.9299  -4.7599  -4.4736  -4.4175  -4.2529  -3.5556
    -3.5334  -3.4937  -3.1034  -3.0813  -3.0135  -2.9886  -2.8991  -2.8051
    -2.7027  -2.6778  -2.4490  -2.3943  -2.3897  -2.0356  -1.9212  -1.8902
    -1.7294  -1.6410  -1.5090  -1.2570  -0.9033  -0.8910  -0.7515  -0.6294
    -0.5650  -0.4466  -0.3518  -0.3031  -0.2485  -0.0548   0.0478   0.1217
     0.2855   0.5419   0.5796   0.7316   0.9027   1.1773   1.3457   1.4540
     1.4619   1.5695   2.2234   2.8594   3.4349   3.5371

          k = 0.1111 0.1166 0.0000 ( 37124 PWs)   bands (ev):

   -73.0809 -73.0418 -72.9583 -72.9482 -72.9464 -72.9421 -44.4146 -44.4056
   -44.3858 -44.3729 -44.3362 -44.3344 -44.3192 -44.3125 -44.2829 -44.2535
   -44.2174 -44.2136 -44.2003 -44.1906 -44.1899 -44.1867 -44.1524 -44.1304
   -23.4489 -18.8238 -18.4908 -18.2396 -18.1289 -17.7206 -17.5684 -17.3658
   -17.2652 -17.2367 -17.1224 -16.6599 -16.2185 -14.4947  -7.9228  -6.4753
    -6.3796  -6.3061  -6.2037  -5.6472  -5.3954  -5.2428  -5.1441  -5.1014
    -5.0463  -4.9873  -4.9015  -4.6730  -4.4682  -4.4068  -4.2121  -3.8141
    -3.6628  -3.6108  -3.4783  -3.4607  -3.2156  -3.0971  -3.0770  -3.0210
    -2.9903  -2.8645  -2.6381  -2.5153  -2.4548  -2.2642  -1.9690  -1.8476
    -1.7033  -1.6448  -1.4209  -1.1671  -1.0426  -0.8076  -0.6820  -0.3818
    -0.2994  -0.2245  -0.1146  -0.0741  -0.0322  -0.0065   0.0913   0.2205
     0.2969   0.5527   0.5768   0.7475   0.8696   1.1189   1.1786   1.2764
     1.4194   1.6868   2.4836   3.0471   3.4921   3.5453

          k = 0.1111-0.2332 0.0000 ( 37144 PWs)   bands (ev):

   -73.0809 -73.0418 -72.9583 -72.9481 -72.9464 -72.9423 -44.4132 -44.4055
   -44.3841 -44.3729 -44.3344 -44.3342 -44.3192 -44.3125 -44.2829 -44.2535
   -44.2190 -44.2152 -44.2003 -44.1928 -44.1899 -44.1866 -44.1520 -44.1306
   -23.4488 -18.6092 -18.3965 -18.2776 -18.0049 -18.0027 -17.8202 -17.3626
   -17.2689 -17.2270 -17.0814 -16.6574 -16.2111 -14.4940  -7.9196  -6.3395
    -5.9650  -5.9206  -5.8541  -5.6561  -5.3886  -5.1585  -5.0479  -5.0022
    -4.9692  -4.9497  -4.8621  -4.5126  -4.4297  -4.3986  -4.3105  -4.1967
    -3.9066  -3.8439  -3.7847  -3.6841  -3.6494  -3.4576  -3.3775  -3.2115
    -3.1405  -2.9948  -2.9146  -2.5518  -2.4986  -2.3388  -1.9410  -1.7313
    -1.4810  -1.4217  -1.3035  -1.2275  -1.0671  -0.8236  -0.6633  -0.2684
    -0.2318  -0.1610  -0.1366  -0.1153   0.0479   0.3656   0.4209   0.4641
     0.5639   0.5844   0.6239   0.7007   0.7872   0.8688   1.0305   1.1895
     1.2658   1.8433   2.7751   3.0784   3.4960   3.4987

          k = 0.2222 0.0000 0.0000 ( 37192 PWs)   bands (ev):

   -73.0770 -73.0379 -72.9544 -72.9444 -72.9426 -72.9381 -44.4114 -44.4009
   -44.3826 -44.3692 -44.3634 -44.3331 -44.3305 -44.3123 -44.2954 -44.2777
   -44.2386 -44.2349 -44.2086 -44.2050 -44.2024 -44.1923 -44.1812 -44.1784
   -23.2153 -18.6304 -18.3413 -18.1137 -17.7883 -17.4542 -17.3963 -17.3756
   -17.3075 -17.2409 -17.2188 -16.7288 -16.2478 -14.9639  -8.2504  -6.3590
    -6.3231  -6.2722  -5.9522  -5.5843  -5.5311  -5.4641  -5.4266  -5.3305
    -5.2651  -5.0162  -4.9636  -4.5008  -4.4744  -4.2922  -4.1446  -3.9076
    -3.7797  -3.7000  -3.5557  -3.5285  -3.3130  -3.2423  -2.9844  -2.8330
    -2.7236  -2.6104  -2.5496  -2.4775  -2.3407  -2.2661  -2.1547  -2.1026
    -1.9548  -1.9012  -1.5391  -1.2425  -1.1863  -0.7381  -0.6597  -0.3909
    -0.3079  -0.2889  -0.2347  -0.2049   0.0430   0.2810   0.3142   0.3660
     0.5338   0.6517   0.6811   0.8749   0.8974   1.0087   1.1062   1.2615
     1.3597   1.5995   2.3283   2.9230   3.2498   3.4254

          k = 0.2222 0.1166 0.0000 ( 37137 PWs)   bands (ev):

   -73.0770 -73.0379 -72.9544 -72.9443 -72.9426 -72.9382 -44.4108 -44.4009
   -44.3820 -44.3692 -44.3635 -44.3323 -44.3305 -44.3124 -44.2955 -44.2777
   -44.2382 -44.2345 -44.2096 -44.2059 -44.2017 -44.1923 -44.1852 -44.1759
   -23.2152 -18.5328 -18.2413 -18.0164 -17.9267 -17.6089 -17.4889 -17.4031
   -17.3116 -17.2864 -17.1206 -16.7256 -16.2429 -14.9632  -8.2481  -6.1013
    -6.0284  -5.9764  -5.8957  -5.5396  -5.4837  -5.4526  -5.3386  -5.2990
    -5.2333  -5.1552  -4.7209  -4.5402  -4.4046  -4.3226  -4.1768  -4.0677
    -3.9587  -3.8913  -3.7448  -3.6229  -3.4140  -3.2723  -3.0925  -3.0681
    -3.0143  -2.9014  -2.8325  -2.7218  -2.6291  -2.1926  -1.9863  -1.9034
    -1.8068  -1.7493  -1.5448  -1.3292  -1.1829  -0.8787  -0.5824  -0.3407
    -0.1944  -0.0616   0.0733   0.0991   0.1509   0.2546   0.3918   0.4193
     0.5325   0.5699   0.6641   0.8322   0.8715   0.9845   1.0266   1.1506
     1.2470   1.7359   2.4871   2.9533   3.0943   3.1540

          k = 0.2222-0.2332 0.0000 ( 37166 PWs)   bands (ev):

   -73.0770 -73.0379 -72.9544 -72.9442 -72.9426 -72.9383 -44.4102 -44.4009
   -44.3813 -44.3693 -44.3635 -44.3315 -44.3304 -44.3125 -44.2955 -44.2777
   -44.2377 -44.2341 -44.2106 -44.2068 -44.2010 -44.1923 -44.1878 -44.1749
   -23.2152 -18.3496 -18.1495 -18.0499 -17.8526 -17.8143 -17.6954 -17.4140
   -17.3356 -17.2602 -17.0838 -16.7234 -16.2385 -14.9627  -8.2465  -6.0141
    -5.6182  -5.6143  -5.5511  -5.4554  -5.4420  -5.3747  -5.2382  -5.2057
    -5.1374  -5.1121  -4.6468  -4.5649  -4.5062  -4.5044  -4.4307  -4.3246
    -4.1042  -4.0467  -3.9661  -3.6235  -3.5904  -3.4428  -3.2855  -3.2724
    -3.2214  -3.1592  -3.1149  -2.9284  -2.6410  -2.0825  -1.9014  -1.7125
    -1.5860  -1.5366  -1.4537  -1.4310  -1.2634  -1.1148  -0.3000  -0.2971
    -0.1917  -0.1069   0.0836   0.2236   0.3626   0.3952   0.4857   0.5621
     0.5843   0.6418   0.6883   0.7796   0.8175   0.9858   0.9981   1.0720
     1.0769   1.8315   2.6361   2.8366   2.8454   2.8862

          k = 0.3333 0.0000 0.0000 ( 37184 PWs)   bands (ev):

   -73.0727 -73.0335 -72.9499 -72.9398 -72.9382 -72.9336 -44.4225 -44.4062
   -44.3924 -44.3772 -44.3597 -44.3571 -44.3284 -44.3275 -44.2936 -44.2926
   -44.2879 -44.2756 -44.2585 -44.2322 -44.2005 -44.1967 -44.1835 -44.1731
   -22.9162 -18.2166 -18.0077 -17.8305 -17.5939 -17.5126 -17.4747 -17.3797
   -17.3217 -17.3194 -17.0673 -16.7850 -16.2354 -15.5596  -8.3700  -6.0912
    -5.9648  -5.8808  -5.7973  -5.7075  -5.5833  -5.4983  -5.4508  -5.3248
    -5.2166  -5.1298  -4.9647  -4.7040  -4.5348  -4.4375  -4.3153  -4.1802
    -4.0580  -3.9841  -3.8744  -3.4812  -3.4684  -3.2749  -3.1249  -3.0859
    -2.9954  -2.8235  -2.7899  -2.7221  -2.3915  -2.2463  -2.2151  -1.9084
    -1.7847  -1.6473  -1.3772  -1.3632  -0.8879  -0.8700  -0.6834  -0.3294
    -0.2753  -0.1532  -0.1487  -0.0672   0.1180   0.3361   0.4190   0.5040
     0.5200   0.6103   0.6670   0.7605   0.8811   0.9532   1.0355   1.2498
     1.2809   1.5135   2.3364   2.6652   3.2191   3.3464

          k = 0.3333 0.1166 0.0000 ( 37206 PWs)   bands (ev):

   -73.0726 -73.0335 -72.9499 -72.9397 -72.9382 -72.9337 -44.4226 -44.4069
   -44.3924 -44.3783 -44.3599 -44.3570 -44.3288 -44.3283 -44.2930 -44.2916
   -44.2871 -44.2756 -44.2566 -44.2328 -44.2008 -44.1970 -44.1835 -44.1731
   -22.9161 -18.1471 -17.9397 -17.7764 -17.6895 -17.5690 -17.4898 -17.4113
   -17.3964 -17.2894 -17.0524 -16.7838 -16.2346 -15.5590  -8.3698  -6.0719
    -5.7663  -5.6964  -5.6559  -5.6309  -5.5664  -5.5016  -5.4049  -5.3583
    -5.2260  -5.1689  -5.0008  -4.7012  -4.5457  -4.4012  -4.3290  -4.1971
    -4.1468  -4.0415  -3.7434  -3.6288  -3.4680  -3.3911  -3.1738  -3.1026
    -3.0195  -2.8447  -2.8019  -2.6830  -2.5566  -2.3353  -2.1431  -1.9278
    -1.7969  -1.7404  -1.3193  -1.2850  -1.1010  -0.8787  -0.6023  -0.5450
    -0.2145  -0.0966   0.0146   0.0198   0.0545   0.1528   0.2263   0.4122
     0.5077   0.5748   0.6969   0.9413   0.9650   1.0019   1.1496   1.1860
     1.2417   1.6104   2.4458   2.6025   2.7032   2.7584

          k = 0.3333-0.2332 0.0000 ( 37216 PWs)   bands (ev):

   -73.0726 -73.0335 -72.9499 -72.9397 -72.9382 -72.9337 -44.4227 -44.4075
   -44.3924 -44.3792 -44.3600 -44.3570 -44.3300 -44.3282 -44.2927 -44.2903
   -44.2862 -44.2756 -44.2548 -44.2333 -44.2011 -44.1973 -44.1835 -44.1732
   -22.9161 -18.0190 -17.8728 -17.7879 -17.7269 -17.6057 -17.5872 -17.4688
   -17.4117 -17.2757 -17.0418 -16.7828 -16.2339 -15.5585  -8.3697  -6.0717
    -5.6706  -5.6198  -5.5646  -5.4754  -5.4185  -5.4074  -5.3698  -5.2276
    -5.2228  -5.0566  -5.0498  -4.7179  -4.6901  -4.5387  -4.3436  -4.2295
    -4.1563  -4.0091  -3.8682  -3.7106  -3.5721  -3.2907  -3.2282  -3.1873
    -2.9938  -2.9797  -2.9787  -2.7964  -2.5542  -2.1578  -2.0714  -1.9686
    -1.9111  -1.5902  -1.5378  -1.1515  -1.0419  -0.8726  -0.7269  -0.6348
    -0.3676  -0.2200  -0.1216   0.1721   0.1861   0.2180   0.2380   0.4319
     0.5124   0.5507   0.6403   0.9422   0.9915   1.0426   1.1614   1.2779
     1.2885   1.6847   2.3300   2.3461   2.4212   2.5912

          k = 0.4444 0.0000 0.0000 ( 37180 PWs)   bands (ev):

   -73.0698 -73.0306 -72.9470 -72.9368 -72.9353 -72.9307 -44.4559 -44.4028
   -44.3945 -44.3897 -44.3738 -44.3516 -44.3324 -44.3244 -44.3239 -44.3227
   -44.2948 -44.2852 -44.2782 -44.2632 -44.1951 -44.1913 -44.1777 -44.1677
   -22.6953 -17.8319 -17.7315 -17.6481 -17.5977 -17.5270 -17.5217 -17.4270
   -17.3709 -17.3439 -17.0079 -16.7825 -16.2019 -15.9812  -8.3253  -6.3679
    -5.9460  -5.7318  -5.7024  -5.5984  -5.5651  -5.5420  -5.4100  -5.3577
    -5.2536  -5.2108  -5.0488  -4.8370  -4.6459  -4.4794  -4.4559  -4.3757
    -4.0219  -3.7797  -3.5988  -3.5831  -3.5564  -3.4538  -3.4112  -3.2460
    -2.8899  -2.7525  -2.5700  -2.5046  -2.4549  -2.2364  -2.2141  -2.0118
    -1.9560  -1.6008  -1.5336  -1.4261  -1.0699  -0.5595  -0.5019  -0.2775
    -0.2417  -0.1435  -0.1229  -0.1067   0.0373   0.1003   0.1285   0.3365
     0.3936   0.5477   0.6693   0.6721   0.8580   1.0620   1.1280   1.3619
     1.4065   1.4908   2.2428   2.5497   3.1194   3.3760

          k = 0.4444 0.1166 0.0000 ( 37248 PWs)   bands (ev):

   -73.0698 -73.0306 -72.9470 -72.9368 -72.9353 -72.9308 -44.4561 -44.4048
   -44.3947 -44.3897 -44.3771 -44.3515 -44.3305 -44.3286 -44.3224 -44.3214
   -44.2899 -44.2852 -44.2784 -44.2635 -44.1950 -44.1912 -44.1777 -44.1673
   -22.6953 -17.8109 -17.7224 -17.6714 -17.6149 -17.5304 -17.5104 -17.4317
   -17.3942 -17.3230 -17.0112 -16.7821 -16.2016 -15.9804  -8.3282  -6.3626
    -6.0305  -5.8843  -5.8348  -5.7494  -5.6613  -5.4203  -5.3790  -5.2345
    -5.1835  -5.0393  -4.9177  -4.6240  -4.5863  -4.5022  -4.3046  -4.1257
    -3.9746  -3.9215  -3.7705  -3.7208  -3.5725  -3.3475  -3.2921  -3.0927
    -2.9543  -2.7277  -2.5346  -2.4917  -2.3060  -2.2781  -2.1837  -2.1023
    -1.8615  -1.8147  -1.5501  -1.3578  -1.1402  -0.7251  -0.5570  -0.3827
    -0.2500  -0.2281  -0.1571  -0.1199  -0.0957  -0.0932  -0.0780   0.0565
     0.1023   0.3278   0.5959   1.0655   1.1700   1.2318   1.3184   1.3382
     1.4372   1.4987   2.3268   2.4369   2.5602   2.5720

          k = 0.4444-0.2332 0.0000 ( 37264 PWs)   bands (ev):

   -73.0698 -73.0306 -72.9470 -72.9368 -72.9353 -72.9308 -44.4562 -44.4067
   -44.3949 -44.3897 -44.3800 -44.3514 -44.3325 -44.3292 -44.3204 -44.3197
   -44.2860 -44.2852 -44.2785 -44.2638 -44.1949 -44.1911 -44.1777 -44.1670
   -22.6952 -17.7710 -17.7435 -17.6649 -17.6477 -17.5396 -17.4942 -17.4377
   -17.4094 -17.3110 -17.0145 -16.7817 -16.2014 -15.9796  -8.3312  -6.3616
    -6.1135  -6.0776  -5.9613  -5.7832  -5.6299  -5.2143  -5.1528  -5.1457
    -5.0784  -4.9995  -4.9886  -4.8396  -4.5334  -4.2426  -4.1809  -4.0384
    -4.0321  -3.9379  -3.8108  -3.5646  -3.4680  -3.3518  -3.1322  -3.1075
    -2.8161  -2.7418  -2.7060  -2.6464  -2.4322  -2.3425  -2.1216  -1.9997
    -1.8903  -1.4865  -1.4376  -1.4262  -1.2416  -0.8236  -0.7939  -0.6967
    -0.6932  -0.4903  -0.2130  -0.1029  -0.0956  -0.0812  -0.0636   0.0605
     0.1011   0.1579   0.6049   1.1016   1.2073   1.3469   1.4238   1.4731
     1.4877   1.5551   2.1384   2.1617   2.2315   2.4201

 ------ SPIN DOWN ----------


          k = 0.0000 0.0000 0.0000 ( 37133 PWs)   bands (ev):

   -71.0554 -70.9193 -70.6963 -70.5939 -70.5393 -70.2827 -42.5017 -42.4521
   -42.3683 -42.2647 -42.2245 -42.1999 -42.1741 -42.1308 -42.0487 -42.0328
   -41.8450 -41.8399 -41.8122 -41.7775 -41.7124 -41.6693 -41.5839 -41.4683
   -23.9028 -19.0860 -18.7442 -18.4781 -18.1269 -17.6645 -17.5541 -17.4333
   -17.3627 -17.2850 -17.2153 -16.8202 -16.4425 -14.8364  -7.8543  -6.4883
    -6.3509  -6.2927  -5.9315  -5.7090  -5.3325  -5.1819  -4.9706  -4.7225
    -4.5174  -4.4574  -4.4240  -4.3955  -4.3898  -4.1812  -4.1270  -3.9399
    -3.6105  -3.4730  -3.2357  -3.1510  -2.9467  -2.9454  -2.7596  -2.6135
    -2.3532  -2.2553  -2.1773  -2.1361  -1.9393  -1.8598  -1.5023  -1.4703
    -1.3441  -1.1681  -0.9923  -0.9436  -0.7319  -0.6042  -0.1294   1.5004
     1.5194   1.5306   1.6124   1.6132   1.6806   1.7778   1.7871   1.9425
     2.1305   2.1691   2.2236   2.2634   2.2855   2.6986   2.8110   3.0565
     3.2333   3.4015   3.4669   4.1001   4.6839   4.9104

          k = 0.0000 0.1166 0.0000 ( 37130 PWs)   bands (ev):

   -71.0554 -70.9193 -70.6963 -70.5939 -70.5393 -70.2827 -42.5010 -42.4515
   -42.3683 -42.2635 -42.2244 -42.1999 -42.1741 -42.1308 -42.0487 -42.0328
   -41.8450 -41.8411 -41.8130 -41.7773 -41.7125 -41.6693 -41.5846 -41.4683
   -23.9027 -18.9710 -18.6246 -18.3633 -18.2798 -17.8675 -17.6967 -17.4358
   -17.3215 -17.2846 -17.1959 -16.8168 -16.4330 -14.8356  -7.8506  -6.2409
    -6.0758  -6.0114  -5.8851  -5.6547  -5.3312  -5.1309  -4.8392  -4.7290
    -4.4755  -4.3944  -4.3888  -4.3547  -4.2735  -4.1820  -4.1239  -3.9389
    -3.8523  -3.6008  -3.5303  -3.4002  -3.2234  -2.8694  -2.7921  -2.7194
    -2.4085  -2.3933  -2.2485  -2.0741  -2.0241  -1.8315  -1.7807  -1.6061
    -1.4451  -1.2968  -1.2586  -1.0123  -0.9617  -0.6967  -0.1516   1.5278
     1.7552   1.8571   1.8622   1.9104   1.9276   1.9495   1.9661   2.0642
     2.1366   2.2063   2.2567   2.2928   2.3464   2.7072   2.9050   2.9689
     3.0751   3.3244   3.6404   4.2676   4.7385   4.9103

          k = 0.0000-0.2332 0.0000 ( 37126 PWs)   bands (ev):

   -71.0553 -70.9193 -70.6962 -70.5939 -70.5393 -70.2827 -42.5003 -42.4509
   -42.3683 -42.2623 -42.2244 -42.1999 -42.1740 -42.1308 -42.0487 -42.0328
   -41.8450 -41.8424 -41.8138 -41.7772 -41.7127 -41.6693 -41.5852 -41.4683
   -23.9026 -18.7470 -18.5499 -18.3946 -18.1607 -18.1202 -17.9524 -17.4316
   -17.3171 -17.2886 -17.1655 -16.8150 -16.4246 -14.8350  -7.8482  -6.0811
    -5.7212  -5.6975  -5.5915  -5.5786  -5.3399  -5.1276  -4.7423  -4.4716
    -4.4309  -4.3915  -4.3375  -4.3195  -4.2470  -4.1823  -4.1192  -4.1048
    -3.8229  -3.8094  -3.7910  -3.7118  -3.4716  -3.4642  -2.7281  -2.7073
    -2.6146  -2.4556  -2.4254  -2.1344  -2.1333  -1.9334  -1.7243  -1.6625
    -1.5011  -1.4022  -1.3493  -1.0705  -0.9493  -0.8549  -0.1713   1.5280
     1.8879   2.0007   2.0781   2.1011   2.1166   2.1212   2.1587   2.2117
     2.2602   2.3099   2.3813   2.3819   2.4103   2.5327   2.8004   2.9572
     3.0765   3.2882   4.0347   4.1560   4.8158   4.9564

          k = 0.1111 0.0000 0.0000 ( 37175 PWs)   bands (ev):

   -71.0537 -70.9176 -70.6946 -70.5922 -70.5376 -70.2810 -42.4999 -42.4504
   -42.3670 -42.2629 -42.2438 -42.1967 -42.1719 -42.1289 -42.0705 -42.0290
   -41.8438 -41.8361 -41.8082 -41.7987 -41.7345 -41.6918 -41.5797 -41.4917
   -23.8184 -18.9752 -18.6450 -18.3888 -18.0526 -17.6066 -17.5194 -17.4340
   -17.3883 -17.3102 -17.2423 -16.8475 -16.4584 -14.9975  -8.0546  -6.3527
    -6.2373  -6.1852  -5.8336  -5.6339  -5.2688  -5.1928  -5.1412  -4.9447
    -4.8716  -4.6534  -4.6520  -4.5714  -4.1558  -4.1228  -4.0734  -3.4058
    -3.2958  -3.2386  -3.0983  -2.9750  -2.9152  -2.8180  -2.7727  -2.7329
    -2.6185  -2.5363  -2.2647  -2.1964  -2.0483  -1.8616  -1.7662  -1.6976
    -1.6250  -1.3788  -1.2021  -0.9484  -0.9245  -0.6526  -0.1967   1.5227
     1.6712   1.7016   1.7450   1.8043   1.8512   1.8730   1.8942   2.0076
     2.1556   2.2493   2.2945   2.3501   2.4437   2.6034   2.9324   2.9622
     3.1464   3.3815   3.4721   4.1515   4.6499   4.7331

          k = 0.1111 0.1166 0.0000 ( 37124 PWs)   bands (ev):

   -71.0537 -70.9176 -70.6946 -70.5922 -70.5376 -70.2810 -42.4994 -42.4499
   -42.3670 -42.2619 -42.2438 -42.1967 -42.1719 -42.1289 -42.0705 -42.0290
   -41.8439 -41.8373 -41.8089 -41.7984 -41.7345 -41.6918 -41.5802 -41.4917
   -23.8183 -18.8649 -18.5304 -18.2780 -18.2010 -17.8073 -17.6483 -17.4533
   -17.3415 -17.3109 -17.2114 -16.8441 -16.4498 -14.9968  -8.0520  -6.1111
    -5.9547  -5.8968  -5.7830  -5.5848  -5.2733  -5.1959  -5.0798  -4.9168
    -4.7494  -4.6857  -4.5736  -4.4262  -4.1511  -4.1178  -4.0293  -3.5466
    -3.4534  -3.4056  -3.2990  -3.2759  -3.0369  -2.9565  -2.8278  -2.7797
    -2.7287  -2.7076  -2.4322  -2.3100  -2.0866  -1.9524  -1.8318  -1.7493
    -1.6490  -1.4473  -1.2667  -0.9846  -0.9472  -0.7545  -0.2056   1.6554
     1.6663   1.8739   1.9310   1.9520   1.9877   2.0821   2.1228   2.1785
     2.2305   2.2780   2.3886   2.4489   2.4635   2.6557   2.8269   2.9791
     3.0676   3.2616   3.6675   4.2751   4.6382   4.6973

          k = 0.1111-0.2332 0.0000 ( 37144 PWs)   bands (ev):

   -71.0537 -70.9176 -70.6946 -70.5922 -70.5376 -70.2810 -42.4988 -42.4495
   -42.3670 -42.2609 -42.2438 -42.1967 -42.1719 -42.1289 -42.0705 -42.0291
   -41.8439 -41.8386 -41.8096 -41.7981 -41.7346 -41.6918 -41.5808 -41.4917
   -23.8183 -18.6517 -18.4567 -18.3085 -18.0910 -18.0461 -17.8930 -17.4515
   -17.3428 -17.3088 -17.1780 -16.8422 -16.4422 -14.9961  -8.0502  -5.9706
    -5.6116  -5.5545  -5.4960  -5.4617  -5.2820  -5.1967  -5.1159  -4.8104
    -4.6392  -4.5578  -4.5564  -4.2217  -4.1213  -4.1017  -3.9905  -3.9476
    -3.6274  -3.5950  -3.5156  -3.4460  -3.4304  -3.2583  -3.1050  -2.9255
    -2.8328  -2.6826  -2.6129  -2.4605  -2.1595  -1.9892  -1.9167  -1.6811
    -1.4615  -1.3628  -1.2502  -1.0471  -0.9873  -0.8935  -0.2148   1.6493
     1.8180   1.9280   2.0054   2.0537   2.0850   2.2111   2.2735   2.3152
     2.3779   2.4880   2.5156   2.5546   2.5867   2.6352   2.7586   2.8972
     2.9957   3.3190   3.9864   4.1777   4.5251   4.5852

          k = 0.2222 0.0000 0.0000 ( 37192 PWs)   bands (ev):

   -71.0494 -70.9134 -70.6904 -70.5880 -70.5333 -70.2765 -42.4956 -42.4461
   -42.3701 -42.2860 -42.2582 -42.1894 -42.1659 -42.1248 -42.1242 -42.0195
   -41.8564 -41.8366 -41.8264 -41.7981 -41.7901 -41.7485 -41.5689 -41.5507
   -23.5902 -18.6730 -18.3819 -18.1556 -17.8667 -17.5466 -17.4707 -17.4547
   -17.3741 -17.3376 -17.3110 -16.9158 -16.4838 -15.4426  -8.3847  -5.9979
    -5.9550  -5.9298  -5.7496  -5.4735  -5.4642  -5.2634  -5.1381  -5.0972
    -5.0697  -4.7970  -4.7246  -4.4470  -4.2452  -4.0324  -3.8839  -3.6805
    -3.5461  -3.4778  -3.2566  -3.2018  -3.0563  -2.8802  -2.7355  -2.5915
    -2.5736  -2.4417  -2.3859  -2.2640  -2.1330  -1.9987  -1.9083  -1.8050
    -1.7680  -1.6120  -1.5726  -1.1376  -1.0135  -0.8173  -0.3714   1.4496
     1.6806   1.9832   1.9955   2.1052   2.1156   2.1482   2.2079   2.2852
     2.3444   2.3651   2.4342   2.4409   2.5307   2.6444   2.7387   2.9420
     3.1076   3.1406   3.6344   4.0942   4.4199   4.5030

          k = 0.2222 0.1166 0.0000 ( 37137 PWs)   bands (ev):

   -71.0494 -70.9134 -70.6904 -70.5880 -70.5333 -70.2765 -42.4954 -42.4459
   -42.3701 -42.2860 -42.2578 -42.1894 -42.1659 -42.1248 -42.1242 -42.0195
   -41.8570 -41.8369 -41.8262 -41.7985 -41.7899 -41.7484 -41.5693 -41.5505
   -23.5901 -18.5780 -18.2837 -18.0601 -17.9987 -17.6854 -17.5627 -17.4828
   -17.3874 -17.3715 -17.2265 -16.9128 -16.4785 -15.4419  -8.3832  -5.8527
    -5.7149  -5.6512  -5.5813  -5.4508  -5.4167  -5.1390  -5.1163  -5.0551
    -4.9920  -4.8947  -4.7402  -4.2526  -4.1864  -4.0444  -3.9644  -3.8211
    -3.6809  -3.6251  -3.4265  -3.3241  -3.1281  -3.0631  -2.9021  -2.8440
    -2.8183  -2.6698  -2.5295  -2.4785  -2.2350  -1.8949  -1.8203  -1.6885
    -1.5958  -1.5578  -1.4458  -1.1427  -1.0540  -0.8906  -0.3539   1.4687
     1.7472   1.9302   1.9728   2.1018   2.1100   2.2097   2.3357   2.3892
     2.4409   2.4808   2.5631   2.6282   2.6398   2.6558   2.7545   2.8820
     3.0097   3.2286   3.7512   4.1093   4.2785   4.3610

          k = 0.2222-0.2332 0.0000 ( 37166 PWs)   bands (ev):

   -71.0494 -70.9134 -70.6904 -70.5880 -70.5333 -70.2765 -42.4951 -42.4457
   -42.3701 -42.2860 -42.2573 -42.1894 -42.1659 -42.1249 -42.1242 -42.0195
   -41.8577 -41.8371 -41.8259 -41.7989 -41.7897 -41.7482 -41.5696 -41.5504
   -23.5900 -18.3982 -18.2132 -18.0875 -17.9299 -17.8586 -17.7604 -17.5001
   -17.4093 -17.3498 -17.1922 -16.9109 -16.4737 -15.4413  -8.3820  -5.8281
    -5.5723  -5.3825  -5.3154  -5.2109  -5.1098  -5.0969  -5.0691  -4.9825
    -4.8388  -4.7439  -4.7279  -4.2774  -4.1833  -4.1634  -4.0944  -4.0511
    -3.9325  -3.7515  -3.6748  -3.4417  -3.4368  -3.2803  -3.1221  -2.9718
    -2.8801  -2.8401  -2.6797  -2.6474  -2.2758  -1.8230  -1.7950  -1.6053
    -1.4529  -1.3358  -1.3122  -1.1039  -1.0935  -1.0756  -0.3381   1.5786
     1.7006   1.8295   1.9730   2.0359   2.1187   2.2702   2.3513   2.4875
     2.5905   2.6405   2.6599   2.6660   2.7492   2.8429   2.9071   2.9107
     2.9548   3.3163   3.8739   3.9533   4.0494   4.0513

          k = 0.3333 0.0000 0.0000 ( 37184 PWs)   bands (ev):

   -71.0446 -70.9086 -70.6856 -70.5831 -70.5284 -70.2714 -42.4907 -42.4413
   -42.3983 -42.3087 -42.2529 -42.1927 -42.1760 -42.1577 -42.1191 -42.0086
   -41.9153 -41.8528 -41.8344 -41.8154 -41.8124 -41.7866 -41.6171 -41.5567
   -23.2988 -18.2657 -18.0528 -17.8762 -17.6787 -17.5924 -17.5326 -17.4469
   -17.4188 -17.3899 -17.1902 -16.9835 -16.4765 -16.0072  -8.5218  -6.2006
    -5.6872  -5.5839  -5.5003  -5.4090  -5.3124  -5.3103  -5.2714  -5.0186
    -5.0147  -4.8128  -4.7234  -4.6727  -4.3794  -4.2551  -4.0028  -3.9164
    -3.8995  -3.7238  -3.5699  -3.3142  -3.1912  -3.0755  -2.8357  -2.8059
    -2.6915  -2.5004  -2.4637  -2.4336  -2.1347  -2.0330  -1.9449  -1.7320
    -1.6223  -1.4930  -1.3342  -1.2517  -1.0107  -0.9639  -0.5525   1.5207
     1.5513   1.9056   2.1877   2.2007   2.2528   2.3272   2.3301   2.4670
     2.4755   2.5070   2.5339   2.5946   2.7066   2.7550   2.7792   2.8486
     2.9338   3.1145   3.6558   3.8516   4.3713   4.4807

          k = 0.3333 0.1166 0.0000 ( 37206 PWs)   bands (ev):

   -71.0446 -70.9086 -70.6856 -70.5831 -70.5284 -70.2714 -42.4908 -42.4414
   -42.3983 -42.3087 -42.2531 -42.1928 -42.1760 -42.1577 -42.1191 -42.0086
   -41.9157 -41.8523 -41.8344 -41.8152 -41.8121 -41.7867 -41.6168 -41.5567
   -23.2987 -18.1996 -17.9879 -17.8323 -17.7565 -17.6428 -17.5557 -17.4757
   -17.4709 -17.3841 -17.1730 -16.9823 -16.4757 -16.0064  -8.5217  -6.1957
    -5.4562  -5.3951  -5.3693  -5.3421  -5.2684  -5.2427  -5.1871  -5.0522
    -4.9886  -4.8825  -4.7855  -4.6791  -4.4375  -4.2505  -4.0930  -3.9834
    -3.8483  -3.8383  -3.4921  -3.4293  -3.1998  -3.1623  -2.9404  -2.9124
    -2.7980  -2.6493  -2.5014  -2.2783  -2.2401  -1.9882  -1.9529  -1.6894
    -1.6045  -1.5398  -1.2611  -1.2270  -1.0836  -0.9636  -0.5312   1.4089
     1.4946   1.7257   1.9512   2.0006   2.2568   2.2765   2.4305   2.4550
     2.5310   2.6096   2.6764   2.7271   2.7898   2.8282   2.8332   2.9277
     2.9752   3.2147   3.7137   3.8533   3.9689   4.0441

          k = 0.3333-0.2332 0.0000 ( 37216 PWs)   bands (ev):

   -71.0446 -70.9086 -70.6856 -70.5831 -70.5284 -70.2714 -42.4909 -42.4415
   -42.3984 -42.3087 -42.2534 -42.1928 -42.1761 -42.1577 -42.1191 -42.0086
   -41.9161 -41.8518 -41.8344 -41.8151 -41.8118 -41.7868 -41.6166 -41.5568
   -23.2987 -18.0782 -17.9372 -17.8423 -17.7912 -17.6558 -17.6475 -17.5456
   -17.4813 -17.3722 -17.1611 -16.9813 -16.4749 -16.0056  -8.5217  -6.1946
    -5.3206  -5.2927  -5.2419  -5.1830  -5.1345  -5.1208  -5.1065  -5.0256
    -4.9439  -4.8627  -4.7099  -4.6269  -4.4589  -4.4458  -4.3134  -4.0491
    -3.8255  -3.8195  -3.7294  -3.5715  -3.4017  -3.1012  -3.0140  -2.8969
    -2.8262  -2.7676  -2.5758  -2.4880  -2.1739  -1.9677  -1.7356  -1.7150
    -1.6430  -1.4501  -1.3030  -1.1490  -1.1374  -0.9635  -0.5065   1.2983
     1.4499   1.4836   1.7807   2.0365   2.2583   2.2641   2.3386   2.4705
     2.5357   2.7035   2.7470   2.8238   2.8618   2.8931   3.0336   3.0398
     3.0535   3.3148   3.5832   3.6540   3.7547   3.8279

          k = 0.4444 0.0000 0.0000 ( 37180 PWs)   bands (ev):

   -71.0414 -70.9054 -70.6825 -70.5800 -70.5251 -70.2681 -42.4875 -42.4382
   -42.4299 -42.3100 -42.2495 -42.2290 -42.1752 -42.1521 -42.1159 -42.0016
   -41.9543 -41.8934 -41.8538 -41.8318 -41.8082 -41.7790 -41.6601 -41.5486
   -23.0843 -17.8865 -17.7850 -17.7144 -17.6614 -17.5892 -17.5847 -17.4946
   -17.4522 -17.4417 -17.1313 -16.9910 -16.4462 -16.4057  -8.4925  -6.4996
    -5.6822  -5.4408  -5.3998  -5.3958  -5.3240  -5.2575  -5.2042  -5.0842
    -4.9755  -4.9376  -4.8373  -4.5174  -4.4815  -4.4026  -4.1740  -4.1320
    -4.0544  -3.5864  -3.3173  -3.3019  -3.2917  -3.2792  -3.1327  -3.0767
    -2.6044  -2.5450  -2.3258  -2.2234  -2.1545  -2.1364  -1.9866  -1.8527
    -1.7552  -1.4275  -1.4066  -1.3889  -1.0451  -0.6520  -0.6354   1.5964
     1.6912   1.8115   1.9774   2.0043   2.1581   2.3274   2.3734   2.5031
     2.5289   2.6319   2.6426   2.6815   2.7463   2.7848   2.9378   2.9617
     3.0803   3.1591   3.5188   3.7710   4.2855   4.4583

          k = 0.4444 0.1166 0.0000 ( 37248 PWs)   bands (ev):

   -71.0414 -70.9054 -70.6825 -70.5800 -70.5251 -70.2681 -42.4878 -42.4385
   -42.4299 -42.3100 -42.2502 -42.2291 -42.1752 -42.1521 -42.1159 -42.0016
   -41.9547 -41.8926 -41.8534 -41.8318 -41.8078 -41.7789 -41.6597 -41.5486
   -23.0843 -17.8678 -17.7771 -17.7456 -17.6851 -17.6004 -17.5607 -17.5067
   -17.4632 -17.4130 -17.1345 -16.9905 -16.4460 -16.4044  -8.4948  -6.4935
    -5.6963  -5.5747  -5.4991  -5.3855  -5.3616  -5.1333  -5.1002  -5.0470
    -4.9743  -4.9080  -4.7322  -4.5757  -4.3620  -4.2812  -4.1628  -3.9303
    -3.8603  -3.7393  -3.5622  -3.5225  -3.3658  -3.1865  -3.1158  -2.8356
    -2.7217  -2.5121  -2.2727  -2.2092  -2.1568  -2.0416  -1.9555  -1.9118
    -1.7337  -1.6015  -1.4269  -1.3442  -1.1687  -0.6622  -0.6236   1.4161
     1.4544   1.6196   1.6827   1.7521   2.1456   2.1759   2.3830   2.5122
     2.6081   2.6760   2.7538   2.7599   2.8915   2.9395   2.9578   2.9984
     3.1299   3.2249   3.5772   3.7754   3.8145   3.8700

          k = 0.4444-0.2332 0.0000 ( 37264 PWs)   bands (ev):

   -71.0414 -70.9054 -70.6825 -70.5800 -70.5251 -70.2681 -42.4882 -42.4388
   -42.4300 -42.3100 -42.2509 -42.2292 -42.1752 -42.1521 -42.1159 -42.0016
   -41.9551 -41.8919 -41.8529 -41.8319 -41.8075 -41.7789 -41.6594 -41.5485
   -23.0843 -17.8238 -17.8159 -17.7323 -17.7244 -17.6111 -17.5392 -17.5221
   -17.4634 -17.3971 -17.1378 -16.9900 -16.4459 -16.4032  -8.4970  -6.4890
    -5.7167  -5.7155  -5.5911  -5.4625  -5.3194  -5.0039  -4.9757  -4.8707
    -4.8437  -4.7558  -4.6756  -4.6243  -4.5208  -4.1923  -4.0258  -4.0118
    -3.9118  -3.8413  -3.6576  -3.4511  -3.3520  -3.1176  -3.0357  -2.9611
    -2.5752  -2.4028  -2.3516  -2.3500  -2.1843  -2.0768  -1.9647  -1.8163
    -1.7538  -1.4982  -1.4585  -1.4446  -1.2500  -0.6517  -0.6362   1.1596
     1.2252   1.3477   1.5322   1.7654   2.0387   2.1728   2.3887   2.5020
     2.6147   2.7113   2.7758   2.7834   2.8511   2.8671   3.1290   3.1747
     3.2017   3.3204   3.4988   3.5856   3.6570   3.6773

     the Fermi energy is     0.6053 ev

!    total energy              =   -1637.89546441 Ry
     estimated scf accuracy    <       0.00000044 Ry
     smearing contrib. (-TS)   =      -0.00088016 Ry
     internal energy E=F+TS    =   -1637.89458425 Ry

     The total energy is F=E-TS. E is the sum of the following terms:
     one-electron contribution =  -15565.40048569 Ry
     hartree contribution      =    7810.28609470 Ry
     xc contribution           =    -238.52405720 Ry
     ewald contribution        =    6489.03319546 Ry
     one-center paw contrib.   =    -133.28933152 Ry

     total magnetization       =    11.00 Bohr mag/cell
     absolute magnetization    =    14.58 Bohr mag/cell

     convergence has been achieved in  44 iterations

     negative rho (up, down):  2.006E-03 1.961E-02

     Forces acting on atoms (cartesian axes, Ry/au):

     atom    1 type  1   force =    -0.00001890    0.00000000    0.10031122
     atom    2 type  1   force =    -0.00009345    0.00000000   -0.09829458
     atom    3 type  1   force =    -0.00038990    0.00000000    0.01422687
     atom    4 type  1   force =     0.00068270    0.00000000   -0.00107162
     atom    5 type  1   force =    -0.00336602    0.00000000    0.00594533
     atom    6 type  1   force =     0.00090405    0.00000000    0.03656565
     atom    7 type  3   force =     0.00042269    0.00000000    0.04269027
     atom    8 type  3   force =     0.00010600    0.00000000    0.06476008
     atom    9 type  3   force =     0.00000114    0.01701158   -0.03641270
     atom   10 type  3   force =     0.00000114   -0.01701158   -0.03641270
     atom   11 type  3   force =     0.00045167    0.00000000    0.00109361
     atom   12 type  3   force =    -0.00065998    0.00000000   -0.01030839
     atom   13 type  3   force =    -0.00047817    0.00396339   -0.00213307
     atom   14 type  3   force =    -0.00047817   -0.00396339   -0.00213307
     atom   15 type  3   force =     0.00037526    0.00000000   -0.04603617
     atom   16 type  3   force =    -0.00123145    0.00000000   -0.01158565
     atom   17 type  3   force =     0.00385187    0.00742083   -0.00150964
     atom   18 type  3   force =     0.00385187   -0.00742083   -0.00150964
     atom   19 type  3   force =    -0.01177103    0.00000000   -0.02448523
     atom   20 type  3   force =     0.00598931    0.00000000    0.00509853
     atom   21 type  2   force =     0.00184936    0.00000000    0.00120088

     Total force =     0.069538     Total SCF correction =     0.001963

     Writing all to output data dir ./tmp_s0_OOH__u0.0__g1/s0_OOH__u0.0__g1.save/ :
     XML data file, charge density, pseudopotentials, collected wavefunctions

     init_run     :     25.72s CPU     29.34s WALL (       1 calls)
     electrons    :   2651.51s CPU   2916.66s WALL (       1 calls)
     forces       :     21.86s CPU     23.23s WALL (       1 calls)

     Called by init_run:
     wfcinit      :     18.59s CPU     20.35s WALL (       1 calls)
     potinit      :      3.80s CPU      4.72s WALL (       1 calls)
     hinit0       :      1.25s CPU      1.44s WALL (       1 calls)

     Called by electrons:
     c_bands      :   1825.77s CPU   1990.14s WALL (      44 calls)
     sum_band     :    444.03s CPU    499.33s WALL (      44 calls)
     v_of_rho     :    142.00s CPU    154.94s WALL (      45 calls)
     newd         :     73.61s CPU     97.82s WALL (      45 calls)
     PAW_pot      :     19.14s CPU     19.20s WALL (      45 calls)
     mix_rho      :    126.44s CPU    134.52s WALL (      44 calls)

     Called by c_bands:
     init_us_2    :    144.31s CPU    144.94s WALL (     720 calls)
     cegterg      :   1516.20s CPU   1679.40s WALL (     352 calls)

     Called by *egterg:
     cdiaghg      :     23.56s CPU     23.64s WALL (    1145 calls)
     h_psi        :    780.49s CPU    893.67s WALL (    1153 calls)
     s_psi        :    142.10s CPU    142.50s WALL (    1153 calls)
     g_psi        :      7.26s CPU      7.30s WALL (     793 calls)

     Called by h_psi:
     h_psi:calbec :    133.52s CPU    136.19s WALL (    1153 calls)
     vloc_psi     :    485.20s CPU    564.50s WALL (    1153 calls)
                                        0.00s GPU  (    1153 calls)
     add_vuspsi   :    143.92s CPU    144.28s WALL (    1153 calls)

     General routines
     calbec       :    188.82s CPU    192.55s WALL (    1537 calls)
     fft          :     73.55s CPU     83.62s WALL (    1138 calls)
     ffts         :     28.32s CPU     35.95s WALL (    5467 calls)
     fftw         :    523.84s CPU    620.29s WALL (  185416 calls)
     interpolate  :      9.79s CPU     10.84s WALL (      90 calls)

     Parallel routines

     PWSCF        :  45m 2.22s CPU  49m34.67s WALL


   This run was terminated on:  13:34:35  21Aug2026            

=------------------------------------------------------------------------------=
   JOB DONE.
=------------------------------------------------------------------------------=
Note: The following floating-point exceptions are signalling: IEEE_DENORMAL
Note: The following floating-point exceptions are signalling: IEEE_DENORMAL
Note: The following floating-point exceptions are signalling: IEEE_DENORMAL
Note: The following floating-point exceptions are signalling: IEEE_DENORMAL
Note: The following floating-point exceptions are signalling: IEEE_DENORMAL
Note: The following floating-point exceptions are signalling: IEEE_DENORMAL
Note: The following floating-point exceptions are signalling: IEEE_DENORMAL
Note: The following floating-point exceptions are signalling: IEEE_DENORMAL
Note: The following floating-point exceptions are signalling: IEEE_DENORMAL
Note: The following floating-point exceptions are signalling: IEEE_DENORMAL
Note: The following floating-point exceptions are signalling: IEEE_DENORMAL
Note: The following floating-point exceptions are signalling: IEEE_DENORMAL
Note: The following floating-point exceptions are signalling: IEEE_DENORMAL
Note: The following floating-point exceptions are signalling: IEEE_DENORMAL
