
     Program PWSCF v.7.5 starts on 21Aug2026 at 15:30: 8 

     This program is part of the open-source Quantum ESPRESSO suite
     for quantum simulation of materials; please cite
         "P. Giannozzi et al., J. Phys.:Condens. Matter 21 395502 (2009);
         "P. Giannozzi et al., J. Phys.:Condens. Matter 29 465901 (2017);
         "P. Giannozzi et al., J. Chem. Phys. 152 154105 (2020);
          URL http://www.quantum-espresso.org", 
     in publications or presentations arising from this work. More details at
     http://www.quantum-espresso.org/quote

     Parallel version (MPI & OpenMP), running on      20 processor cores
     Number of MPI processes:                20
     Threads/MPI process:                     1

     MPI processes distributed on     1 nodes
     51297 MiB available memory on the printing compute node when the environment starts

     Reading input from s0_OOH__u0.0+spin1.0__g1.run.in

     Current dimensions of program PWSCF are:
     Max number of different atomic species (ntypx) = 10
     Max number of k-points (npk) =  40000
     Max angular momentum in pseudopotentials (lmaxx) =  4
     file O.pbe-n-kjpaw_psl.0.1.UPF: wavefunction(s)  2P renormalized
     Message from routine setup:
     using ibrav=0 with symmetry is DISCOURAGED, use correct ibrav instead

     K-points division:     npool     =       4
     R & G space division:  proc/nbgrp/npool/nimage =       5
     Subspace diagonalization in iterative solution of the eigenvalue problem:
     a serial algorithm will be used


     Parallelization info
     --------------------
     sticks:   dense  smooth     PW     G-vecs:    dense   smooth      PW
     Min         664     330     94               168246    59478    8976
     Max         665     331     95               168255    59487    8990
     Sum        3323    1653    471               841263   297421   44917

     Using Slab Decomposition



     bravais-lattice index     =            0
     lattice parameter (alat)  =       5.5104  a.u.
     unit-cell volume          =    3076.9124 (a.u.)^3
     number of atoms/cell      =           21
     number of atomic types    =            3
     number of electrons       =       169.00
     number of Kohn-Sham states=          102
     kinetic-energy cutoff     =      80.0000  Ry
     charge density cutoff     =     640.0000  Ry
     scf convergence threshold =      1.0E-06
     mixing beta               =       0.3000
     number of iterations used =            8  local-TF  mixing
     Exchange-correlation= SLA  PW   PBX  PBC
                           (   1   4   3   4   0   0   0)

     celldm(1)=   5.510441  celldm(2)=   0.000000  celldm(3)=   0.000000
     celldm(4)=   0.000000  celldm(5)=   0.000000  celldm(6)=   0.000000

     crystal axes: (cart. coord. in units of alat)
               a(1) = (   1.000000   0.000000   0.000000 )  
               a(2) = (   0.000000   2.144115   0.000000 )  
               a(3) = (   0.000000   0.000000   8.576458 )  

     reciprocal axes: (cart. coord. in units 2 pi/alat)
               b(1) = (  1.000000  0.000000  0.000000 )  
               b(2) = (  0.000000  0.466393  0.000000 )  
               b(3) = (  0.000000  0.000000  0.116598 )  


     PseudoPot. # 1 for Cr read from file:
     /usr/share/espresso/pseudo/cr_pbe_v1.5.uspp.F.UPF
     MD5 check sum: 0d52af634a40206e4dee301ad30da4bf
     Pseudo is Ultrasoft + core correction, Zval = 14.0
     Generated by new atomic code, or converted to UPF format
     Using radial grid of  857 points,  6 beta functions with: 
                l(1) =   0
                l(2) =   0
                l(3) =   1
                l(4) =   1
                l(5) =   2
                l(6) =   2
     Q(r) pseudized with  8 coefficients,  rinner =    0.950   0.950   0.950
                                                       0.950   0.950

     PseudoPot. # 2 for H  read from file:
     /usr/share/espresso/pseudo/H.pbe-rrkjus_psl.1.0.0.UPF
     MD5 check sum: f52b6d4d1c606e5624b1dc7b2218f220
     Pseudo is Ultrasoft, Zval =  1.0
     Generated using "atomic" code by A. Dal Corso  v.5.1
     Using radial grid of  929 points,  2 beta functions with: 
                l(1) =   0
                l(2) =   0
     Q(r) pseudized with 0 coefficients 


     PseudoPot. # 3 for O  read from file:
     /usr/share/espresso/pseudo/O.pbe-n-kjpaw_psl.0.1.UPF
     MD5 check sum: 0234752ac141de4415c5fc33072bef88
     Pseudo is Projector augmented-wave + core cor, Zval =  6.0
     Generated using "atomic" code by A. Dal Corso  v.5.0.99 svn rev. 10869
     Shape of augmentation charge: BESSEL
     Using radial grid of 1095 points,  4 beta functions with: 
                l(1) =   0
                l(2) =   0
                l(3) =   1
                l(4) =   1
     Q(r) pseudized with 0 coefficients 


     atomic species   valence    mass     pseudopotential
     Cr               14.00    51.99600     Cr( 1.00)
     H                 1.00     1.00800     H ( 1.00)
     O                 6.00    15.99900     O ( 1.00)

     Starting magnetic structure 
     atomic species   magnetization
     Cr              0.071
     H               0.000
     O               0.000

      2 Sym. Ops. (no inversion) found ( 1 have fractional translation)



   Cartesian axes

     site n.     atom                  positions (alat units)
         1        Cr     tau(   1) = (   0.0000000   0.5360286   3.2161719  )
         2        Cr     tau(   2) = (   0.5000000   1.6080859   3.2161719  )
         3        Cr     tau(   3) = (   0.0011527   1.6080859   4.3089263  )
         4        Cr     tau(   4) = (   0.4993817   0.5360286   4.2961656  )
         5        Cr     tau(   5) = (  -0.0085889   0.5360286   5.3745755  )
         6        Cr     tau(   6) = (   0.5028693   1.6080859   5.4254587  )
         7        O      tau(   7) = (   0.0000000   1.6080859   3.6342742  )
         8        O      tau(   8) = (   0.0000000   1.6080859   2.7980695  )
         9        O      tau(   9) = (   0.5000000   0.1179263   3.2161719  )
        10        O      tau(  10) = (   0.5000000   0.9541310   3.2161719  )
        11        O      tau(  11) = (  -0.0015627   0.5360286   4.7288986  )
        12        O      tau(  12) = (   0.0000000   0.5360286   3.8701268  )
        13        O      tau(  13) = (   0.5010389   1.1848813   4.3017892  )
        14        O      tau(  14) = (   0.5010389   2.0312906   4.3017892  )
        15        O      tau(  15) = (  -0.0029502   1.6080859   5.8123958  )
        16        O      tau(  16) = (   0.0026206   1.6080859   4.9663566  )
        17        O      tau(  17) = (   0.4972029   0.1158953   5.4026833  )
        18        O      tau(  18) = (   0.4972029   0.9561620   5.4026833  )
        19        O      tau(  19) = (   0.0860179   0.5360286   6.0803268  )
        20        O      tau(  20) = (  -0.1886167   0.5360286   6.4573034  )
        21        H      tau(  21) = (  -0.5167581   0.5360286   6.3029246  )

     number of k points=    15  Marzari-Vanderbilt smearing, width (Ry)=  0.0100
                       cart. coord. in units 2pi/alat
        k(    1) = (   0.0000000   0.0000000   0.0000000), wk =   0.0277778
        k(    2) = (   0.0000000   0.1165982   0.0000000), wk =   0.0555556
        k(    3) = (   0.0000000  -0.2331965   0.0000000), wk =   0.0277778
        k(    4) = (   0.1111111   0.0000000   0.0000000), wk =   0.0555556
        k(    5) = (   0.1111111   0.1165982   0.0000000), wk =   0.1111111
        k(    6) = (   0.1111111  -0.2331965   0.0000000), wk =   0.0555556
        k(    7) = (   0.2222222   0.0000000   0.0000000), wk =   0.0555556
        k(    8) = (   0.2222222   0.1165982   0.0000000), wk =   0.1111111
        k(    9) = (   0.2222222  -0.2331965   0.0000000), wk =   0.0555556
        k(   10) = (   0.3333333   0.0000000   0.0000000), wk =   0.0555556
        k(   11) = (   0.3333333   0.1165982   0.0000000), wk =   0.1111111
        k(   12) = (   0.3333333  -0.2331965   0.0000000), wk =   0.0555556
        k(   13) = (   0.4444444   0.0000000   0.0000000), wk =   0.0555556
        k(   14) = (   0.4444444   0.1165982   0.0000000), wk =   0.1111111
        k(   15) = (   0.4444444  -0.2331965   0.0000000), wk =   0.0555556

     Dense  grid:   841263 G-vectors     FFT dimensions: (  45,  96, 384)

     Smooth grid:   297421 G-vectors     FFT dimensions: (  32,  72, 270)

     Estimated max dynamical RAM per process >     449.43 MB

     Estimated total dynamical RAM >       7.57 GB

     Check: negative core charge=   -0.000001
     Generating pointlists ...
     new r_m :   0.2589 (alat units)  1.4267 (a.u.) for type    1
     new r_m :   0.1496 (alat units)  0.8243 (a.u.) for type    2
     new r_m :   0.1496 (alat units)  0.8243 (a.u.) for type    3

     Initial potential from superposition of free atoms

     starting charge     162.9999, renormalised to     169.0000

     negative rho (up, down):  2.830E-03 2.447E-03
     Starting wfcs are  117 randomized atomic wfcs
     Checking if some PAW data can be deallocated... 

     total cpu time spent up to now is       31.7 secs

     per-process dynamical memory:   263.9 Mb

     Self-consistent Calculation

     iteration #  1     ecut=    80.00 Ry     beta= 0.30
     Davidson diagonalization with overlap
     ethr =  1.00E-02,  avg # of iterations =  4.7

     negative rho (up, down):  6.140E-03 5.930E-03

     total cpu time spent up to now is      139.2 secs

     total energy              =   -1635.81585711 Ry
     estimated scf accuracy    <     462.07135147 Ry

     total magnetization       =     2.27 Bohr mag/cell
     absolute magnetization    =     2.69 Bohr mag/cell

     iteration #  2     ecut=    80.00 Ry     beta= 0.30
     Davidson diagonalization with overlap
     ethr =  1.00E-02,  avg # of iterations =  2.0

     negative rho (up, down):  1.590E-02 1.750E-02

     total cpu time spent up to now is      195.3 secs

     total energy              =   -1636.88489866 Ry
     estimated scf accuracy    <      63.63566849 Ry

     total magnetization       =     3.78 Bohr mag/cell
     absolute magnetization    =     4.35 Bohr mag/cell

     iteration #  3     ecut=    80.00 Ry     beta= 0.30
     Davidson diagonalization with overlap
     ethr =  1.00E-02,  avg # of iterations =  2.9

     negative rho (up, down):  1.874E-02 2.055E-02

     total cpu time spent up to now is      257.9 secs

     total energy              =   -1637.87260517 Ry
     estimated scf accuracy    <      34.60582422 Ry

     total magnetization       =     1.54 Bohr mag/cell
     absolute magnetization    =     2.63 Bohr mag/cell

     iteration #  4     ecut=    80.00 Ry     beta= 0.30
     Davidson diagonalization with overlap
     ethr =  1.00E-02,  avg # of iterations =  1.3

     negative rho (up, down):  1.943E-02 2.160E-02

     total cpu time spent up to now is      308.6 secs

     total energy              =   -1637.99697771 Ry
     estimated scf accuracy    <      20.94019595 Ry

     total magnetization       =     4.68 Bohr mag/cell
     absolute magnetization    =     5.42 Bohr mag/cell

     iteration #  5     ecut=    80.00 Ry     beta= 0.30
     Davidson diagonalization with overlap
     ethr =  1.00E-02,  avg # of iterations =  1.2

     negative rho (up, down):  2.379E-02 2.839E-02

     total cpu time spent up to now is      362.3 secs

     total energy              =   -1637.40533428 Ry
     estimated scf accuracy    <      20.88768796 Ry

     total magnetization       =     6.19 Bohr mag/cell
     absolute magnetization    =     6.85 Bohr mag/cell

     iteration #  6     ecut=    80.00 Ry     beta= 0.30
     Davidson diagonalization with overlap
     ethr =  1.00E-02,  avg # of iterations =  2.2

     negative rho (up, down):  2.610E-02 3.305E-02

     total cpu time spent up to now is      434.1 secs

     total energy              =   -1637.41387055 Ry
     estimated scf accuracy    <       9.87236515 Ry

     total magnetization       =     7.07 Bohr mag/cell
     absolute magnetization    =     7.93 Bohr mag/cell

     iteration #  7     ecut=    80.00 Ry     beta= 0.30
     Davidson diagonalization with overlap
     ethr =  5.84E-03,  avg # of iterations =  4.5

     negative rho (up, down):  2.617E-02 3.398E-02

     total cpu time spent up to now is      506.3 secs

     total energy              =   -1637.99731674 Ry
     estimated scf accuracy    <       2.89937341 Ry

     total magnetization       =     7.85 Bohr mag/cell
     absolute magnetization    =     8.62 Bohr mag/cell

     iteration #  8     ecut=    80.00 Ry     beta= 0.30
     Davidson diagonalization with overlap
     ethr =  1.72E-03,  avg # of iterations =  2.6

     negative rho (up, down):  2.509E-02 3.397E-02

     total cpu time spent up to now is      560.5 secs

     total energy              =   -1637.99767302 Ry
     estimated scf accuracy    <       1.19387410 Ry

     total magnetization       =     9.53 Bohr mag/cell
     absolute magnetization    =    10.00 Bohr mag/cell

     iteration #  9     ecut=    80.00 Ry     beta= 0.30
     Davidson diagonalization with overlap
     ethr =  7.06E-04,  avg # of iterations =  4.6

     negative rho (up, down):  2.392E-02 3.369E-02

     total cpu time spent up to now is      620.8 secs

     total energy              =   -1637.98458235 Ry
     estimated scf accuracy    <       1.85744162 Ry

     total magnetization       =    10.29 Bohr mag/cell
     absolute magnetization    =    10.88 Bohr mag/cell

     iteration # 10     ecut=    80.00 Ry     beta= 0.30
     Davidson diagonalization with overlap
     ethr =  7.06E-04,  avg # of iterations =  1.6

     negative rho (up, down):  1.787E-02 3.085E-02

     total cpu time spent up to now is      670.2 secs

     total energy              =   -1637.74390976 Ry
     estimated scf accuracy    <       0.91692321 Ry

     total magnetization       =    10.33 Bohr mag/cell
     absolute magnetization    =    10.94 Bohr mag/cell

     iteration # 11     ecut=    80.00 Ry     beta= 0.30
     Davidson diagonalization with overlap
     ethr =  5.43E-04,  avg # of iterations =  4.8

     negative rho (up, down):  2.025E-02 3.690E-02

     total cpu time spent up to now is      731.3 secs

     total energy              =   -1638.12761920 Ry
     estimated scf accuracy    <      11.63991478 Ry

     total magnetization       =    13.27 Bohr mag/cell
     absolute magnetization    =    13.46 Bohr mag/cell

     iteration # 12     ecut=    80.00 Ry     beta= 0.30
     Davidson diagonalization with overlap
     ethr =  5.43E-04,  avg # of iterations =  1.3

     negative rho (up, down):  2.166E-02 3.926E-02

     total cpu time spent up to now is      777.1 secs

     total energy              =   -1637.90324058 Ry
     estimated scf accuracy    <       7.36447816 Ry

     total magnetization       =    13.52 Bohr mag/cell
     absolute magnetization    =    13.82 Bohr mag/cell

     iteration # 13     ecut=    80.00 Ry     beta= 0.30
     Davidson diagonalization with overlap
     ethr =  5.43E-04,  avg # of iterations =  2.2

     negative rho (up, down):  2.096E-02 3.806E-02

     total cpu time spent up to now is      825.8 secs

     total energy              =   -1637.91924208 Ry
     estimated scf accuracy    <       2.14043701 Ry

     total magnetization       =    12.38 Bohr mag/cell
     absolute magnetization    =    13.31 Bohr mag/cell

     iteration # 14     ecut=    80.00 Ry     beta= 0.30
     Davidson diagonalization with overlap
     ethr =  5.43E-04,  avg # of iterations =  1.4

     negative rho (up, down):  1.592E-02 3.385E-02

     total cpu time spent up to now is      866.0 secs

     total energy              =   -1637.97451357 Ry
     estimated scf accuracy    <       0.95321816 Ry

     total magnetization       =    11.71 Bohr mag/cell
     absolute magnetization    =    13.26 Bohr mag/cell

     iteration # 15     ecut=    80.00 Ry     beta= 0.30
     Davidson diagonalization with overlap
     ethr =  5.43E-04,  avg # of iterations =  1.0

     negative rho (up, down):  1.395E-02 3.194E-02

     total cpu time spent up to now is      910.8 secs

     total energy              =   -1637.93895967 Ry
     estimated scf accuracy    <       5.58516501 Ry

     total magnetization       =    13.55 Bohr mag/cell
     absolute magnetization    =    14.10 Bohr mag/cell

     iteration # 16     ecut=    80.00 Ry     beta= 0.30
     Davidson diagonalization with overlap
     ethr =  5.43E-04,  avg # of iterations =  1.0

     negative rho (up, down):  1.257E-02 3.098E-02

     total cpu time spent up to now is      952.6 secs

     total energy              =   -1637.92109255 Ry
     estimated scf accuracy    <       1.95316388 Ry

     total magnetization       =    12.30 Bohr mag/cell
     absolute magnetization    =    14.03 Bohr mag/cell

     iteration # 17     ecut=    80.00 Ry     beta= 0.30
     Davidson diagonalization with overlap
     ethr =  5.43E-04,  avg # of iterations =  1.0

     negative rho (up, down):  1.150E-02 2.981E-02

     total cpu time spent up to now is      993.0 secs

     total energy              =   -1637.90943305 Ry
     estimated scf accuracy    <       0.43800462 Ry

     total magnetization       =    11.23 Bohr mag/cell
     absolute magnetization    =    14.37 Bohr mag/cell

     iteration # 18     ecut=    80.00 Ry     beta= 0.30
     Davidson diagonalization with overlap
     ethr =  2.59E-04,  avg # of iterations =  1.6

     negative rho (up, down):  1.087E-02 2.935E-02

     total cpu time spent up to now is     1031.4 secs

     total energy              =   -1637.91915749 Ry
     estimated scf accuracy    <       0.09123661 Ry

     total magnetization       =    11.00 Bohr mag/cell
     absolute magnetization    =    14.23 Bohr mag/cell

     iteration # 19     ecut=    80.00 Ry     beta= 0.30
     Davidson diagonalization with overlap
     ethr =  5.40E-05,  avg # of iterations =  3.3

     negative rho (up, down):  1.219E-02 3.038E-02

     total cpu time spent up to now is     1087.1 secs

     total energy              =   -1637.92055506 Ry
     estimated scf accuracy    <       0.14805467 Ry

     total magnetization       =    11.00 Bohr mag/cell
     absolute magnetization    =    13.86 Bohr mag/cell

     iteration # 20     ecut=    80.00 Ry     beta= 0.30
     Davidson diagonalization with overlap
     ethr =  5.40E-05,  avg # of iterations =  1.1

     negative rho (up, down):  1.226E-02 3.038E-02

     total cpu time spent up to now is     1142.8 secs

     total energy              =   -1637.91870765 Ry
     estimated scf accuracy    <       0.08301259 Ry

     total magnetization       =    11.00 Bohr mag/cell
     absolute magnetization    =    13.86 Bohr mag/cell

     iteration # 21     ecut=    80.00 Ry     beta= 0.30
     Davidson diagonalization with overlap
     ethr =  4.91E-05,  avg # of iterations =  1.0

     negative rho (up, down):  6.587E-03 2.530E-02

     total cpu time spent up to now is     1186.1 secs

     total energy              =   -1637.90196586 Ry
     estimated scf accuracy    <       0.05731280 Ry

     total magnetization       =    11.00 Bohr mag/cell
     absolute magnetization    =    13.95 Bohr mag/cell

     iteration # 22     ecut=    80.00 Ry     beta= 0.30
     Davidson diagonalization with overlap
     ethr =  3.39E-05,  avg # of iterations =  2.0

     negative rho (up, down):  2.653E-03 2.199E-02

     total cpu time spent up to now is     1248.5 secs

     total energy              =   -1637.90197781 Ry
     estimated scf accuracy    <       0.14576550 Ry

     total magnetization       =    11.16 Bohr mag/cell
     absolute magnetization    =    14.34 Bohr mag/cell

     iteration # 23     ecut=    80.00 Ry     beta= 0.30
     Davidson diagonalization with overlap
     ethr =  3.39E-05,  avg # of iterations =  1.4

     negative rho (up, down):  9.891E-04 2.017E-02

     total cpu time spent up to now is     1339.7 secs

     total energy              =   -1637.90189557 Ry
     estimated scf accuracy    <       0.06417832 Ry

     total magnetization       =    10.98 Bohr mag/cell
     absolute magnetization    =    14.75 Bohr mag/cell

     iteration # 24     ecut=    80.00 Ry     beta= 0.30
     Davidson diagonalization with overlap
     ethr =  3.39E-05,  avg # of iterations =  1.1

     negative rho (up, down):  2.539E-04 1.923E-02

     total cpu time spent up to now is     1425.0 secs

     total energy              =   -1637.90153923 Ry
     estimated scf accuracy    <       0.02268985 Ry

     total magnetization       =    11.00 Bohr mag/cell
     absolute magnetization    =    14.64 Bohr mag/cell

     iteration # 25     ecut=    80.00 Ry     beta= 0.30
     Davidson diagonalization with overlap
     ethr =  1.34E-05,  avg # of iterations =  6.3

     negative rho (up, down):  1.502E-03 2.019E-02

     total cpu time spent up to now is     1577.0 secs

     total energy              =   -1637.89554633 Ry
     estimated scf accuracy    <       0.07660947 Ry

     total magnetization       =    11.00 Bohr mag/cell
     absolute magnetization    =    14.41 Bohr mag/cell

     iteration # 26     ecut=    80.00 Ry     beta= 0.30
     Davidson diagonalization with overlap
     ethr =  1.34E-05,  avg # of iterations =  1.6

     negative rho (up, down):  1.830E-03 2.079E-02

     total cpu time spent up to now is     1700.4 secs

     total energy              =   -1637.89780335 Ry
     estimated scf accuracy    <       0.01718867 Ry

     total magnetization       =    11.00 Bohr mag/cell
     absolute magnetization    =    14.76 Bohr mag/cell

     iteration # 27     ecut=    80.00 Ry     beta= 0.30
     Davidson diagonalization with overlap
     ethr =  1.02E-05,  avg # of iterations =  1.9

     negative rho (up, down):  4.609E-03 2.357E-02

     total cpu time spent up to now is     1786.5 secs

     total energy              =   -1637.89624638 Ry
     estimated scf accuracy    <       0.01712311 Ry

     total magnetization       =    11.00 Bohr mag/cell
     absolute magnetization    =    14.83 Bohr mag/cell

     iteration # 28     ecut=    80.00 Ry     beta= 0.30
     Davidson diagonalization with overlap
     ethr =  1.01E-05,  avg # of iterations =  1.4

     negative rho (up, down):  5.427E-03 2.443E-02

     total cpu time spent up to now is     1872.8 secs

     total energy              =   -1637.89623072 Ry
     estimated scf accuracy    <       0.00477967 Ry

     total magnetization       =    11.00 Bohr mag/cell
     absolute magnetization    =    14.71 Bohr mag/cell

     iteration # 29     ecut=    80.00 Ry     beta= 0.30
     Davidson diagonalization with overlap
     ethr =  2.83E-06,  avg # of iterations =  9.7

     negative rho (up, down):  4.390E-03 2.338E-02

     total cpu time spent up to now is     2053.2 secs

     total energy              =   -1637.89583112 Ry
     estimated scf accuracy    <       0.00772213 Ry

     total magnetization       =    11.00 Bohr mag/cell
     absolute magnetization    =    14.54 Bohr mag/cell

     iteration # 30     ecut=    80.00 Ry     beta= 0.30
     Davidson diagonalization with overlap
     ethr =  2.83E-06,  avg # of iterations =  2.2

     negative rho (up, down):  4.970E-03 2.391E-02

     total cpu time spent up to now is     2125.0 secs

     total energy              =   -1637.89517809 Ry
     estimated scf accuracy    <       0.00337701 Ry

     total magnetization       =    11.00 Bohr mag/cell
     absolute magnetization    =    14.61 Bohr mag/cell

     iteration # 31     ecut=    80.00 Ry     beta= 0.30
     Davidson diagonalization with overlap
     ethr =  2.00E-06,  avg # of iterations =  3.3

     negative rho (up, down):  4.519E-03 2.335E-02

     total cpu time spent up to now is     2179.1 secs

     total energy              =   -1637.89509170 Ry
     estimated scf accuracy    <       0.00320120 Ry

     total magnetization       =    11.00 Bohr mag/cell
     absolute magnetization    =    14.47 Bohr mag/cell

     iteration # 32     ecut=    80.00 Ry     beta= 0.30
     Davidson diagonalization with overlap
     ethr =  1.89E-06,  avg # of iterations =  1.8

     negative rho (up, down):  5.194E-03 2.400E-02

     total cpu time spent up to now is     2224.3 secs

     total energy              =   -1637.89521583 Ry
     estimated scf accuracy    <       0.00366575 Ry

     total magnetization       =    11.00 Bohr mag/cell
     absolute magnetization    =    14.53 Bohr mag/cell

     iteration # 33     ecut=    80.00 Ry     beta= 0.30
     Davidson diagonalization with overlap
     ethr =  1.89E-06,  avg # of iterations =  1.6

     negative rho (up, down):  3.699E-03 2.246E-02

     total cpu time spent up to now is     2268.3 secs

     total energy              =   -1637.89527728 Ry
     estimated scf accuracy    <       0.00157538 Ry

     total magnetization       =    11.00 Bohr mag/cell
     absolute magnetization    =    14.52 Bohr mag/cell

     iteration # 34     ecut=    80.00 Ry     beta= 0.30
     Davidson diagonalization with overlap
     ethr =  9.32E-07,  avg # of iterations =  1.0

     negative rho (up, down):  2.107E-03 2.043E-02

     total cpu time spent up to now is     2310.4 secs

     total energy              =   -1637.89537968 Ry
     estimated scf accuracy    <       0.00047066 Ry

     total magnetization       =    11.00 Bohr mag/cell
     absolute magnetization    =    14.52 Bohr mag/cell

     iteration # 35     ecut=    80.00 Ry     beta= 0.30
     Davidson diagonalization with overlap
     ethr =  2.78E-07,  avg # of iterations =  2.0

     negative rho (up, down):  2.383E-03 2.043E-02

     total cpu time spent up to now is     2357.8 secs

     total energy              =   -1637.89544881 Ry
     estimated scf accuracy    <       0.00013255 Ry

     total magnetization       =    11.00 Bohr mag/cell
     absolute magnetization    =    14.55 Bohr mag/cell

     iteration # 36     ecut=    80.00 Ry     beta= 0.30
     Davidson diagonalization with overlap
     ethr =  7.84E-08,  avg # of iterations =  2.3

     negative rho (up, down):  2.479E-03 2.033E-02

     total cpu time spent up to now is     2382.1 secs

     total energy              =   -1637.89545517 Ry
     estimated scf accuracy    <       0.00007415 Ry

     total magnetization       =    11.00 Bohr mag/cell
     absolute magnetization    =    14.56 Bohr mag/cell

     iteration # 37     ecut=    80.00 Ry     beta= 0.30
     Davidson diagonalization with overlap
     ethr =  4.39E-08,  avg # of iterations =  2.2

     negative rho (up, down):  2.407E-03 2.013E-02

     total cpu time spent up to now is     2405.8 secs

     total energy              =   -1637.89545711 Ry
     estimated scf accuracy    <       0.00002454 Ry

     total magnetization       =    11.00 Bohr mag/cell
     absolute magnetization    =    14.57 Bohr mag/cell

     iteration # 38     ecut=    80.00 Ry     beta= 0.30
     Davidson diagonalization with overlap
     ethr =  1.45E-08,  avg # of iterations =  2.7

     negative rho (up, down):  2.309E-03 1.998E-02

     total cpu time spent up to now is     2435.4 secs

     total energy              =   -1637.89546022 Ry
     estimated scf accuracy    <       0.00000575 Ry

     total magnetization       =    11.00 Bohr mag/cell
     absolute magnetization    =    14.58 Bohr mag/cell

     iteration # 39     ecut=    80.00 Ry     beta= 0.30
     Davidson diagonalization with overlap
     ethr =  3.40E-09,  avg # of iterations =  4.5

     negative rho (up, down):  2.143E-03 1.978E-02

     total cpu time spent up to now is     2463.2 secs

     total energy              =   -1637.89546220 Ry
     estimated scf accuracy    <       0.00000502 Ry

     total magnetization       =    11.00 Bohr mag/cell
     absolute magnetization    =    14.58 Bohr mag/cell

     iteration # 40     ecut=    80.00 Ry     beta= 0.30
     Davidson diagonalization with overlap
     ethr =  2.97E-09,  avg # of iterations =  2.0

     negative rho (up, down):  2.052E-03 1.966E-02

     total cpu time spent up to now is     2487.3 secs

     total energy              =   -1637.89546371 Ry
     estimated scf accuracy    <       0.00000263 Ry

     total magnetization       =    11.00 Bohr mag/cell
     absolute magnetization    =    14.58 Bohr mag/cell

     iteration # 41     ecut=    80.00 Ry     beta= 0.30
     Davidson diagonalization with overlap
     ethr =  1.56E-09,  avg # of iterations =  2.0

     negative rho (up, down):  1.999E-03 1.960E-02

     total cpu time spent up to now is     2513.4 secs

     total energy              =   -1637.89546439 Ry
     estimated scf accuracy    <       0.00000113 Ry

     total magnetization       =    11.00 Bohr mag/cell
     absolute magnetization    =    14.58 Bohr mag/cell

     iteration # 42     ecut=    80.00 Ry     beta= 0.30
     Davidson diagonalization with overlap
     ethr =  6.69E-10,  avg # of iterations =  2.6

     negative rho (up, down):  2.006E-03 1.960E-02

     Magnetic moment per site  (integrated on atomic sphere of radius R)
     atom   1 (R=0.259)  charge= 10.4298  magn=  1.9387
     atom   2 (R=0.259)  charge= 10.3521  magn=  1.4654
     atom   3 (R=0.259)  charge= 10.3736  magn=  1.7113
     atom   4 (R=0.259)  charge= 10.3794  magn=  1.7342
     atom   5 (R=0.259)  charge= 10.3902  magn=  1.7617
     atom   6 (R=0.259)  charge= 10.3530  magn=  1.4348
     atom   7 (R=0.150)  charge=  2.2815  magn= -0.0464
     atom   8 (R=0.150)  charge=  2.2549  magn= -0.0761
     atom   9 (R=0.150)  charge=  2.2865  magn= -0.0315
     atom  10 (R=0.150)  charge=  2.2865  magn= -0.0315
     atom  11 (R=0.150)  charge=  2.2814  magn= -0.0385
     atom  12 (R=0.150)  charge=  2.2794  magn= -0.0451
     atom  13 (R=0.150)  charge=  2.2872  magn= -0.0363
     atom  14 (R=0.150)  charge=  2.2872  magn= -0.0363
     atom  15 (R=0.150)  charge=  2.2623  magn= -0.0705
     atom  16 (R=0.150)  charge=  2.2743  magn= -0.0465
     atom  17 (R=0.150)  charge=  2.2863  magn= -0.0322
     atom  18 (R=0.150)  charge=  2.2863  magn= -0.0322
     atom  19 (R=0.150)  charge=  2.2633  magn= -0.1481
     atom  20 (R=0.150)  charge=  2.2683  magn= -0.1298
     atom  21 (R=0.150)  charge=  0.4284  magn=  0.0016

     total cpu time spent up to now is     2539.0 secs

     End of self-consistent calculation

 ------ SPIN UP ------------


          k = 0.0000 0.0000 0.0000 ( 37133 PWs)   bands (ev):

   -73.0831 -73.0441 -72.9606 -72.9505 -72.9486 -72.9442 -44.4185 -44.4084
   -44.3899 -44.3761 -44.3405 -44.3357 -44.3160 -44.3020 -44.2845 -44.2357
   -44.2192 -44.2156 -44.2039 -44.1918 -44.1715 -44.1684 -44.1338 -44.1118
   -23.5353 -19.0488 -18.7066 -18.4400 -18.0532 -17.5582 -17.4485 -17.3442
   -17.3042 -17.2201 -17.1459 -16.6373 -16.2132 -14.3269  -7.7286  -6.8995
    -6.8024  -6.7312  -6.3768  -5.7164  -5.6028  -5.2757  -5.1082  -4.9808
    -4.8775  -4.8392  -4.8083  -4.5501  -4.5166  -4.4608  -4.4566  -3.9334
    -3.6689  -3.5927  -3.2823  -3.1905  -3.1170  -3.0061  -2.8383  -2.6561
    -2.5335  -2.4749  -2.3937  -2.2251  -1.9892  -1.9096  -1.8274  -1.6609
    -1.3731  -1.1727  -1.1054  -1.0116  -0.9399  -0.8811  -0.8027  -0.6616
    -0.6554  -0.6504  -0.6175  -0.5731  -0.5255  -0.4942  -0.0945   0.0724
     0.1980   0.3101   0.4641   0.6726   0.9612   1.2570   1.3468   1.4405
     1.5298   1.6440   2.1466   2.7648   3.3857   3.8569

          k = 0.0000 0.1166 0.0000 ( 37130 PWs)   bands (ev):

   -73.0831 -73.0441 -72.9606 -72.9504 -72.9486 -72.9444 -44.4168 -44.4084
   -44.3880 -44.3761 -44.3381 -44.3356 -44.3161 -44.3019 -44.2845 -44.2356
   -44.2212 -44.2173 -44.2039 -44.1942 -44.1716 -44.1685 -44.1335 -44.1121
   -23.5352 -18.9319 -18.5864 -18.3271 -18.2088 -17.7786 -17.6156 -17.3482
   -17.2482 -17.2118 -17.1118 -16.6335 -16.2041 -14.3262  -7.7200  -6.6223
    -6.5181  -6.4386  -6.3296  -5.7241  -5.4523  -5.2566  -4.9370  -4.9234
    -4.8085  -4.8055  -4.7768  -4.5603  -4.5213  -4.4559  -4.3507  -4.0416
    -3.9272  -3.7933  -3.7059  -3.5233  -3.3445  -3.2132  -2.9889  -2.8617
    -2.6477  -2.5522  -2.4515  -2.3721  -2.2438  -1.9912  -1.8453  -1.8053
    -1.5689  -1.2933  -1.2885  -1.0809  -0.9782  -0.8789  -0.6751  -0.6278
    -0.4224  -0.3557  -0.2971  -0.2760  -0.1672  -0.1256   0.0197   0.1077
     0.2638   0.3087   0.4754   0.6732   0.9263   1.1935   1.2507   1.3353
     1.4690   1.6352   2.4600   3.0119   3.5395   3.8608

          k = 0.0000-0.2332 0.0000 ( 37126 PWs)   bands (ev):

   -73.0831 -73.0441 -72.9606 -72.9503 -72.9485 -72.9446 -44.4151 -44.4083
   -44.3860 -44.3761 -44.3357 -44.3355 -44.3161 -44.3019 -44.2846 -44.2355
   -44.2233 -44.2191 -44.2039 -44.1967 -44.1717 -44.1685 -44.1332 -44.1124
   -23.5351 -18.7072 -18.4918 -18.3663 -18.0807 -18.0698 -17.8779 -17.3429
   -17.2440 -17.2100 -17.0730 -16.6310 -16.1959 -14.3255  -7.7151  -6.4724
    -6.1278  -6.0653  -6.0082  -5.7310  -5.4104  -4.9624  -4.8597  -4.8059
    -4.7368  -4.7243  -4.7117  -4.5714  -4.5242  -4.5162  -4.4541  -4.2171
    -4.1174  -4.0857  -4.0622  -3.8951  -3.7577  -3.5791  -3.0453  -2.9250
    -2.8394  -2.7956  -2.7252  -2.4878  -2.4147  -1.9269  -1.8257  -1.6428
    -1.5864  -1.3597  -1.2657  -1.1243  -0.9140  -0.8237  -0.7727  -0.6370
    -0.2196  -0.2146  -0.1828  -0.1563   0.0124   0.2134   0.2298   0.2894
     0.3007   0.4695   0.6490   0.7137   0.7484   0.9005   1.0943   1.2477
     1.3480   1.8018   2.8238   3.0340   3.8612   3.8631

          k = 0.1111 0.0000 0.0000 ( 37175 PWs)   bands (ev):

   -73.0816 -73.0426 -72.9590 -72.9490 -72.9470 -72.9427 -44.4167 -44.4062
   -44.3880 -44.3736 -44.3385 -44.3351 -44.3199 -44.3131 -44.2835 -44.2541
   -44.2164 -44.2127 -44.2010 -44.1908 -44.1890 -44.1873 -44.1535 -44.1310
   -23.4492 -18.9370 -18.6069 -18.3500 -17.9779 -17.5016 -17.4184 -17.3376
   -17.3301 -17.2450 -17.1729 -16.6640 -16.2277 -14.4957  -7.9280  -6.7519
    -6.6709  -6.6069  -6.2527  -5.6406  -5.5067  -5.2713  -5.2366  -5.1282
    -5.0925  -5.0582  -4.9303  -4.7605  -4.4742  -4.4182  -4.2534  -3.5563
    -3.5340  -3.4944  -3.1039  -3.0821  -3.0141  -2.9893  -2.8998  -2.8057
    -2.7033  -2.6784  -2.4495  -2.3950  -2.3904  -2.0364  -1.9218  -1.8909
    -1.7301  -1.6416  -1.5096  -1.2577  -0.9041  -0.8917  -0.7521  -0.6301
    -0.5657  -0.4473  -0.3525  -0.3038  -0.2492  -0.0554   0.0472   0.1211
     0.2849   0.5411   0.5789   0.7310   0.9021   1.1767   1.3450   1.4534
     1.4611   1.5689   2.2227   2.8587   3.4342   3.5364

          k = 0.1111 0.1166 0.0000 ( 37124 PWs)   bands (ev):

   -73.0816 -73.0425 -72.9590 -72.9488 -72.9470 -72.9429 -44.4153 -44.4062
   -44.3864 -44.3735 -44.3365 -44.3350 -44.3199 -44.3132 -44.2835 -44.2541
   -44.2181 -44.2142 -44.2010 -44.1913 -44.1908 -44.1873 -44.1531 -44.1311
   -23.4491 -18.8246 -18.4914 -18.2403 -18.1297 -17.7213 -17.5690 -17.3666
   -17.2660 -17.2374 -17.1228 -16.6603 -16.2195 -14.4950  -7.9229  -6.4760
    -6.3803  -6.3066  -6.2044  -5.6479  -5.3961  -5.2434  -5.1448  -5.1020
    -5.0469  -4.9878  -4.9020  -4.6736  -4.4689  -4.4076  -4.2127  -3.8149
    -3.6635  -3.6114  -3.4791  -3.4613  -3.2162  -3.0978  -3.0776  -3.0216
    -2.9910  -2.8650  -2.6388  -2.5158  -2.4554  -2.2648  -1.9698  -1.8483
    -1.7040  -1.6454  -1.4215  -1.1678  -1.0433  -0.8084  -0.6826  -0.3825
    -0.3001  -0.2252  -0.1153  -0.0747  -0.0329  -0.0071   0.0907   0.2199
     0.2963   0.5519   0.5762   0.7469   0.8689   1.1183   1.1779   1.2758
     1.4188   1.6861   2.4829   3.0465   3.4915   3.5447

          k = 0.1111-0.2332 0.0000 ( 37144 PWs)   bands (ev):

   -73.0816 -73.0425 -72.9590 -72.9487 -72.9470 -72.9430 -44.4139 -44.4062
   -44.3848 -44.3735 -44.3350 -44.3345 -44.3199 -44.3132 -44.2835 -44.2542
   -44.2197 -44.2158 -44.2010 -44.1935 -44.1907 -44.1872 -44.1528 -44.1313
   -23.4490 -18.6100 -18.3973 -18.2782 -18.0055 -18.0033 -17.8208 -17.3634
   -17.2697 -17.2277 -17.0819 -16.6578 -16.2121 -14.4943  -7.9198  -6.3403
    -5.9658  -5.9214  -5.8546  -5.6568  -5.3892  -5.1592  -5.0486  -5.0024
    -4.9697  -4.9505  -4.8626  -4.5133  -4.4305  -4.3992  -4.3113  -4.1972
    -3.9073  -3.8446  -3.7854  -3.6846  -3.6502  -3.4583  -3.3780  -3.2122
    -3.1410  -2.9954  -2.9154  -2.5522  -2.4991  -2.3395  -1.9417  -1.7319
    -1.4817  -1.4225  -1.3041  -1.2281  -1.0678  -0.8244  -0.6639  -0.2691
    -0.2325  -0.1616  -0.1372  -0.1160   0.0472   0.3649   0.4202   0.4635
     0.5631   0.5839   0.6233   0.7001   0.7866   0.8682   1.0299   1.1888
     1.2651   1.8425   2.7744   3.0777   3.4954   3.4980

          k = 0.2222 0.0000 0.0000 ( 37192 PWs)   bands (ev):

   -73.0777 -73.0386 -72.9551 -72.9449 -72.9432 -72.9388 -44.4121 -44.4016
   -44.3833 -44.3698 -44.3641 -44.3335 -44.3311 -44.3130 -44.2960 -44.2784
   -44.2394 -44.2355 -44.2093 -44.2056 -44.2032 -44.1930 -44.1819 -44.1791
   -23.2155 -18.6312 -18.3419 -18.1143 -17.7891 -17.4550 -17.3971 -17.3764
   -17.3081 -17.2415 -17.2193 -16.7292 -16.2488 -14.9641  -8.2506  -6.3597
    -6.3238  -6.2727  -5.9529  -5.5850  -5.5315  -5.4647  -5.4272  -5.3310
    -5.2657  -5.0169  -4.9642  -4.5016  -4.4749  -4.2929  -4.1452  -3.9082
    -3.7804  -3.7006  -3.5564  -3.5292  -3.3136  -3.2429  -2.9851  -2.8338
    -2.7244  -2.6111  -2.5502  -2.4782  -2.3414  -2.2667  -2.1553  -2.1032
    -1.9554  -1.9019  -1.5393  -1.2432  -1.1871  -0.7387  -0.6604  -0.3916
    -0.3085  -0.2895  -0.2354  -0.2056   0.0424   0.2804   0.3136   0.3655
     0.5330   0.6509   0.6804   0.8743   0.8968   1.0081   1.1056   1.2609
     1.3590   1.5988   2.3276   2.9224   3.2493   3.4247

          k = 0.2222 0.1166 0.0000 ( 37137 PWs)   bands (ev):

   -73.0777 -73.0386 -72.9551 -72.9449 -72.9432 -72.9389 -44.4115 -44.4016
   -44.3827 -44.3699 -44.3641 -44.3327 -44.3311 -44.3131 -44.2961 -44.2784
   -44.2390 -44.2351 -44.2103 -44.2064 -44.2025 -44.1930 -44.1860 -44.1767
   -23.2154 -18.5336 -18.2419 -18.0170 -17.9275 -17.6096 -17.4896 -17.4038
   -17.3124 -17.2872 -17.1211 -16.7261 -16.2439 -14.9635  -8.2483  -6.1021
    -6.0291  -5.9770  -5.8964  -5.5400  -5.4845  -5.4534  -5.3393  -5.2996
    -5.2340  -5.1559  -4.7214  -4.5409  -4.4052  -4.3233  -4.1774  -4.0684
    -3.9594  -3.8918  -3.7454  -3.6236  -3.4147  -3.2730  -3.0933  -3.0688
    -3.0149  -2.9021  -2.8332  -2.7224  -2.6298  -2.1933  -1.9869  -1.9039
    -1.8075  -1.7500  -1.5451  -1.3298  -1.1837  -0.8793  -0.5830  -0.3414
    -0.1950  -0.0622   0.0726   0.0984   0.1502   0.2540   0.3912   0.4187
     0.5318   0.5692   0.6633   0.8315   0.8709   0.9839   1.0260   1.1500
     1.2464   1.7352   2.4864   2.9526   3.0936   3.1534

          k = 0.2222-0.2332 0.0000 ( 37166 PWs)   bands (ev):

   -73.0777 -73.0386 -72.9551 -72.9448 -72.9432 -72.9390 -44.4110 -44.4016
   -44.3820 -44.3699 -44.3641 -44.3319 -44.3310 -44.3132 -44.2962 -44.2784
   -44.2385 -44.2347 -44.2113 -44.2074 -44.2018 -44.1930 -44.1885 -44.1756
   -23.2154 -18.3504 -18.1502 -18.0506 -17.8532 -17.8149 -17.6960 -17.4149
   -17.3364 -17.2610 -17.0843 -16.7238 -16.2395 -14.9630  -8.2467  -6.0148
    -5.6189  -5.6147  -5.5517  -5.4561  -5.4426  -5.3754  -5.2387  -5.2065
    -5.1381  -5.1127  -4.6473  -4.5656  -4.5070  -4.5051  -4.4312  -4.3253
    -4.1047  -4.0474  -3.9668  -3.6243  -3.5910  -3.4435  -3.2861  -3.2732
    -3.2222  -3.1599  -3.1156  -2.9290  -2.6417  -2.0831  -1.9020  -1.7129
    -1.5867  -1.5371  -1.4544  -1.4317  -1.2641  -1.1156  -0.3007  -0.2978
    -0.1924  -0.1076   0.0830   0.2230   0.3619   0.3946   0.4851   0.5614
     0.5836   0.6412   0.6876   0.7789   0.8168   0.9852   0.9975   1.0714
     1.0762   1.8308   2.6354   2.8359   2.8447   2.8855

          k = 0.3333 0.0000 0.0000 ( 37184 PWs)   bands (ev):

   -73.0733 -73.0342 -72.9506 -72.9404 -72.9388 -72.9344 -44.4231 -44.4069
   -44.3931 -44.3779 -44.3604 -44.3577 -44.3290 -44.3279 -44.2944 -44.2933
   -44.2885 -44.2762 -44.2593 -44.2330 -44.2012 -44.1973 -44.1842 -44.1738
   -22.9164 -18.2173 -18.0084 -17.8311 -17.5948 -17.5134 -17.4755 -17.3802
   -17.3225 -17.3201 -17.0678 -16.7854 -16.2365 -15.5599  -8.3703  -6.0914
    -5.9655  -5.8815  -5.7979  -5.7083  -5.5841  -5.4990  -5.4513  -5.3254
    -5.2172  -5.1306  -4.9654  -4.7047  -4.5354  -4.4380  -4.3160  -4.1809
    -4.0586  -3.9848  -3.8751  -3.4817  -3.4690  -3.2757  -3.1256  -3.0865
    -2.9961  -2.8242  -2.7905  -2.7228  -2.3922  -2.2469  -2.2158  -1.9090
    -1.7852  -1.6480  -1.3779  -1.3640  -0.8882  -0.8708  -0.6841  -0.3301
    -0.2759  -0.1539  -0.1494  -0.0679   0.1174   0.3355   0.4183   0.5033
     0.5193   0.6097   0.6663   0.7599   0.8804   0.9525   1.0349   1.2492
     1.2803   1.5127   2.3357   2.6645   3.2184   3.3462

          k = 0.3333 0.1166 0.0000 ( 37206 PWs)   bands (ev):

   -73.0733 -73.0342 -72.9506 -72.9403 -72.9388 -72.9344 -44.4232 -44.4076
   -44.3931 -44.3789 -44.3605 -44.3577 -44.3292 -44.3288 -44.2937 -44.2924
   -44.2877 -44.2762 -44.2574 -44.2335 -44.2014 -44.1976 -44.1842 -44.1738
   -22.9163 -18.1479 -17.9404 -17.7771 -17.6903 -17.5697 -17.4906 -17.4118
   -17.3972 -17.2902 -17.0530 -16.7842 -16.2357 -15.5593  -8.3700  -6.0721
    -5.7671  -5.6971  -5.6566  -5.6315  -5.5672  -5.5022  -5.4056  -5.3590
    -5.2267  -5.1696  -5.0014  -4.7019  -4.5463  -4.4019  -4.3295  -4.1978
    -4.1475  -4.0421  -3.7441  -3.6293  -3.4686  -3.3919  -3.1746  -3.1032
    -3.0202  -2.8454  -2.8026  -2.6837  -2.5573  -2.3360  -2.1437  -1.9283
    -1.7977  -1.7411  -1.3201  -1.2857  -1.1017  -0.8790  -0.6030  -0.5457
    -0.2152  -0.0972   0.0139   0.0192   0.0538   0.1522   0.2256   0.4115
     0.5070   0.5742   0.6962   0.9406   0.9644   1.0013   1.1489   1.1854
     1.2412   1.6097   2.4451   2.6018   2.7025   2.7579

          k = 0.3333-0.2332 0.0000 ( 37216 PWs)   bands (ev):

   -73.0733 -73.0342 -72.9506 -72.9403 -72.9388 -72.9345 -44.4234 -44.4082
   -44.3931 -44.3799 -44.3607 -44.3577 -44.3304 -44.3288 -44.2934 -44.2911
   -44.2868 -44.2762 -44.2555 -44.2341 -44.2017 -44.1979 -44.1842 -44.1739
   -22.9163 -18.0198 -17.8735 -17.7886 -17.7275 -17.6064 -17.5879 -17.4696
   -17.4125 -17.2765 -17.0423 -16.7832 -16.2349 -15.5587  -8.3699  -6.0718
    -5.6713  -5.6205  -5.5653  -5.4760  -5.4193  -5.4082  -5.3704  -5.2282
    -5.2234  -5.0574  -5.0504  -4.7187  -4.6908  -4.5392  -4.3441  -4.2301
    -4.1571  -4.0098  -3.8688  -3.7113  -3.5728  -3.2914  -3.2290  -3.1881
    -2.9945  -2.9804  -2.9793  -2.7970  -2.5549  -2.1583  -2.0720  -1.9692
    -1.9119  -1.5909  -1.5385  -1.1522  -1.0427  -0.8729  -0.7275  -0.6354
    -0.3682  -0.2206  -0.1222   0.1715   0.1855   0.2173   0.2373   0.4312
     0.5118   0.5500   0.6396   0.9416   0.9908   1.0420   1.1607   1.2773
     1.2878   1.6840   2.3293   2.3454   2.4205   2.5904

          k = 0.4444 0.0000 0.0000 ( 37180 PWs)   bands (ev):

   -73.0705 -73.0313 -72.9477 -72.9374 -72.9359 -72.9315 -44.4566 -44.4036
   -44.3952 -44.3903 -44.3745 -44.3523 -44.3331 -44.3250 -44.3242 -44.3234
   -44.2956 -44.2859 -44.2789 -44.2640 -44.1958 -44.1919 -44.1784 -44.1684
   -22.6955 -17.8327 -17.7321 -17.6489 -17.5985 -17.5277 -17.5225 -17.4276
   -17.3716 -17.3446 -17.0084 -16.7830 -16.2029 -15.9814  -8.3256  -6.3680
    -5.9467  -5.7326  -5.7031  -5.5991  -5.5658  -5.5427  -5.4106  -5.3583
    -5.2543  -5.2114  -5.0495  -4.8376  -4.6465  -4.4802  -4.4566  -4.3764
    -4.0224  -3.7804  -3.5995  -3.5838  -3.5569  -3.4545  -3.4119  -3.2467
    -2.8905  -2.7532  -2.5708  -2.5053  -2.4556  -2.2369  -2.2149  -2.0125
    -1.9570  -1.6013  -1.5344  -1.4266  -1.0706  -0.5598  -0.5026  -0.2781
    -0.2423  -0.1442  -0.1235  -0.1073   0.0367   0.0996   0.1279   0.3359
     0.3930   0.5470   0.6686   0.6715   0.8573   1.0613   1.1273   1.3612
     1.4059   1.4902   2.2421   2.5490   3.1193   3.4581

          k = 0.4444 0.1166 0.0000 ( 37248 PWs)   bands (ev):

   -73.0705 -73.0313 -72.9477 -72.9374 -72.9359 -72.9315 -44.4567 -44.4055
   -44.3954 -44.3903 -44.3778 -44.3521 -44.3312 -44.3290 -44.3230 -44.3221
   -44.2906 -44.2859 -44.2791 -44.2642 -44.1957 -44.1918 -44.1784 -44.1681
   -22.6955 -17.8117 -17.7231 -17.6721 -17.6156 -17.5312 -17.5112 -17.4323
   -17.3948 -17.3238 -17.0117 -16.7825 -16.2027 -15.9806  -8.3285  -6.3627
    -6.0313  -5.8851  -5.8354  -5.7500  -5.6620  -5.4211  -5.3796  -5.2352
    -5.1842  -5.0399  -4.9183  -4.6246  -4.5869  -4.5029  -4.3052  -4.1264
    -3.9751  -3.9221  -3.7712  -3.7214  -3.5732  -3.3481  -3.2927  -3.0934
    -2.9550  -2.7284  -2.5353  -2.4925  -2.3067  -2.2786  -2.1844  -2.1030
    -1.8623  -1.8152  -1.5507  -1.3585  -1.1409  -0.7257  -0.5573  -0.3833
    -0.2507  -0.2287  -0.1578  -0.1205  -0.0963  -0.0939  -0.0787   0.0559
     0.1015   0.3271   0.5954   1.0649   1.1693   1.2311   1.3178   1.3375
     1.4365   1.4980   2.3261   2.4362   2.5596   2.5713

          k = 0.4444-0.2332 0.0000 ( 37264 PWs)   bands (ev):

   -73.0705 -73.0313 -72.9477 -72.9374 -72.9360 -72.9315 -44.4569 -44.4074
   -44.3956 -44.3903 -44.3807 -44.3520 -44.3329 -44.3299 -44.3211 -44.3205
   -44.2867 -44.2859 -44.2792 -44.2645 -44.1955 -44.1917 -44.1784 -44.1677
   -22.6954 -17.7718 -17.7444 -17.6654 -17.6485 -17.5404 -17.4950 -17.4385
   -17.4099 -17.3118 -17.0150 -16.7821 -16.2024 -15.9799  -8.3315  -6.3617
    -6.1143  -6.0784  -5.9618  -5.7839  -5.6307  -5.2150  -5.1535  -5.1464
    -5.0790  -5.0003  -4.9892  -4.8402  -4.5342  -4.2432  -4.1817  -4.0390
    -4.0325  -3.9385  -3.8116  -3.5652  -3.4687  -3.3525  -3.1328  -3.1082
    -2.8168  -2.7426  -2.7067  -2.6471  -2.4329  -2.3430  -2.1220  -2.0004
    -1.8913  -1.4871  -1.4383  -1.4269  -1.2424  -0.8242  -0.7946  -0.6973
    -0.6939  -0.4907  -0.2137  -0.1035  -0.0963  -0.0819  -0.0642   0.0598
     0.1004   0.1573   0.6043   1.1009   1.2067   1.3462   1.4232   1.4725
     1.4870   1.5544   2.1377   2.1609   2.2308   2.4193

 ------ SPIN DOWN ----------


          k = 0.0000 0.0000 0.0000 ( 37133 PWs)   bands (ev):

   -71.0560 -70.9202 -70.6974 -70.5948 -70.5404 -70.2839 -42.5023 -42.4528
   -42.3690 -42.2659 -42.2251 -42.2009 -42.1750 -42.1317 -42.0498 -42.0337
   -41.8461 -41.8407 -41.8133 -41.7785 -41.7132 -41.6705 -41.5850 -41.4696
   -23.9027 -19.0868 -18.7448 -18.4788 -18.1277 -17.6652 -17.5548 -17.4341
   -17.3634 -17.2856 -17.2159 -16.8209 -16.4434 -14.8363  -7.8543  -6.4891
    -6.3516  -6.2934  -5.9324  -5.7088  -5.3332  -5.1826  -4.9712  -4.7227
    -4.5182  -4.4580  -4.4246  -4.3964  -4.3905  -4.1818  -4.1278  -3.9400
    -3.6112  -3.4737  -3.2363  -3.1519  -2.9475  -2.9461  -2.7604  -2.6143
    -2.3538  -2.2559  -2.1780  -2.1369  -1.9400  -1.8606  -1.5031  -1.4709
    -1.3446  -1.1689  -0.9931  -0.9443  -0.7326  -0.6049  -0.1291   1.4994
     1.5187   1.5297   1.6114   1.6122   1.6797   1.7769   1.7860   1.9414
     2.1296   2.1682   2.2226   2.2626   2.2844   2.6977   2.8100   3.0556
     3.2324   3.4007   3.4660   4.0993   4.6830   4.9093

          k = 0.0000 0.1166 0.0000 ( 37130 PWs)   bands (ev):

   -71.0560 -70.9202 -70.6973 -70.5948 -70.5404 -70.2839 -42.5017 -42.4522
   -42.3690 -42.2647 -42.2251 -42.2008 -42.1750 -42.1317 -42.0498 -42.0337
   -41.8461 -41.8420 -41.8140 -41.7784 -41.7133 -41.6706 -41.5857 -41.4696
   -23.9026 -18.9717 -18.6253 -18.3640 -18.2806 -17.8682 -17.6974 -17.4366
   -17.3223 -17.2854 -17.1964 -16.8175 -16.4339 -14.8356  -7.8507  -6.2417
    -6.0765  -6.0121  -5.8859  -5.6545  -5.3320  -5.1316  -4.8398  -4.7293
    -4.4763  -4.3952  -4.3895  -4.3554  -4.2741  -4.1826  -4.1247  -3.9391
    -3.8531  -3.6015  -3.5309  -3.4009  -3.2241  -2.8701  -2.7927  -2.7202
    -2.4092  -2.3940  -2.2492  -2.0749  -2.0249  -1.8322  -1.7815  -1.6068
    -1.4456  -1.2976  -1.2594  -1.0130  -0.9625  -0.6974  -0.1512   1.5269
     1.7544   1.8562   1.8613   1.9095   1.9267   1.9485   1.9651   2.0631
     2.1357   2.2055   2.2557   2.2917   2.3455   2.7063   2.9041   2.9679
     3.0742   3.3234   3.6396   4.2668   4.7387   4.9300

          k = 0.0000-0.2332 0.0000 ( 37126 PWs)   bands (ev):

   -71.0560 -70.9202 -70.6973 -70.5948 -70.5404 -70.2839 -42.5010 -42.4517
   -42.3690 -42.2635 -42.2251 -42.2008 -42.1750 -42.1317 -42.0498 -42.0338
   -41.8462 -41.8433 -41.8148 -41.7783 -41.7135 -41.6706 -41.5864 -41.4696
   -23.9025 -18.7478 -18.5506 -18.3952 -18.1614 -18.1208 -17.9531 -17.4325
   -17.3178 -17.2893 -17.1660 -16.8157 -16.4255 -14.8349  -7.8483  -6.0819
    -5.7216  -5.6983  -5.5921  -5.5786  -5.3406  -5.1283  -4.7426  -4.4723
    -4.4317  -4.3924  -4.3381  -4.3203  -4.2478  -4.1830  -4.1201  -4.1050
    -3.8237  -3.8101  -3.7916  -3.7124  -3.4723  -3.4649  -2.7288  -2.7080
    -2.6153  -2.4564  -2.4260  -2.1352  -2.1340  -1.9341  -1.7249  -1.6633
    -1.5020  -1.4030  -1.3501  -1.0713  -0.9497  -0.8557  -0.1709   1.5271
     1.8869   1.9997   2.0773   2.1002   2.1157   2.1204   2.1577   2.2109
     2.2592   2.3088   2.3804   2.3808   2.4093   2.5319   2.7994   2.9563
     3.0755   3.2872   4.0338   4.1553   4.8153   4.9130

          k = 0.1111 0.0000 0.0000 ( 37175 PWs)   bands (ev):

   -71.0544 -70.9185 -70.6957 -70.5931 -70.5387 -70.2822 -42.5006 -42.4511
   -42.3677 -42.2641 -42.2445 -42.1977 -42.1729 -42.1298 -42.0715 -42.0300
   -41.8450 -41.8369 -41.8093 -41.7998 -41.7353 -41.6931 -41.5808 -41.4930
   -23.8184 -18.9760 -18.6456 -18.3895 -18.0534 -17.6073 -17.5202 -17.4347
   -17.3890 -17.3108 -17.2429 -16.8482 -16.4593 -14.9974  -8.0547  -6.3535
    -6.2381  -6.1858  -5.8345  -5.6337  -5.2695  -5.1930  -5.1420  -4.9454
    -4.8723  -4.6543  -4.6528  -4.5720  -4.1565  -4.1237  -4.0741  -3.4064
    -3.2965  -3.2393  -3.0988  -2.9757  -2.9160  -2.8188  -2.7733  -2.7337
    -2.6191  -2.5370  -2.2654  -2.1971  -2.0491  -1.8622  -1.7670  -1.6983
    -1.6257  -1.3794  -1.2027  -0.9492  -0.9252  -0.6533  -0.1964   1.5219
     1.6702   1.7006   1.7441   1.8033   1.8502   1.8720   1.8933   2.0066
     2.1547   2.2484   2.2935   2.3490   2.4427   2.6025   2.9314   2.9613
     3.1455   3.3805   3.4713   4.1506   4.6490   4.7322

          k = 0.1111 0.1166 0.0000 ( 37124 PWs)   bands (ev):

   -71.0544 -70.9185 -70.6957 -70.5931 -70.5387 -70.2822 -42.5001 -42.4506
   -42.3677 -42.2631 -42.2445 -42.1977 -42.1729 -42.1298 -42.0715 -42.0300
   -41.8450 -41.8382 -41.8099 -41.7995 -41.7353 -41.6930 -41.5814 -41.4930
   -23.8183 -18.8657 -18.5310 -18.2786 -18.2018 -17.8080 -17.6490 -17.4541
   -17.3422 -17.3117 -17.2118 -16.8448 -16.4507 -14.9967  -8.0521  -6.1119
    -5.9554  -5.8974  -5.7838  -5.5845  -5.2740  -5.1961  -5.0805  -4.9175
    -4.7502  -4.6865  -4.5744  -4.4269  -4.1518  -4.1186  -4.0300  -3.5474
    -3.4540  -3.4063  -3.2996  -3.2766  -3.0377  -2.9571  -2.8285  -2.7804
    -2.7293  -2.7082  -2.4329  -2.3107  -2.0873  -1.9531  -1.8326  -1.7500
    -1.6498  -1.4479  -1.2675  -0.9853  -0.9480  -0.7552  -0.2052   1.6545
     1.6654   1.8730   1.9300   1.9510   1.9867   2.0812   2.1218   2.1776
     2.2294   2.2771   2.3876   2.4479   2.4625   2.6548   2.8260   2.9781
     3.0666   3.2606   3.6667   4.2742   4.6367   4.6971

          k = 0.1111-0.2332 0.0000 ( 37144 PWs)   bands (ev):

   -71.0544 -70.9185 -70.6957 -70.5931 -70.5387 -70.2822 -42.4995 -42.4502
   -42.3677 -42.2621 -42.2445 -42.1976 -42.1728 -42.1298 -42.0715 -42.0300
   -41.8450 -41.8395 -41.8106 -41.7992 -41.7354 -41.6930 -41.5819 -41.4929
   -23.8182 -18.6525 -18.4573 -18.3091 -18.0917 -18.0467 -17.8937 -17.4523
   -17.3436 -17.3095 -17.1785 -16.8429 -16.4431 -14.9960  -8.0503  -5.9715
    -5.6119  -5.5553  -5.4962  -5.4623  -5.2827  -5.1968  -5.1165  -4.8113
    -4.6400  -4.5584  -4.5572  -4.2224  -4.1220  -4.1025  -3.9913  -3.9482
    -3.6281  -3.5958  -3.5163  -3.4466  -3.4312  -3.2590  -3.1057  -2.9259
    -2.8335  -2.6833  -2.6138  -2.4611  -2.1601  -1.9900  -1.9175  -1.6817
    -1.4622  -1.3637  -1.2510  -1.0479  -0.9879  -0.8944  -0.2144   1.6483
     1.8171   1.9271   2.0045   2.0528   2.0840   2.2101   2.2725   2.3143
     2.3771   2.4870   2.5146   2.5537   2.5857   2.6343   2.7575   2.8964
     2.9946   3.3180   3.9855   4.1764   4.5234   4.5835

          k = 0.2222 0.0000 0.0000 ( 37192 PWs)   bands (ev):

   -71.0501 -70.9143 -70.6915 -70.5888 -70.5344 -70.2777 -42.4963 -42.4469
   -42.3708 -42.2867 -42.2594 -42.1904 -42.1669 -42.1259 -42.1251 -42.0205
   -41.8575 -41.8377 -41.8273 -41.7992 -41.7909 -41.7498 -41.5701 -41.5520
   -23.5902 -18.6738 -18.3826 -18.1562 -17.8675 -17.5475 -17.4714 -17.4554
   -17.3747 -17.3381 -17.3117 -16.9165 -16.4847 -15.4426  -8.3848  -5.9986
    -5.9557  -5.9304  -5.7499  -5.4742  -5.4640  -5.2642  -5.1389  -5.0979
    -5.0704  -4.7976  -4.7253  -4.4476  -4.2460  -4.0331  -3.8847  -3.6812
    -3.5469  -3.4785  -3.2573  -3.2025  -3.0571  -2.8809  -2.7362  -2.5923
    -2.5743  -2.4423  -2.3865  -2.2647  -2.1339  -1.9994  -1.9089  -1.8056
    -1.7687  -1.6129  -1.5730  -1.1385  -1.0141  -0.8180  -0.3710   1.4487
     1.6797   1.9822   1.9946   2.1042   2.1147   2.1474   2.2070   2.2841
     2.3434   2.3642   2.4333   2.4399   2.5296   2.6435   2.7378   2.9411
     3.1066   3.1396   3.6336   4.0928   4.4180   4.5004

          k = 0.2222 0.1166 0.0000 ( 37137 PWs)   bands (ev):

   -71.0501 -70.9143 -70.6915 -70.5888 -70.5344 -70.2777 -42.4960 -42.4467
   -42.3708 -42.2867 -42.2590 -42.1904 -42.1669 -42.1259 -42.1252 -42.0205
   -41.8581 -41.8380 -41.8271 -41.7996 -41.7907 -41.7496 -41.5704 -41.5518
   -23.5901 -18.5788 -18.2843 -18.0607 -17.9995 -17.6860 -17.5634 -17.4835
   -17.3881 -17.3722 -17.2270 -16.9135 -16.4795 -15.4419  -8.3833  -5.8530
    -5.7154  -5.6519  -5.5819  -5.4514  -5.4165  -5.1398  -5.1171  -5.0558
    -4.9927  -4.8955  -4.7409  -4.2534  -4.1872  -4.0451  -3.9651  -3.8218
    -3.6816  -3.6258  -3.4273  -3.3249  -3.1288  -3.0639  -2.9028  -2.8448
    -2.8190  -2.6704  -2.5302  -2.4791  -2.2358  -1.8957  -1.8208  -1.6892
    -1.5964  -1.5585  -1.4466  -1.1436  -1.0547  -0.8914  -0.3535   1.4678
     1.7463   1.9293   1.9718   2.1009   2.1091   2.2088   2.3348   2.3883
     2.4399   2.4799   2.5621   2.6273   2.6387   2.6548   2.7535   2.8811
     3.0087   3.2276   3.7503   4.1084   4.2784   4.3604

          k = 0.2222-0.2332 0.0000 ( 37166 PWs)   bands (ev):

   -71.0501 -70.9143 -70.6915 -70.5888 -70.5344 -70.2777 -42.4958 -42.4465
   -42.3708 -42.2867 -42.2585 -42.1904 -42.1669 -42.1259 -42.1252 -42.0205
   -41.8588 -41.8383 -41.8268 -41.8000 -41.7906 -41.7495 -41.5707 -41.5517
   -23.5900 -18.3990 -18.2139 -18.0882 -17.9305 -17.8593 -17.7611 -17.5009
   -17.4100 -17.3505 -17.1927 -16.9116 -16.4747 -15.4412  -8.3821  -5.8284
    -5.5729  -5.3823  -5.3160  -5.2117  -5.1104  -5.0975  -5.0698  -4.9832
    -4.8395  -4.7447  -4.7285  -4.2781  -4.1841  -4.1642  -4.0950  -4.0518
    -3.9331  -3.7522  -3.6756  -3.4423  -3.4376  -3.2810  -3.1229  -2.9724
    -2.8809  -2.8409  -2.6804  -2.6480  -2.2766  -1.8238  -1.7953  -1.6059
    -1.4536  -1.3366  -1.3130  -1.1048  -1.0942  -1.0763  -0.3378   1.5778
     1.6996   1.8286   1.9720   2.0348   2.1178   2.2692   2.3505   2.4865
     2.5896   2.6395   2.6589   2.6651   2.7482   2.8419   2.9060   2.9097
     2.9537   3.3153   3.8731   3.9522   4.0486   4.0501

          k = 0.3333 0.0000 0.0000 ( 37184 PWs)   bands (ev):

   -71.0453 -70.9095 -70.6867 -70.5840 -70.5295 -70.2726 -42.4914 -42.4420
   -42.3990 -42.3094 -42.2541 -42.1937 -42.1770 -42.1587 -42.1200 -42.0096
   -41.9164 -41.8536 -41.8355 -41.8163 -41.8137 -41.7876 -41.6184 -41.5578
   -23.2987 -18.2665 -18.0534 -17.8768 -17.6795 -17.5932 -17.5333 -17.4475
   -17.4195 -17.3905 -17.1906 -16.9843 -16.4775 -16.0071  -8.5219  -6.2006
    -5.6880  -5.5846  -5.5010  -5.4096  -5.3126  -5.3111  -5.2722  -5.0191
    -5.0154  -4.8136  -4.7238  -4.6735  -4.3801  -4.2558  -4.0035  -3.9172
    -3.9002  -3.7245  -3.5707  -3.3149  -3.1918  -3.0764  -2.8364  -2.8065
    -2.6922  -2.5010  -2.4646  -2.4343  -2.1354  -2.0338  -1.9456  -1.7327
    -1.6231  -1.4937  -1.3351  -1.2523  -1.0115  -0.9641  -0.5521   1.5199
     1.5504   1.9047   2.1869   2.1998   2.2519   2.3262   2.3292   2.4662
     2.4745   2.5059   2.5329   2.5936   2.7057   2.7540   2.7782   2.8478
     2.9327   3.1135   3.6550   3.8507   4.3693   4.4766

          k = 0.3333 0.1166 0.0000 ( 37206 PWs)   bands (ev):

   -71.0453 -70.9095 -70.6867 -70.5840 -70.5295 -70.2726 -42.4915 -42.4421
   -42.3990 -42.3094 -42.2543 -42.1938 -42.1770 -42.1587 -42.1200 -42.0096
   -41.9168 -41.8531 -41.8355 -41.8161 -41.8134 -41.7877 -41.6181 -41.5579
   -23.2987 -18.2003 -17.9886 -17.8330 -17.7572 -17.6435 -17.5565 -17.4763
   -17.4716 -17.3848 -17.1734 -16.9831 -16.4767 -16.0063  -8.5218  -6.1957
    -5.4570  -5.3959  -5.3700  -5.3427  -5.2688  -5.2434  -5.1876  -5.0529
    -4.9890  -4.8831  -4.7862  -4.6798  -4.4382  -4.2512  -4.0937  -3.9841
    -3.8490  -3.8391  -3.4927  -3.4302  -3.2006  -3.1630  -2.9411  -2.9131
    -2.7988  -2.6500  -2.5021  -2.2790  -2.2408  -1.9889  -1.9537  -1.6902
    -1.6053  -1.5406  -1.2620  -1.2276  -1.0844  -0.9639  -0.5308   1.4081
     1.4936   1.7248   1.9503   1.9997   2.2559   2.2756   2.4295   2.4542
     2.5299   2.6086   2.6754   2.7261   2.7889   2.8271   2.8322   2.9268
     2.9742   3.2137   3.7128   3.8515   3.9680   4.0416

          k = 0.3333-0.2332 0.0000 ( 37216 PWs)   bands (ev):

   -71.0453 -70.9095 -70.6867 -70.5840 -70.5295 -70.2726 -42.4916 -42.4422
   -42.3991 -42.3094 -42.2546 -42.1938 -42.1770 -42.1587 -42.1200 -42.0096
   -41.9172 -41.8526 -41.8356 -41.8160 -41.8131 -41.7878 -41.6178 -41.5580
   -23.2986 -18.0790 -17.9379 -17.8430 -17.7918 -17.6564 -17.6481 -17.5463
   -17.4821 -17.3729 -17.1616 -16.9822 -16.4759 -16.0055  -8.5218  -6.1946
    -5.3214  -5.2935  -5.2427  -5.1830  -5.1352  -5.1215  -5.1073  -5.0260
    -4.9446  -4.8633  -4.7106  -4.6277  -4.4596  -4.4466  -4.3140  -4.0498
    -3.8262  -3.8203  -3.7301  -3.5723  -3.4025  -3.1019  -3.0148  -2.8977
    -2.8269  -2.7683  -2.5765  -2.4888  -2.1747  -1.9685  -1.7365  -1.7157
    -1.6439  -1.4508  -1.3037  -1.1498  -1.1382  -0.9638  -0.5062   1.2975
     1.4489   1.4827   1.7797   2.0356   2.2575   2.2631   2.3377   2.4696
     2.5347   2.7026   2.7460   2.8227   2.8608   2.8922   3.0325   3.0388
     3.0526   3.3137   3.5823   3.6532   3.7537   3.8266

          k = 0.4444 0.0000 0.0000 ( 37180 PWs)   bands (ev):

   -71.0421 -70.9064 -70.6836 -70.5808 -70.5262 -70.2693 -42.4882 -42.4389
   -42.4306 -42.3107 -42.2507 -42.2301 -42.1762 -42.1531 -42.1169 -42.0026
   -41.9554 -41.8942 -41.8550 -41.8330 -41.8090 -41.7800 -41.6614 -41.5498
   -23.0843 -17.8873 -17.7857 -17.7152 -17.6620 -17.5900 -17.5854 -17.4952
   -17.4529 -17.4423 -17.1316 -16.9920 -16.4472 -16.4057  -8.4927  -6.4996
    -5.6830  -5.4415  -5.4004  -5.3965  -5.3246  -5.2582  -5.2045  -5.0849
    -4.9762  -4.9383  -4.8377  -4.5178  -4.4823  -4.4033  -4.1747  -4.1328
    -4.0551  -3.5871  -3.3180  -3.3027  -3.2924  -3.2798  -3.1334  -3.0775
    -2.6051  -2.5457  -2.3266  -2.2241  -2.1553  -2.1372  -1.9874  -1.8537
    -1.7558  -1.4283  -1.4072  -1.3897  -1.0460  -0.6517  -0.6356   1.5954
     1.6903   1.8108   1.9765   2.0033   2.1574   2.3264   2.3723   2.5020
     2.5280   2.6310   2.6415   2.6805   2.7452   2.7839   2.9368   2.9609
     3.0792   3.1580   3.5181   3.7702   4.2850   4.4629

          k = 0.4444 0.1166 0.0000 ( 37248 PWs)   bands (ev):

   -71.0421 -70.9064 -70.6836 -70.5808 -70.5262 -70.2693 -42.4885 -42.4392
   -42.4306 -42.3107 -42.2514 -42.2301 -42.1762 -42.1531 -42.1169 -42.0026
   -41.9558 -41.8934 -41.8546 -41.8330 -41.8087 -41.7800 -41.6610 -41.5497
   -23.0843 -17.8686 -17.7778 -17.7463 -17.6857 -17.6012 -17.5614 -17.5073
   -17.4637 -17.4137 -17.1349 -16.9915 -16.4470 -16.4044  -8.4949  -6.4935
    -5.6971  -5.5755  -5.4998  -5.3861  -5.3623  -5.1340  -5.1009  -5.0476
    -4.9745  -4.9086  -4.7328  -4.5764  -4.3626  -4.2819  -4.1636  -3.9310
    -3.8611  -3.7400  -3.5629  -3.5232  -3.3666  -3.1871  -3.1165  -2.8363
    -2.7225  -2.5128  -2.2735  -2.2101  -2.1575  -2.0425  -1.9563  -1.9124
    -1.7344  -1.6023  -1.4275  -1.3449  -1.1696  -0.6620  -0.6236   1.4153
     1.4534   1.6187   1.6817   1.7512   2.1447   2.1751   2.3819   2.5112
     2.6072   2.6749   2.7529   2.7588   2.8906   2.9386   2.9568   2.9974
     3.1289   3.2239   3.5764   3.7745   3.8136   3.8691

          k = 0.4444-0.2332 0.0000 ( 37264 PWs)   bands (ev):

   -71.0421 -70.9064 -70.6836 -70.5808 -70.5262 -70.2693 -42.4889 -42.4395
   -42.4307 -42.3107 -42.2521 -42.2302 -42.1762 -42.1531 -42.1169 -42.0026
   -41.9561 -41.8927 -41.8542 -41.8330 -41.8083 -41.7799 -41.6606 -41.5496
   -23.0842 -17.8245 -17.8167 -17.7331 -17.7249 -17.6120 -17.5399 -17.5228
   -17.4639 -17.3978 -17.1381 -16.9910 -16.4469 -16.4031  -8.4972  -6.4890
    -5.7175  -5.7163  -5.5917  -5.4633  -5.3202  -5.0037  -4.9765  -4.8714
    -4.8442  -4.7564  -4.6762  -4.6251  -4.5215  -4.1931  -4.0266  -4.0124
    -3.9123  -3.8421  -3.6584  -3.4518  -3.3528  -3.1182  -3.0364  -2.9618
    -2.5759  -2.4036  -2.3522  -2.3509  -2.1851  -2.0776  -1.9655  -1.8172
    -1.7546  -1.4987  -1.4593  -1.4453  -1.2508  -0.6520  -0.6359   1.1588
     1.2243   1.3467   1.5311   1.7645   2.0377   2.1721   2.3875   2.5011
     2.6138   2.7102   2.7750   2.7822   2.8500   2.8662   3.1281   3.1738
     3.2006   3.3193   3.4979   3.5846   3.6561   3.6763

     the Fermi energy is     0.6046 ev

!    total energy              =   -1637.89546454 Ry
     estimated scf accuracy    <       0.00000019 Ry
     smearing contrib. (-TS)   =      -0.00087968 Ry
     internal energy E=F+TS    =   -1637.89458486 Ry

     The total energy is F=E-TS. E is the sum of the following terms:
     one-electron contribution =  -15565.41781697 Ry
     hartree contribution      =    7810.30361455 Ry
     xc contribution           =    -238.52423702 Ry
     ewald contribution        =    6489.03319546 Ry
     one-center paw contrib.   =    -133.28934087 Ry

     total magnetization       =    11.00 Bohr mag/cell
     absolute magnetization    =    14.58 Bohr mag/cell

     convergence has been achieved in  42 iterations

     negative rho (up, down):  2.006E-03 1.960E-02

     Forces acting on atoms (cartesian axes, Ry/au):

     atom    1 type  1   force =    -0.00001445    0.00000000    0.10032984
     atom    2 type  1   force =    -0.00008822    0.00000000   -0.09823143
     atom    3 type  1   force =    -0.00038562    0.00000000    0.01423551
     atom    4 type  1   force =     0.00068666    0.00000000   -0.00105199
     atom    5 type  1   force =    -0.00335530    0.00000000    0.00596087
     atom    6 type  1   force =     0.00091080    0.00000000    0.03658998
     atom    7 type  3   force =     0.00042702    0.00000000    0.04273636
     atom    8 type  3   force =     0.00010969    0.00000000    0.06457495
     atom    9 type  3   force =     0.00000567    0.01698943   -0.03638617
     atom   10 type  3   force =     0.00000567   -0.01698943   -0.03638617
     atom   11 type  3   force =     0.00045871    0.00000000    0.00114047
     atom   12 type  3   force =    -0.00065431    0.00000000   -0.01027550
     atom   13 type  3   force =    -0.00047325    0.00394983   -0.00208682
     atom   14 type  3   force =    -0.00047325   -0.00394983   -0.00208682
     atom   15 type  3   force =     0.00037505    0.00000000   -0.04614807
     atom   16 type  3   force =    -0.00122659    0.00000000   -0.01156148
     atom   17 type  3   force =     0.00385482    0.00743678   -0.00149181
     atom   18 type  3   force =     0.00385482   -0.00743678   -0.00149181
     atom   19 type  3   force =    -0.01191859    0.00000000   -0.02431003
     atom   20 type  3   force =     0.00604212    0.00000000    0.00473909
     atom   21 type  2   force =     0.00185853    0.00000000    0.00120105

     Total force =     0.069565     Total SCF correction =     0.002062

     Writing all to output data dir ./tmp_s0_OOH__u0.0+spin1.0__g1/s0_OOH__u0.0+spin1.0__g1.save/ :
     XML data file, charge density, pseudopotentials, collected wavefunctions

     init_run     :     28.81s CPU     31.41s WALL (       1 calls)
     electrons    :   2345.81s CPU   2507.36s WALL (       1 calls)
     forces       :      6.10s CPU      6.51s WALL (       1 calls)

     Called by init_run:
     wfcinit      :     18.93s CPU     20.68s WALL (       1 calls)
     potinit      :      5.36s CPU      5.78s WALL (       1 calls)
     hinit0       :      1.46s CPU      1.57s WALL (       1 calls)

     Called by electrons:
     c_bands      :   1656.44s CPU   1764.91s WALL (      42 calls)
     sum_band     :    385.93s CPU    418.06s WALL (      42 calls)
     v_of_rho     :    105.74s CPU    111.08s WALL (      43 calls)
     newd         :     74.79s CPU     82.75s WALL (      43 calls)
     PAW_pot      :     22.82s CPU     22.85s WALL (      43 calls)
     mix_rho      :     88.35s CPU     95.75s WALL (      42 calls)

     Called by c_bands:
     init_us_2    :     21.47s CPU     21.71s WALL (     688 calls)
     cegterg      :   1232.06s CPU   1339.33s WALL (     336 calls)

     Called by *egterg:
     cdiaghg      :     20.69s CPU     20.74s WALL (    1102 calls)
     h_psi        :    645.10s CPU    736.84s WALL (    1110 calls)
     s_psi        :     44.16s CPU     44.24s WALL (    1110 calls)
     g_psi        :      2.93s CPU      2.94s WALL (     766 calls)

     Called by h_psi:
     h_psi:calbec :    106.38s CPU    107.94s WALL (    1110 calls)
     vloc_psi     :    490.28s CPU    570.49s WALL (    1110 calls)
                                        0.00s GPU  (    1110 calls)
     add_vuspsi   :     45.07s CPU     45.19s WALL (    1110 calls)

     General routines
     calbec       :    151.48s CPU    153.74s WALL (    1478 calls)
     fft          :    100.88s CPU    106.19s WALL (    1088 calls)
     ffts         :     29.79s CPU     36.84s WALL (    5213 calls)
     fftw         :    614.52s CPU    713.68s WALL (  177602 calls)
     interpolate  :      8.88s CPU      9.50s WALL (      86 calls)

     Parallel routines

     PWSCF        :  39m41.61s CPU  42m27.12s WALL


   This run was terminated on:  16:12:35  21Aug2026            

=------------------------------------------------------------------------------=
   JOB DONE.
=------------------------------------------------------------------------------=
Note: The following floating-point exceptions are signalling: IEEE_DENORMAL
Note: The following floating-point exceptions are signalling: IEEE_DENORMAL
Note: The following floating-point exceptions are signalling: IEEE_DENORMAL
Note: The following floating-point exceptions are signalling: IEEE_DENORMAL
Note: The following floating-point exceptions are signalling: IEEE_DENORMAL
Note: The following floating-point exceptions are signalling: IEEE_DENORMAL
Note: The following floating-point exceptions are signalling: IEEE_DENORMAL
Note: The following floating-point exceptions are signalling: IEEE_DENORMAL
Note: The following floating-point exceptions are signalling: IEEE_DENORMAL
Note: The following floating-point exceptions are signalling: IEEE_DENORMAL
Note: The following floating-point exceptions are signalling: IEEE_DENORMAL
Note: The following floating-point exceptions are signalling: IEEE_DENORMAL
Note: The following floating-point exceptions are signalling: IEEE_DENORMAL
Note: The following floating-point exceptions are signalling: IEEE_DENORMAL
