75
Lattice="5.9455 0.0 3.640568772165294e-16 2.0264516267117194e-15 12.601349947525463 7.716101439086363e-16 0.0 0.0 25.20269989505093" Properties=species:S:1:pos:R:3:move_mask:L:1 pbc="T T T"
Cr       0.00000000       1.57516874       9.45101246  F
Cr       0.00000000       7.87584372       9.45101246  F
Cr       2.97275000       1.57516874       9.45101246  F
Ni       2.97275000       7.87584372       9.45101246  F
Ni       1.48637500       4.72550623       9.45101246  F
Co       1.48637500      11.02618120       9.45101246  F
Co       4.45912500       4.72550623       9.45101246  F
Cr       4.45912500      11.02618120       9.45101246  F
Ni       0.03553537       4.71239014      12.64761141  T
Cr       0.03949076      11.04383559      12.68363465  T
Fe       3.01428738       4.75607213      12.65623597  T
Co       2.99404604      11.02533555      12.73091325  T
Co       1.55309005       1.60341008      12.61569876  T
Ni       1.51079951       7.83933798      12.64149627  T
Fe       4.43661184       1.61849286      12.59263703  T
Ni       4.43912503       7.86645674      12.65213480  T
Cr      -0.00294719       1.63126506      15.68925707  T
Ni       0.02600532       7.86346233      15.80264143  T
Co       2.95874914       1.66386754      15.75491714  T
Fe       3.00696271       7.87650262      15.77013457  T
Fe       1.48712525       4.82852892      15.89495177  T
Fe       1.48943964      10.98640836      15.96809933  T
Co       4.48096326       4.78190828      15.92686112  T
Fe       4.48466510      10.97757451      15.98804040  T
O        0.00000000       4.72550623      10.67964408  F
O        0.00000000      11.02618120      10.67964408  F
O        2.97275000       4.72550623      10.67964408  F
O        2.97275000      11.02618120      10.67964408  F
O        0.00000000       4.72550623       8.22238084  F
O        0.00000000      11.02618120       8.22238084  F
O        2.97275000       4.72550623       8.22238084  F
O        2.97275000      11.02618120       8.22238084  F
O        1.48637500       0.34653712       9.45101246  F
O        1.48637500       6.64721210       9.45101246  F
O        4.45912500       0.34653712       9.45101246  F
O        4.45912500       6.64721210       9.45101246  F
O        1.48637500       2.80380036       9.45101246  F
O        1.48637500       9.10447534       9.45101246  F
O        4.45912500       2.80380036       9.45101246  F
O        4.45912500       9.10447534       9.45101246  F
O        0.00302997       1.60718245      13.98369666  T
O        0.02091351       7.89998271      13.82126550  T
O        3.00464685       1.58631178      13.93351392  T
O        2.97133267       7.81383906      13.85617981  T
O        0.00000000       1.57516874      11.37271833  F
O        0.00000000       7.87584372      11.37271833  F
O        2.97275000       1.57516874      11.37271833  F
O        2.97275000       7.87584372      11.37271833  F
O        1.55350624       3.41131501      12.67798845  T
O        1.41920087       9.88954284      12.64263795  T
O        4.45872793       3.51833264      12.66908516  T
O        4.43671647       9.86749270      12.66986545  T
O        1.55435365       5.88494337      12.66380930  T
O        1.50078321      12.32591196      12.64212870  T
O        4.44817742       5.94429249      12.61509689  T
O        4.54604365      12.24537743      12.65753593  T
O       -0.06676027       4.75910207      17.03111279  T
O        0.04660416      11.07513360      17.13519284  T
O        3.04805608       4.72704111      16.99477846  T
O        2.97046903      11.10665284      17.08088088  T
O        0.04365538       4.74546945      14.66306060  T
O        0.02626003      11.07048041      14.66242043  T
O        2.98655774       4.78085542      14.61528174  T
O        2.98057907      11.03101765      14.56177850  T
O        1.46077493       0.49692597      16.07095939  T
O        1.51568656       6.70525712      16.12269637  T
O        4.54256296       0.54413587      16.10355343  T
O        4.48401219       6.63926308      16.05574529  T
O        1.44582417       2.79870742      16.10716384  T
O        1.51124590       9.06943518      16.04994517  T
O        4.49013379       2.85397816      16.03409446  T
O        4.48321047       9.02670650      16.07999264  T
O       -0.11970569       1.54496432      20.39264594  T
O        0.53947505       1.98395659      19.30785858  T
H        1.37590998       1.43711106      19.25778051  T
