75
Lattice="5.9455 0.0 3.640568772165294e-16 2.0264516267117194e-15 12.601349947525463 7.716101439086363e-16 0.0 0.0 25.20269989505093" Properties=species:S:1:pos:R:3:move_mask:L:1 pbc="T T T"
Cr       0.00000000       1.57516874       9.45101246  F
Cr       0.00000000       7.87584372       9.45101246  F
Cr       2.97275000       1.57516874       9.45101246  F
Ni       2.97275000       7.87584372       9.45101246  F
Ni       1.48637500       4.72550623       9.45101246  F
Co       1.48637500      11.02618120       9.45101246  F
Co       4.45912500       4.72550623       9.45101246  F
Cr       4.45912500      11.02618120       9.45101246  F
Ni       0.02706854       4.70208264      12.63710107  T
Cr       0.04026600      11.03552636      12.66990062  T
Fe       3.00585354       4.75230196      12.64202972  T
Co       2.99000672      11.00461257      12.71054112  T
Co       1.48890630       1.60246286      12.67110902  T
Ni       1.50539080       7.83096252      12.63784867  T
Fe       4.46260144       1.61278729      12.61099035  T
Ni       4.43688578       7.85618985      12.64916643  T
Cr       0.01468921       1.61822772      15.86191090  T
Ni       0.00893388       7.85276925      15.80759556  T
Co       2.98217697       1.62067156      15.69771264  T
Fe       2.98883667       7.87023995      15.77467808  T
Fe       1.47301127       4.82985671      15.85536815  T
Fe       1.48082299      10.97264684      15.94424883  T
Co       4.45698373       4.76763113      15.90148148  T
Fe       4.46703027      10.96305447      15.96599683  T
O        0.00000000       4.72550623      10.67964408  F
O        0.00000000      11.02618120      10.67964408  F
O        2.97275000       4.72550623      10.67964408  F
O        2.97275000      11.02618120      10.67964408  F
O        0.00000000       4.72550623       8.22238084  F
O        0.00000000      11.02618120       8.22238084  F
O        2.97275000       4.72550623       8.22238084  F
O        2.97275000      11.02618120       8.22238084  F
O        1.48637500       0.34653712       9.45101246  F
O        1.48637500       6.64721210       9.45101246  F
O        4.45912500       0.34653712       9.45101246  F
O        4.45912500       6.64721210       9.45101246  F
O        1.48637500       2.80380036       9.45101246  F
O        1.48637500       9.10447534       9.45101246  F
O        4.45912500       2.80380036       9.45101246  F
O        4.45912500       9.10447534       9.45101246  F
O       -0.00567832       1.58314131      13.94987551  T
O        0.01379894       7.89062000      13.81093502  T
O        3.00010044       1.57321361      13.88393503  T
O        2.96551397       7.79482883      13.85485018  T
O        0.00000000       1.57516874      11.37271833  F
O        0.00000000       7.87584372      11.37271833  F
O        2.97275000       1.57516874      11.37271833  F
O        2.97275000       7.87584372      11.37271833  F
O        1.54342246       3.41860363      12.69410210  T
O        1.41135838       9.87180002      12.62946279  T
O        4.44818696       3.52269526      12.65799495  T
O        4.44460775       9.85644671      12.65748460  T
O        1.54254190       5.87913713      12.64308128  T
O        1.48705493      12.29686615      12.65021481  T
O        4.44769303       5.93671367      12.60129483  T
O        4.54048338      12.21863162      12.64918879  T
O       -0.06003771       4.64007620      16.99357538  T
O        0.03197104      11.17698051      17.09306299  T
O        3.04392737       4.74747405      16.96938913  T
O        2.95695122      11.01933186      17.06502639  T
O        0.01553680       4.77314657      14.64533617  T
O        0.01162505      11.02332947      14.65399741  T
O        2.98083321       4.83308824      14.58960301  T
O        2.97336515      10.95800057      14.52969282  T
O        1.58797503       0.43222348      15.88032107  T
O        1.48460136       6.70071491      16.12214208  T
O        4.37590540       0.47048501      15.96440677  T
O        4.49045719       6.62251576      16.06369322  T
O        1.59358398       2.78805498      15.93125903  T
O        1.47057818       9.06016359      16.05180071  T
O        4.38885841       2.82855203      15.93243290  T
O        4.48486376       9.01500679      16.08529615  T
O        0.01083089       1.65283293      17.84416020  T
O        1.28951729       1.59436898      18.33722387  T
H        1.13957613       1.54047731      19.31695585  T
