75
Lattice="5.855999434240528 0.0 3.585765481475687e-16 2.0120443058924784e-15 12.511759014755889 7.66124281456192e-16 0.0 0.0 25.023518029511784" Properties=species:S:1:pos:R:3:move_mask:L:1 pbc="T T T"
Mn       0.00000000       4.69190963       9.38381926  F
Ni       0.00000000      10.94778914       9.38381926  F
Mn       2.92799972       4.69190963       9.38381926  F
Cr       2.92799972      10.94778914       9.38381926  F
Cr       1.46399986       1.56396988       9.38381926  F
Ni       1.46399986       7.81984938       9.38381926  F
Mn       4.39199958       1.56396988       9.38381926  F
Ni       4.39199958       7.81984938       9.38381926  F
Mn       0.01528967       1.57592683      12.57510350  T
Ni       0.02219420       7.82605229      12.54151511  T
Mn       2.93114107       1.58836637      12.63136062  T
Cr       2.88400101       7.88611823      12.72726338  T
Ni       1.48604383       4.72217446      12.55455559  T
Mn       1.43213803      10.95585245      12.55652473  T
Cr       4.30790432       4.76383810      12.52211852  T
Mn       4.41875895      10.95496284      12.55537023  T
Cr      -0.04148912       4.74981292      15.62022027  T
Ni      -0.09698065      10.92620167      15.75934504  T
Ni       2.93656093       4.80366467      15.80126035  T
Mn       2.92048870      10.94016028      15.75180811  T
Cr       1.31248094       1.45984206      16.03670463  T
Cr       1.26440378       7.91812772      16.50577673  T
Ni       4.32363625       1.58168629      15.74072515  T
Cu       4.34245576       7.84471396      15.98112475  T
O        0.00000000       1.56396988      10.60371577  F
O        0.00000000       7.81984938      10.60371577  F
O        2.92799972       1.56396988      10.60371577  F
O        2.92799972       7.81984938      10.60371577  F
O        0.00000000       1.56396988       8.16392276  F
O        0.00000000       7.81984938       8.16392276  F
O        2.92799972       1.56396988       8.16392276  F
O        2.92799972       7.81984938       8.16392276  F
O        1.46399986       3.47201313       9.38381926  F
O        1.46399986       9.72789263       9.38381926  F
O        4.39199958       3.47201313       9.38381926  F
O        4.39199958       9.72789263       9.38381926  F
O        1.46399986       5.91180613       9.38381926  F
O        1.46399986      12.16768564       9.38381926  F
O        4.39199958       5.91180613       9.38381926  F
O        4.39199958      12.16768564       9.38381926  F
O       -0.05390619       4.77567135      13.95105420  T
O       -0.01213513      10.86372394      13.79657261  T
O        2.98380750       4.74700764      13.80268763  T
O        2.92562389      10.92937717      13.84634558  T
O        0.00000000       4.69190963      11.29186251  F
O        0.00000000      10.94778914      11.29186251  F
O        2.92799972       4.69190963      11.29186251  F
O        2.92799972      10.94778914      11.29186251  F
O        1.46705567       0.34491139      12.57393357  T
O        1.53991670       6.62486402      12.51474472  T
O        4.39780233       0.35941335      12.65313979  T
O        4.37256245       6.54591407      12.61398955  T
O        1.46628342       2.79731903      12.57838920  T
O        1.53288795       9.05857290      12.49409237  T
O        4.41060959       2.84535603      12.63956814  T
O        4.30483164       9.02325133      12.52962642  T
O        0.04786648       1.54971227      17.09264067  T
O        0.34289630       7.93861463      17.80537763  T
O        2.66312480       1.80500805      16.95329268  T
O        2.84353119       7.68722562      17.07141516  T
O        0.15351051       1.65628659      14.59225719  T
O        0.10418286       7.82750503      15.06435730  T
O        2.82579629       1.63344005      14.52630786  T
O        2.86683090       7.81327017      14.37836788  T
O        1.23294690       3.65383391      16.07007408  T
O        1.45374299       9.64636837      16.09105924  T
O        4.51942153       3.63886648      16.04931772  T
O        4.28210820       9.70519053      16.14064010  T
O        1.24421330       6.00199719      16.10654974  T
O        1.45957341      12.21102244      15.98521489  T
O        4.49365497       5.98321894      16.15652329  T
O        4.24427838      12.17331468      16.08131147  T
O       -0.11067279       4.52288606      20.17083419  T
O        1.21499744       4.58934624      20.34368525  T
H        1.36026394       4.72985996      21.32519720  T
