75
Lattice="5.855999434240528 0.0 3.585765481475687e-16 2.0120443058924784e-15 12.511759014755889 7.66124281456192e-16 0.0 0.0 25.023518029511784" Properties=species:S:1:pos:R:3:move_mask:L:1 pbc="T T T"
Mn       0.00000000       4.69190963       9.38381926  F
Ni       0.00000000      10.94778914       9.38381926  F
Mn       2.92799972       4.69190963       9.38381926  F
Cr       2.92799972      10.94778914       9.38381926  F
Cr       1.46399986       1.56396988       9.38381926  F
Ni       1.46399986       7.81984938       9.38381926  F
Mn       4.39199958       1.56396988       9.38381926  F
Ni       4.39199958       7.81984938       9.38381926  F
Mn       0.01612884       1.58117669      12.58411187  T
Ni       0.02977927       7.84338933      12.49366468  T
Mn       2.93085947       1.59585788      12.63096196  T
Cr       2.89460917       7.88545024      12.72046936  T
Ni       1.49209566       4.73663218      12.56146282  T
Mn       1.43653247      10.96073720      12.55489877  T
Cr       4.31407101       4.77935256      12.53376958  T
Mn       4.42256101      10.95465970      12.55328132  T
Cr      -0.11209596       4.63981221      15.62862699  T
Ni      -0.07594617      10.92699475      15.75673755  T
Ni       2.93605000       4.71736341      15.83398369  T
Mn       2.95342599      10.93417343      15.75956939  T
Cr       1.35213962       1.45516544      16.03735457  T
Cr       1.28106788       8.05939059      16.67251341  T
Ni       4.34047378       1.51363066      15.71085694  T
Cu       4.38967937       7.79229098      16.05115455  T
O        0.00000000       1.56396988      10.60371577  F
O        0.00000000       7.81984938      10.60371577  F
O        2.92799972       1.56396988      10.60371577  F
O        2.92799972       7.81984938      10.60371577  F
O        0.00000000       1.56396988       8.16392276  F
O        0.00000000       7.81984938       8.16392276  F
O        2.92799972       1.56396988       8.16392276  F
O        2.92799972       7.81984938       8.16392276  F
O        1.46399986       3.47201313       9.38381926  F
O        1.46399986       9.72789263       9.38381926  F
O        4.39199958       3.47201313       9.38381926  F
O        4.39199958       9.72789263       9.38381926  F
O        1.46399986       5.91180613       9.38381926  F
O        1.46399986      12.16768564       9.38381926  F
O        4.39199958       5.91180613       9.38381926  F
O        4.39199958      12.16768564       9.38381926  F
O       -0.03142397       4.83900742      13.97215941  T
O       -0.00587897      10.86997235      13.79626028  T
O        2.99428109       4.81051938      13.82303349  T
O        2.93125016      10.91643678      13.84470577  T
O        0.00000000       4.69190963      11.29186251  F
O        0.00000000      10.94778914      11.29186251  F
O        2.92799972       4.69190963      11.29186251  F
O        2.92799972      10.94778914      11.29186251  F
O        1.47153070       0.35017883      12.56606307  T
O        1.52822765       6.64308001      12.50544560  T
O        4.39642744       0.36690797      12.64027585  T
O        4.39799423       6.56718876      12.57434423  T
O        1.46727842       2.80737443      12.60678879  T
O        1.53328719       9.06185837      12.52218110  T
O        4.41000023       2.85920334      12.64910860  T
O        4.33129714       9.03128747      12.51844330  T
O        0.06280560       1.49798352      17.07412283  T
O        0.39447231       8.00987676      18.00364793  T
O        2.68934472       1.75494505      16.98102804  T
O        2.87213814       7.70267262      17.11133535  T
O        0.11485041       1.59985586      14.55982675  T
O        0.23109204       7.74886249      15.29749605  T
O        2.83022287       1.59534862      14.52481109  T
O        2.93196299       7.75065925      14.36256191  T
O        1.22995150       3.53926738      15.95812446  T
O        1.47212394       9.74714446      16.29694568  T
O        4.50543909       3.51322934      15.98933469  T
O        4.31421843       9.67173676      16.10302091  T
O        1.29101708       5.83319320      16.54286605  T
O        1.48854940      12.21333067      15.91473960  T
O        4.52027172       5.89929594      16.22964939  T
O        4.27621924      12.14177456      16.09429555  T
O        0.23071806       4.26217338      19.77802610  T
O        1.19539735       4.91108259      19.35323402  T
H        1.22954638       5.59380932      17.49245929  T
