
     Program PWSCF v.7.5 starts on 10Sep2026 at 10:56: 3 

     This program is part of the open-source Quantum ESPRESSO suite
     for quantum simulation of materials; please cite
         "P. Giannozzi et al., J. Phys.:Condens. Matter 21 395502 (2009);
         "P. Giannozzi et al., J. Phys.:Condens. Matter 29 465901 (2017);
         "P. Giannozzi et al., J. Chem. Phys. 152 154105 (2020);
          URL http://www.quantum-espresso.org", 
     in publications or presentations arising from this work. More details at
     http://www.quantum-espresso.org/quote

     Parallel version (MPI & OpenMP), running on     128 processor cores
     Number of MPI processes:               128
     Threads/MPI process:                     1

     MPI processes distributed on     1 nodes
     218213 MiB available memory on the printing compute node when the environment starts

     Reading input from hs__leader_builder__ortho__rho.run.in

     Current dimensions of program PWSCF are:
     Max number of different atomic species (ntypx) = 10
     Max number of k-points (npk) =  40000
     Max angular momentum in pseudopotentials (lmaxx) =  4
     file Cu.paw.z_11.ld1.psl.v1.0.0-low.upf: wavefunction(s)  4S 3D renormalized
     file O.pbe-n-kjpaw_psl.0.1.UPF: wavefunction(s)  2P renormalized
     file O.pbe-n-kjpaw_psl.0.1.UPF: wavefunction(s)  2P renormalized

     K-points division:     npool     =       8
     R & G space division:  proc/nbgrp/npool/nimage =      16
     Subspace diagonalization in iterative solution of the eigenvalue problem:
     one sub-group per band group will be used
     ELPA distributed-memory algorithm (size of sub-group:  4*  4 procs)


     Parallelization info
     --------------------
     sticks:   dense  smooth     PW     G-vecs:    dense   smooth      PW
     Min        1040     417    111               295454    74767   10361
     Max        1041     418    112               295463    74775   10370
     Sum       16655    6681   1789              4727379  1196337  165863

     Using Slab Decomposition



     bravais-lattice index     =            0
     lattice parameter (alat)  =      11.0662  a.u.
     unit-cell volume          =   12372.6966 (a.u.)^3
     number of atoms/cell      =           75
     number of atomic types    =            7
     number of electrons       =       674.00
     number of Kohn-Sham states=          404
     kinetic-energy cutoff     =      80.0000  Ry
     charge density cutoff     =     800.0000  Ry
     scf convergence threshold =      1.0E-08
     mixing beta               =       0.3000
     number of iterations used =            8  local-TF  mixing
     Exchange-correlation= PBE
                           (   1   4   3   4   0   0   0)
     Hubbard projectors: ortho-atomic
     Hubbard parameters of DFT+U (Dudarev formulation) in eV:
     U(Cr-3d) =  3.7000
     U(Mn-3d) =  3.9000
     U(Ni-3d) =  6.2000

     Internal variables: lda_plus_u =T, lda_plus_u_kind = 0

     Internal variables: orbital_resolved =F, hub_pot_fix =F, apply_U = F

     celldm(1)=  11.066235  celldm(2)=   0.000000  celldm(3)=   0.000000
     celldm(4)=   0.000000  celldm(5)=   0.000000  celldm(6)=   0.000000

     crystal axes: (cart. coord. in units of alat)
               a(1) = (   1.000000   0.000000   0.000000 )  
               a(2) = (   0.000000   2.136571   0.000000 )  
               a(3) = (   0.000000   0.000000   4.273142 )  

     reciprocal axes: (cart. coord. in units 2 pi/alat)
               b(1) = (  1.000000 -0.000000  0.000000 )  
               b(2) = (  0.000000  0.468040  0.000000 )  
               b(3) = ( -0.000000 -0.000000  0.234020 )  


     PseudoPot. # 1 for Cr read from file:
     /anvil/projects/x-che260157/pseudo/cr_pbe_v1.5.uspp.F.UPF
     MD5 check sum: 0d52af634a40206e4dee301ad30da4bf
     Pseudo is Ultrasoft + core correction, Zval = 14.0
     Generated by new atomic code, or converted to UPF format
     Using radial grid of  857 points,  6 beta functions with: 
                l(1) =   0
                l(2) =   0
                l(3) =   1
                l(4) =   1
                l(5) =   2
                l(6) =   2
     Q(r) pseudized with  8 coefficients,  rinner =    0.950   0.950   0.950
                                                       0.950   0.950

     PseudoPot. # 2 for Cu read from file:
     /anvil/projects/x-che260157/pseudo/Cu.paw.z_11.ld1.psl.v1.0.0-low.upf
     MD5 check sum: 619f40885d92a09a85a8b37550532d0c
     Pseudo is Projector augmented-wave + core cor, Zval = 11.0
     Generated using &quot;atomic&quot; code by A. Dal Corso  v.6.3MaX
     Shape of augmentation charge: PSQ
     Using radial grid of 1199 points,  6 beta functions with: 
                l(1) =   0
                l(2) =   0
                l(3) =   1
                l(4) =   1
                l(5) =   2
                l(6) =   2
     Q(r) pseudized with 0 coefficients 


     PseudoPot. # 3 for Mn read from file:
     /anvil/projects/x-che260157/pseudo/mn_pbe_v1.5.uspp.F.UPF
     MD5 check sum: 82ef2b46521d7a7d9e736dc3972e4928
     Pseudo is Ultrasoft + core correction, Zval = 15.0
     Generated by new atomic code, or converted to UPF format
     Using radial grid of  859 points,  6 beta functions with: 
                l(1) =   0
                l(2) =   0
                l(3) =   1
                l(4) =   1
                l(5) =   2
                l(6) =   2
     Q(r) pseudized with  8 coefficients,  rinner =    0.950   0.950   0.950
                                                       0.950   0.950

     PseudoPot. # 4 for Ni read from file:
     /anvil/projects/x-che260157/pseudo/ni_pbe_v1.4.uspp.F.UPF
     MD5 check sum: 1ee80287db30b12d2bc1f57a5b5d6409
     Pseudo is Ultrasoft + core correction, Zval = 18.0
     Generated by new atomic code, or converted to UPF format
     Using radial grid of  865 points,  6 beta functions with: 
                l(1) =   0
                l(2) =   0
                l(3) =   1
                l(4) =   1
                l(5) =   2
                l(6) =   2
     Q(r) pseudized with 10 coefficients,  rinner =    0.980   0.980   0.980
                                                       0.980   0.980

     PseudoPot. # 5 for O  read from file:
     /anvil/projects/x-che260157/pseudo/O.pbe-n-kjpaw_psl.0.1.UPF
     MD5 check sum: 0234752ac141de4415c5fc33072bef88
     Pseudo is Projector augmented-wave + core cor, Zval =  6.0
     Generated using "atomic" code by A. Dal Corso  v.5.0.99 svn rev. 10869
     Shape of augmentation charge: BESSEL
     Using radial grid of 1095 points,  4 beta functions with: 
                l(1) =   0
                l(2) =   0
                l(3) =   1
                l(4) =   1
     Q(r) pseudized with 0 coefficients 


     PseudoPot. # 6 for O  read from file:
     /anvil/projects/x-che260157/pseudo/O.pbe-n-kjpaw_psl.0.1.UPF
     MD5 check sum: 0234752ac141de4415c5fc33072bef88
     Pseudo is Projector augmented-wave + core cor, Zval =  6.0
     Generated using "atomic" code by A. Dal Corso  v.5.0.99 svn rev. 10869
     Shape of augmentation charge: BESSEL
     Using radial grid of 1095 points,  4 beta functions with: 
                l(1) =   0
                l(2) =   0
                l(3) =   1
                l(4) =   1
     Q(r) pseudized with 0 coefficients 


     PseudoPot. # 7 for H  read from file:
     /anvil/projects/x-che260157/pseudo/H.pbe-rrkjus_psl.1.0.0.UPF
     MD5 check sum: f52b6d4d1c606e5624b1dc7b2218f220
     Pseudo is Ultrasoft, Zval =  1.0
     Generated using "atomic" code by A. Dal Corso  v.5.1
     Using radial grid of  929 points,  2 beta functions with: 
                l(1) =   0
                l(2) =   0
     Q(r) pseudized with 0 coefficients 


     atomic species   valence    mass     pseudopotential
     Cr               14.00    51.99600     Cr( 1.00)
     Cu               11.00    63.54600     Cu( 1.00)
     Mn               15.00    54.93800     Mn( 1.00)
     Ni               18.00    58.69300     Ni( 1.00)
     O1                6.00    15.99900     O ( 1.00)
     O2                6.00    15.99900     O ( 1.00)
     H                 1.00     1.00800     H ( 1.00)

     Starting magnetic structure 
     atomic species   magnetization
     Cr              0.600
     Cu              0.200
     Mn              0.500
     Ni              0.300
     O1              0.000
     O2              0.083
     H               0.000

     No symmetry found



   Cartesian axes

     site n.     atom                  positions (alat units)
         1        Mn     tau(   1) = (   0.0000000   0.8012142   1.6024283  )
         2        Ni     tau(   2) = (   0.0000000   1.8694997   1.6024283  )
         3        Mn     tau(   3) = (   0.5000000   0.8012142   1.6024283  )
         4        Cr     tau(   4) = (   0.5000000   1.8694997   1.6024283  )
         5        Cr     tau(   5) = (   0.2500000   0.2670714   1.6024283  )
         6        Ni     tau(   6) = (   0.2500000   1.3353569   1.6024283  )
         7        Mn     tau(   7) = (   0.7500000   0.2670714   1.6024283  )
         8        Ni     tau(   8) = (   0.7500000   1.3353569   1.6024283  )
         9        Mn     tau(   9) = (   0.0026109   0.2691132   2.1473881  )
        10        Ni     tau(  10) = (   0.0037900   1.3364162   2.1416524  )
        11        Mn     tau(  11) = (   0.5005364   0.2712375   2.1569948  )
        12        Cr     tau(  12) = (   0.4924866   1.3466733   2.1733717  )
        13        Ni     tau(  13) = (   0.2537643   0.8063823   2.1438792  )
        14        Mn     tau(  14) = (   0.2445591   1.8708766   2.1442155  )
        15        Cr     tau(  15) = (   0.7356395   0.8134970   2.1383401  )
        16        Mn     tau(  16) = (   0.7545696   1.8707247   2.1440183  )
        17        Cr     tau(  17) = (  -0.0070849   0.8111020   2.6673876  )
        18        Ni     tau(  18) = (  -0.0165609   1.8658133   2.6911452  )
        19        Ni     tau(  19) = (   0.5014620   0.8202980   2.6983029  )
        20        Mn     tau(  20) = (   0.4987174   1.8681969   2.6898582  )
        21        Cr     tau(  21) = (   0.2241259   0.2492900   2.7385086  )
        22        Cr     tau(  22) = (   0.2159160   1.3521394   2.8186097  )
        23        Ni     tau(  23) = (   0.7383259   0.2700967   2.6879656  )
        24        Cu     tau(  24) = (   0.7415396   1.3396029   2.7290175  )
        25        O1     tau(  25) = (   0.0000000   0.2670714   1.8107440  )
        26        O1     tau(  26) = (   0.0000000   1.3353569   1.8107440  )
        27        O1     tau(  27) = (   0.5000000   0.2670714   1.8107440  )
        28        O1     tau(  28) = (   0.5000000   1.3353569   1.8107440  )
        29        O1     tau(  29) = (   0.0000000   0.2670714   1.3941126  )
        30        O1     tau(  30) = (   0.0000000   1.3353569   1.3941126  )
        31        O1     tau(  31) = (   0.5000000   0.2670714   1.3941126  )
        32        O1     tau(  32) = (   0.5000000   1.3353569   1.3941126  )
        33        O1     tau(  33) = (   0.2500000   0.5928985   1.6024283  )
        34        O1     tau(  34) = (   0.2500000   1.6611840   1.6024283  )
        35        O1     tau(  35) = (   0.7500000   0.5928985   1.6024283  )
        36        O1     tau(  36) = (   0.7500000   1.6611840   1.6024283  )
        37        O1     tau(  37) = (   0.2500000   1.0095298   1.6024283  )
        38        O1     tau(  38) = (   0.2500000   2.0778154   1.6024283  )
        39        O1     tau(  39) = (   0.7500000   1.0095298   1.6024283  )
        40        O1     tau(  40) = (   0.7500000   2.0778154   1.6024283  )
        41        O1     tau(  41) = (  -0.0092053   0.8155177   2.3823524  )
        42        O1     tau(  42) = (  -0.0020723   1.8551443   2.3559723  )
        43        O1     tau(  43) = (   0.5095300   0.8106230   2.3570166  )
        44        O1     tau(  44) = (   0.4995943   1.8663556   2.3644718  )
        45        O1     tau(  45) = (   0.0000000   0.8012142   1.9282554  )
        46        O1     tau(  46) = (   0.0000000   1.8694997   1.9282554  )
        47        O1     tau(  47) = (   0.5000000   0.8012142   1.9282554  )
        48        O1     tau(  48) = (   0.5000000   1.8694997   1.9282554  )
        49        O1     tau(  49) = (   0.2505218   0.0588988   2.1471883  )
        50        O1     tau(  50) = (   0.2629639   1.1312952   2.1370809  )
        51        O1     tau(  51) = (   0.7509909   0.0613752   2.1607140  )
        52        O1     tau(  52) = (   0.7466808   1.1178133   2.1540285  )
        53        O1     tau(  53) = (   0.2503900   0.4776843   2.1479492  )
        54        O1     tau(  54) = (   0.2617637   1.5468876   2.1335542  )
        55        O1     tau(  55) = (   0.7531779   0.4858873   2.1583964  )
        56        O1     tau(  56) = (   0.7351148   1.5408559   2.1396222  )
        57        O1     tau(  57) = (   0.0081739   0.2646367   2.9188255  )
        58        O1     tau(  58) = (   0.0585547   1.3556379   3.0405361  )
        59        O1     tau(  59) = (   0.4547686   0.3082323   2.8950298  )
        60        O1     tau(  60) = (   0.4855757   1.3127094   2.9152010  )
        61        O1     tau(  61) = (   0.0262142   0.2828359   2.4918474  )
        62        O1     tau(  62) = (   0.0177908   1.3366642   2.5724656  )
        63        O1     tau(  63) = (   0.4825472   0.2789345   2.4805856  )
        64        O1     tau(  64) = (   0.4895545   1.3342334   2.4553226  )
        65        O1     tau(  65) = (   0.2105442   0.6239471   2.7442069  )
        66        O1     tau(  66) = (   0.2482485   1.6472625   2.7477904  )
        67        O1     tau(  67) = (   0.7717592   0.6213912   2.7406624  )
        68        O1     tau(  68) = (   0.7312344   1.6573073   2.7562571  )
        69        O1     tau(  69) = (   0.2124681   1.0249313   2.7504357  )
        70        O1     tau(  70) = (   0.2492441   2.0852158   2.7297159  )
        71        O1     tau(  71) = (   0.7673592   1.0217246   2.7589694  )
        72        O1     tau(  72) = (   0.7247744   2.0787766   2.7461259  )
        73        O2     tau(  73) = (  -0.0188990   0.7723508   3.4444734  )
        74        O2     tau(  74) = (   0.2074791   0.7836999   3.4739903  )
        75        H      tau(  75) = (   0.2322855   0.8076947   3.6415982  )

     number of k points=     8  Marzari-Vanderbilt smearing, width (Ry)=  0.0100
                       cart. coord. in units 2pi/alat
        k(    1) = (   0.0000000   0.0000000   0.0000000), wk =   0.1250000
        k(    2) = (   0.0000000  -0.2340198   0.0000000), wk =   0.1250000
        k(    3) = (   0.2500000  -0.0000000   0.0000000), wk =   0.1250000
        k(    4) = (   0.2500000  -0.2340198   0.0000000), wk =   0.1250000
        k(    5) = (  -0.5000000   0.0000000   0.0000000), wk =   0.1250000
        k(    6) = (  -0.5000000  -0.2340198   0.0000000), wk =   0.1250000
        k(    7) = (  -0.2500000   0.0000000   0.0000000), wk =   0.1250000
        k(    8) = (  -0.2500000  -0.2340198   0.0000000), wk =   0.1250000

     Dense  grid:  4727379 G-vectors     FFT dimensions: ( 100, 216, 432)

     Smooth grid:  1196337 G-vectors     FFT dimensions: (  64, 135, 270)

     Estimated max dynamical RAM per process >       1.01 GB

     Estimated total dynamical RAM >     113.85 GB

     Check: negative core charge=   -0.000003
     Generating pointlists ...
     new r_m :   0.1122 (alat units)  1.2420 (a.u.) for type    1
     new r_m :   0.1310 (alat units)  1.4495 (a.u.) for type    2
     new r_m :   0.1295 (alat units)  1.4335 (a.u.) for type    3
     new r_m :   0.1341 (alat units)  1.4841 (a.u.) for type    4
     new r_m :   0.1122 (alat units)  1.2420 (a.u.) for type    5
     new r_m :   0.0706 (alat units)  0.7812 (a.u.) for type    6
     new r_m :   0.0706 (alat units)  0.7812 (a.u.) for type    7

     The initial density is read from file :
     ./tmp_hs__leader_builder__ortho__rho/hc__leader_builder__ortho__fragment.save/charge-density


     negative rho (up, down):  7.444E-03 2.166E-02

     STARTING HUBBARD OCCUPATIONS:

     =================== HUBBARD OCCUPATIONS ===================
     ------------------------ ATOM    1 ------------------------
     Tr[ns(  1)] (up, down, total) =   4.33507  0.69564  5.03071
     Atomic magnetic moment for atom   1 =   3.63943
     SPIN  1
     eigenvalues:
       0.571  0.802  0.985  0.987  0.990
     eigenvectors (columns):
       0.014  0.991 -0.052 -0.035  0.113
       0.006  0.083 -0.440  0.167 -0.879
      -0.008 -0.006  0.072 -0.972 -0.221
      -0.004 -0.099 -0.894 -0.158  0.408
       1.000 -0.015  0.001 -0.009  0.004
     occupation matrix ns (before diag.):
       0.805 -0.016  0.001  0.018 -0.003
      -0.016  0.988  0.001 -0.000 -0.002
       0.001  0.001  0.987 -0.000  0.003
       0.018 -0.000 -0.000  0.984  0.001
      -0.003 -0.002  0.003  0.001  0.571
     SPIN  2
     eigenvalues:
       0.063  0.089  0.095  0.174  0.275
     eigenvectors (columns):
       0.094  0.011 -0.021 -0.995  0.003
      -0.007  0.071 -0.997  0.021  0.002
       0.001 -0.997 -0.071 -0.009  0.002
       0.996  0.000 -0.005  0.094 -0.002
       0.001  0.002  0.002  0.003  1.000
     occupation matrix ns (before diag.):
       0.173 -0.002  0.001 -0.010  0.000
      -0.002  0.095  0.000  0.000  0.000
       0.001  0.000  0.089 -0.000  0.000
      -0.010  0.000 -0.000  0.064 -0.000
       0.000  0.000  0.000 -0.000  0.275
     ------------------------ ATOM    2 ------------------------
     Tr[ns(  2)] (up, down, total) =   4.79498  3.35457  8.14954
     Atomic magnetic moment for atom   2 =   1.44041
     SPIN  1
     eigenvalues:
       0.868  0.961  0.982  0.991  0.993
     eigenvectors (columns):
       0.000  0.976  0.056 -0.209 -0.008
      -0.002  0.057 -0.996  0.002 -0.069
       0.004  0.027 -0.067  0.072  0.995
      -0.006 -0.207 -0.019 -0.975  0.075
       1.000 -0.001 -0.002 -0.006 -0.004
     occupation matrix ns (before diag.):
       0.962 -0.001 -0.001  0.006  0.000
      -0.001  0.982 -0.001  0.000  0.000
      -0.001 -0.001  0.993  0.000 -0.001
       0.006  0.000  0.000  0.990  0.001
       0.000  0.000 -0.001  0.001  0.868
     SPIN  2
     eigenvalues:
       0.137  0.238  0.991  0.994  0.995
     eigenvectors (columns):
      -1.000 -0.001 -0.025  0.006 -0.009
       0.005  0.002  0.001  0.999  0.043
       0.009  0.000  0.021  0.042 -0.999
       0.025  0.002 -0.999  0.002 -0.021
      -0.001  1.000  0.002 -0.002  0.000
     occupation matrix ns (before diag.):
       0.138  0.005  0.008  0.021 -0.000
       0.005  0.994 -0.000 -0.000 -0.001
       0.008 -0.000  0.994 -0.000 -0.000
       0.021 -0.000 -0.000  0.991 -0.002
      -0.000 -0.001 -0.000 -0.002  0.238
     ------------------------ ATOM    3 ------------------------
     Tr[ns(  3)] (up, down, total) =   4.34719  0.68350  5.03069
     Atomic magnetic moment for atom   3 =   3.66369
     SPIN  1
     eigenvalues:
       0.568  0.814  0.985  0.988  0.991
     eigenvectors (columns):
      -0.002 -0.987  0.064 -0.123  0.083
       0.008  0.125 -0.273 -0.760  0.576
       0.002  0.009  0.016 -0.606 -0.795
       0.003  0.101  0.960 -0.198  0.172
       1.000 -0.003 -0.000  0.007 -0.003
     occupation matrix ns (before diag.):
       0.819  0.022  0.001  0.017  0.000
       0.022  0.986 -0.001 -0.001 -0.003
       0.001 -0.001  0.990 -0.001 -0.001
       0.017 -0.001 -0.001  0.984 -0.001
       0.000 -0.003 -0.001 -0.001  0.568
     SPIN  2
     eigenvalues:
       0.063  0.087  0.093  0.165  0.275
     eigenvectors (columns):
       0.098  0.008 -0.005 -0.995 -0.001
       0.013 -0.089  0.996 -0.005  0.004
      -0.000 -0.996 -0.089 -0.008 -0.002
       0.995  0.000 -0.013  0.098  0.001
      -0.001 -0.002 -0.004 -0.001  1.000
     occupation matrix ns (before diag.):
       0.164  0.000  0.001 -0.010 -0.000
       0.000  0.093 -0.001 -0.000  0.001
       0.001 -0.001  0.087 -0.000 -0.000
      -0.010 -0.000 -0.000  0.064  0.000
      -0.000  0.001 -0.000  0.000  0.275
     ------------------------ ATOM    4 ------------------------
     Tr[ns(  4)] (up, down, total) =   3.38479  0.66984  4.05463
     Atomic magnetic moment for atom   4 =   2.71496
     SPIN  1
     eigenvalues:
       0.375  0.406  0.809  0.833  0.961
     eigenvectors (columns):
       0.997  0.008  0.030  0.043  0.058
       0.045 -0.012 -0.930 -0.363 -0.028
      -0.034 -0.001 -0.365  0.926  0.087
      -0.054 -0.004  0.004 -0.094  0.994
      -0.008  1.000 -0.011 -0.004  0.004
     occupation matrix ns (before diag.):
       0.378 -0.020  0.016  0.032  0.000
      -0.020  0.811 -0.008 -0.002  0.005
       0.016 -0.008  0.830  0.010  0.000
       0.032 -0.002  0.010  0.958  0.002
       0.000  0.005  0.000  0.002  0.407
     SPIN  2
     eigenvalues:
       0.054  0.085  0.091  0.188  0.252
     eigenvectors (columns):
      -0.077  0.018 -0.013  0.997 -0.004
       0.004 -0.101  0.995  0.016 -0.003
      -0.003  0.995  0.101 -0.017  0.003
      -0.997 -0.005  0.005 -0.077 -0.001
      -0.001 -0.003  0.003  0.004  1.000
     occupation matrix ns (before diag.):
       0.188  0.002 -0.002 -0.010 -0.000
       0.002  0.091  0.001  0.000 -0.001
      -0.002  0.001  0.085  0.000  0.000
      -0.010  0.000  0.000  0.054 -0.000
      -0.000 -0.001  0.000 -0.000  0.252
     ------------------------ ATOM    5 ------------------------
     Tr[ns(  5)] (up, down, total) =   3.15764  0.84415  4.00179
     Atomic magnetic moment for atom   5 =   2.31349
     SPIN  1
     eigenvalues:
       0.421  0.426  0.599  0.743  0.969
     eigenvectors (columns):
       0.066  0.411 -0.008  0.016  0.909
       0.989 -0.146  0.001  0.003 -0.006
       0.002  0.016  0.999  0.039  0.001
       0.130  0.900 -0.014 -0.016 -0.416
       0.002 -0.008  0.039 -0.999  0.021
     occupation matrix ns (before diag.):
       0.875 -0.003 -0.001 -0.205  0.005
      -0.003  0.421  0.000  0.001 -0.001
      -0.001  0.000  0.599 -0.003 -0.006
      -0.205  0.001 -0.003  0.520  0.000
       0.005 -0.001 -0.006  0.000  0.743
     SPIN  2
     eigenvalues:
       0.077  0.100  0.106  0.272  0.290
     eigenvectors (columns):
      -0.908 -0.008  0.004  0.418 -0.027
       0.005  0.001  0.002  0.073  0.997
      -0.005  0.124 -0.992  0.001  0.002
       0.419  0.010 -0.000  0.906 -0.068
      -0.011  0.992  0.125 -0.006 -0.001
     occupation matrix ns (before diag.):
       0.111  0.000 -0.000  0.074 -0.001
       0.000  0.289  0.000 -0.002 -0.000
      -0.000  0.000  0.106  0.000 -0.001
       0.074 -0.002  0.000  0.238 -0.001
      -0.001 -0.000 -0.001 -0.001  0.100
     ------------------------ ATOM    6 ------------------------
     Tr[ns(  6)] (up, down, total) =   4.51886  3.58991  8.10877
     Atomic magnetic moment for atom   6 =   0.92896
     SPIN  1
     eigenvalues:
       0.770  0.792  0.981  0.986  0.991
     eigenvectors (columns):
      -0.026 -0.375 -0.059 -0.109  0.918
       0.999 -0.036 -0.010 -0.003  0.012
      -0.002 -0.019  0.035 -0.992 -0.123
      -0.028 -0.925  0.069  0.065 -0.366
       0.011  0.042  0.995  0.024  0.085
     occupation matrix ns (before diag.):
       0.962  0.003 -0.002 -0.069  0.004
       0.003  0.770  0.000 -0.000 -0.002
      -0.002  0.000  0.986 -0.003 -0.000
      -0.069 -0.000 -0.003  0.820  0.007
       0.004 -0.002 -0.000  0.007  0.981
     SPIN  2
     eigenvalues:
       0.279  0.325  0.994  0.996  0.996
     eigenvectors (columns):
       0.465  0.007  0.885  0.008  0.002
       0.035 -0.999 -0.010  0.001  0.002
      -0.002  0.002 -0.003  0.285  0.959
       0.884  0.035 -0.465  0.009 -0.002
       0.011  0.000  0.002 -0.958  0.285
     occupation matrix ns (before diag.):
       0.839 -0.007  0.001 -0.295 -0.004
      -0.007  0.325  0.001  0.002 -0.000
       0.001  0.001  0.996  0.001  0.000
      -0.295  0.002  0.001  0.434 -0.007
      -0.004 -0.000  0.000 -0.007  0.996
     ------------------------ ATOM    7 ------------------------
     Tr[ns(  7)] (up, down, total) =   4.11153  0.88468  4.99621
     Atomic magnetic moment for atom   7 =   3.22684
     SPIN  1
     eigenvalues:
       0.588  0.590  0.965  0.977  0.991
     eigenvectors (columns):
      -0.312  0.293  0.005 -0.008 -0.904
       0.690  0.724 -0.001  0.003 -0.004
      -0.002 -0.002  0.073  0.997 -0.008
      -0.653  0.625 -0.013  0.004  0.428
       0.006 -0.007 -0.997  0.073 -0.011
     occupation matrix ns (before diag.):
       0.918  0.002  0.000 -0.156  0.002
       0.002  0.589  0.001  0.000  0.000
       0.000  0.001  0.977 -0.000  0.001
      -0.156  0.000 -0.000  0.663  0.003
       0.002  0.000  0.001  0.003  0.965
     SPIN  2
     eigenvalues:
       0.091  0.102  0.104  0.279  0.308
     eigenvectors (columns):
       0.912  0.006  0.001 -0.409  0.021
       0.005 -0.000 -0.001  0.064  0.998
       0.002 -0.655  0.755 -0.002  0.000
      -0.409 -0.005 -0.005 -0.910  0.060
      -0.008  0.755  0.655 -0.005  0.001
     occupation matrix ns (before diag.):
       0.122 -0.000  0.000  0.070  0.000
      -0.000  0.308  0.000  0.002  0.000
       0.000  0.000  0.103  0.000  0.001
       0.070  0.002  0.000  0.248  0.001
       0.000  0.000  0.001  0.001  0.103
     ------------------------ ATOM    8 ------------------------
     Tr[ns(  8)] (up, down, total) =   4.51529  3.59415  8.10944
     Atomic magnetic moment for atom   8 =   0.92114
     SPIN  1
     eigenvalues:
       0.769  0.789  0.980  0.986  0.991
     eigenvectors (columns):
      -0.093  0.360  0.070 -0.035  0.925
      -0.977 -0.213 -0.011 -0.000 -0.014
      -0.002  0.002  0.060  0.998  0.032
      -0.191  0.907 -0.083  0.015 -0.366
      -0.020  0.048  0.992 -0.057 -0.098
     occupation matrix ns (before diag.):
       0.963 -0.005 -0.000 -0.070 -0.005
      -0.005  0.770 -0.000 -0.002 -0.002
      -0.000 -0.000  0.986 -0.000 -0.000
      -0.070 -0.002 -0.000  0.817 -0.009
      -0.005 -0.002 -0.000 -0.009  0.980
     SPIN  2
     eigenvalues:
       0.281  0.327  0.994  0.996  0.996
     eigenvectors (columns):
      -0.466 -0.024  0.884 -0.012  0.004
       0.072 -0.997  0.010 -0.002  0.001
       0.001 -0.000  0.002 -0.231 -0.973
      -0.882 -0.069 -0.467 -0.010  0.001
       0.014  0.003 -0.006 -0.973  0.231
     occupation matrix ns (before diag.):
       0.839  0.008  0.000 -0.294  0.005
       0.008  0.327 -0.000 -0.000  0.001
       0.000 -0.000  0.996  0.000 -0.000
      -0.294 -0.000  0.000  0.437  0.009
       0.005  0.001 -0.000  0.009  0.996
     ------------------------ ATOM    9 ------------------------
     Tr[ns(  9)] (up, down, total) =   4.16786  0.81430  4.98216
     Atomic magnetic moment for atom   9 =   3.35355
     SPIN  1
     eigenvalues:
       0.583  0.622  0.987  0.987  0.989
     eigenvectors (columns):
       0.090 -0.992 -0.035 -0.030 -0.076
      -0.008  0.067 -0.265  0.345 -0.898
       0.015  0.022 -0.961 -0.155  0.226
       0.022  0.056  0.064 -0.925 -0.370
       0.996  0.089  0.014  0.029  0.004
     occupation matrix ns (before diag.):
       0.625  0.025  0.007  0.020 -0.004
       0.025  0.987 -0.001 -0.001  0.001
       0.007 -0.001  0.987 -0.001 -0.007
       0.020 -0.001 -0.001  0.986 -0.011
      -0.004  0.001 -0.007 -0.011  0.583
     SPIN  2
     eigenvalues:
       0.068  0.100  0.108  0.248  0.291
     eigenvectors (columns):
      -0.059  0.022  0.062 -0.994 -0.063
      -0.020  0.553  0.830  0.065  0.007
       0.008 -0.833  0.553  0.015  0.019
      -0.998 -0.019 -0.016  0.057  0.018
       0.014  0.013 -0.012 -0.064  0.998
     occupation matrix ns (before diag.):
       0.247 -0.009 -0.002 -0.011 -0.002
      -0.009  0.106  0.004 -0.000  0.001
      -0.002  0.004  0.103  0.000  0.003
      -0.011 -0.000  0.000  0.068  0.003
      -0.002  0.001  0.003  0.003  0.290
     ------------------------ ATOM   10 ------------------------
     Tr[ns( 10)] (up, down, total) =   4.84343  3.30784  8.15128
     Atomic magnetic moment for atom  10 =   1.53559
     SPIN  1
     eigenvalues:
       0.912  0.958  0.990  0.992  0.992
     eigenvectors (columns):
       0.246  0.954  0.046 -0.051 -0.159
      -0.026 -0.054  0.781 -0.618  0.065
      -0.011 -0.001  0.622  0.777 -0.094
      -0.137 -0.132 -0.017 -0.107 -0.976
       0.959 -0.265  0.014 -0.010 -0.098
     occupation matrix ns (before diag.):
       0.956  0.002  0.000  0.007 -0.010
       0.002  0.990 -0.001 -0.001  0.001
       0.000 -0.001  0.991 -0.000  0.001
       0.007 -0.001 -0.000  0.990  0.009
      -0.010  0.001  0.001  0.009  0.916
     SPIN  2
     eigenvalues:
       0.133  0.196  0.991  0.993  0.995
     eigenvectors (columns):
       0.995  0.076 -0.047  0.037  0.007
      -0.034  0.015  0.050  0.986 -0.155
      -0.015  0.021 -0.014  0.155  0.987
      -0.046 -0.034 -0.997  0.046 -0.021
      -0.077  0.996 -0.031 -0.019 -0.020
     occupation matrix ns (before diag.):
       0.136  0.028  0.012  0.041  0.005
       0.028  0.992 -0.001 -0.001 -0.014
       0.012 -0.001  0.995 -0.000 -0.018
       0.041 -0.001 -0.000  0.988  0.024
       0.005 -0.014 -0.018  0.024  0.197
     ------------------------ ATOM   11 ------------------------
     Tr[ns( 11)] (up, down, total) =   4.14259  0.84292  4.98551
     Atomic magnetic moment for atom  11 =   3.29968
     SPIN  1
     eigenvalues:
       0.567  0.618  0.983  0.986  0.989
     eigenvectors (columns):
       0.040  0.997 -0.041 -0.008 -0.059
      -0.005  0.050  0.756 -0.523  0.391
      -0.019 -0.003 -0.653 -0.588  0.477
      -0.021 -0.052 -0.018 -0.617 -0.785
       0.999 -0.041 -0.008 -0.027 -0.003
     occupation matrix ns (before diag.):
       0.620 -0.018  0.001  0.019 -0.002
      -0.018  0.984  0.002  0.000  0.003
       0.001  0.002  0.985 -0.001  0.008
       0.019  0.000 -0.001  0.986  0.008
      -0.002  0.003  0.008  0.008  0.567
     SPIN  2
     eigenvalues:
       0.065  0.105  0.113  0.269  0.290
     eigenvectors (columns):
      -0.060  0.025  0.025 -0.967  0.243
       0.030 -0.893 -0.448 -0.035  0.007
       0.016 -0.448  0.893  0.005 -0.024
      -0.998 -0.036 -0.001  0.055 -0.026
      -0.011 -0.012  0.019  0.245  0.969
     occupation matrix ns (before diag.):
       0.270  0.006 -0.002 -0.012  0.005
       0.006  0.107 -0.003  0.001 -0.000
      -0.002 -0.003  0.112  0.001 -0.004
      -0.012  0.001  0.001  0.066 -0.003
       0.005 -0.000 -0.004 -0.003  0.289
     ------------------------ ATOM   12 ------------------------
     Tr[ns( 12)] (up, down, total) =   2.83452  1.18545  4.01997
     Atomic magnetic moment for atom  12 =   1.64906
     SPIN  1
     eigenvalues:
       0.424  0.463  0.486  0.512  0.949
     eigenvectors (columns):
       0.060 -0.847 -0.455 -0.267 -0.034
       0.067  0.365 -0.135 -0.918  0.026
      -0.018  0.384 -0.879  0.280 -0.039
       0.022  0.024  0.047 -0.024 -0.998
       0.996  0.033  0.020  0.083  0.021
     occupation matrix ns (before diag.):
       0.471  0.013  0.006  0.016 -0.004
       0.013  0.505 -0.010 -0.012 -0.006
       0.006 -0.010  0.485  0.018  0.001
       0.016 -0.012  0.018  0.948 -0.011
      -0.004 -0.006  0.001 -0.011  0.425
     SPIN  2
     eigenvalues:
       0.083  0.206  0.226  0.312  0.359
     eigenvectors (columns):
       0.023 -0.007 -0.057 -0.142 -0.988
      -0.034 -0.568  0.815 -0.107 -0.028
       0.018  0.816  0.574  0.045 -0.045
       0.999 -0.032  0.018 -0.012  0.024
      -0.011  0.101 -0.055 -0.983  0.144
     occupation matrix ns (before diag.):
       0.357  0.005  0.005 -0.006 -0.007
       0.005  0.220  0.009  0.004  0.010
       0.005  0.009  0.213 -0.002 -0.006
      -0.006  0.004 -0.002  0.084  0.003
      -0.007  0.010 -0.006  0.003  0.311
     ------------------------ ATOM   13 ------------------------
     Tr[ns( 13)] (up, down, total) =   4.76121  3.37302  8.13423
     Atomic magnetic moment for atom  13 =   1.38819
     SPIN  1
     eigenvalues:
       0.863  0.925  0.988  0.992  0.993
     eigenvectors (columns):
      -0.351 -0.214  0.002  0.432  0.802
       0.494 -0.868  0.045  0.004 -0.018
      -0.008  0.008 -0.020  0.879 -0.475
      -0.793 -0.440  0.102 -0.195 -0.359
       0.059  0.085  0.994  0.036  0.027
     occupation matrix ns (before diag.):
       0.974  0.010 -0.001 -0.042  0.004
       0.010  0.910  0.001  0.025  0.001
      -0.001  0.001  0.992 -0.000  0.000
      -0.042  0.025 -0.000  0.898  0.008
       0.004  0.001  0.000  0.008  0.987
     SPIN  2
     eigenvalues:
       0.177  0.219  0.991  0.992  0.994
     eigenvectors (columns):
      -0.289  0.393  0.870  0.068 -0.017
      -0.839 -0.542 -0.035  0.021  0.002
       0.027 -0.028 -0.026  0.384 -0.922
      -0.459  0.742 -0.487 -0.004 -0.024
       0.027 -0.002 -0.054  0.921  0.386
     occupation matrix ns (before diag.):
       0.804 -0.033  0.015 -0.333  0.007
      -0.033  0.190  0.007 -0.003  0.018
       0.015  0.007  0.993  0.026 -0.001
      -0.333 -0.003  0.026  0.394  0.011
       0.007  0.018 -0.001  0.011  0.992
     ------------------------ ATOM   14 ------------------------
     Tr[ns( 14)] (up, down, total) =   4.15659  0.83402  4.99060
     Atomic magnetic moment for atom  14 =   3.32257
     SPIN  1
     eigenvalues:
       0.583  0.610  0.985  0.988  0.991
     eigenvectors (columns):
       0.443  0.170  0.065  0.866  0.143
       0.356 -0.934 -0.028  0.007 -0.023
       0.029 -0.011 -0.111 -0.166  0.979
       0.820  0.314 -0.088 -0.457 -0.108
       0.057 -0.011  0.987 -0.116  0.091
     occupation matrix ns (before diag.):
       0.898 -0.004 -0.004 -0.168 -0.010
      -0.004  0.607 -0.008 -0.007 -0.012
      -0.004 -0.008  0.990 -0.008 -0.000
      -0.168 -0.007 -0.008  0.678 -0.017
      -0.010 -0.012 -0.000 -0.017  0.983
     SPIN  2
     eigenvalues:
       0.063  0.108  0.118  0.268  0.276
     eigenvectors (columns):
      -0.881  0.001  0.011 -0.445 -0.160
      -0.016 -0.018  0.014  0.367 -0.930
      -0.002 -0.106 -0.994 -0.014 -0.018
       0.473 -0.036  0.021 -0.816 -0.329
       0.017  0.994 -0.105 -0.024 -0.030
     occupation matrix ns (before diag.):
       0.109 -0.002  0.001  0.086  0.003
      -0.002  0.275  0.002  0.004  0.003
       0.001  0.002  0.118  0.003  0.001
       0.086  0.004  0.003  0.223  0.004
       0.003  0.003  0.001  0.004  0.109
     ------------------------ ATOM   15 ------------------------
     Tr[ns( 15)] (up, down, total) =   3.13391  0.87465  4.00856
     Atomic magnetic moment for atom  15 =   2.25927
     SPIN  1
     eigenvalues:
       0.408  0.438  0.523  0.828  0.936
     eigenvectors (columns):
      -0.287 -0.379 -0.018 -0.013  0.879
       0.838 -0.545  0.002 -0.012  0.038
       0.046  0.063 -0.956  0.280  0.027
      -0.463 -0.745 -0.080  0.016 -0.474
      -0.001  0.018 -0.280 -0.960 -0.012
     occupation matrix ns (before diag.):
       0.821  0.024  0.012 -0.211 -0.000
       0.024  0.418 -0.002  0.002  0.004
       0.012 -0.002  0.547  0.003 -0.082
      -0.211  0.002  0.003  0.544 -0.001
      -0.000  0.004 -0.082 -0.001  0.804
     SPIN  2
     eigenvalues:
       0.063  0.113  0.148  0.255  0.296
     eigenvectors (columns):
      -0.858  0.013 -0.002  0.197 -0.474
      -0.019  0.033 -0.022 -0.934 -0.354
      -0.011 -0.178  0.984 -0.029 -0.001
       0.513  0.002  0.014  0.295 -0.806
       0.009  0.983  0.179  0.023  0.020
     occupation matrix ns (before diag.):
       0.123  0.004 -0.001  0.100 -0.001
       0.004  0.260  0.003  0.014 -0.004
      -0.001  0.003  0.147 -0.000  0.006
       0.100  0.014 -0.000  0.231 -0.002
      -0.001 -0.004  0.006 -0.002  0.114
     ------------------------ ATOM   16 ------------------------
     Tr[ns( 16)] (up, down, total) =   4.16055  0.82830  4.98884
     Atomic magnetic moment for atom  16 =   3.33225
     SPIN  1
     eigenvalues:
       0.586  0.613  0.985  0.987  0.990
     eigenvectors (columns):
       0.367 -0.304 -0.238  0.810  0.245
      -0.641 -0.767 -0.019 -0.011  0.024
       0.040 -0.006  0.211 -0.244  0.946
       0.671 -0.564  0.170 -0.413 -0.177
      -0.051  0.011  0.932  0.338 -0.118
     occupation matrix ns (before diag.):
       0.898  0.007 -0.006 -0.163  0.009
       0.007  0.602  0.009  0.010 -0.010
      -0.006  0.009  0.989 -0.013  0.000
      -0.163  0.010 -0.013  0.687  0.016
       0.009 -0.010  0.000  0.016  0.984
     SPIN  2
     eigenvalues:
       0.064  0.107  0.114  0.263  0.281
     eigenvectors (columns):
       0.881 -0.004  0.025  0.448  0.150
      -0.013 -0.016 -0.017  0.343 -0.939
       0.011  0.226 -0.973  0.027  0.024
      -0.473  0.038  0.034  0.825  0.306
       0.019  0.973  0.224 -0.031 -0.032
     occupation matrix ns (before diag.):
       0.109 -0.000  0.002  0.084 -0.004
      -0.000  0.278 -0.002 -0.006  0.004
       0.002 -0.002  0.114  0.005 -0.002
       0.084 -0.006  0.005  0.220 -0.005
      -0.004  0.004 -0.002 -0.005  0.108
     ------------------------ ATOM   17 ------------------------
     Tr[ns( 17)] (up, down, total) =   2.71592  1.33002  4.04595
     Atomic magnetic moment for atom  17 =   1.38590
     SPIN  1
     eigenvalues:
       0.431  0.445  0.458  0.466  0.916
     eigenvectors (columns):
      -0.553 -0.647 -0.143  0.504  0.046
      -0.424 -0.318  0.103 -0.842 -0.023
      -0.063 -0.035  0.983  0.166 -0.030
       0.008  0.027  0.038 -0.037  0.998
       0.715 -0.692  0.037 -0.094  0.008
     occupation matrix ns (before diag.):
       0.447 -0.013 -0.001  0.021  0.005
      -0.013  0.458 -0.002 -0.010  0.006
      -0.001 -0.002  0.459 -0.014  0.001
       0.021 -0.010 -0.014  0.914  0.004
       0.005  0.006  0.001  0.004  0.438
     SPIN  2
     eigenvalues:
       0.117  0.248  0.264  0.338  0.363
     eigenvectors (columns):
      -0.056 -0.005  0.002  0.988 -0.145
      -0.009  0.968 -0.236 -0.008 -0.089
       0.051  0.241  0.968  0.009  0.048
      -0.997  0.005  0.050 -0.052  0.027
      -0.016 -0.075  0.069 -0.146 -0.984
     occupation matrix ns (before diag.):
       0.338  0.001  0.000 -0.012  0.003
       0.001  0.250 -0.004 -0.002  0.010
       0.000 -0.004  0.263  0.008 -0.004
      -0.012 -0.002  0.008  0.118 -0.004
       0.003  0.010 -0.004 -0.004  0.361
     ------------------------ ATOM   18 ------------------------
     Tr[ns( 18)] (up, down, total) =   4.91088  3.24836  8.15924
     Atomic magnetic moment for atom  18 =   1.66252
     SPIN  1
     eigenvalues:
       0.958  0.976  0.988  0.994  0.994
     eigenvectors (columns):
      -0.006  0.965 -0.100  0.219 -0.100
       0.014  0.111  0.993 -0.032  0.008
       0.187 -0.104  0.017  0.027 -0.976
       0.041 -0.210  0.053  0.974  0.058
       0.981  0.033 -0.021 -0.044  0.183
     occupation matrix ns (before diag.):
       0.977 -0.001  0.002  0.004 -0.000
      -0.001  0.988  0.000  0.000 -0.000
       0.002  0.000  0.993 -0.001 -0.007
       0.004  0.000 -0.001  0.993 -0.001
      -0.000 -0.000 -0.007 -0.001  0.960
     SPIN  2
     eigenvalues:
       0.101  0.177  0.988  0.990  0.993
     eigenvectors (columns):
      -0.997 -0.024 -0.017 -0.059  0.036
      -0.051  0.026 -0.432  0.888 -0.146
       0.035  0.019 -0.216  0.057  0.974
       0.036 -0.013 -0.876 -0.451 -0.168
      -0.023  0.999  0.004 -0.032 -0.016
     occupation matrix ns (before diag.):
       0.105 -0.045  0.031  0.032 -0.001
      -0.045  0.987  0.001  0.001 -0.023
       0.031  0.001  0.991 -0.002 -0.015
       0.032  0.001 -0.002  0.987  0.011
      -0.001 -0.023 -0.015  0.011  0.178
     ------------------------ ATOM   19 ------------------------
     Tr[ns( 19)] (up, down, total) =   4.90211  3.25219  8.15430
     Atomic magnetic moment for atom  19 =   1.64992
     SPIN  1
     eigenvalues:
       0.941  0.983  0.991  0.993  0.994
     eigenvectors (columns):
       0.009  0.908 -0.134  0.396  0.024
      -0.032  0.316  0.389 -0.628  0.595
      -0.019  0.008 -0.911 -0.339  0.232
      -0.001 -0.275 -0.021  0.576  0.769
       0.999  0.002 -0.004 -0.030  0.024
     occupation matrix ns (before diag.):
       0.985 -0.003 -0.000  0.003 -0.000
      -0.003  0.992  0.001  0.001  0.002
      -0.000  0.001  0.991  0.000  0.001
       0.003  0.001  0.000  0.993  0.000
      -0.000  0.002  0.001  0.000  0.942
     SPIN  2
     eigenvalues:
       0.094  0.182  0.989  0.992  0.994
     eigenvectors (columns):
      -0.996 -0.016 -0.075 -0.013  0.052
      -0.014 -0.015  0.260 -0.955 -0.140
       0.024 -0.022  0.344 -0.044  0.937
       0.088 -0.007 -0.899 -0.292  0.314
      -0.015  1.000  0.004 -0.017  0.021
     occupation matrix ns (before diag.):
       0.102 -0.013  0.021  0.078 -0.000
      -0.013  0.992 -0.000  0.002  0.012
       0.021 -0.000  0.993 -0.001  0.018
       0.078  0.002 -0.001  0.983  0.007
      -0.000  0.012  0.018  0.007  0.183
     ------------------------ ATOM   20 ------------------------
     Tr[ns( 20)] (up, down, total) =   4.27840  0.74280  5.02120
     Atomic magnetic moment for atom  20 =   3.53560
     SPIN  1
     eigenvalues:
       0.585  0.743  0.975  0.985  0.991
     eigenvectors (columns):
      -0.065  0.995  0.062 -0.002 -0.048
       0.006 -0.061  0.861  0.477 -0.167
      -0.089 -0.035  0.489 -0.866  0.054
       0.009 -0.040 -0.122 -0.130 -0.983
       0.994  0.063  0.044 -0.079  0.012
     occupation matrix ns (before diag.):
       0.743  0.014  0.006  0.010  0.011
       0.014  0.977 -0.005  0.001 -0.002
       0.006 -0.005  0.980  0.000  0.036
       0.010  0.001  0.000  0.990 -0.003
       0.011 -0.002  0.036 -0.003  0.588
     SPIN  2
     eigenvalues:
       0.071  0.104  0.114  0.179  0.275
     eigenvectors (columns):
      -0.018 -0.058 -0.064  0.996 -0.034
       0.121 -0.878 -0.457 -0.078  0.016
       0.011  0.463 -0.883 -0.033 -0.074
      -0.992 -0.101 -0.064 -0.028 -0.002
      -0.003  0.047 -0.061  0.033  0.997
     occupation matrix ns (before diag.):
       0.178 -0.006 -0.001 -0.003 -0.003
      -0.006  0.106  0.004  0.004  0.003
      -0.001  0.004  0.113  0.001 -0.012
      -0.003  0.004  0.001  0.072 -0.000
      -0.003  0.003 -0.012 -0.000  0.274
     ------------------------ ATOM   21 ------------------------
     Tr[ns( 21)] (up, down, total) =   2.47185  1.57687  4.04873
     Atomic magnetic moment for atom  21 =   0.89498
     SPIN  1
     eigenvalues:
       0.444  0.471  0.477  0.534  0.545
     eigenvectors (columns):
       0.793  0.117 -0.544  0.247  0.009
       0.128  0.917  0.370 -0.033  0.072
       0.160 -0.086 -0.045 -0.604  0.774
       0.568 -0.321  0.636 -0.260 -0.319
       0.075 -0.189  0.400  0.711  0.542
     occupation matrix ns (before diag.):
       0.460 -0.004 -0.012 -0.018  0.009
      -0.004  0.472  0.005 -0.002  0.002
      -0.012  0.005  0.538 -0.011  0.004
      -0.018 -0.002 -0.011  0.477 -0.024
       0.009  0.002  0.004 -0.024  0.526
     SPIN  2
     eigenvalues:
       0.244  0.251  0.306  0.371  0.405
     eigenvectors (columns):
       0.184 -0.637  0.718 -0.211  0.003
      -0.032 -0.095 -0.110 -0.128 -0.981
      -0.910  0.155  0.382  0.034 -0.032
       0.022  0.328  0.009 -0.940  0.089
      -0.369 -0.673 -0.572 -0.233  0.172
     occupation matrix ns (before diag.):
       0.285 -0.002  0.015  0.024 -0.016
      -0.002  0.401  0.002  0.001 -0.019
       0.015  0.002  0.254 -0.004 -0.016
       0.024  0.001 -0.004  0.358  0.028
      -0.016 -0.019 -0.016  0.028  0.279
     ------------------------ ATOM   22 ------------------------
     Tr[ns( 22)] (up, down, total) =   2.23482  1.84724  4.08206
     Atomic magnetic moment for atom  22 =   0.38758
     SPIN  1
     eigenvalues:
       0.429  0.433  0.448  0.454  0.471
     eigenvectors (columns):
      -0.564  0.729  0.092  0.358 -0.114
       0.060 -0.412  0.201  0.715 -0.525
       0.786  0.538 -0.144  0.100 -0.251
       0.098  0.095  0.925 -0.323 -0.148
       0.226  0.021  0.274  0.497  0.792
     occupation matrix ns (before diag.):
       0.435  0.008  0.003 -0.000  0.001
       0.008  0.455  0.006  0.001 -0.008
       0.003  0.006  0.433 -0.002 -0.008
      -0.000  0.001 -0.002  0.449 -0.004
       0.001 -0.008 -0.008 -0.004  0.463
     SPIN  2
     eigenvalues:
       0.281  0.354  0.379  0.410  0.423
     eigenvectors (columns):
      -0.099 -0.164  0.872  0.017 -0.451
       0.050  0.052 -0.444 -0.073 -0.890
      -0.548  0.829  0.078  0.077 -0.028
       0.113  0.158  0.089 -0.976  0.051
       0.822  0.508  0.172  0.192 -0.025
     occupation matrix ns (before diag.):
       0.387  0.018 -0.001  0.000  0.011
       0.018  0.414  0.003 -0.001 -0.004
      -0.001  0.003  0.333  0.000  0.034
       0.000 -0.001  0.000  0.406 -0.017
       0.011 -0.004  0.034 -0.017  0.308
     ------------------------ ATOM   23 ------------------------
     Tr[ns( 23)] (up, down, total) =   4.85017  3.30129  8.15146
     Atomic magnetic moment for atom  23 =   1.54889
     SPIN  1
     eigenvalues:
       0.920  0.955  0.989  0.992  0.993
     eigenvectors (columns):
       0.356  0.197  0.004 -0.901 -0.150
      -0.637  0.767  0.001 -0.082 -0.010
      -0.042 -0.033 -0.672  0.096 -0.733
       0.680  0.608  0.031  0.408 -0.041
      -0.068 -0.057  0.740  0.074 -0.662
     occupation matrix ns (before diag.):
       0.982  0.011  0.001 -0.022  0.002
       0.011  0.941 -0.001  0.014 -0.001
       0.001 -0.001  0.991  0.003  0.002
      -0.022  0.014  0.003  0.945  0.005
       0.002 -0.001  0.002  0.005  0.990
     SPIN  2
     eigenvalues:
       0.148  0.176  0.992  0.993  0.993
     eigenvectors (columns):
       0.377  0.223  0.858 -0.237 -0.124
       0.376 -0.923  0.070  0.004 -0.043
      -0.061  0.018 -0.021  0.338 -0.939
       0.838  0.312 -0.378  0.236  0.045
      -0.102 -0.026  0.340  0.880  0.315
     occupation matrix ns (before diag.):
       0.831  0.048  0.016 -0.323  0.037
       0.048  0.178  0.033 -0.031  0.012
       0.016  0.033  0.989  0.039 -0.005
      -0.323 -0.031  0.039  0.320  0.079
       0.037  0.012 -0.005  0.079  0.983

     Number of occupied Hubbard levels =  133.4059

     Atomic wfc used for Hubbard projectors are orthogonalized

     Starting wfcs from file
     Checking if some PAW data can be deallocated... 

     total cpu time spent up to now is       22.6 secs

     per-process dynamical memory:   603.0 Mb

     Self-consistent Calculation

     iteration #  1     ecut=    80.00 Ry     beta= 0.30
     Davidson diagonalization with overlap
     ethr =  1.00E-05,  avg # of iterations =  2.8

     =================== HUBBARD OCCUPATIONS ===================
     ------------------------ ATOM    1 ------------------------
     Tr[ns(  1)] (up, down, total) =   4.33595  0.69575  5.03170
     Atomic magnetic moment for atom   1 =   3.64021
     SPIN  1
     eigenvalues:
       0.571  0.802  0.985  0.987  0.990
     eigenvectors (columns):
       0.014  0.991 -0.052 -0.036  0.114
       0.006  0.084 -0.440  0.166 -0.878
      -0.008 -0.006  0.074 -0.972 -0.222
      -0.004 -0.099 -0.893 -0.160  0.408
       1.000 -0.015  0.001 -0.009  0.004
     occupation matrix ns (before diag.):
       0.805 -0.016  0.001  0.018 -0.003
      -0.016  0.988  0.001 -0.000 -0.002
       0.001  0.001  0.987 -0.000  0.003
       0.018 -0.000 -0.000  0.984  0.001
      -0.003 -0.002  0.003  0.001  0.572
     SPIN  2
     eigenvalues:
       0.064  0.089  0.095  0.174  0.275
     eigenvectors (columns):
       0.093  0.011 -0.021 -0.995  0.003
      -0.007  0.071 -0.997  0.021  0.002
       0.001 -0.997 -0.071 -0.009  0.002
       0.996  0.000 -0.005  0.094 -0.002
       0.001  0.002  0.002  0.003  1.000
     occupation matrix ns (before diag.):
       0.173 -0.002  0.001 -0.010  0.000
      -0.002  0.095  0.000  0.000  0.000
       0.001  0.000  0.089 -0.000  0.000
      -0.010  0.000 -0.000  0.064 -0.000
       0.000  0.000  0.000 -0.000  0.275
     ------------------------ ATOM    2 ------------------------
     Tr[ns(  2)] (up, down, total) =   4.79493  3.35455  8.14948
     Atomic magnetic moment for atom   2 =   1.44037
     SPIN  1
     eigenvalues:
       0.868  0.961  0.982  0.991  0.993
     eigenvectors (columns):
       0.000  0.976  0.055 -0.209 -0.008
      -0.002  0.056 -0.996  0.002 -0.069
       0.004  0.027 -0.067  0.072  0.995
      -0.006 -0.207 -0.019 -0.975  0.075
       1.000 -0.001 -0.002 -0.006 -0.004
     occupation matrix ns (before diag.):
       0.962 -0.001 -0.001  0.006  0.000
      -0.001  0.982 -0.001  0.000  0.000
      -0.001 -0.001  0.993  0.000 -0.001
       0.006  0.000  0.000  0.990  0.001
       0.000  0.000 -0.001  0.001  0.868
     SPIN  2
     eigenvalues:
       0.137  0.238  0.991  0.994  0.995
     eigenvectors (columns):
      -1.000 -0.001 -0.025  0.006 -0.009
       0.005  0.002  0.001  0.999  0.043
       0.009  0.000  0.021  0.043 -0.999
       0.025  0.002 -0.999  0.002 -0.021
      -0.001  1.000  0.002 -0.002  0.000
     occupation matrix ns (before diag.):
       0.138  0.005  0.008  0.021 -0.000
       0.005  0.994 -0.000 -0.000 -0.001
       0.008 -0.000  0.994 -0.000 -0.000
       0.021 -0.000 -0.000  0.991 -0.002
      -0.000 -0.001 -0.000 -0.002  0.238
     ------------------------ ATOM    3 ------------------------
     Tr[ns(  3)] (up, down, total) =   4.34799  0.68360  5.03159
     Atomic magnetic moment for atom   3 =   3.66439
     SPIN  1
     eigenvalues:
       0.569  0.815  0.985  0.988  0.991
     eigenvectors (columns):
      -0.002 -0.987  0.064 -0.123  0.083
       0.008  0.126 -0.274 -0.759  0.576
       0.002  0.009  0.015 -0.607 -0.795
       0.003  0.102  0.959 -0.199  0.172
       1.000 -0.003 -0.000  0.007 -0.003
     occupation matrix ns (before diag.):
       0.819  0.022  0.001  0.017  0.000
       0.022  0.986 -0.001 -0.001 -0.003
       0.001 -0.001  0.990 -0.001 -0.001
       0.017 -0.001 -0.001  0.984 -0.001
       0.000 -0.003 -0.001 -0.001  0.569
     SPIN  2
     eigenvalues:
       0.063  0.087  0.093  0.165  0.275
     eigenvectors (columns):
       0.098  0.008 -0.005 -0.995 -0.001
       0.013 -0.089  0.996 -0.005  0.004
      -0.000 -0.996 -0.089 -0.008 -0.002
       0.995  0.000 -0.013  0.098  0.001
      -0.001 -0.002 -0.004 -0.001  1.000
     occupation matrix ns (before diag.):
       0.164  0.000  0.001 -0.010 -0.000
       0.000  0.093 -0.001 -0.000  0.001
       0.001 -0.001  0.087 -0.000 -0.000
      -0.010 -0.000 -0.000  0.064  0.000
      -0.000  0.001 -0.000  0.000  0.275
     ------------------------ ATOM    4 ------------------------
     Tr[ns(  4)] (up, down, total) =   3.38453  0.66982  4.05435
     Atomic magnetic moment for atom   4 =   2.71472
     SPIN  1
     eigenvalues:
       0.375  0.407  0.809  0.833  0.961
     eigenvectors (columns):
       0.997  0.008  0.030  0.043  0.058
       0.045 -0.012 -0.930 -0.364 -0.028
      -0.034 -0.001 -0.366  0.926  0.087
      -0.054 -0.004  0.004 -0.094  0.994
      -0.008  1.000 -0.011 -0.004  0.004
     occupation matrix ns (before diag.):
       0.378 -0.020  0.016  0.032  0.000
      -0.020  0.811 -0.008 -0.002  0.005
       0.016 -0.008  0.830  0.010  0.000
       0.032 -0.002  0.010  0.958  0.002
       0.000  0.005  0.000  0.002  0.407
     SPIN  2
     eigenvalues:
       0.054  0.085  0.091  0.188  0.252
     eigenvectors (columns):
      -0.077  0.018 -0.013  0.997 -0.004
       0.004 -0.101  0.995  0.016 -0.003
      -0.003  0.995  0.101 -0.017  0.003
      -0.997 -0.005  0.005 -0.077 -0.001
      -0.001 -0.003  0.003  0.004  1.000
     occupation matrix ns (before diag.):
       0.188  0.002 -0.002 -0.010 -0.000
       0.002  0.091  0.001  0.000 -0.001
      -0.002  0.001  0.085  0.000  0.000
      -0.010  0.000  0.000  0.054 -0.000
      -0.000 -0.001  0.000 -0.000  0.252
     ------------------------ ATOM    5 ------------------------
     Tr[ns(  5)] (up, down, total) =   3.15747  0.84415  4.00162
     Atomic magnetic moment for atom   5 =   2.31333
     SPIN  1
     eigenvalues:
       0.421  0.426  0.599  0.743  0.969
     eigenvectors (columns):
       0.065  0.411 -0.008  0.016  0.909
       0.990 -0.144  0.001  0.003 -0.006
       0.002  0.016  0.999  0.039  0.001
       0.129  0.900 -0.014 -0.016 -0.416
       0.002 -0.008  0.039 -0.999  0.021
     occupation matrix ns (before diag.):
       0.875 -0.003 -0.001 -0.205  0.005
      -0.003  0.421  0.000  0.001 -0.001
      -0.001  0.000  0.599 -0.003 -0.006
      -0.205  0.001 -0.003  0.520  0.000
       0.005 -0.001 -0.006  0.000  0.743
     SPIN  2
     eigenvalues:
       0.077  0.100  0.106  0.272  0.290
     eigenvectors (columns):
      -0.908 -0.008  0.004  0.418 -0.027
       0.005  0.001  0.002  0.073  0.997
      -0.005  0.125 -0.992  0.001  0.002
       0.419  0.010 -0.000  0.906 -0.068
      -0.011  0.992  0.125 -0.006 -0.001
     occupation matrix ns (before diag.):
       0.111  0.000 -0.000  0.074 -0.001
       0.000  0.289  0.000 -0.002 -0.000
      -0.000  0.000  0.106  0.000 -0.001
       0.074 -0.002  0.000  0.238 -0.001
      -0.001 -0.000 -0.001 -0.001  0.100
     ------------------------ ATOM    6 ------------------------
     Tr[ns(  6)] (up, down, total) =   4.51892  3.58994  8.10886
     Atomic magnetic moment for atom   6 =   0.92898
     SPIN  1
     eigenvalues:
       0.770  0.792  0.981  0.986  0.991
     eigenvectors (columns):
      -0.026 -0.375 -0.060 -0.109  0.918
       0.999 -0.036 -0.010 -0.003  0.012
      -0.002 -0.019  0.035 -0.992 -0.123
      -0.028 -0.925  0.069  0.065 -0.366
       0.011  0.042  0.995  0.024  0.085
     occupation matrix ns (before diag.):
       0.962  0.003 -0.002 -0.069  0.004
       0.003  0.770  0.000 -0.000 -0.002
      -0.002  0.000  0.986 -0.003 -0.000
      -0.069 -0.000 -0.003  0.820  0.007
       0.004 -0.002 -0.000  0.007  0.981
     SPIN  2
     eigenvalues:
       0.279  0.325  0.994  0.996  0.996
     eigenvectors (columns):
       0.465  0.007  0.885 -0.008 -0.002
       0.035 -0.999 -0.010 -0.001 -0.002
      -0.002  0.002 -0.003 -0.283 -0.959
       0.884  0.035 -0.465 -0.009  0.002
       0.011  0.000  0.002  0.959 -0.283
     occupation matrix ns (before diag.):
       0.839 -0.007  0.001 -0.295 -0.004
      -0.007  0.325  0.001  0.002 -0.000
       0.001  0.001  0.996  0.001  0.000
      -0.295  0.002  0.001  0.434 -0.007
      -0.004 -0.000  0.000 -0.007  0.996
     ------------------------ ATOM    7 ------------------------
     Tr[ns(  7)] (up, down, total) =   4.11220  0.88474  4.99695
     Atomic magnetic moment for atom   7 =   3.22746
     SPIN  1
     eigenvalues:
       0.588  0.591  0.965  0.977  0.991
     eigenvectors (columns):
      -0.297  0.307  0.005 -0.008 -0.904
       0.725  0.689 -0.001  0.003 -0.004
      -0.002 -0.002  0.074  0.997 -0.008
      -0.622  0.656 -0.013  0.004  0.428
       0.005 -0.007 -0.997  0.074 -0.011
     occupation matrix ns (before diag.):
       0.918  0.002  0.000 -0.155  0.002
       0.002  0.590  0.001  0.000  0.000
       0.000  0.001  0.977 -0.000  0.001
      -0.155  0.000 -0.000  0.663  0.003
       0.002  0.000  0.001  0.003  0.965
     SPIN  2
     eigenvalues:
       0.091  0.102  0.104  0.279  0.308
     eigenvectors (columns):
       0.912  0.006  0.001 -0.409  0.021
       0.005 -0.000 -0.001  0.064  0.998
       0.002 -0.659  0.752 -0.002  0.000
      -0.409 -0.005 -0.005 -0.910  0.060
      -0.008  0.752  0.659 -0.005  0.001
     occupation matrix ns (before diag.):
       0.122 -0.000  0.000  0.071  0.000
      -0.000  0.308  0.000  0.002  0.000
       0.000  0.000  0.103  0.000  0.001
       0.071  0.002  0.000  0.248  0.001
       0.000  0.000  0.001  0.001  0.103
     ------------------------ ATOM    8 ------------------------
     Tr[ns(  8)] (up, down, total) =   4.51534  3.59419  8.10953
     Atomic magnetic moment for atom   8 =   0.92115
     SPIN  1
     eigenvalues:
       0.769  0.789  0.980  0.986  0.991
     eigenvectors (columns):
      -0.093  0.360  0.070 -0.035  0.925
      -0.977 -0.212 -0.011 -0.000 -0.014
      -0.002  0.002  0.061  0.998  0.032
      -0.191  0.907 -0.083  0.015 -0.365
      -0.020  0.048  0.992 -0.057 -0.098
     occupation matrix ns (before diag.):
       0.963 -0.005 -0.000 -0.070 -0.005
      -0.005  0.770 -0.000 -0.002 -0.002
      -0.000 -0.000  0.986 -0.000 -0.000
      -0.070 -0.002 -0.000  0.817 -0.009
      -0.005 -0.002 -0.000 -0.009  0.980
     SPIN  2
     eigenvalues:
       0.281  0.327  0.994  0.996  0.996
     eigenvectors (columns):
      -0.466 -0.024  0.884 -0.012  0.004
       0.072 -0.997  0.010 -0.002  0.001
       0.001 -0.000  0.002 -0.230 -0.973
      -0.882 -0.069 -0.467 -0.010  0.001
       0.014  0.003 -0.006 -0.973  0.230
     occupation matrix ns (before diag.):
       0.839  0.008  0.000 -0.294  0.005
       0.008  0.327 -0.000 -0.000  0.001
       0.000 -0.000  0.996  0.000 -0.000
      -0.294 -0.000  0.000  0.437  0.009
       0.005  0.001 -0.000  0.009  0.996
     ------------------------ ATOM    9 ------------------------
     Tr[ns(  9)] (up, down, total) =   4.16873  0.81433  4.98306
     Atomic magnetic moment for atom   9 =   3.35439
     SPIN  1
     eigenvalues:
       0.583  0.623  0.987  0.987  0.989
     eigenvectors (columns):
       0.089 -0.992 -0.035 -0.030 -0.076
      -0.008  0.067 -0.269  0.344 -0.897
       0.015  0.022 -0.960 -0.161  0.228
       0.022  0.056  0.069 -0.924 -0.371
       0.996  0.088  0.014  0.029  0.004
     occupation matrix ns (before diag.):
       0.625  0.025  0.007  0.020 -0.004
       0.025  0.987 -0.001 -0.001  0.001
       0.007 -0.001  0.987 -0.001 -0.007
       0.020 -0.001 -0.001  0.986 -0.011
      -0.004  0.001 -0.007 -0.011  0.584
     SPIN  2
     eigenvalues:
       0.068  0.100  0.108  0.248  0.291
     eigenvectors (columns):
      -0.059  0.022  0.062 -0.994 -0.063
      -0.020  0.552  0.831  0.065  0.007
       0.008 -0.833  0.552  0.015  0.019
      -0.998 -0.019 -0.016  0.057  0.018
       0.014  0.013 -0.012 -0.064  0.998
     occupation matrix ns (before diag.):
       0.247 -0.009 -0.002 -0.011 -0.002
      -0.009  0.106  0.004 -0.000  0.001
      -0.002  0.004  0.102  0.000  0.003
      -0.011 -0.000  0.000  0.068  0.003
      -0.002  0.001  0.003  0.003  0.290
     ------------------------ ATOM   10 ------------------------
     Tr[ns( 10)] (up, down, total) =   4.84348  3.30785  8.15133
     Atomic magnetic moment for atom  10 =   1.53563
     SPIN  1
     eigenvalues:
       0.912  0.958  0.990  0.992  0.992
     eigenvectors (columns):
       0.246  0.954  0.046 -0.051 -0.159
      -0.025 -0.054  0.782 -0.617  0.066
      -0.011 -0.001  0.621  0.778 -0.095
      -0.137 -0.132 -0.017 -0.108 -0.976
       0.959 -0.264  0.014 -0.010 -0.098
     occupation matrix ns (before diag.):
       0.956  0.002  0.000  0.007 -0.010
       0.002  0.990 -0.001 -0.001  0.001
       0.000 -0.001  0.991 -0.000  0.001
       0.007 -0.001 -0.000  0.990  0.009
      -0.010  0.001  0.001  0.009  0.916
     SPIN  2
     eigenvalues:
       0.133  0.196  0.991  0.993  0.995
     eigenvectors (columns):
       0.995  0.076 -0.047  0.037  0.007
      -0.034  0.015  0.050  0.986 -0.155
      -0.015  0.021 -0.014  0.155  0.987
      -0.046 -0.034 -0.997  0.046 -0.021
      -0.077  0.996 -0.031 -0.019 -0.020
     occupation matrix ns (before diag.):
       0.136  0.028  0.012  0.041  0.005
       0.028  0.992 -0.001 -0.001 -0.014
       0.012 -0.001  0.995 -0.000 -0.018
       0.041 -0.001 -0.000  0.988  0.024
       0.005 -0.014 -0.018  0.024  0.197
     ------------------------ ATOM   11 ------------------------
     Tr[ns( 11)] (up, down, total) =   4.14340  0.84294  4.98633
     Atomic magnetic moment for atom  11 =   3.30046
     SPIN  1
     eigenvalues:
       0.567  0.619  0.983  0.986  0.988
     eigenvectors (columns):
       0.040  0.997 -0.041 -0.008 -0.059
      -0.005  0.050  0.756 -0.523  0.390
      -0.019 -0.003 -0.653 -0.589  0.476
      -0.021 -0.052 -0.017 -0.616 -0.786
       0.999 -0.041 -0.008 -0.027 -0.003
     occupation matrix ns (before diag.):
       0.621 -0.018  0.001  0.019 -0.002
      -0.018  0.984  0.002  0.000  0.003
       0.001  0.002  0.985 -0.001  0.008
       0.019  0.000 -0.001  0.986  0.008
      -0.002  0.003  0.008  0.008  0.568
     SPIN  2
     eigenvalues:
       0.065  0.105  0.113  0.270  0.290
     eigenvectors (columns):
      -0.060  0.025  0.025 -0.967  0.244
       0.030 -0.892 -0.449 -0.035  0.007
       0.016 -0.449  0.893  0.005 -0.024
      -0.998 -0.036 -0.001  0.054 -0.026
      -0.011 -0.012  0.019  0.245  0.969
     occupation matrix ns (before diag.):
       0.270  0.006 -0.002 -0.012  0.005
       0.006  0.107 -0.003  0.001 -0.000
      -0.002 -0.003  0.112  0.001 -0.004
      -0.012  0.001  0.001  0.066 -0.003
       0.005 -0.000 -0.004 -0.003  0.289
     ------------------------ ATOM   12 ------------------------
     Tr[ns( 12)] (up, down, total) =   2.83453  1.18543  4.01996
     Atomic magnetic moment for atom  12 =   1.64909
     SPIN  1
     eigenvalues:
       0.424  0.463  0.486  0.512  0.949
     eigenvectors (columns):
       0.060 -0.847 -0.455 -0.266 -0.034
       0.067  0.365 -0.136 -0.918  0.026
      -0.018  0.384 -0.879  0.280 -0.039
       0.022  0.024  0.047 -0.024 -0.998
       0.996  0.033  0.020  0.083  0.021
     occupation matrix ns (before diag.):
       0.471  0.013  0.006  0.016 -0.004
       0.013  0.505 -0.010 -0.012 -0.006
       0.006 -0.010  0.485  0.018  0.001
       0.016 -0.012  0.018  0.948 -0.011
      -0.004 -0.006  0.001 -0.011  0.425
     SPIN  2
     eigenvalues:
       0.083  0.206  0.226  0.311  0.359
     eigenvectors (columns):
       0.023 -0.007 -0.057 -0.142 -0.988
      -0.034 -0.568  0.815 -0.107 -0.028
       0.018  0.816  0.574  0.045 -0.045
       0.999 -0.032  0.018 -0.012  0.024
      -0.011  0.101 -0.055 -0.983  0.144
     occupation matrix ns (before diag.):
       0.357  0.005  0.005 -0.006 -0.007
       0.005  0.220  0.009  0.004  0.010
       0.005  0.009  0.213 -0.002 -0.006
      -0.006  0.004 -0.002  0.084  0.003
      -0.007  0.010 -0.006  0.003  0.311
     ------------------------ ATOM   13 ------------------------
     Tr[ns( 13)] (up, down, total) =   4.76114  3.37302  8.13417
     Atomic magnetic moment for atom  13 =   1.38812
     SPIN  1
     eigenvalues:
       0.863  0.925  0.988  0.992  0.993
     eigenvectors (columns):
      -0.351 -0.215  0.002  0.431  0.803
       0.495 -0.868  0.045  0.004 -0.018
      -0.008  0.008 -0.020  0.880 -0.474
      -0.793 -0.440  0.102 -0.195 -0.359
       0.059  0.085  0.994  0.036  0.026
     occupation matrix ns (before diag.):
       0.974  0.010 -0.001 -0.042  0.004
       0.010  0.910  0.001  0.025  0.001
      -0.001  0.001  0.992 -0.000  0.000
      -0.042  0.025 -0.000  0.898  0.008
       0.004  0.001  0.000  0.008  0.987
     SPIN  2
     eigenvalues:
       0.177  0.219  0.991  0.992  0.994
     eigenvectors (columns):
      -0.289  0.393  0.870  0.067 -0.017
      -0.839 -0.542 -0.035  0.021  0.002
       0.027 -0.028 -0.026  0.384 -0.922
      -0.459  0.742 -0.487 -0.004 -0.024
       0.027 -0.002 -0.054  0.921  0.386
     occupation matrix ns (before diag.):
       0.804 -0.033  0.015 -0.333  0.007
      -0.033  0.190  0.007 -0.003  0.018
       0.015  0.007  0.993  0.026 -0.001
      -0.333 -0.003  0.026  0.394  0.011
       0.007  0.018 -0.001  0.011  0.992
     ------------------------ ATOM   14 ------------------------
     Tr[ns( 14)] (up, down, total) =   4.15744  0.83403  4.99147
     Atomic magnetic moment for atom  14 =   3.32340
     SPIN  1
     eigenvalues:
       0.583  0.611  0.985  0.988  0.991
     eigenvectors (columns):
       0.442  0.171  0.064  0.866  0.144
       0.359 -0.933 -0.028  0.007 -0.023
       0.029 -0.011 -0.111 -0.167  0.979
       0.819  0.317 -0.088 -0.457 -0.108
       0.057 -0.011  0.987 -0.116  0.091
     occupation matrix ns (before diag.):
       0.898 -0.004 -0.004 -0.167 -0.010
      -0.004  0.608 -0.008 -0.007 -0.012
      -0.004 -0.008  0.990 -0.008 -0.000
      -0.167 -0.007 -0.008  0.678 -0.017
      -0.010 -0.012 -0.000 -0.017  0.983
     SPIN  2
     eigenvalues:
       0.063  0.108  0.118  0.268  0.276
     eigenvectors (columns):
      -0.881  0.001  0.011 -0.445 -0.161
      -0.016 -0.018  0.014  0.368 -0.929
      -0.002 -0.107 -0.994 -0.014 -0.018
       0.473 -0.036  0.021 -0.816 -0.330
       0.017  0.993 -0.106 -0.024 -0.030
     occupation matrix ns (before diag.):
       0.109 -0.002  0.001  0.086  0.003
      -0.002  0.275  0.002  0.004  0.003
       0.001  0.002  0.118  0.003  0.001
       0.086  0.004  0.003  0.223  0.004
       0.003  0.003  0.001  0.004  0.109
     ------------------------ ATOM   15 ------------------------
     Tr[ns( 15)] (up, down, total) =   3.13372  0.87462  4.00834
     Atomic magnetic moment for atom  15 =   2.25911
     SPIN  1
     eigenvalues:
       0.409  0.438  0.523  0.827  0.936
     eigenvectors (columns):
      -0.288 -0.379 -0.018 -0.013  0.879
       0.837 -0.546  0.002 -0.012  0.039
       0.046  0.063 -0.957  0.280  0.027
      -0.463 -0.744 -0.080  0.016 -0.474
      -0.001  0.018 -0.280 -0.960 -0.012
     occupation matrix ns (before diag.):
       0.821  0.024  0.012 -0.211 -0.000
       0.024  0.418 -0.002  0.002  0.004
       0.012 -0.002  0.547  0.003 -0.082
      -0.211  0.002  0.003  0.544 -0.001
      -0.000  0.004 -0.082 -0.001  0.803
     SPIN  2
     eigenvalues:
       0.063  0.113  0.148  0.255  0.296
     eigenvectors (columns):
      -0.858  0.013 -0.002  0.197 -0.474
      -0.019  0.033 -0.022 -0.934 -0.354
      -0.011 -0.178  0.984 -0.029 -0.001
       0.513  0.002  0.014  0.295 -0.806
       0.009  0.983  0.179  0.023  0.020
     occupation matrix ns (before diag.):
       0.123  0.004 -0.001  0.100 -0.001
       0.004  0.259  0.003  0.014 -0.004
      -0.001  0.003  0.147 -0.000  0.006
       0.100  0.014 -0.000  0.231 -0.002
      -0.001 -0.004  0.006 -0.002  0.114
     ------------------------ ATOM   16 ------------------------
     Tr[ns( 16)] (up, down, total) =   4.16136  0.82831  4.98968
     Atomic magnetic moment for atom  16 =   3.33305
     SPIN  1
     eigenvalues:
       0.587  0.613  0.985  0.987  0.990
     eigenvectors (columns):
       0.366 -0.306 -0.237  0.810  0.247
      -0.644 -0.764 -0.019 -0.011  0.024
       0.040 -0.006  0.210 -0.248  0.945
       0.669 -0.567  0.169 -0.413 -0.178
      -0.051  0.011  0.933  0.336 -0.117
     occupation matrix ns (before diag.):
       0.899  0.007 -0.006 -0.163  0.009
       0.007  0.602  0.009  0.010 -0.010
      -0.006  0.009  0.989 -0.013  0.000
      -0.163  0.010 -0.013  0.687  0.016
       0.009 -0.010  0.000  0.016  0.984
     SPIN  2
     eigenvalues:
       0.064  0.107  0.114  0.263  0.281
     eigenvectors (columns):
       0.881 -0.004  0.025  0.448  0.151
      -0.013 -0.016 -0.017  0.343 -0.939
       0.011  0.226 -0.973  0.027  0.024
      -0.473  0.038  0.034  0.825  0.307
       0.019  0.973  0.225 -0.031 -0.032
     occupation matrix ns (before diag.):
       0.109 -0.000  0.002  0.084 -0.004
      -0.000  0.278 -0.002 -0.006  0.004
       0.002 -0.002  0.114  0.005 -0.002
       0.084 -0.006  0.005  0.220 -0.005
      -0.004  0.004 -0.002 -0.005  0.108
     ------------------------ ATOM   17 ------------------------
     Tr[ns( 17)] (up, down, total) =   2.71566  1.33003  4.04569
     Atomic magnetic moment for atom  17 =   1.38563
     SPIN  1
     eigenvalues:
       0.431  0.445  0.458  0.466  0.915
     eigenvectors (columns):
      -0.554 -0.646 -0.143  0.503  0.046
      -0.424 -0.316  0.105 -0.842 -0.023
      -0.063 -0.035  0.983  0.168 -0.030
       0.008  0.027  0.038 -0.037  0.998
       0.714 -0.693  0.038 -0.095  0.008
     occupation matrix ns (before diag.):
       0.447 -0.013 -0.001  0.021  0.005
      -0.013  0.458 -0.002 -0.010  0.006
      -0.001 -0.002  0.459 -0.014  0.001
       0.021 -0.010 -0.014  0.914  0.004
       0.005  0.006  0.001  0.004  0.438
     SPIN  2
     eigenvalues:
       0.117  0.248  0.264  0.338  0.363
     eigenvectors (columns):
      -0.056 -0.005  0.002  0.988 -0.145
      -0.009  0.967 -0.237 -0.008 -0.089
       0.051  0.242  0.968  0.009  0.048
      -0.997  0.005  0.050 -0.052  0.027
      -0.016 -0.075  0.069 -0.146 -0.984
     occupation matrix ns (before diag.):
       0.338  0.001  0.000 -0.012  0.003
       0.001  0.250 -0.004 -0.002  0.010
       0.000 -0.004  0.263  0.008 -0.004
      -0.012 -0.002  0.008  0.118 -0.004
       0.003  0.010 -0.004 -0.004  0.361
     ------------------------ ATOM   18 ------------------------
     Tr[ns( 18)] (up, down, total) =   4.91085  3.24835  8.15920
     Atomic magnetic moment for atom  18 =   1.66251
     SPIN  1
     eigenvalues:
       0.958  0.976  0.988  0.994  0.994
     eigenvectors (columns):
      -0.007  0.965 -0.100  0.219 -0.100
       0.014  0.111  0.993 -0.032  0.008
       0.187 -0.104  0.017  0.027 -0.976
       0.041 -0.209  0.054  0.974  0.058
       0.981  0.033 -0.021 -0.044  0.183
     occupation matrix ns (before diag.):
       0.977 -0.001  0.002  0.004 -0.000
      -0.001  0.988  0.000  0.000 -0.000
       0.002  0.000  0.993 -0.001 -0.007
       0.004  0.000 -0.001  0.993 -0.001
      -0.000 -0.000 -0.007 -0.001  0.960
     SPIN  2
     eigenvalues:
       0.101  0.177  0.988  0.990  0.993
     eigenvectors (columns):
      -0.997 -0.024 -0.017 -0.059  0.036
      -0.051  0.026 -0.432  0.888 -0.146
       0.035  0.019 -0.216  0.057  0.974
       0.036 -0.013 -0.876 -0.451 -0.168
      -0.023  0.999  0.004 -0.032 -0.016
     occupation matrix ns (before diag.):
       0.105 -0.045  0.031  0.032 -0.001
      -0.045  0.987  0.001  0.001 -0.023
       0.031  0.001  0.991 -0.002 -0.015
       0.032  0.001 -0.002  0.987  0.011
      -0.001 -0.023 -0.015  0.011  0.178
     ------------------------ ATOM   19 ------------------------
     Tr[ns( 19)] (up, down, total) =   4.90211  3.25219  8.15430
     Atomic magnetic moment for atom  19 =   1.64991
     SPIN  1
     eigenvalues:
       0.941  0.983  0.991  0.993  0.994
     eigenvectors (columns):
       0.009  0.908 -0.134  0.396  0.025
      -0.032  0.316  0.389 -0.630  0.593
      -0.019  0.008 -0.911 -0.341  0.231
      -0.001 -0.275 -0.021  0.574  0.771
       0.999  0.002 -0.004 -0.030  0.024
     occupation matrix ns (before diag.):
       0.985 -0.003 -0.000  0.003 -0.000
      -0.003  0.992  0.001  0.001  0.002
      -0.000  0.001  0.991  0.000  0.001
       0.003  0.001  0.000  0.993  0.000
      -0.000  0.002  0.001  0.000  0.942
     SPIN  2
     eigenvalues:
       0.094  0.182  0.989  0.992  0.994
     eigenvectors (columns):
      -0.996 -0.016 -0.075 -0.013  0.052
      -0.014 -0.015  0.260 -0.955 -0.140
       0.024 -0.022  0.344 -0.044  0.937
       0.088 -0.007 -0.899 -0.292  0.314
      -0.015  1.000  0.004 -0.017  0.021
     occupation matrix ns (before diag.):
       0.102 -0.013  0.021  0.078 -0.000
      -0.013  0.992 -0.000  0.002  0.012
       0.021 -0.000  0.993 -0.001  0.018
       0.078  0.002 -0.001  0.983  0.007
      -0.000  0.012  0.018  0.007  0.183
     ------------------------ ATOM   20 ------------------------
     Tr[ns( 20)] (up, down, total) =   4.27943  0.74290  5.02232
     Atomic magnetic moment for atom  20 =   3.53653
     SPIN  1
     eigenvalues:
       0.585  0.743  0.975  0.985  0.991
     eigenvectors (columns):
      -0.065  0.995  0.062 -0.002 -0.048
       0.006 -0.061  0.860  0.479 -0.167
      -0.089 -0.035  0.490 -0.865  0.054
       0.009 -0.040 -0.122 -0.130 -0.983
       0.994  0.063  0.044 -0.079  0.012
     occupation matrix ns (before diag.):
       0.744  0.014  0.006  0.010  0.011
       0.014  0.977 -0.005  0.001 -0.002
       0.006 -0.005  0.979  0.000  0.036
       0.010  0.001  0.000  0.990 -0.003
       0.011 -0.002  0.036 -0.003  0.589
     SPIN  2
     eigenvalues:
       0.071  0.104  0.114  0.179  0.275
     eigenvectors (columns):
      -0.017 -0.058 -0.065  0.996 -0.034
       0.121 -0.877 -0.458 -0.078  0.016
       0.011  0.463 -0.882 -0.033 -0.074
      -0.992 -0.101 -0.064 -0.027 -0.002
      -0.003  0.047 -0.061  0.033  0.997
     occupation matrix ns (before diag.):
       0.178 -0.006 -0.001 -0.003 -0.003
      -0.006  0.106  0.004  0.004  0.003
      -0.001  0.004  0.113  0.001 -0.012
      -0.003  0.004  0.001  0.072 -0.000
      -0.003  0.003 -0.012 -0.000  0.274
     ------------------------ ATOM   21 ------------------------
     Tr[ns( 21)] (up, down, total) =   2.47187  1.57692  4.04879
     Atomic magnetic moment for atom  21 =   0.89495
     SPIN  1
     eigenvalues:
       0.444  0.471  0.477  0.534  0.545
     eigenvectors (columns):
       0.794  0.117 -0.544  0.246  0.009
       0.128  0.916  0.371 -0.033  0.072
       0.160 -0.086 -0.045 -0.604  0.774
       0.568 -0.321  0.636 -0.260 -0.319
       0.075 -0.189  0.400  0.711  0.542
     occupation matrix ns (before diag.):
       0.460 -0.004 -0.012 -0.018  0.008
      -0.004  0.472  0.005 -0.002  0.002
      -0.012  0.005  0.538 -0.011  0.004
      -0.018 -0.002 -0.011  0.477 -0.024
       0.008  0.002  0.004 -0.024  0.525
     SPIN  2
     eigenvalues:
       0.244  0.251  0.306  0.371  0.405
     eigenvectors (columns):
       0.185 -0.637  0.718 -0.210  0.003
      -0.032 -0.095 -0.109 -0.128 -0.981
      -0.910  0.155  0.382  0.034 -0.032
       0.022  0.328  0.010 -0.940  0.089
      -0.369 -0.673 -0.572 -0.233  0.172
     occupation matrix ns (before diag.):
       0.285 -0.002  0.015  0.024 -0.016
      -0.002  0.401  0.002  0.001 -0.019
       0.015  0.002  0.254 -0.004 -0.016
       0.024  0.001 -0.004  0.358  0.028
      -0.016 -0.019 -0.016  0.028  0.279
     ------------------------ ATOM   22 ------------------------
     Tr[ns( 22)] (up, down, total) =   2.23489  1.84731  4.08220
     Atomic magnetic moment for atom  22 =   0.38758
     SPIN  1
     eigenvalues:
       0.429  0.433  0.448  0.454  0.471
     eigenvectors (columns):
      -0.566  0.728  0.091  0.358 -0.114
       0.060 -0.412  0.201  0.714 -0.526
       0.785  0.539 -0.143  0.101 -0.251
       0.098  0.095  0.925 -0.323 -0.148
       0.225  0.020  0.275  0.498  0.791
     occupation matrix ns (before diag.):
       0.435  0.008  0.003 -0.000  0.001
       0.008  0.455  0.006  0.001 -0.008
       0.003  0.006  0.433 -0.002 -0.008
      -0.000  0.001 -0.002  0.449 -0.004
       0.001 -0.008 -0.008 -0.004  0.463
     SPIN  2
     eigenvalues:
       0.281  0.354  0.379  0.410  0.423
     eigenvectors (columns):
      -0.099 -0.164  0.872  0.018 -0.451
       0.050  0.052 -0.444 -0.073 -0.890
      -0.548  0.829  0.078  0.077 -0.028
       0.113  0.158  0.089 -0.976  0.051
       0.821  0.508  0.172  0.192 -0.025
     occupation matrix ns (before diag.):
       0.387  0.018 -0.001  0.000  0.011
       0.018  0.414  0.003 -0.001 -0.004
      -0.001  0.003  0.333  0.000  0.034
       0.000 -0.001  0.000  0.406 -0.017
       0.011 -0.004  0.034 -0.017  0.308
     ------------------------ ATOM   23 ------------------------
     Tr[ns( 23)] (up, down, total) =   4.85017  3.30129  8.15146
     Atomic magnetic moment for atom  23 =   1.54888
     SPIN  1
     eigenvalues:
       0.920  0.955  0.989  0.992  0.993
     eigenvectors (columns):
       0.356  0.197  0.004 -0.901 -0.151
      -0.636  0.767  0.001 -0.082 -0.010
      -0.042 -0.033 -0.671  0.096 -0.733
       0.680  0.607  0.031  0.408 -0.041
      -0.068 -0.057  0.740  0.075 -0.662
     occupation matrix ns (before diag.):
       0.982  0.011  0.001 -0.022  0.002
       0.011  0.941 -0.001  0.014 -0.001
       0.001 -0.001  0.991  0.003  0.002
      -0.022  0.014  0.003  0.945  0.005
       0.002 -0.001  0.002  0.005  0.990
     SPIN  2
     eigenvalues:
       0.148  0.176  0.992  0.993  0.993
     eigenvectors (columns):
       0.377  0.223  0.858 -0.237 -0.125
       0.376 -0.923  0.070  0.004 -0.043
      -0.061  0.018 -0.021  0.339 -0.938
       0.838  0.312 -0.378  0.236  0.045
      -0.102 -0.026  0.340  0.879  0.316
     occupation matrix ns (before diag.):
       0.831  0.048  0.016 -0.323  0.037
       0.048  0.178  0.033 -0.031  0.012
       0.016  0.033  0.989  0.039 -0.005
      -0.323 -0.031  0.039  0.320  0.079
       0.037  0.012 -0.005  0.079  0.983

     Number of occupied Hubbard levels =  133.4124

     Threshold (ethr) on eigenvalues was too large:
     Diagonalizing with lowered threshold

     Davidson diagonalization with overlap
     ethr =  1.37E-09,  avg # of iterations =  3.1

     negative rho (up, down):  5.323E-03 2.164E-02

     total cpu time spent up to now is      126.1 secs

     total energy              =   -7956.51387907 Ry
     estimated scf accuracy    <       0.00000990 Ry

     total magnetization       =    38.10 Bohr mag/cell
     absolute magnetization    =    65.31 Bohr mag/cell

     iteration #  2     ecut=    80.00 Ry     beta= 0.30
     Davidson diagonalization with overlap
     ethr =  1.47E-09,  avg # of iterations =  2.9

     negative rho (up, down):  4.007E-03 2.220E-02

     total cpu time spent up to now is      185.0 secs

     total energy              =   -7956.51455373 Ry
     estimated scf accuracy    <       0.00000492 Ry

     total magnetization       =    38.10 Bohr mag/cell
     absolute magnetization    =    65.31 Bohr mag/cell

     iteration #  3     ecut=    80.00 Ry     beta= 0.30
     Davidson diagonalization with overlap
     ethr =  7.30E-10,  avg # of iterations =  2.6

     negative rho (up, down):  3.238E-03 2.273E-02

     total cpu time spent up to now is      243.3 secs

     total energy              =   -7956.51489939 Ry
     estimated scf accuracy    <       0.00001453 Ry

     total magnetization       =    38.11 Bohr mag/cell
     absolute magnetization    =    65.32 Bohr mag/cell

     iteration #  4     ecut=    80.00 Ry     beta= 0.30
     Davidson diagonalization with overlap
     ethr =  7.30E-10,  avg # of iterations =  2.0

     negative rho (up, down):  2.827E-03 2.313E-02

     total cpu time spent up to now is      297.6 secs

     total energy              =   -7956.51506544 Ry
     estimated scf accuracy    <       0.00000455 Ry

     total magnetization       =    38.10 Bohr mag/cell
     absolute magnetization    =    65.32 Bohr mag/cell

     iteration #  5     ecut=    80.00 Ry     beta= 0.30
     Davidson diagonalization with overlap
     ethr =  6.76E-10,  avg # of iterations =  2.0

     negative rho (up, down):  2.643E-03 2.343E-02

     total cpu time spent up to now is      350.3 secs

     total energy              =   -7956.51514549 Ry
     estimated scf accuracy    <       0.00000299 Ry

     total magnetization       =    38.10 Bohr mag/cell
     absolute magnetization    =    65.32 Bohr mag/cell

     iteration #  6     ecut=    80.00 Ry     beta= 0.30
     Davidson diagonalization with overlap
     ethr =  4.44E-10,  avg # of iterations =  2.0

     negative rho (up, down):  2.589E-03 2.365E-02

     total cpu time spent up to now is      402.4 secs

     total energy              =   -7956.51518439 Ry
     estimated scf accuracy    <       0.00000065 Ry

     total magnetization       =    38.10 Bohr mag/cell
     absolute magnetization    =    65.32 Bohr mag/cell

     iteration #  7     ecut=    80.00 Ry     beta= 0.30
     Davidson diagonalization with overlap
     ethr =  9.71E-11,  avg # of iterations =  2.4

     negative rho (up, down):  2.596E-03 2.382E-02

     total cpu time spent up to now is      458.8 secs

     total energy              =   -7956.51520323 Ry
     estimated scf accuracy    <       0.00000038 Ry

     total magnetization       =    38.10 Bohr mag/cell
     absolute magnetization    =    65.32 Bohr mag/cell

     iteration #  8     ecut=    80.00 Ry     beta= 0.30
     Davidson diagonalization with overlap
     ethr =  5.62E-11,  avg # of iterations =  2.1

     negative rho (up, down):  2.629E-03 2.396E-02

     total cpu time spent up to now is      515.7 secs

     total energy              =   -7956.51521237 Ry
     estimated scf accuracy    <       0.00000012 Ry

     total magnetization       =    38.10 Bohr mag/cell
     absolute magnetization    =    65.32 Bohr mag/cell

     iteration #  9     ecut=    80.00 Ry     beta= 0.30
     Davidson diagonalization with overlap
     ethr =  1.83E-11,  avg # of iterations =  2.5

     negative rho (up, down):  2.673E-03 2.407E-02

     total cpu time spent up to now is      571.8 secs

     total energy              =   -7956.51521677 Ry
     estimated scf accuracy    <       0.00000007 Ry

     total magnetization       =    38.10 Bohr mag/cell
     absolute magnetization    =    65.32 Bohr mag/cell

     iteration # 10     ecut=    80.00 Ry     beta= 0.30
     Davidson diagonalization with overlap
     ethr =  1.00E-11,  avg # of iterations =  2.8

     negative rho (up, down):  2.709E-03 2.415E-02

     total cpu time spent up to now is      628.7 secs

     total energy              =   -7956.51521887 Ry
     estimated scf accuracy    <       0.00000004 Ry

     total magnetization       =    38.10 Bohr mag/cell
     absolute magnetization    =    65.32 Bohr mag/cell

     iteration # 11     ecut=    80.00 Ry     beta= 0.30
     Davidson diagonalization with overlap
     ethr =  5.29E-12,  avg # of iterations =  2.8

     negative rho (up, down):  2.738E-03 2.420E-02

     total cpu time spent up to now is      685.8 secs

     total energy              =   -7956.51521987 Ry
     estimated scf accuracy    <       0.00000002 Ry

     total magnetization       =    38.10 Bohr mag/cell
     absolute magnetization    =    65.33 Bohr mag/cell

     iteration # 12     ecut=    80.00 Ry     beta= 0.30
     Davidson diagonalization with overlap
     ethr =  3.48E-12,  avg # of iterations =  2.4

     negative rho (up, down):  2.756E-03 2.424E-02

     total cpu time spent up to now is      741.6 secs

     total energy              =   -7956.51522034 Ry
     estimated scf accuracy    <       0.00000002 Ry

     total magnetization       =    38.10 Bohr mag/cell
     absolute magnetization    =    65.33 Bohr mag/cell

     iteration # 13     ecut=    80.00 Ry     beta= 0.30
     Davidson diagonalization with overlap
     ethr =  2.62E-12,  avg # of iterations =  2.0

     negative rho (up, down):  2.818E-03 2.434E-02

     Magnetic moment per site  (integrated on atomic sphere of radius R)
     atom   1 (R=0.130)  charge= 11.5415  magn=  3.0705
     atom   2 (R=0.134)  charge= 15.1646  magn=  1.3810
     atom   3 (R=0.130)  charge= 11.5441  magn=  3.0897
     atom   4 (R=0.112)  charge=  9.4913  magn=  1.8581
     atom   5 (R=0.112)  charge=  9.4347  magn=  1.5909
     atom   6 (R=0.134)  charge= 15.1352  magn=  0.8887
     atom   7 (R=0.130)  charge= 11.4940  magn=  2.7549
     atom   8 (R=0.134)  charge= 15.1350  magn=  0.8807
     atom   9 (R=0.130)  charge= 11.4883  magn=  2.8547
     atom  10 (R=0.134)  charge= 15.1463  magn=  1.4731
     atom  11 (R=0.130)  charge= 11.4880  magn=  2.8107
     atom  12 (R=0.112)  charge=  9.4259  magn=  1.1475
     atom  13 (R=0.134)  charge= 15.1462  magn=  1.3395
     atom  14 (R=0.130)  charge= 11.4939  magn=  2.8358
     atom  15 (R=0.112)  charge=  9.4421  magn=  1.5620
     atom  16 (R=0.130)  charge= 11.4911  magn=  2.8407
     atom  17 (R=0.112)  charge=  9.4358  magn=  0.9778
     atom  18 (R=0.134)  charge= 15.1473  magn=  1.5868
     atom  19 (R=0.134)  charge= 15.1320  magn=  1.5671
     atom  20 (R=0.130)  charge= 11.5298  magn=  2.9929
     atom  21 (R=0.112)  charge=  9.4043  magn=  0.6145
     atom  22 (R=0.112)  charge=  9.4128  magn=  0.2657
     atom  23 (R=0.134)  charge= 15.1359  magn=  1.4823
     atom  24 (R=0.131)  charge=  8.2400  magn= -0.0086
     atom  25 (R=0.112)  charge=  4.3631  magn= -0.1967
     atom  26 (R=0.112)  charge=  4.2942  magn= -0.3716
     atom  27 (R=0.112)  charge=  4.3570  magn= -0.2000
     atom  28 (R=0.112)  charge=  4.2840  magn= -0.4196
     atom  29 (R=0.112)  charge=  4.2793  magn= -0.4136
     atom  30 (R=0.112)  charge=  4.2171  magn= -0.6061
     atom  31 (R=0.112)  charge=  4.2786  magn= -0.4239
     atom  32 (R=0.112)  charge=  4.2187  magn= -0.6002
     atom  33 (R=0.112)  charge=  4.3847  magn= -0.1408
     atom  34 (R=0.112)  charge=  4.3244  magn= -0.3224
     atom  35 (R=0.112)  charge=  4.3804  magn= -0.1314
     atom  36 (R=0.112)  charge=  4.3268  magn= -0.3038
     atom  37 (R=0.112)  charge=  4.3489  magn= -0.1998
     atom  38 (R=0.112)  charge=  4.3623  magn= -0.2408
     atom  39 (R=0.112)  charge=  4.3515  magn= -0.1893
     atom  40 (R=0.112)  charge=  4.3588  magn= -0.2201
     atom  41 (R=0.112)  charge=  4.3834  magn= -0.1124
     atom  42 (R=0.112)  charge=  4.3533  magn= -0.1170
     atom  43 (R=0.112)  charge=  4.3331  magn= -0.2566
     atom  44 (R=0.112)  charge=  4.3471  magn= -0.1642
     atom  45 (R=0.112)  charge=  4.3271  magn= -0.2885
     atom  46 (R=0.112)  charge=  4.3510  magn= -0.1594
     atom  47 (R=0.112)  charge=  4.3560  magn= -0.2473
     atom  48 (R=0.112)  charge=  4.3534  magn= -0.2016
     atom  49 (R=0.112)  charge=  4.3746  magn= -0.1290
     atom  50 (R=0.112)  charge=  4.3421  magn= -0.2815
     atom  51 (R=0.112)  charge=  4.3732  magn= -0.1166
     atom  52 (R=0.112)  charge=  4.3648  magn= -0.2203
     atom  53 (R=0.112)  charge=  4.3545  magn= -0.1896
     atom  54 (R=0.112)  charge=  4.3772  magn= -0.1685
     atom  55 (R=0.112)  charge=  4.3639  magn= -0.1672
     atom  56 (R=0.112)  charge=  4.3607  magn= -0.1912
     atom  57 (R=0.112)  charge=  4.3123  magn= -0.2361
     atom  58 (R=0.112)  charge=  4.3074  magn= -0.0641
     atom  59 (R=0.112)  charge=  4.3135  magn= -0.2183
     atom  60 (R=0.112)  charge=  4.3320  magn= -0.0661
     atom  61 (R=0.112)  charge=  4.3261  magn= -0.1858
     atom  62 (R=0.112)  charge=  4.2932  magn= -0.2021
     atom  63 (R=0.112)  charge=  4.3120  magn= -0.2719
     atom  64 (R=0.112)  charge=  4.3301  magn= -0.2958
     atom  65 (R=0.112)  charge=  4.3384  magn= -0.1625
     atom  66 (R=0.112)  charge=  4.3623  magn= -0.0802
     atom  67 (R=0.112)  charge=  4.3381  magn= -0.1664
     atom  68 (R=0.112)  charge=  4.3376  magn= -0.0909
     atom  69 (R=0.112)  charge=  4.3388  magn= -0.1510
     atom  70 (R=0.112)  charge=  4.3717  magn= -0.0883
     atom  71 (R=0.112)  charge=  4.3311  magn= -0.0741
     atom  72 (R=0.112)  charge=  4.3296  magn= -0.1828
     atom  73 (R=0.071)  charge=  1.9999  magn=  0.2795
     atom  74 (R=0.071)  charge=  2.0217  magn=  0.1314
     atom  75 (R=0.071)  charge=  0.4063  magn= -0.0008

     total cpu time spent up to now is      795.8 secs

     End of self-consistent calculation

     =================== HUBBARD OCCUPATIONS ===================
     ------------------------ ATOM    1 ------------------------
     Tr[ns(  1)] (up, down, total) =   4.33576  0.69530  5.03106
     Atomic magnetic moment for atom   1 =   3.64046
     SPIN  1
     eigenvalues:
       0.571  0.802  0.985  0.987  0.990
     eigenvectors (columns):
       0.014  0.991 -0.052 -0.036  0.114
       0.006  0.084 -0.441  0.166 -0.878
      -0.008 -0.006  0.075 -0.972 -0.222
      -0.004 -0.099 -0.893 -0.161  0.408
       1.000 -0.015  0.001 -0.009  0.004
     occupation matrix ns (before diag.):
       0.805 -0.016  0.001  0.018 -0.003
      -0.016  0.988  0.001 -0.000 -0.002
       0.001  0.001  0.987 -0.000  0.003
       0.018 -0.000 -0.000  0.984  0.001
      -0.003 -0.002  0.003  0.001  0.571
     SPIN  2
     eigenvalues:
       0.063  0.089  0.095  0.174  0.274
     eigenvectors (columns):
       0.093  0.011 -0.021 -0.995  0.003
      -0.007  0.071 -0.997  0.021  0.002
       0.001 -0.997 -0.072 -0.009  0.002
       0.996  0.000 -0.005  0.094 -0.002
       0.001  0.002  0.002  0.003  1.000
     occupation matrix ns (before diag.):
       0.173 -0.002  0.001 -0.010  0.000
      -0.002  0.095  0.000  0.000  0.000
       0.001  0.000  0.089 -0.000  0.000
      -0.010  0.000 -0.000  0.064 -0.000
       0.000  0.000  0.000 -0.000  0.274
     ------------------------ ATOM    2 ------------------------
     Tr[ns(  2)] (up, down, total) =   4.79503  3.35443  8.14946
     Atomic magnetic moment for atom   2 =   1.44060
     SPIN  1
     eigenvalues:
       0.868  0.961  0.982  0.991  0.993
     eigenvectors (columns):
       0.000  0.976  0.055 -0.209 -0.008
      -0.002  0.056 -0.996  0.002 -0.069
       0.004  0.027 -0.067  0.072  0.995
      -0.006 -0.207 -0.019 -0.975  0.075
       1.000 -0.002 -0.002 -0.006 -0.004
     occupation matrix ns (before diag.):
       0.962 -0.001 -0.001  0.006  0.000
      -0.001  0.982 -0.001  0.000  0.000
      -0.001 -0.001  0.993  0.000 -0.001
       0.006  0.000  0.000  0.990  0.001
       0.000  0.000 -0.001  0.001  0.868
     SPIN  2
     eigenvalues:
       0.137  0.237  0.991  0.994  0.995
     eigenvectors (columns):
      -1.000 -0.001 -0.025  0.006 -0.009
       0.005  0.002  0.001  0.999  0.043
       0.009  0.000  0.021  0.043 -0.999
       0.025  0.002 -0.999  0.002 -0.021
      -0.001  1.000  0.002 -0.002  0.000
     occupation matrix ns (before diag.):
       0.138  0.005  0.008  0.021 -0.000
       0.005  0.994 -0.000 -0.000 -0.001
       0.008 -0.000  0.994 -0.000 -0.000
       0.021 -0.000 -0.000  0.991 -0.002
      -0.000 -0.001 -0.000 -0.002  0.237
     ------------------------ ATOM    3 ------------------------
     Tr[ns(  3)] (up, down, total) =   4.34782  0.68320  5.03103
     Atomic magnetic moment for atom   3 =   3.66462
     SPIN  1
     eigenvalues:
       0.569  0.815  0.985  0.988  0.991
     eigenvectors (columns):
      -0.002 -0.987  0.064 -0.123  0.084
       0.008  0.126 -0.275 -0.759  0.577
       0.002  0.009  0.015 -0.608 -0.794
       0.003  0.102  0.959 -0.200  0.172
       1.000 -0.003 -0.000  0.007 -0.003
     occupation matrix ns (before diag.):
       0.819  0.022  0.001  0.017  0.000
       0.022  0.986 -0.001 -0.001 -0.003
       0.001 -0.001  0.990 -0.001 -0.001
       0.017 -0.001 -0.001  0.984 -0.001
       0.000 -0.003 -0.001 -0.001  0.569
     SPIN  2
     eigenvalues:
       0.063  0.087  0.093  0.165  0.275
     eigenvectors (columns):
       0.098  0.008 -0.005 -0.995 -0.001
       0.013 -0.089  0.996 -0.005  0.004
      -0.000 -0.996 -0.089 -0.008 -0.002
       0.995  0.000 -0.013  0.098  0.001
      -0.001 -0.002 -0.004 -0.001  1.000
     occupation matrix ns (before diag.):
       0.164  0.000  0.001 -0.010 -0.000
       0.000  0.093 -0.001 -0.000  0.001
       0.001 -0.001  0.087 -0.000 -0.000
      -0.010 -0.000 -0.000  0.064  0.000
      -0.000  0.001 -0.000  0.000  0.275
     ------------------------ ATOM    4 ------------------------
     Tr[ns(  4)] (up, down, total) =   3.38493  0.66981  4.05474
     Atomic magnetic moment for atom   4 =   2.71512
     SPIN  1
     eigenvalues:
       0.375  0.407  0.809  0.833  0.961
     eigenvectors (columns):
       0.997  0.008  0.030  0.043  0.059
       0.045 -0.012 -0.930 -0.363 -0.028
      -0.034 -0.001 -0.366  0.926  0.087
      -0.054 -0.004  0.004 -0.094  0.994
      -0.008  1.000 -0.011 -0.004  0.004
     occupation matrix ns (before diag.):
       0.378 -0.020  0.016  0.032  0.000
      -0.020  0.811 -0.008 -0.002  0.005
       0.016 -0.008  0.830  0.010  0.000
       0.032 -0.002  0.010  0.958  0.002
       0.000  0.005  0.000  0.002  0.407
     SPIN  2
     eigenvalues:
       0.054  0.085  0.091  0.188  0.252
     eigenvectors (columns):
      -0.077  0.018 -0.013  0.997 -0.004
       0.004 -0.101  0.995  0.016 -0.003
      -0.003  0.995  0.101 -0.017  0.003
      -0.997 -0.005  0.005 -0.077 -0.001
      -0.001 -0.003  0.003  0.004  1.000
     occupation matrix ns (before diag.):
       0.188  0.002 -0.002 -0.010 -0.000
       0.002  0.091  0.001  0.000 -0.001
      -0.002  0.001  0.085  0.000  0.000
      -0.010  0.000  0.000  0.054 -0.000
      -0.000 -0.001  0.000 -0.000  0.252
     ------------------------ ATOM    5 ------------------------
     Tr[ns(  5)] (up, down, total) =   3.15774  0.84410  4.00184
     Atomic magnetic moment for atom   5 =   2.31365
     SPIN  1
     eigenvalues:
       0.421  0.426  0.599  0.743  0.969
     eigenvectors (columns):
       0.066  0.411 -0.008  0.016  0.909
       0.989 -0.147  0.001  0.003 -0.006
       0.002  0.016  0.999  0.039  0.001
       0.131  0.899 -0.014 -0.016 -0.416
       0.002 -0.008  0.039 -0.999  0.021
     occupation matrix ns (before diag.):
       0.875 -0.003 -0.001 -0.205  0.005
      -0.003  0.421  0.000  0.001 -0.001
      -0.001  0.000  0.599 -0.003 -0.006
      -0.205  0.001 -0.003  0.520  0.000
       0.005 -0.001 -0.006  0.000  0.742
     SPIN  2
     eigenvalues:
       0.077  0.100  0.106  0.272  0.290
     eigenvectors (columns):
      -0.908 -0.008  0.004  0.418 -0.027
       0.005  0.001  0.002  0.073  0.997
      -0.005  0.125 -0.992  0.001  0.002
       0.419  0.010 -0.000  0.905 -0.069
      -0.011  0.992  0.125 -0.006 -0.001
     occupation matrix ns (before diag.):
       0.111  0.000 -0.000  0.074 -0.001
       0.000  0.289  0.000 -0.002 -0.000
      -0.000  0.000  0.106  0.000 -0.001
       0.074 -0.002  0.000  0.238 -0.001
      -0.001 -0.000 -0.001 -0.001  0.100
     ------------------------ ATOM    6 ------------------------
     Tr[ns(  6)] (up, down, total) =   4.51893  3.58973  8.10867
     Atomic magnetic moment for atom   6 =   0.92920
     SPIN  1
     eigenvalues:
       0.770  0.792  0.981  0.986  0.991
     eigenvectors (columns):
      -0.026 -0.375 -0.060 -0.109  0.918
       0.999 -0.036 -0.010 -0.003  0.012
      -0.002 -0.019  0.035 -0.992 -0.123
      -0.028 -0.925  0.069  0.065 -0.366
       0.011  0.042  0.995  0.024  0.085
     occupation matrix ns (before diag.):
       0.962  0.003 -0.002 -0.069  0.004
       0.003  0.770  0.000 -0.000 -0.002
      -0.002  0.000  0.986 -0.003 -0.000
      -0.069 -0.000 -0.003  0.820  0.007
       0.004 -0.002 -0.000  0.007  0.981
     SPIN  2
     eigenvalues:
       0.279  0.325  0.994  0.996  0.996
     eigenvectors (columns):
       0.465  0.007  0.885 -0.008 -0.002
       0.035 -0.999 -0.010 -0.001 -0.002
      -0.002  0.002 -0.003 -0.284 -0.959
       0.884  0.035 -0.465 -0.009  0.002
       0.011  0.000  0.002  0.959 -0.284
     occupation matrix ns (before diag.):
       0.839 -0.007  0.001 -0.295 -0.004
      -0.007  0.325  0.001  0.002 -0.000
       0.001  0.001  0.996  0.001  0.000
      -0.295  0.002  0.001  0.434 -0.007
      -0.004 -0.000  0.000 -0.007  0.996
     ------------------------ ATOM    7 ------------------------
     Tr[ns(  7)] (up, down, total) =   4.11227  0.88422  4.99649
     Atomic magnetic moment for atom   7 =   3.22805
     SPIN  1
     eigenvalues:
       0.589  0.591  0.965  0.977  0.991
     eigenvectors (columns):
      -0.292  0.313  0.005 -0.008 -0.904
       0.736  0.676 -0.001  0.003 -0.004
      -0.002 -0.002  0.074  0.997 -0.008
      -0.610  0.667 -0.013  0.004  0.428
       0.005 -0.008 -0.997  0.074 -0.011
     occupation matrix ns (before diag.):
       0.918  0.002  0.000 -0.155  0.002
       0.002  0.590  0.001  0.000  0.000
       0.000  0.001  0.977 -0.000  0.001
      -0.155  0.000 -0.000  0.663  0.003
       0.002  0.000  0.001  0.003  0.965
     SPIN  2
     eigenvalues:
       0.090  0.102  0.104  0.279  0.308
     eigenvectors (columns):
       0.912  0.006  0.001 -0.409  0.021
       0.005 -0.000 -0.001  0.064  0.998
       0.002 -0.660  0.751 -0.002  0.000
      -0.409 -0.005 -0.005 -0.910  0.060
      -0.008  0.751  0.660 -0.005  0.001
     occupation matrix ns (before diag.):
       0.122 -0.000  0.000  0.070  0.000
      -0.000  0.308  0.000  0.002  0.000
       0.000  0.000  0.103  0.000  0.001
       0.070  0.002  0.000  0.248  0.001
       0.000  0.000  0.001  0.001  0.103
     ------------------------ ATOM    8 ------------------------
     Tr[ns(  8)] (up, down, total) =   4.51536  3.59398  8.10934
     Atomic magnetic moment for atom   8 =   0.92138
     SPIN  1
     eigenvalues:
       0.769  0.789  0.980  0.986  0.991
     eigenvectors (columns):
      -0.093  0.360  0.070 -0.035  0.925
      -0.977 -0.212 -0.011 -0.000 -0.014
      -0.002  0.002  0.060  0.998  0.032
      -0.191  0.907 -0.083  0.015 -0.366
      -0.020  0.048  0.992 -0.057 -0.098
     occupation matrix ns (before diag.):
       0.963 -0.005 -0.000 -0.070 -0.005
      -0.005  0.770 -0.000 -0.002 -0.002
      -0.000 -0.000  0.986 -0.000 -0.000
      -0.070 -0.002 -0.000  0.817 -0.009
      -0.005 -0.002 -0.000 -0.009  0.980
     SPIN  2
     eigenvalues:
       0.281  0.327  0.994  0.996  0.996
     eigenvectors (columns):
      -0.466 -0.024  0.884 -0.012  0.004
       0.072 -0.997  0.010 -0.002  0.001
       0.001 -0.000  0.002 -0.230 -0.973
      -0.882 -0.069 -0.467 -0.010  0.001
       0.014  0.003 -0.006 -0.973  0.230
     occupation matrix ns (before diag.):
       0.839  0.008  0.000 -0.294  0.005
       0.008  0.326 -0.000 -0.000  0.001
       0.000 -0.000  0.996  0.000 -0.000
      -0.294 -0.000  0.000  0.437  0.009
       0.005  0.001 -0.000  0.009  0.996
     ------------------------ ATOM    9 ------------------------
     Tr[ns(  9)] (up, down, total) =   4.16875  0.81366  4.98241
     Atomic magnetic moment for atom   9 =   3.35510
     SPIN  1
     eigenvalues:
       0.583  0.623  0.987  0.987  0.989
     eigenvectors (columns):
       0.089 -0.992 -0.035 -0.030 -0.076
      -0.008  0.067 -0.270  0.346 -0.896
       0.015  0.022 -0.960 -0.162  0.228
       0.022  0.056  0.069 -0.923 -0.373
       0.996  0.087  0.014  0.029  0.004
     occupation matrix ns (before diag.):
       0.625  0.025  0.007  0.020 -0.004
       0.025  0.987 -0.001 -0.001  0.001
       0.007 -0.001  0.987 -0.001 -0.007
       0.020 -0.001 -0.001  0.986 -0.011
      -0.004  0.001 -0.007 -0.011  0.584
     SPIN  2
     eigenvalues:
       0.068  0.100  0.108  0.248  0.290
     eigenvectors (columns):
      -0.059  0.022  0.062 -0.994 -0.063
      -0.020  0.551  0.832  0.065  0.007
       0.008 -0.834  0.551  0.015  0.019
      -0.998 -0.019 -0.016  0.057  0.018
       0.014  0.013 -0.012 -0.064  0.998
     occupation matrix ns (before diag.):
       0.247 -0.009 -0.002 -0.011 -0.002
      -0.009  0.106  0.004 -0.000  0.001
      -0.002  0.004  0.102  0.000  0.003
      -0.011 -0.000  0.000  0.068  0.003
      -0.002  0.001  0.003  0.003  0.290
     ------------------------ ATOM   10 ------------------------
     Tr[ns( 10)] (up, down, total) =   4.84350  3.30770  8.15120
     Atomic magnetic moment for atom  10 =   1.53580
     SPIN  1
     eigenvalues:
       0.912  0.958  0.990  0.992  0.992
     eigenvectors (columns):
       0.246  0.954  0.046 -0.051 -0.159
      -0.025 -0.054  0.782 -0.618  0.065
      -0.011 -0.001  0.622  0.778 -0.093
      -0.137 -0.132 -0.016 -0.106 -0.976
       0.959 -0.265  0.014 -0.010 -0.098
     occupation matrix ns (before diag.):
       0.956  0.002  0.000  0.007 -0.010
       0.002  0.990 -0.001 -0.001  0.001
       0.000 -0.001  0.991 -0.000  0.001
       0.007 -0.001 -0.000  0.990  0.009
      -0.010  0.001  0.001  0.009  0.916
     SPIN  2
     eigenvalues:
       0.133  0.196  0.991  0.993  0.995
     eigenvectors (columns):
       0.995  0.076 -0.047  0.037  0.007
      -0.034  0.015  0.050  0.986 -0.155
      -0.015  0.021 -0.014  0.155  0.987
      -0.046 -0.034 -0.997  0.046 -0.021
      -0.077  0.996 -0.031 -0.019 -0.020
     occupation matrix ns (before diag.):
       0.136  0.028  0.012  0.041  0.005
       0.028  0.992 -0.001 -0.001 -0.014
       0.012 -0.001  0.995 -0.000 -0.018
       0.041 -0.001 -0.000  0.988  0.024
       0.005 -0.014 -0.018  0.024  0.197
     ------------------------ ATOM   11 ------------------------
     Tr[ns( 11)] (up, down, total) =   4.14346  0.84229  4.98575
     Atomic magnetic moment for atom  11 =   3.30116
     SPIN  1
     eigenvalues:
       0.567  0.619  0.983  0.986  0.988
     eigenvectors (columns):
       0.040  0.997 -0.041 -0.008 -0.059
      -0.005  0.050  0.756 -0.523  0.389
      -0.019 -0.003 -0.653 -0.590  0.475
      -0.021 -0.052 -0.017 -0.614 -0.787
       0.999 -0.041 -0.008 -0.027 -0.003
     occupation matrix ns (before diag.):
       0.621 -0.018  0.001  0.019 -0.002
      -0.018  0.984  0.002  0.000  0.003
       0.001  0.002  0.985 -0.001  0.008
       0.019  0.000 -0.001  0.986  0.008
      -0.002  0.003  0.008  0.008  0.568
     SPIN  2
     eigenvalues:
       0.065  0.105  0.113  0.269  0.290
     eigenvectors (columns):
      -0.060  0.025  0.025 -0.967  0.244
       0.030 -0.892 -0.449 -0.035  0.007
       0.016 -0.449  0.893  0.005 -0.024
      -0.998 -0.036 -0.001  0.055 -0.026
      -0.011 -0.012  0.019  0.245  0.969
     occupation matrix ns (before diag.):
       0.270  0.006 -0.002 -0.012  0.005
       0.006  0.107 -0.003  0.001 -0.000
      -0.002 -0.003  0.111  0.001 -0.004
      -0.012  0.001  0.001  0.066 -0.003
       0.005 -0.000 -0.004 -0.003  0.288
     ------------------------ ATOM   12 ------------------------
     Tr[ns( 12)] (up, down, total) =   2.83474  1.18528  4.02002
     Atomic magnetic moment for atom  12 =   1.64946
     SPIN  1
     eigenvalues:
       0.425  0.463  0.486  0.512  0.949
     eigenvectors (columns):
       0.060 -0.848 -0.454 -0.266 -0.034
       0.067  0.365 -0.136 -0.918  0.026
      -0.018  0.383 -0.879  0.280 -0.039
       0.022  0.024  0.047 -0.024 -0.998
       0.996  0.033  0.020  0.083  0.021
     occupation matrix ns (before diag.):
       0.471  0.013  0.006  0.016 -0.004
       0.013  0.505 -0.010 -0.012 -0.006
       0.006 -0.010  0.486  0.018  0.001
       0.016 -0.012  0.018  0.948 -0.011
      -0.004 -0.006  0.001 -0.011  0.425
     SPIN  2
     eigenvalues:
       0.083  0.206  0.226  0.311  0.359
     eigenvectors (columns):
       0.023 -0.007 -0.057 -0.142 -0.988
      -0.034 -0.568  0.815 -0.107 -0.028
       0.018  0.817  0.574  0.045 -0.045
       0.999 -0.032  0.018 -0.012  0.024
      -0.011  0.101 -0.055 -0.983  0.144
     occupation matrix ns (before diag.):
       0.357  0.005  0.005 -0.006 -0.007
       0.005  0.220  0.009  0.004  0.010
       0.005  0.009  0.213 -0.002 -0.006
      -0.006  0.004 -0.002  0.084  0.003
      -0.007  0.010 -0.006  0.003  0.311
     ------------------------ ATOM   13 ------------------------
     Tr[ns( 13)] (up, down, total) =   4.76123  3.37290  8.13413
     Atomic magnetic moment for atom  13 =   1.38832
     SPIN  1
     eigenvalues:
       0.863  0.925  0.988  0.992  0.993
     eigenvectors (columns):
      -0.351 -0.215  0.002  0.430  0.804
       0.494 -0.868  0.045  0.004 -0.018
      -0.008  0.008 -0.020  0.881 -0.472
      -0.793 -0.440  0.102 -0.194 -0.360
       0.059  0.085  0.994  0.037  0.026
     occupation matrix ns (before diag.):
       0.974  0.010 -0.001 -0.042  0.004
       0.010  0.910  0.001  0.025  0.001
      -0.001  0.001  0.992 -0.000  0.000
      -0.042  0.025 -0.000  0.898  0.008
       0.004  0.001  0.000  0.008  0.987
     SPIN  2
     eigenvalues:
       0.177  0.218  0.991  0.992  0.994
     eigenvectors (columns):
      -0.289  0.393  0.870  0.067 -0.017
      -0.839 -0.542 -0.035  0.021  0.002
       0.027 -0.028 -0.026  0.384 -0.922
      -0.459  0.742 -0.487 -0.004 -0.024
       0.027 -0.002 -0.054  0.921  0.385
     occupation matrix ns (before diag.):
       0.804 -0.033  0.015 -0.333  0.007
      -0.033  0.190  0.007 -0.003  0.018
       0.015  0.007  0.993  0.026 -0.001
      -0.333 -0.003  0.026  0.394  0.011
       0.007  0.018 -0.001  0.011  0.992
     ------------------------ ATOM   14 ------------------------
     Tr[ns( 14)] (up, down, total) =   4.15744  0.83340  4.99084
     Atomic magnetic moment for atom  14 =   3.32404
     SPIN  1
     eigenvalues:
       0.583  0.611  0.985  0.988  0.991
     eigenvectors (columns):
       0.442  0.172  0.064  0.866  0.145
       0.360 -0.932 -0.028  0.007 -0.023
       0.029 -0.011 -0.112 -0.168  0.979
       0.819  0.318 -0.088 -0.457 -0.109
       0.057 -0.010  0.987 -0.116  0.091
     occupation matrix ns (before diag.):
       0.898 -0.004 -0.004 -0.167 -0.010
      -0.004  0.607 -0.008 -0.007 -0.012
      -0.004 -0.008  0.990 -0.008 -0.000
      -0.167 -0.007 -0.008  0.678 -0.017
      -0.010 -0.012 -0.000 -0.017  0.983
     SPIN  2
     eigenvalues:
       0.063  0.108  0.118  0.268  0.276
     eigenvectors (columns):
      -0.881  0.001  0.011 -0.445 -0.161
      -0.016 -0.018  0.014  0.367 -0.930
      -0.002 -0.107 -0.994 -0.014 -0.018
       0.473 -0.036  0.021 -0.816 -0.330
       0.017  0.993 -0.106 -0.024 -0.030
     occupation matrix ns (before diag.):
       0.109 -0.002  0.001  0.086  0.003
      -0.002  0.275  0.002  0.004  0.003
       0.001  0.002  0.118  0.003  0.001
       0.086  0.004  0.003  0.223  0.004
       0.003  0.003  0.001  0.004  0.108
     ------------------------ ATOM   15 ------------------------
     Tr[ns( 15)] (up, down, total) =   3.13402  0.87459  4.00861
     Atomic magnetic moment for atom  15 =   2.25943
     SPIN  1
     eigenvalues:
       0.409  0.439  0.524  0.827  0.936
     eigenvectors (columns):
      -0.288 -0.379 -0.018 -0.013  0.879
       0.837 -0.546  0.002 -0.012  0.039
       0.046  0.063 -0.957  0.280  0.027
      -0.463 -0.745 -0.080  0.016 -0.474
      -0.001  0.018 -0.280 -0.960 -0.012
     occupation matrix ns (before diag.):
       0.821  0.024  0.012 -0.211 -0.000
       0.024  0.418 -0.002  0.002  0.004
       0.012 -0.002  0.547  0.003 -0.082
      -0.211  0.002  0.003  0.544 -0.001
      -0.000  0.004 -0.082 -0.001  0.803
     SPIN  2
     eigenvalues:
       0.063  0.113  0.148  0.255  0.296
     eigenvectors (columns):
      -0.858  0.013 -0.002  0.197 -0.474
      -0.019  0.033 -0.022 -0.934 -0.354
      -0.011 -0.178  0.984 -0.029 -0.001
       0.513  0.002  0.014  0.295 -0.806
       0.009  0.983  0.179  0.023  0.020
     occupation matrix ns (before diag.):
       0.123  0.004 -0.001  0.100 -0.001
       0.004  0.259  0.003  0.014 -0.004
      -0.001  0.003  0.147 -0.000  0.006
       0.100  0.014 -0.000  0.231 -0.002
      -0.001 -0.004  0.006 -0.002  0.114
     ------------------------ ATOM   16 ------------------------
     Tr[ns( 16)] (up, down, total) =   4.16137  0.82770  4.98907
     Atomic magnetic moment for atom  16 =   3.33367
     SPIN  1
     eigenvalues:
       0.587  0.613  0.985  0.987  0.990
     eigenvectors (columns):
       0.365 -0.306 -0.236  0.810  0.248
      -0.645 -0.763 -0.019 -0.011  0.024
       0.040 -0.006  0.210 -0.249  0.945
       0.668 -0.569  0.169 -0.413 -0.178
      -0.051  0.011  0.933  0.335 -0.117
     occupation matrix ns (before diag.):
       0.899  0.007 -0.006 -0.163  0.009
       0.007  0.602  0.009  0.010 -0.010
      -0.006  0.009  0.989 -0.013  0.000
      -0.163  0.010 -0.013  0.687  0.016
       0.009 -0.010  0.000  0.016  0.984
     SPIN  2
     eigenvalues:
       0.064  0.107  0.114  0.263  0.281
     eigenvectors (columns):
       0.881 -0.004  0.025  0.448  0.151
      -0.013 -0.016 -0.017  0.343 -0.939
       0.011  0.227 -0.973  0.027  0.024
      -0.473  0.038  0.034  0.825  0.307
       0.019  0.973  0.226 -0.031 -0.032
     occupation matrix ns (before diag.):
       0.109 -0.000  0.002  0.083 -0.004
      -0.000  0.278 -0.002 -0.006  0.004
       0.002 -0.002  0.114  0.005 -0.002
       0.083 -0.006  0.005  0.219 -0.005
      -0.004  0.004 -0.002 -0.005  0.108
     ------------------------ ATOM   17 ------------------------
     Tr[ns( 17)] (up, down, total) =   2.71599  1.33000  4.04599
     Atomic magnetic moment for atom  17 =   1.38600
     SPIN  1
     eigenvalues:
       0.431  0.445  0.458  0.466  0.915
     eigenvectors (columns):
      -0.557 -0.645 -0.143  0.502  0.046
      -0.425 -0.314  0.106 -0.842 -0.023
      -0.063 -0.034  0.983  0.169 -0.030
       0.008  0.027  0.038 -0.037  0.998
       0.711 -0.696  0.038 -0.095  0.008
     occupation matrix ns (before diag.):
       0.447 -0.013 -0.001  0.021  0.005
      -0.013  0.458 -0.002 -0.010  0.006
      -0.001 -0.002  0.459 -0.013  0.001
       0.021 -0.010 -0.013  0.914  0.004
       0.005  0.006  0.001  0.004  0.438
     SPIN  2
     eigenvalues:
       0.117  0.248  0.264  0.338  0.363
     eigenvectors (columns):
      -0.056 -0.005  0.002  0.988 -0.145
      -0.009  0.967 -0.237 -0.008 -0.089
       0.051  0.242  0.968  0.009  0.048
      -0.997  0.005  0.050 -0.052  0.027
      -0.016 -0.075  0.069 -0.146 -0.984
     occupation matrix ns (before diag.):
       0.338  0.001  0.000 -0.012  0.003
       0.001  0.250 -0.004 -0.002  0.010
       0.000 -0.004  0.263  0.008 -0.004
      -0.012 -0.002  0.008  0.118 -0.004
       0.003  0.010 -0.004 -0.004  0.361
     ------------------------ ATOM   18 ------------------------
     Tr[ns( 18)] (up, down, total) =   4.91084  3.24828  8.15912
     Atomic magnetic moment for atom  18 =   1.66256
     SPIN  1
     eigenvalues:
       0.958  0.976  0.988  0.994  0.994
     eigenvectors (columns):
      -0.007  0.965 -0.100  0.219 -0.100
       0.014  0.111  0.993 -0.032  0.008
       0.187 -0.104  0.017  0.026 -0.976
       0.041 -0.209  0.054  0.974  0.057
       0.981  0.033 -0.021 -0.044  0.183
     occupation matrix ns (before diag.):
       0.977 -0.001  0.002  0.004 -0.000
      -0.001  0.988  0.000  0.000 -0.000
       0.002  0.000  0.993 -0.001 -0.007
       0.004  0.000 -0.001  0.993 -0.001
      -0.000 -0.000 -0.007 -0.001  0.960
     SPIN  2
     eigenvalues:
       0.101  0.177  0.988  0.990  0.993
     eigenvectors (columns):
      -0.997 -0.024 -0.017 -0.059  0.036
      -0.051  0.027 -0.432  0.888 -0.146
       0.035  0.019 -0.215  0.057  0.974
       0.036 -0.013 -0.876 -0.451 -0.168
      -0.023  0.999  0.004 -0.032 -0.016
     occupation matrix ns (before diag.):
       0.105 -0.045  0.031  0.032 -0.001
      -0.045  0.987  0.001  0.001 -0.023
       0.031  0.001  0.991 -0.002 -0.015
       0.032  0.001 -0.002  0.987  0.011
      -0.001 -0.023 -0.015  0.011  0.178
     ------------------------ ATOM   19 ------------------------
     Tr[ns( 19)] (up, down, total) =   4.90217  3.25205  8.15423
     Atomic magnetic moment for atom  19 =   1.65012
     SPIN  1
     eigenvalues:
       0.942  0.983  0.991  0.993  0.994
     eigenvectors (columns):
       0.009  0.908 -0.134  0.396  0.025
      -0.032  0.316  0.389 -0.629  0.593
      -0.019  0.008 -0.911 -0.341  0.231
      -0.001 -0.275 -0.022  0.575  0.770
       0.999  0.002 -0.004 -0.030  0.024
     occupation matrix ns (before diag.):
       0.985 -0.003 -0.000  0.003 -0.000
      -0.003  0.992  0.001  0.001  0.002
      -0.000  0.001  0.991  0.000  0.001
       0.003  0.001  0.000  0.993  0.000
      -0.000  0.002  0.001  0.000  0.942
     SPIN  2
     eigenvalues:
       0.094  0.182  0.989  0.992  0.994
     eigenvectors (columns):
      -0.996 -0.016 -0.075 -0.013  0.052
      -0.014 -0.015  0.259 -0.955 -0.140
       0.024 -0.022  0.344 -0.044  0.937
       0.088 -0.007 -0.899 -0.291  0.314
      -0.015  1.000  0.004 -0.017  0.021
     occupation matrix ns (before diag.):
       0.102 -0.013  0.021  0.078 -0.000
      -0.013  0.992 -0.000  0.002  0.012
       0.021 -0.000  0.993 -0.001  0.018
       0.078  0.002 -0.001  0.983  0.007
      -0.000  0.012  0.018  0.007  0.183
     ------------------------ ATOM   20 ------------------------
     Tr[ns( 20)] (up, down, total) =   4.27928  0.74223  5.02151
     Atomic magnetic moment for atom  20 =   3.53706
     SPIN  1
     eigenvalues:
       0.585  0.743  0.975  0.985  0.991
     eigenvectors (columns):
      -0.065  0.995  0.062 -0.001 -0.048
       0.006 -0.061  0.859  0.481 -0.167
      -0.089 -0.035  0.492 -0.863  0.054
       0.009 -0.040 -0.121 -0.130 -0.983
       0.994  0.063  0.044 -0.079  0.012
     occupation matrix ns (before diag.):
       0.744  0.014  0.006  0.010  0.011
       0.014  0.977 -0.005  0.001 -0.002
       0.006 -0.005  0.979  0.000  0.036
       0.010  0.001  0.000  0.990 -0.003
       0.011 -0.002  0.036 -0.003  0.589
     SPIN  2
     eigenvalues:
       0.071  0.104  0.114  0.179  0.275
     eigenvectors (columns):
      -0.017 -0.058 -0.065  0.996 -0.034
       0.120 -0.877 -0.458 -0.078  0.016
       0.011  0.464 -0.882 -0.033 -0.074
      -0.993 -0.101 -0.064 -0.027 -0.002
      -0.003  0.047 -0.061  0.033  0.997
     occupation matrix ns (before diag.):
       0.178 -0.006 -0.001 -0.003 -0.003
      -0.006  0.106  0.004  0.004  0.003
      -0.001  0.004  0.112  0.001 -0.012
      -0.003  0.004  0.001  0.072 -0.000
      -0.003  0.003 -0.012 -0.000  0.274
     ------------------------ ATOM   21 ------------------------
     Tr[ns( 21)] (up, down, total) =   2.47180  1.57693  4.04873
     Atomic magnetic moment for atom  21 =   0.89488
     SPIN  1
     eigenvalues:
       0.444  0.471  0.477  0.534  0.545
     eigenvectors (columns):
       0.794  0.118 -0.544  0.246  0.009
       0.128  0.916  0.372 -0.033  0.072
       0.160 -0.086 -0.045 -0.603  0.776
       0.568 -0.322  0.636 -0.261 -0.319
       0.075 -0.190  0.400  0.712  0.540
     occupation matrix ns (before diag.):
       0.460 -0.004 -0.012 -0.018  0.008
      -0.004  0.472  0.005 -0.002  0.002
      -0.012  0.005  0.538 -0.011  0.004
      -0.018 -0.002 -0.011  0.477 -0.024
       0.008  0.002  0.004 -0.024  0.525
     SPIN  2
     eigenvalues:
       0.244  0.251  0.306  0.371  0.405
     eigenvectors (columns):
       0.185 -0.637  0.718 -0.210  0.003
      -0.032 -0.095 -0.109 -0.127 -0.981
      -0.910  0.154  0.382  0.034 -0.032
       0.021  0.328  0.010 -0.940  0.089
      -0.368 -0.674 -0.572 -0.233  0.172
     occupation matrix ns (before diag.):
       0.285 -0.002  0.015  0.024 -0.016
      -0.002  0.401  0.002  0.001 -0.019
       0.015  0.002  0.254 -0.004 -0.016
       0.024  0.001 -0.004  0.358  0.028
      -0.016 -0.019 -0.016  0.028  0.279
     ------------------------ ATOM   22 ------------------------
     Tr[ns( 22)] (up, down, total) =   2.23482  1.84725  4.08207
     Atomic magnetic moment for atom  22 =   0.38757
     SPIN  1
     eigenvalues:
       0.429  0.433  0.448  0.454  0.471
     eigenvectors (columns):
      -0.567  0.727  0.094  0.357 -0.115
       0.061 -0.412  0.203  0.713 -0.527
       0.784  0.541 -0.143  0.101 -0.251
       0.098  0.094  0.923 -0.327 -0.149
       0.225  0.021  0.277  0.498  0.790
     occupation matrix ns (before diag.):
       0.435  0.008  0.003 -0.000  0.001
       0.008  0.455  0.006  0.001 -0.008
       0.003  0.006  0.433 -0.002 -0.008
      -0.000  0.001 -0.002  0.449 -0.004
       0.001 -0.008 -0.008 -0.004  0.463
     SPIN  2
     eigenvalues:
       0.281  0.354  0.379  0.410  0.423
     eigenvectors (columns):
      -0.099 -0.164  0.872  0.018 -0.451
       0.050  0.052 -0.444 -0.073 -0.890
      -0.548  0.829  0.078  0.077 -0.028
       0.113  0.158  0.089 -0.976  0.051
       0.821  0.508  0.172  0.192 -0.025
     occupation matrix ns (before diag.):
       0.387  0.018 -0.001  0.000  0.011
       0.018  0.414  0.003 -0.001 -0.004
      -0.001  0.003  0.333  0.000  0.034
       0.000 -0.001  0.000  0.406 -0.017
       0.011 -0.004  0.034 -0.017  0.308
     ------------------------ ATOM   23 ------------------------
     Tr[ns( 23)] (up, down, total) =   4.85023  3.30115  8.15138
     Atomic magnetic moment for atom  23 =   1.54909
     SPIN  1
     eigenvalues:
       0.920  0.955  0.989  0.992  0.993
     eigenvectors (columns):
       0.356  0.196  0.004 -0.901 -0.151
      -0.636  0.767  0.001 -0.082 -0.010
      -0.042 -0.033 -0.671  0.096 -0.733
       0.680  0.607  0.031  0.408 -0.041
      -0.068 -0.057  0.741  0.075 -0.662
     occupation matrix ns (before diag.):
       0.982  0.011  0.001 -0.022  0.002
       0.011  0.941 -0.001  0.014 -0.001
       0.001 -0.001  0.991  0.003  0.002
      -0.022  0.014  0.003  0.945  0.005
       0.002 -0.001  0.002  0.005  0.990
     SPIN  2
     eigenvalues:
       0.148  0.176  0.992  0.993  0.993
     eigenvectors (columns):
       0.377  0.223  0.859 -0.235 -0.124
       0.376 -0.923  0.070  0.005 -0.043
      -0.061  0.018 -0.021  0.340 -0.938
       0.838  0.312 -0.378  0.236  0.045
      -0.102 -0.026  0.339  0.880  0.317
     occupation matrix ns (before diag.):
       0.831  0.048  0.016 -0.323  0.037
       0.048  0.177  0.033 -0.031  0.012
       0.016  0.033  0.989  0.039 -0.005
      -0.323 -0.031  0.039  0.320  0.079
       0.037  0.012 -0.005  0.079  0.983

     Number of occupied Hubbard levels =  133.4077

 ------ SPIN UP ------------


          k = 0.0000 0.0000 0.0000 (149523 PWs)   bands (ev):

  -104.8570-104.8138-104.7922-104.7327-104.7321-104.7228-104.6520-104.6253
   -82.4436 -82.4172 -82.4094 -82.3803 -82.3091 -82.3055 -82.2982 -82.2454
   -74.1061 -74.0659 -73.9305 -73.9132 -73.8274 -73.7953 -73.6762 -65.3542
   -65.2794 -65.2527 -65.2415 -65.2374 -65.1890 -65.1792 -65.1575 -65.1377
   -65.1377 -65.1105 -65.1053 -65.1005 -65.0947 -65.0772 -65.0602 -65.0271
   -64.9943 -64.9790 -64.9495 -64.9433 -64.9333 -64.8653 -64.8147 -51.1790
   -51.1776 -51.1056 -51.0966 -51.0834 -51.0733 -51.0674 -51.0622 -51.0556
   -51.0524 -51.0447 -51.0303 -51.0148 -51.0017 -50.9935 -50.9839 -50.9792
   -50.9741 -50.9684 -50.9663 -50.9609 -50.9208 -50.9182 -50.8821 -45.5215
   -45.5099 -45.4156 -45.4041 -45.3631 -45.3541 -45.3444 -45.3129 -45.2628
   -45.2251 -45.2210 -45.1996 -45.1810 -45.1326 -45.1317 -45.1309 -45.0152
   -45.0084 -44.9920 -44.9509 -44.8569 -24.2807 -19.0602 -18.7999 -18.6945
   -18.5966 -18.5297 -18.3755 -18.3052 -18.1422 -18.0629 -18.0476 -17.8900
   -17.8703 -17.7634 -17.7504 -17.7313 -17.7037 -17.6665 -17.6332 -17.6296
   -17.5773 -17.5648 -17.5507 -17.5217 -17.5054 -17.4803 -17.4578 -17.4321
   -17.4223 -17.3954 -17.3510 -17.3416 -17.3275 -17.2925 -17.2795 -17.2505
   -17.2295 -17.2174 -17.2010 -17.1380 -17.0890 -17.0262 -16.9961 -16.9091
   -16.7870 -16.6655 -16.5854 -16.4741 -16.4227 -15.8860  -8.1383  -7.9690
    -7.8947  -7.6824  -7.6433  -7.4738  -7.4058  -7.3782  -7.2493  -7.1929
    -7.0860  -7.0333  -7.0134  -6.9426  -6.8872  -6.8527  -6.7729  -6.7682
    -6.7505  -6.7036  -6.6884  -6.6834  -6.6275  -6.6114  -6.5910  -6.5650
    -6.5184  -6.5079  -6.4840  -6.4482  -6.4116  -6.3720  -6.3165  -6.2802
    -6.2717  -6.2206  -6.1968  -6.1860  -6.1572  -6.0952  -6.0814  -6.0616
    -6.0409  -6.0006  -5.9960  -5.9754  -5.9682  -5.9400  -5.9291  -5.9024
    -5.8227  -5.8037  -5.7745  -5.7536  -5.7251  -5.7055  -5.6816  -5.6145
    -5.5926  -5.5729  -5.5501  -5.5403  -5.5006  -5.4623  -5.4366  -5.4123
    -5.3940  -5.3686  -5.3512  -5.3315  -5.3243  -5.3115  -5.2710  -5.2616
    -5.2066  -5.1714  -5.1575  -5.1483  -5.1227  -5.0542  -5.0157  -5.0090
    -4.9754  -4.9401  -4.9279  -4.8673  -4.8252  -4.8178  -4.7913  -4.7202
    -4.7061  -4.6750  -4.6328  -4.5841  -4.5732  -4.5339  -4.4862  -4.4748
    -4.4598  -4.4289  -4.3866  -4.3757  -4.3579  -4.3335  -4.3063  -4.2600
    -4.2218  -4.1881  -4.1748  -4.1269  -4.0859  -4.0777  -4.0390  -4.0258
    -3.9891  -3.9670  -3.9125  -3.8801  -3.8691  -3.7975  -3.7626  -3.7561
    -3.6911  -3.6849  -3.6533  -3.6235  -3.5856  -3.5471  -3.5341  -3.4778
    -3.4172  -3.4098  -3.3697  -3.3391  -3.3088  -3.2624  -3.2103  -3.2036
    -3.1851  -3.1528  -3.0875  -3.0472  -2.9817  -2.9473  -2.8716  -2.8355
    -2.8047  -2.7794  -2.7354  -2.7259  -2.6894  -2.6594  -2.6172  -2.5828
    -2.5485  -2.5317  -2.4911  -2.3911  -2.3398  -2.2598  -2.2241  -2.1841
    -2.1560  -2.0721  -2.0142  -1.9318  -1.9073  -1.8690  -1.7655  -1.7391
    -1.7069  -1.6793  -1.6007  -1.5782  -1.5367  -1.4964  -1.4620  -1.4455
    -1.4201  -1.4041  -1.3603  -1.3457  -1.3336  -1.3157  -1.2632  -1.2241
    -1.2012  -1.1977  -1.1889  -1.1429  -1.1098  -1.0740  -1.0691  -1.0376
    -1.0004  -0.9890  -0.9716  -0.9476  -0.8780  -0.8480  -0.8204  -0.8064
    -0.7190  -0.6907  -0.6495  -0.6232  -0.5953  -0.5880  -0.5401  -0.5099
    -0.4843  -0.4218  -0.3809  -0.3300  -0.2735  -0.2479  -0.2201  -0.2001
    -0.1865  -0.1731  -0.0810   0.0235   0.0956   0.1306   0.2116   0.2793
     0.3352   0.3721   0.4449   0.4724   0.5312   0.6431   0.6721   0.7188
     0.7738   0.8451   0.8687   0.8993   1.0227   1.0629   1.1038   1.1722
     1.2575   1.3018   1.3805   1.5378   1.6693   1.6852   1.8987   1.9574
     2.0225   2.0386   2.2288   2.2779   2.2981   2.3457   2.4277   2.8916
     3.1104   3.1356   3.2808   3.3187

          k = 0.0000-0.2340 0.0000 (149572 PWs)   bands (ev):

  -104.8570-104.8138-104.7922-104.7327-104.7321-104.7228-104.6520-104.6253
   -82.4436 -82.4172 -82.4094 -82.3803 -82.3091 -82.3055 -82.2982 -82.2454
   -74.1061 -74.0659 -73.9305 -73.9132 -73.8274 -73.7953 -73.6762 -65.3542
   -65.2794 -65.2527 -65.2415 -65.2374 -65.1890 -65.1792 -65.1575 -65.1377
   -65.1377 -65.1105 -65.1053 -65.1005 -65.0947 -65.0772 -65.0602 -65.0271
   -64.9943 -64.9790 -64.9495 -64.9433 -64.9333 -64.8653 -64.8147 -51.1790
   -51.1776 -51.1056 -51.0966 -51.0834 -51.0733 -51.0674 -51.0622 -51.0556
   -51.0524 -51.0447 -51.0303 -51.0148 -51.0017 -50.9935 -50.9839 -50.9792
   -50.9741 -50.9684 -50.9663 -50.9609 -50.9208 -50.9182 -50.8821 -45.5215
   -45.5099 -45.4156 -45.4041 -45.3631 -45.3541 -45.3444 -45.3129 -45.2628
   -45.2251 -45.2210 -45.1996 -45.1810 -45.1326 -45.1317 -45.1309 -45.0152
   -45.0084 -44.9920 -44.9509 -44.8569 -24.2807 -18.9837 -18.8999 -18.7366
   -18.6250 -18.4492 -18.3828 -18.3068 -18.1742 -17.9944 -17.9659 -17.8868
   -17.8487 -17.7799 -17.7572 -17.7326 -17.7187 -17.6996 -17.6533 -17.6418
   -17.6218 -17.5644 -17.5451 -17.5284 -17.5001 -17.4884 -17.4542 -17.4441
   -17.4213 -17.4043 -17.3576 -17.3433 -17.2963 -17.2875 -17.2671 -17.2411
   -17.2399 -17.2158 -17.1942 -17.1393 -17.0885 -17.0238 -16.9955 -16.9123
   -16.7862 -16.6655 -16.5853 -16.4741 -16.4226 -15.8860  -8.1383  -7.8176
    -7.7500  -7.6719  -7.5797  -7.5605  -7.5051  -7.4886  -7.3581  -7.1529
    -7.0904  -7.0325  -7.0218  -7.0048  -6.9367  -6.8811  -6.8488  -6.8293
    -6.7793  -6.7590  -6.7068  -6.6814  -6.6434  -6.6112  -6.5937  -6.5829
    -6.5245  -6.4963  -6.4486  -6.4290  -6.3996  -6.3469  -6.3392  -6.2787
    -6.2422  -6.2009  -6.1778  -6.1578  -6.1410  -6.1144  -6.0390  -6.0162
    -6.0100  -5.9955  -5.9764  -5.9639  -5.9388  -5.9027  -5.8630  -5.8593
    -5.8101  -5.7940  -5.7296  -5.7173  -5.7005  -5.6802  -5.6584  -5.6434
    -5.6202  -5.5770  -5.5469  -5.5437  -5.5156  -5.4798  -5.4572  -5.4246
    -5.4124  -5.3854  -5.3660  -5.3594  -5.3101  -5.2810  -5.2676  -5.2431
    -5.2321  -5.1890  -5.1577  -5.1341  -5.1131  -5.0466  -5.0265  -5.0169
    -4.9859  -4.9118  -4.8985  -4.8764  -4.8474  -4.8032  -4.7267  -4.6935
    -4.6913  -4.6660  -4.6449  -4.6044  -4.5821  -4.5446  -4.5172  -4.4927
    -4.4388  -4.4147  -4.4087  -4.3918  -4.3617  -4.3269  -4.3093  -4.2803
    -4.2597  -4.2231  -4.2040  -4.1560  -4.1285  -4.0916  -4.0400  -4.0219
    -3.9772  -3.9257  -3.9120  -3.8980  -3.8662  -3.8273  -3.8214  -3.7854
    -3.7560  -3.7167  -3.6927  -3.6334  -3.5905  -3.5758  -3.5245  -3.4606
    -3.4040  -3.3501  -3.3142  -3.2909  -3.2883  -3.2489  -3.2110  -3.1781
    -3.1244  -3.0813  -3.0615  -3.0238  -2.9890  -2.9625  -2.8886  -2.8484
    -2.8243  -2.7956  -2.7644  -2.7114  -2.6839  -2.6563  -2.6185  -2.5839
    -2.5414  -2.4490  -2.4214  -2.3466  -2.3104  -2.2796  -2.2226  -2.1985
    -2.1835  -2.1046  -1.9920  -1.9442  -1.8470  -1.8216  -1.8036  -1.7809
    -1.7377  -1.7237  -1.6819  -1.6455  -1.6140  -1.5658  -1.4733  -1.4640
    -1.4255  -1.3865  -1.3727  -1.3491  -1.3039  -1.2671  -1.2508  -1.2232
    -1.2116  -1.1927  -1.1473  -1.1262  -1.0715  -1.0685  -1.0528  -1.0041
    -0.9937  -0.9706  -0.9261  -0.8897  -0.8598  -0.8524  -0.8372  -0.7690
    -0.7482  -0.6847  -0.6587  -0.6344  -0.6116  -0.5614  -0.5165  -0.4826
    -0.4540  -0.4472  -0.4025  -0.3164  -0.2879  -0.2526  -0.2413  -0.1987
    -0.1756  -0.1442  -0.0881  -0.0363  -0.0097   0.0897   0.1021   0.2037
     0.2593   0.3278   0.3998   0.4476   0.4955   0.6387   0.6692   0.7546
     0.8293   0.8554   0.8727   0.9745   1.0382   1.0691   1.1815   1.2467
     1.3252   1.3697   1.3866   1.4657   1.6762   1.7145   1.9148   1.9509
     1.9851   2.0536   2.2153   2.2695   2.3043   2.3282   2.4430   2.9323
     3.1100   3.1420   3.2705   3.2955

          k = 0.2500-0.0000 0.0000 (149546 PWs)   bands (ev):

  -104.8570-104.8138-104.7922-104.7326-104.7320-104.7228-104.6520-104.6253
   -82.4435 -82.4164 -82.4100 -82.3803 -82.3090 -82.3046 -82.2989 -82.2454
   -74.1061 -74.0659 -73.9305 -73.9132 -73.8274 -73.7952 -73.6761 -65.3542
   -65.2794 -65.2527 -65.2415 -65.2374 -65.1890 -65.1768 -65.1599 -65.1377
   -65.1377 -65.1104 -65.1053 -65.1005 -65.0947 -65.0773 -65.0602 -65.0271
   -64.9943 -64.9790 -64.9495 -64.9432 -64.9333 -64.8653 -64.8147 -51.1683
   -51.1676 -51.1081 -51.1055 -51.0926 -51.0659 -51.0622 -51.0612 -51.0571
   -51.0532 -51.0447 -51.0305 -51.0148 -51.0037 -51.0015 -50.9839 -50.9774
   -50.9739 -50.9685 -50.9681 -50.9635 -50.9208 -50.9182 -50.8821 -45.5215
   -45.5099 -45.4156 -45.4041 -45.3631 -45.3541 -45.3444 -45.3129 -45.2628
   -45.2251 -45.2210 -45.1997 -45.1812 -45.1326 -45.1317 -45.1310 -45.0155
   -45.0084 -44.9922 -44.9511 -44.8569 -24.2805 -18.9302 -18.6885 -18.5848
   -18.4962 -18.4283 -18.3037 -18.2355 -18.1277 -18.0753 -18.0167 -17.9975
   -17.9460 -17.8993 -17.8843 -17.7961 -17.7655 -17.7252 -17.6888 -17.6465
   -17.6315 -17.6050 -17.5530 -17.5348 -17.4820 -17.4559 -17.4475 -17.4276
   -17.4080 -17.4058 -17.3670 -17.3600 -17.3341 -17.2876 -17.2680 -17.2564
   -17.2270 -17.2218 -17.1810 -17.1494 -17.0974 -17.0367 -17.0091 -16.9178
   -16.7954 -16.6791 -16.6115 -16.4739 -16.4346 -15.8877  -8.1353  -7.7819
    -7.7153  -7.5309  -7.4829  -7.3336  -7.2079  -7.1811  -7.0909  -6.9944
    -6.9452  -6.9285  -6.9046  -6.8693  -6.8327  -6.8122  -6.7975  -6.7607
    -6.7371  -6.7032  -6.6787  -6.6340  -6.6209  -6.5983  -6.5817  -6.5403
    -6.5310  -6.5068  -6.4730  -6.4417  -6.4164  -6.3930  -6.3646  -6.2867
    -6.2581  -6.2161  -6.1773  -6.1635  -6.1546  -6.1344  -6.0962  -6.0868
    -6.0502  -6.0263  -6.0156  -5.9945  -5.9927  -5.9680  -5.9587  -5.9310
    -5.9027  -5.8771  -5.8352  -5.7902  -5.7614  -5.7096  -5.6742  -5.6408
    -5.6281  -5.5841  -5.5703  -5.5489  -5.5235  -5.4942  -5.4773  -5.4643
    -5.4523  -5.4269  -5.3998  -5.3827  -5.3617  -5.3442  -5.3127  -5.2902
    -5.2720  -5.2433  -5.2158  -5.1965  -5.1612  -5.1414  -5.1206  -5.0746
    -5.0580  -5.0456  -5.0189  -4.9920  -4.9641  -4.9248  -4.8946  -4.8520
    -4.8279  -4.8127  -4.7295  -4.6942  -4.6742  -4.6490  -4.6019  -4.5774
    -4.5691  -4.5198  -4.4697  -4.4346  -4.4006  -4.3548  -4.3398  -4.2870
    -4.2386  -4.2274  -4.2149  -4.1678  -4.1042  -4.0871  -4.0586  -4.0328
    -3.9862  -3.9465  -3.9277  -3.8873  -3.8594  -3.8452  -3.8178  -3.7434
    -3.7202  -3.6996  -3.6464  -3.5766  -3.5600  -3.5200  -3.4882  -3.4428
    -3.4111  -3.3951  -3.3173  -3.2992  -3.2393  -3.2028  -3.1463  -3.1041
    -3.0422  -3.0172  -2.9863  -2.9247  -2.9070  -2.8548  -2.8341  -2.7861
    -2.7448  -2.6831  -2.6400  -2.6121  -2.6016  -2.5511  -2.5309  -2.5135
    -2.4398  -2.4122  -2.3365  -2.2827  -2.2171  -2.1997  -2.1704  -2.1342
    -2.0740  -2.0558  -2.0132  -1.9541  -1.9111  -1.8593  -1.8361  -1.7589
    -1.7114  -1.6708  -1.6014  -1.5858  -1.5388  -1.5024  -1.4622  -1.4419
    -1.3862  -1.3788  -1.3374  -1.3204  -1.2989  -1.2556  -1.2289  -1.2074
    -1.1715  -1.1397  -1.1197  -1.0796  -1.0755  -1.0389  -1.0014  -0.9952
    -0.9847  -0.9412  -0.9105  -0.8989  -0.8695  -0.8397  -0.8275  -0.8141
    -0.7818  -0.7237  -0.6989  -0.6772  -0.6085  -0.5871  -0.5406  -0.5182
    -0.5077  -0.4424  -0.4303  -0.3882  -0.3694  -0.3477  -0.2949  -0.2670
    -0.2304  -0.1301  -0.0967  -0.0115   0.0622   0.0835   0.1597   0.1979
     0.3089   0.3712   0.4558   0.4946   0.5628   0.6048   0.6311   0.6809
     0.7701   0.8435   0.8732   0.9519   1.0178   1.0391   1.0877   1.1288
     1.1708   1.2966   1.3338   1.5364   1.5907   1.6306   1.6938   1.8171
     1.8285   1.8839   2.0299   2.1235   2.1515   2.3117   2.4125   2.8857
     3.0939   3.1298   3.2215   3.2884

          k = 0.2500-0.2340 0.0000 (149458 PWs)   bands (ev):

  -104.8570-104.8138-104.7922-104.7326-104.7320-104.7228-104.6520-104.6253
   -82.4435 -82.4164 -82.4100 -82.3803 -82.3090 -82.3046 -82.2989 -82.2454
   -74.1061 -74.0659 -73.9305 -73.9132 -73.8274 -73.7952 -73.6761 -65.3542
   -65.2794 -65.2527 -65.2415 -65.2374 -65.1890 -65.1768 -65.1599 -65.1377
   -65.1377 -65.1104 -65.1053 -65.1005 -65.0947 -65.0773 -65.0602 -65.0271
   -64.9943 -64.9790 -64.9495 -64.9432 -64.9333 -64.8653 -64.8147 -51.1683
   -51.1676 -51.1081 -51.1055 -51.0926 -51.0659 -51.0622 -51.0612 -51.0571
   -51.0532 -51.0446 -51.0305 -51.0148 -51.0037 -51.0015 -50.9839 -50.9774
   -50.9739 -50.9685 -50.9681 -50.9635 -50.9208 -50.9182 -50.8821 -45.5215
   -45.5099 -45.4156 -45.4041 -45.3631 -45.3541 -45.3444 -45.3129 -45.2628
   -45.2251 -45.2210 -45.1997 -45.1812 -45.1326 -45.1317 -45.1310 -45.0155
   -45.0084 -44.9922 -44.9511 -44.8569 -24.2805 -18.8581 -18.7776 -18.6295
   -18.5244 -18.3561 -18.2954 -18.2438 -18.1330 -18.0783 -17.9998 -17.9744
   -17.9315 -17.9035 -17.8455 -17.8027 -17.7352 -17.7221 -17.6803 -17.6794
   -17.6463 -17.6281 -17.5443 -17.5228 -17.5040 -17.4838 -17.4627 -17.4429
   -17.4333 -17.4060 -17.3629 -17.3491 -17.3042 -17.2840 -17.2714 -17.2480
   -17.2357 -17.2166 -17.1775 -17.1510 -17.0952 -17.0330 -17.0091 -16.9194
   -16.7949 -16.6791 -16.6114 -16.4739 -16.4345 -15.8877  -8.1353  -7.6249
    -7.5808  -7.5064  -7.4076  -7.3857  -7.3666  -7.3171  -7.1915  -7.0222
    -6.9862  -6.9378  -6.9053  -6.8783  -6.8520  -6.8083  -6.7840  -6.7565
    -6.7430  -6.7274  -6.7086  -6.6491  -6.6259  -6.5891  -6.5688  -6.5500
    -6.5200  -6.4795  -6.4374  -6.4163  -6.3997  -6.3600  -6.3393  -6.3194
    -6.2883  -6.2567  -6.1899  -6.1727  -6.1563  -6.1350  -6.1316  -6.1040
    -6.0654  -6.0422  -6.0252  -5.9947  -5.9842  -5.9657  -5.9514  -5.9174
    -5.8971  -5.8561  -5.8298  -5.7726  -5.7235  -5.6917  -5.6618  -5.6457
    -5.5965  -5.5867  -5.5723  -5.5471  -5.5210  -5.5058  -5.4892  -5.4592
    -5.4417  -5.4298  -5.4079  -5.3698  -5.3494  -5.3046  -5.2927  -5.2673
    -5.2462  -5.2218  -5.1886  -5.1801  -5.1492  -5.1168  -5.0960  -5.0848
    -5.0652  -5.0264  -4.9858  -4.9614  -4.9393  -4.9060  -4.8879  -4.8710
    -4.8264  -4.7853  -4.7507  -4.7081  -4.6655  -4.6528  -4.6308  -4.6094
    -4.5902  -4.5474  -4.5234  -4.4895  -4.4794  -4.4172  -4.3657  -4.3038
    -4.2572  -4.2293  -4.2092  -4.1678  -4.1570  -4.1089  -4.0829  -4.0595
    -4.0349  -3.9839  -3.9414  -3.8960  -3.8748  -3.8573  -3.7468  -3.7047
    -3.6735  -3.6241  -3.5963  -3.5388  -3.5148  -3.4679  -3.4199  -3.3737
    -3.3292  -3.3190  -3.2886  -3.2451  -3.2210  -3.1695  -3.1415  -3.1193
    -3.0864  -3.0155  -2.9790  -2.9516  -2.9125  -2.8699  -2.8227  -2.8117
    -2.7291  -2.7082  -2.6767  -2.6286  -2.6025  -2.5581  -2.5092  -2.4798
    -2.4621  -2.4072  -2.3853  -2.3486  -2.2745  -2.2578  -2.1686  -2.1210
    -2.0843  -2.0780  -2.0189  -1.9619  -1.9161  -1.8680  -1.8388  -1.7730
    -1.7314  -1.6929  -1.6671  -1.6244  -1.5748  -1.5146  -1.4798  -1.4532
    -1.4116  -1.3778  -1.3573  -1.3029  -1.2884  -1.2605  -1.2026  -1.1871
    -1.1526  -1.1358  -1.1022  -1.0848  -1.0754  -1.0395  -1.0062  -0.9936
    -0.9804  -0.9542  -0.9092  -0.8855  -0.8712  -0.8321  -0.8022  -0.7658
    -0.7452  -0.7136  -0.6592  -0.6382  -0.6094  -0.5671  -0.5439  -0.5268
    -0.4889  -0.4704  -0.4286  -0.3915  -0.3695  -0.3348  -0.2911  -0.2362
    -0.2027  -0.1257  -0.0919  -0.0503   0.0050   0.0825   0.1609   0.2040
     0.2519   0.2976   0.3881   0.4642   0.5463   0.6208   0.6283   0.7056
     0.7691   0.8173   0.8968   0.9657   1.0014   1.0533   1.1033   1.1434
     1.2862   1.3358   1.3689   1.4974   1.6043   1.6192   1.6889   1.7989
     1.8756   1.8955   2.0103   2.1124   2.1398   2.3099   2.4162   2.9394
     3.0930   3.1517   3.1935   3.2588

          k =-0.5000 0.0000 0.0000 (149560 PWs)   bands (ev):

  -104.8570-104.8138-104.7922-104.7326-104.7319-104.7228-104.6520-104.6253
   -82.4433 -82.4155 -82.4108 -82.3803 -82.3090 -82.3035 -82.2998 -82.2454
   -74.1061 -74.0659 -73.9305 -73.9131 -73.8274 -73.7951 -73.6761 -65.3542
   -65.2794 -65.2527 -65.2415 -65.2374 -65.1890 -65.1732 -65.1635 -65.1377
   -65.1376 -65.1104 -65.1053 -65.1006 -65.0947 -65.0773 -65.0602 -65.0271
   -64.9943 -64.9790 -64.9495 -64.9431 -64.9334 -64.8653 -64.8147 -51.1545
   -51.1483 -51.1279 -51.1094 -51.1020 -51.0632 -51.0621 -51.0597 -51.0539
   -51.0446 -51.0349 -51.0307 -51.0290 -51.0145 -51.0014 -50.9840 -50.9741
   -50.9733 -50.9716 -50.9686 -50.9657 -50.9208 -50.9182 -50.8821 -45.5215
   -45.5100 -45.4156 -45.4041 -45.3631 -45.3541 -45.3444 -45.3129 -45.2628
   -45.2251 -45.2210 -45.1998 -45.1813 -45.1326 -45.1317 -45.1311 -45.0159
   -45.0084 -44.9925 -44.9512 -44.8569 -24.2804 -18.6098 -18.5777 -18.4444
   -18.3874 -18.3116 -18.2655 -18.2159 -18.2099 -18.1885 -18.0953 -18.0635
   -18.0144 -17.9599 -17.8986 -17.8551 -17.8289 -17.7796 -17.7450 -17.7305
   -17.6849 -17.6612 -17.5584 -17.5344 -17.4645 -17.4555 -17.4325 -17.4242
   -17.4149 -17.3871 -17.3736 -17.3612 -17.3192 -17.3151 -17.2904 -17.2567
   -17.2292 -17.2190 -17.1741 -17.1462 -17.1043 -17.0566 -17.0191 -16.9285
   -16.8045 -16.6830 -16.6462 -16.4607 -16.4588 -15.8894  -8.1323  -7.4071
    -7.3821  -7.2684  -7.2324  -7.2008  -7.0940  -7.0582  -6.9984  -6.9609
    -6.9154  -6.8891  -6.8715  -6.8337  -6.7600  -6.7350  -6.7231  -6.7055
    -6.6752  -6.6529  -6.6369  -6.6299  -6.6119  -6.5814  -6.5389  -6.5253
    -6.5044  -6.4632  -6.4252  -6.4185  -6.3668  -6.3576  -6.3476  -6.3327
    -6.3104  -6.2779  -6.2475  -6.2246  -6.1909  -6.1737  -6.1492  -6.1224
    -6.0730  -6.0588  -6.0219  -6.0136  -5.9966  -5.9936  -5.9716  -5.9547
    -5.9315  -5.8896  -5.8890  -5.8429  -5.8113  -5.7660  -5.7550  -5.7335
    -5.7148  -5.6806  -5.6507  -5.6308  -5.6041  -5.5737  -5.5563  -5.5394
    -5.5041  -5.4890  -5.4709  -5.4635  -5.4059  -5.3759  -5.3532  -5.3188
    -5.2793  -5.2469  -5.2245  -5.2197  -5.2136  -5.1851  -5.1576  -5.1248
    -5.1086  -5.0933  -5.0793  -5.0512  -5.0283  -4.9744  -4.9517  -4.8761
    -4.8340  -4.8010  -4.7846  -4.7483  -4.7181  -4.7028  -4.6568  -4.6366
    -4.6012  -4.5791  -4.5407  -4.4932  -4.4514  -4.3992  -4.3739  -4.3303
    -4.3134  -4.2833  -4.2613  -4.2439  -4.1802  -4.1216  -4.1190  -4.0874
    -4.0609  -4.0447  -4.0047  -3.9580  -3.8999  -3.8551  -3.8347  -3.8267
    -3.7647  -3.7379  -3.6763  -3.6543  -3.6048  -3.5687  -3.5394  -3.4937
    -3.4350  -3.3874  -3.3704  -3.3282  -3.2740  -3.1834  -3.1696  -3.1368
    -3.0633  -2.9470  -2.8928  -2.8142  -2.7619  -2.7062  -2.6073  -2.5800
    -2.5517  -2.5256  -2.4921  -2.4215  -2.4131  -2.3854  -2.3606  -2.3380
    -2.3021  -2.2686  -2.2221  -2.1914  -2.1257  -2.1031  -2.0415  -2.0109
    -1.9950  -1.9113  -1.8863  -1.8509  -1.8234  -1.7645  -1.7490  -1.6774
    -1.6474  -1.6325  -1.6097  -1.5672  -1.5562  -1.5487  -1.5106  -1.5082
    -1.4708  -1.3901  -1.3647  -1.3554  -1.3357  -1.3092  -1.2474  -1.2117
    -1.1928  -1.1305  -1.1078  -1.0894  -1.0811  -1.0643  -1.0368  -1.0214
    -0.9970  -0.9649  -0.9557  -0.9117  -0.8847  -0.8664  -0.8383  -0.7877
    -0.7496  -0.7182  -0.6783  -0.6417  -0.6173  -0.5887  -0.5629  -0.5232
    -0.5148  -0.4792  -0.4516  -0.3787  -0.3713  -0.3603  -0.2984  -0.2138
    -0.1925  -0.1777  -0.1535  -0.1218  -0.0916   0.0721   0.1004   0.1977
     0.2377   0.3417   0.3693   0.5561   0.5811   0.6004   0.6133   0.6736
     0.7021   0.7780   0.8006   0.8874   1.0039   1.0345   1.1290   1.1614
     1.2136   1.2511   1.3431   1.4088   1.4134   1.4843   1.5065   1.5754
     1.6624   1.7832   1.9449   2.0155   2.1251   2.2334   2.3806   2.8586
     3.0750   3.1343   3.1796   3.2453

          k =-0.5000-0.2340 0.0000 (149416 PWs)   bands (ev):

  -104.8570-104.8138-104.7922-104.7326-104.7319-104.7228-104.6520-104.6253
   -82.4433 -82.4155 -82.4108 -82.3803 -82.3090 -82.3035 -82.2998 -82.2454
   -74.1061 -74.0659 -73.9305 -73.9131 -73.8274 -73.7951 -73.6761 -65.3542
   -65.2794 -65.2527 -65.2415 -65.2374 -65.1890 -65.1732 -65.1635 -65.1377
   -65.1376 -65.1104 -65.1053 -65.1006 -65.0947 -65.0773 -65.0602 -65.0271
   -64.9943 -64.9790 -64.9495 -64.9431 -64.9334 -64.8653 -64.8147 -51.1545
   -51.1483 -51.1279 -51.1094 -51.1020 -51.0632 -51.0621 -51.0597 -51.0539
   -51.0446 -51.0349 -51.0307 -51.0290 -51.0145 -51.0014 -50.9840 -50.9740
   -50.9733 -50.9716 -50.9686 -50.9657 -50.9208 -50.9182 -50.8821 -45.5215
   -45.5100 -45.4156 -45.4041 -45.3631 -45.3541 -45.3444 -45.3129 -45.2628
   -45.2251 -45.2210 -45.1998 -45.1813 -45.1326 -45.1317 -45.1311 -45.0159
   -45.0084 -44.9925 -44.9512 -44.8569 -24.2804 -18.5607 -18.5215 -18.5061
   -18.4154 -18.3598 -18.3420 -18.2397 -18.1915 -18.1270 -18.1034 -18.0430
   -18.0078 -17.9563 -17.9226 -17.8469 -17.8041 -17.7670 -17.7010 -17.6656
   -17.6377 -17.6126 -17.5728 -17.5627 -17.5504 -17.5143 -17.4852 -17.4329
   -17.3964 -17.3952 -17.3808 -17.3340 -17.3175 -17.3084 -17.2967 -17.2530
   -17.2308 -17.2150 -17.1695 -17.1454 -17.1024 -17.0482 -17.0227 -16.9279
   -16.8042 -16.6830 -16.6460 -16.4606 -16.4586 -15.8894  -8.1323  -7.3451
    -7.2513  -7.1697  -7.1582  -7.1422  -7.0733  -7.0604  -7.0113  -6.9787
    -6.9358  -6.9184  -6.9004  -6.8414  -6.8340  -6.8135  -6.7770  -6.7437
    -6.7200  -6.6684  -6.6625  -6.6248  -6.6094  -6.5875  -6.5803  -6.5329
    -6.5299  -6.5025  -6.4962  -6.4453  -6.4257  -6.4056  -6.3655  -6.3379
    -6.3133  -6.2999  -6.2912  -6.2457  -6.2235  -6.1621  -6.1517  -6.1220
    -6.1025  -6.0708  -6.0496  -6.0229  -5.9934  -5.9889  -5.9543  -5.9449
    -5.9155  -5.8871  -5.8485  -5.8334  -5.7855  -5.7475  -5.7225  -5.6933
    -5.6733  -5.6518  -5.6281  -5.6180  -5.6064  -5.5654  -5.5250  -5.5159
    -5.4644  -5.4435  -5.4381  -5.4171  -5.3636  -5.3397  -5.3296  -5.2953
    -5.2821  -5.2614  -5.2548  -5.2278  -5.1781  -5.1652  -5.1439  -5.1173
    -5.0922  -5.0765  -5.0234  -4.9906  -4.9847  -4.9457  -4.9240  -4.8642
    -4.8503  -4.8287  -4.8226  -4.8015  -4.7708  -4.7335  -4.7222  -4.6546
    -4.6363  -4.6029  -4.5768  -4.5431  -4.5024  -4.4590  -4.4230  -4.3737
    -4.3597  -4.2900  -4.2829  -4.2387  -4.2258  -4.1598  -4.1433  -4.1023
    -4.0568  -4.0267  -3.9828  -3.9614  -3.8947  -3.8666  -3.8593  -3.8340
    -3.7516  -3.6985  -3.6696  -3.5903  -3.5470  -3.5078  -3.4579  -3.3792
    -3.3441  -3.2822  -3.2341  -3.1844  -3.1351  -3.1010  -3.0786  -3.0572
    -3.0203  -2.9510  -2.8970  -2.8342  -2.7957  -2.7860  -2.7353  -2.7154
    -2.6120  -2.5787  -2.5657  -2.5435  -2.4771  -2.4392  -2.4063  -2.3884
    -2.3071  -2.2646  -2.2129  -2.1679  -2.1301  -2.1049  -2.0897  -1.9807
    -1.9508  -1.9336  -1.9245  -1.9132  -1.8684  -1.8152  -1.7593  -1.7034
    -1.6998  -1.6609  -1.6388  -1.5765  -1.5573  -1.5081  -1.4834  -1.4741
    -1.4492  -1.4214  -1.4023  -1.3774  -1.3193  -1.2951  -1.2828  -1.2301
    -1.1981  -1.1398  -1.1105  -1.0838  -1.0821  -1.0771  -1.0441  -1.0035
    -0.9973  -0.9585  -0.9392  -0.9009  -0.8675  -0.8484  -0.8151  -0.7714
    -0.7532  -0.7177  -0.6875  -0.6607  -0.6323  -0.5733  -0.5366  -0.5153
    -0.4896  -0.4608  -0.4043  -0.3964  -0.3791  -0.3386  -0.2511  -0.2239
    -0.1911  -0.1629  -0.1446  -0.0780  -0.0540   0.0953   0.1619   0.2085
     0.2156   0.3055   0.3848   0.4890   0.5678   0.5922   0.6117   0.6550
     0.7270   0.7694   0.7924   0.9185   0.9658   1.0126   1.1057   1.1668
     1.2305   1.2976   1.3334   1.4002   1.4103   1.5181   1.5512   1.5650
     1.6576   1.8117   1.9093   1.9956   2.1223   2.2470   2.3806   2.9434
     3.0519   3.1186   3.1789   3.2107

          k =-0.2500 0.0000 0.0000 (149546 PWs)   bands (ev):

  -104.8570-104.8138-104.7922-104.7326-104.7320-104.7228-104.6520-104.6253
   -82.4435 -82.4164 -82.4100 -82.3803 -82.3090 -82.3046 -82.2989 -82.2454
   -74.1061 -74.0659 -73.9305 -73.9132 -73.8274 -73.7952 -73.6761 -65.3542
   -65.2794 -65.2527 -65.2415 -65.2374 -65.1890 -65.1768 -65.1599 -65.1377
   -65.1377 -65.1104 -65.1053 -65.1005 -65.0947 -65.0773 -65.0602 -65.0271
   -64.9943 -64.9790 -64.9495 -64.9432 -64.9333 -64.8653 -64.8147 -51.1683
   -51.1676 -51.1081 -51.1055 -51.0926 -51.0659 -51.0622 -51.0612 -51.0571
   -51.0532 -51.0447 -51.0305 -51.0148 -51.0037 -51.0015 -50.9839 -50.9774
   -50.9739 -50.9685 -50.9681 -50.9635 -50.9208 -50.9182 -50.8821 -45.5215
   -45.5099 -45.4156 -45.4041 -45.3631 -45.3541 -45.3444 -45.3129 -45.2628
   -45.2251 -45.2210 -45.1997 -45.1812 -45.1326 -45.1317 -45.1310 -45.0155
   -45.0084 -44.9922 -44.9511 -44.8569 -24.2805 -18.9302 -18.6885 -18.5848
   -18.4962 -18.4283 -18.3037 -18.2355 -18.1277 -18.0753 -18.0167 -17.9975
   -17.9460 -17.8993 -17.8843 -17.7961 -17.7655 -17.7252 -17.6888 -17.6465
   -17.6315 -17.6050 -17.5530 -17.5348 -17.4820 -17.4559 -17.4475 -17.4276
   -17.4080 -17.4058 -17.3670 -17.3600 -17.3341 -17.2876 -17.2680 -17.2564
   -17.2270 -17.2218 -17.1810 -17.1494 -17.0974 -17.0367 -17.0091 -16.9178
   -16.7954 -16.6791 -16.6115 -16.4739 -16.4346 -15.8877  -8.1353  -7.7819
    -7.7153  -7.5309  -7.4829  -7.3336  -7.2079  -7.1811  -7.0909  -6.9944
    -6.9452  -6.9285  -6.9046  -6.8693  -6.8327  -6.8122  -6.7975  -6.7607
    -6.7371  -6.7032  -6.6787  -6.6340  -6.6209  -6.5983  -6.5817  -6.5403
    -6.5310  -6.5068  -6.4730  -6.4417  -6.4164  -6.3930  -6.3646  -6.2867
    -6.2581  -6.2161  -6.1773  -6.1635  -6.1546  -6.1344  -6.0962  -6.0868
    -6.0502  -6.0263  -6.0156  -5.9945  -5.9927  -5.9680  -5.9587  -5.9310
    -5.9027  -5.8771  -5.8352  -5.7902  -5.7614  -5.7096  -5.6742  -5.6408
    -5.6281  -5.5841  -5.5703  -5.5489  -5.5235  -5.4942  -5.4773  -5.4643
    -5.4523  -5.4269  -5.3998  -5.3827  -5.3617  -5.3442  -5.3127  -5.2902
    -5.2720  -5.2433  -5.2158  -5.1965  -5.1612  -5.1414  -5.1206  -5.0746
    -5.0580  -5.0456  -5.0189  -4.9920  -4.9641  -4.9248  -4.8946  -4.8520
    -4.8279  -4.8127  -4.7295  -4.6942  -4.6742  -4.6490  -4.6019  -4.5774
    -4.5691  -4.5198  -4.4697  -4.4346  -4.4006  -4.3548  -4.3398  -4.2870
    -4.2386  -4.2274  -4.2149  -4.1678  -4.1042  -4.0871  -4.0586  -4.0328
    -3.9862  -3.9465  -3.9277  -3.8873  -3.8594  -3.8452  -3.8178  -3.7434
    -3.7202  -3.6996  -3.6464  -3.5766  -3.5600  -3.5200  -3.4882  -3.4428
    -3.4111  -3.3951  -3.3173  -3.2992  -3.2393  -3.2028  -3.1463  -3.1041
    -3.0422  -3.0172  -2.9863  -2.9247  -2.9070  -2.8548  -2.8341  -2.7861
    -2.7448  -2.6831  -2.6400  -2.6121  -2.6016  -2.5511  -2.5309  -2.5135
    -2.4398  -2.4122  -2.3365  -2.2827  -2.2171  -2.1997  -2.1704  -2.1342
    -2.0740  -2.0558  -2.0132  -1.9541  -1.9111  -1.8593  -1.8361  -1.7589
    -1.7114  -1.6708  -1.6014  -1.5858  -1.5388  -1.5024  -1.4622  -1.4419
    -1.3862  -1.3788  -1.3374  -1.3204  -1.2989  -1.2556  -1.2289  -1.2074
    -1.1715  -1.1397  -1.1197  -1.0796  -1.0755  -1.0389  -1.0014  -0.9952
    -0.9847  -0.9412  -0.9105  -0.8989  -0.8695  -0.8397  -0.8275  -0.8141
    -0.7818  -0.7237  -0.6989  -0.6772  -0.6085  -0.5871  -0.5406  -0.5182
    -0.5077  -0.4424  -0.4303  -0.3882  -0.3694  -0.3477  -0.2949  -0.2670
    -0.2304  -0.1301  -0.0967  -0.0115   0.0622   0.0835   0.1597   0.1979
     0.3089   0.3712   0.4558   0.4946   0.5628   0.6048   0.6311   0.6809
     0.7701   0.8435   0.8732   0.9519   1.0178   1.0391   1.0877   1.1288
     1.1708   1.2966   1.3338   1.5364   1.5907   1.6306   1.6938   1.8171
     1.8285   1.8839   2.0299   2.1235   2.1515   2.3117   2.4125   2.8857
     3.0939   3.1298   3.2216   3.2884

          k =-0.2500-0.2340 0.0000 (149458 PWs)   bands (ev):

  -104.8570-104.8138-104.7922-104.7326-104.7320-104.7228-104.6520-104.6253
   -82.4435 -82.4164 -82.4100 -82.3803 -82.3090 -82.3046 -82.2989 -82.2454
   -74.1061 -74.0659 -73.9305 -73.9132 -73.8274 -73.7952 -73.6761 -65.3542
   -65.2794 -65.2527 -65.2415 -65.2374 -65.1890 -65.1768 -65.1599 -65.1377
   -65.1377 -65.1104 -65.1053 -65.1005 -65.0947 -65.0773 -65.0602 -65.0271
   -64.9943 -64.9790 -64.9495 -64.9432 -64.9333 -64.8653 -64.8147 -51.1683
   -51.1676 -51.1081 -51.1055 -51.0926 -51.0659 -51.0622 -51.0612 -51.0571
   -51.0532 -51.0446 -51.0305 -51.0148 -51.0037 -51.0015 -50.9839 -50.9774
   -50.9739 -50.9685 -50.9681 -50.9635 -50.9208 -50.9182 -50.8821 -45.5215
   -45.5099 -45.4156 -45.4041 -45.3631 -45.3541 -45.3444 -45.3129 -45.2628
   -45.2251 -45.2210 -45.1997 -45.1812 -45.1326 -45.1317 -45.1310 -45.0155
   -45.0084 -44.9922 -44.9511 -44.8569 -24.2805 -18.8581 -18.7776 -18.6295
   -18.5244 -18.3561 -18.2954 -18.2438 -18.1330 -18.0783 -17.9998 -17.9744
   -17.9315 -17.9035 -17.8455 -17.8027 -17.7352 -17.7221 -17.6803 -17.6794
   -17.6463 -17.6281 -17.5443 -17.5228 -17.5040 -17.4838 -17.4627 -17.4429
   -17.4333 -17.4060 -17.3629 -17.3491 -17.3042 -17.2840 -17.2714 -17.2480
   -17.2357 -17.2166 -17.1775 -17.1510 -17.0952 -17.0330 -17.0091 -16.9194
   -16.7949 -16.6791 -16.6114 -16.4739 -16.4345 -15.8877  -8.1353  -7.6249
    -7.5808  -7.5064  -7.4076  -7.3857  -7.3666  -7.3171  -7.1915  -7.0222
    -6.9862  -6.9378  -6.9053  -6.8783  -6.8520  -6.8083  -6.7840  -6.7565
    -6.7430  -6.7274  -6.7086  -6.6491  -6.6259  -6.5891  -6.5688  -6.5500
    -6.5200  -6.4795  -6.4374  -6.4163  -6.3997  -6.3600  -6.3393  -6.3194
    -6.2883  -6.2567  -6.1899  -6.1727  -6.1563  -6.1350  -6.1316  -6.1040
    -6.0654  -6.0422  -6.0252  -5.9947  -5.9842  -5.9657  -5.9514  -5.9174
    -5.8971  -5.8561  -5.8298  -5.7726  -5.7235  -5.6917  -5.6618  -5.6457
    -5.5965  -5.5867  -5.5723  -5.5471  -5.5210  -5.5058  -5.4892  -5.4592
    -5.4417  -5.4298  -5.4079  -5.3698  -5.3494  -5.3046  -5.2927  -5.2673
    -5.2462  -5.2218  -5.1886  -5.1801  -5.1492  -5.1168  -5.0960  -5.0848
    -5.0652  -5.0264  -4.9858  -4.9614  -4.9393  -4.9060  -4.8879  -4.8710
    -4.8264  -4.7853  -4.7507  -4.7081  -4.6655  -4.6528  -4.6308  -4.6094
    -4.5902  -4.5474  -4.5234  -4.4895  -4.4794  -4.4172  -4.3657  -4.3038
    -4.2572  -4.2293  -4.2092  -4.1678  -4.1570  -4.1089  -4.0829  -4.0595
    -4.0349  -3.9839  -3.9414  -3.8960  -3.8748  -3.8573  -3.7468  -3.7047
    -3.6735  -3.6241  -3.5963  -3.5388  -3.5148  -3.4679  -3.4199  -3.3737
    -3.3292  -3.3190  -3.2886  -3.2451  -3.2210  -3.1695  -3.1415  -3.1193
    -3.0864  -3.0155  -2.9790  -2.9516  -2.9125  -2.8699  -2.8227  -2.8117
    -2.7291  -2.7082  -2.6767  -2.6286  -2.6025  -2.5581  -2.5092  -2.4798
    -2.4621  -2.4072  -2.3853  -2.3486  -2.2745  -2.2578  -2.1686  -2.1210
    -2.0843  -2.0780  -2.0189  -1.9619  -1.9161  -1.8680  -1.8388  -1.7730
    -1.7314  -1.6929  -1.6671  -1.6244  -1.5748  -1.5146  -1.4798  -1.4532
    -1.4116  -1.3778  -1.3573  -1.3029  -1.2884  -1.2605  -1.2026  -1.1871
    -1.1526  -1.1358  -1.1022  -1.0848  -1.0754  -1.0395  -1.0062  -0.9936
    -0.9804  -0.9542  -0.9092  -0.8855  -0.8712  -0.8321  -0.8022  -0.7658
    -0.7452  -0.7136  -0.6592  -0.6382  -0.6094  -0.5671  -0.5439  -0.5268
    -0.4889  -0.4704  -0.4286  -0.3915  -0.3695  -0.3348  -0.2911  -0.2362
    -0.2027  -0.1257  -0.0919  -0.0503   0.0050   0.0825   0.1609   0.2040
     0.2519   0.2976   0.3881   0.4642   0.5463   0.6208   0.6283   0.7056
     0.7691   0.8173   0.8968   0.9657   1.0014   1.0533   1.1033   1.1434
     1.2862   1.3358   1.3689   1.4974   1.6043   1.6192   1.6889   1.7989
     1.8756   1.8955   2.0103   2.1124   2.1398   2.3099   2.4162   2.9394
     3.0930   3.1517   3.1936   3.2589

 ------ SPIN DOWN ----------


          k = 0.0000 0.0000 0.0000 (149523 PWs)   bands (ev):

  -103.4547-103.4528-102.8825-102.8081-102.6147-102.5356-102.4960-102.4577
   -78.5267 -78.5255 -78.5234 -78.5179 -78.5093 -78.1379 -78.0890 -78.0655
   -73.6468 -73.1365 -72.3164 -72.1322 -71.4963 -71.3093 -70.7846 -63.9776
   -63.9559 -63.8170 -63.8117 -63.7251 -63.7180 -63.3757 -63.3130 -63.2994
   -63.2030 -63.1903 -63.1739 -63.0921 -63.0371 -63.0236 -62.9984 -62.9658
   -62.9652 -62.9520 -62.9136 -62.8839 -62.8817 -62.8217 -62.7998 -47.4479
   -47.4020 -47.3988 -47.3453 -47.3162 -47.3038 -47.2961 -47.2841 -47.2703
   -47.2479 -47.2364 -47.2182 -47.1881 -47.1735 -47.1699 -47.1215 -47.0976
   -47.0121 -46.9544 -46.9307 -46.9296 -46.7517 -46.6297 -46.5917 -45.1975
   -44.9746 -44.8409 -44.6102 -44.4961 -44.3470 -44.3170 -44.0616 -43.4694
   -43.2775 -43.2442 -43.1526 -43.1354 -43.0087 -42.8856 -42.4819 -42.4706
   -42.4366 -42.4022 -42.1273 -41.9022 -23.6812 -19.3711 -19.0369 -18.9690
   -18.9187 -18.7928 -18.6518 -18.6026 -18.4055 -18.3542 -18.2946 -18.1751
   -18.1398 -18.0167 -17.9976 -17.9644 -17.9566 -17.9272 -17.9080 -17.8838
   -17.8275 -17.8142 -17.8053 -17.7929 -17.7852 -17.7830 -17.7626 -17.7482
   -17.7280 -17.7228 -17.7114 -17.6535 -17.6476 -17.6302 -17.6109 -17.5885
   -17.5294 -17.5138 -17.4886 -17.4586 -17.4504 -17.4428 -17.4347 -17.4191
   -17.3641 -17.3291 -17.2786 -17.2302 -17.1512 -15.0064  -7.7473  -7.0805
    -6.8163  -6.7607  -6.7364  -6.6171  -6.4900  -6.3311  -6.3072  -6.2612
    -6.2376  -6.1548  -6.1129  -6.1042  -6.0424  -6.0040  -5.9775  -5.9243
    -5.9102  -5.8189  -5.7995  -5.7362  -5.6997  -5.6698  -5.6077  -5.5632
    -5.5384  -5.5228  -5.4888  -5.4390  -5.4107  -5.3987  -5.3487  -5.3000
    -5.2659  -5.2170  -5.1904  -5.1445  -5.0906  -5.0560  -5.0173  -4.9841
    -4.9530  -4.9186  -4.8637  -4.8529  -4.8099  -4.7322  -4.6723  -4.6305
    -4.6230  -4.5825  -4.5722  -4.5566  -4.5524  -4.5083  -4.5030  -4.4581
    -4.4269  -4.4050  -4.3819  -4.3172  -4.2949  -4.2763  -4.2511  -4.2309
    -4.2150  -4.1975  -4.1678  -4.1346  -4.0918  -4.0822  -4.0623  -4.0469
    -4.0295  -4.0176  -3.9950  -3.9567  -3.9173  -3.9030  -3.8896  -3.8660
    -3.8439  -3.7974  -3.7908  -3.7829  -3.7532  -3.7143  -3.7032  -3.6920
    -3.6510  -3.6388  -3.6327  -3.6122  -3.5861  -3.5700  -3.5370  -3.5333
    -3.4872  -3.4672  -3.4553  -3.4265  -3.3844  -3.3562  -3.3412  -3.3116
    -3.3035  -3.2860  -3.2311  -3.1993  -3.1376  -3.0822  -3.0650  -2.9781
    -2.9562  -2.9199  -2.8985  -2.8498  -2.8078  -2.7531  -2.6950  -2.6729
    -2.6389  -2.6076  -2.5996  -2.5402  -2.5358  -2.4964  -2.4718  -2.4462
    -2.4287  -2.3773  -2.3381  -2.3050  -2.2961  -2.2525  -2.2274  -2.2167
    -2.1902  -2.1532  -2.1398  -2.1029  -2.0896  -2.0441  -2.0364  -1.9775
    -1.9190  -1.8530  -1.8434  -1.8073  -1.7993  -1.7715  -1.7575  -1.7224
    -1.6952  -1.6868  -1.6152  -1.5851  -1.5541  -1.5480  -1.5250  -1.5036
    -1.4795  -1.4444  -1.3689  -1.3303  -1.2930  -1.2459  -1.1800  -1.0967
    -1.0652  -1.0445  -0.9866  -0.9054  -0.7093  -0.4717   0.0830   1.0162
     1.2725   1.4350   1.6738   1.7394   1.8610   1.9143   1.9516   2.0288
     2.0783   2.1190   2.1519   2.2436   2.2836   2.3334   2.4503   2.4778
     2.5013   2.5195   2.5314   2.5734   2.6051   2.6149   2.6230   2.6399
     2.6419   2.6516   2.6889   2.7227   2.7365   2.7796   2.8050   2.8086
     2.8312   2.8571   2.8907   2.9264   2.9409   2.9681   3.0011   3.0496
     3.0757   3.0823   3.1085   3.1486   3.1649   3.1947   3.2283   3.2524
     3.2624   3.2855   3.3305   3.3642   3.3722   3.3767   3.3962   3.4403
     3.4855   3.5148   3.5307   3.5788   3.6105   3.6146   3.6402   3.6519
     3.6978   3.7398   3.7795   3.7995   3.8245   3.8530   3.8900   3.9620
     4.0392   4.1614   4.2294   4.2858   4.3494   4.3672   4.4872   4.5369
     4.6302   4.6542   4.6919   4.7451

          k = 0.0000-0.2340 0.0000 (149572 PWs)   bands (ev):

  -103.4547-103.4528-102.8825-102.8081-102.6147-102.5356-102.4960-102.4577
   -78.5267 -78.5255 -78.5234 -78.5179 -78.5093 -78.1379 -78.0890 -78.0655
   -73.6468 -73.1365 -72.3164 -72.1322 -71.4963 -71.3093 -70.7846 -63.9776
   -63.9559 -63.8170 -63.8117 -63.7251 -63.7180 -63.3757 -63.3130 -63.2994
   -63.2030 -63.1903 -63.1739 -63.0921 -63.0371 -63.0236 -62.9984 -62.9658
   -62.9652 -62.9520 -62.9136 -62.8839 -62.8817 -62.8217 -62.7998 -47.4479
   -47.4020 -47.3988 -47.3453 -47.3162 -47.3038 -47.2961 -47.2841 -47.2703
   -47.2479 -47.2364 -47.2182 -47.1881 -47.1735 -47.1699 -47.1215 -47.0976
   -47.0121 -46.9544 -46.9307 -46.9296 -46.7517 -46.6297 -46.5917 -45.1975
   -44.9746 -44.8409 -44.6102 -44.4961 -44.3470 -44.3170 -44.0616 -43.4694
   -43.2775 -43.2442 -43.1526 -43.1354 -43.0087 -42.8856 -42.4819 -42.4706
   -42.4366 -42.4022 -42.1273 -41.9022 -23.6812 -19.2933 -19.2160 -18.9700
   -18.8612 -18.7407 -18.6136 -18.5738 -18.5248 -18.3229 -18.2323 -18.1127
   -18.1052 -18.0735 -18.0510 -18.0190 -17.9571 -17.9340 -17.8885 -17.8693
   -17.8597 -17.8546 -17.8129 -17.8079 -17.8048 -17.7952 -17.7613 -17.7349
   -17.7217 -17.6727 -17.6631 -17.6506 -17.6317 -17.6263 -17.6223 -17.5883
   -17.5656 -17.4931 -17.4859 -17.4622 -17.4496 -17.4365 -17.4227 -17.4191
   -17.3676 -17.3317 -17.2795 -17.2341 -17.1548 -15.0064  -7.7473  -6.9930
    -6.8183  -6.7533  -6.6628  -6.6034  -6.5437  -6.4169  -6.3087  -6.2506
    -6.2271  -6.2162  -6.1490  -6.0761  -6.0444  -6.0226  -5.9719  -5.9603
    -5.9303  -5.8790  -5.7977  -5.7445  -5.6818  -5.6414  -5.6081  -5.5880
    -5.5327  -5.5101  -5.4700  -5.4495  -5.4251  -5.3825  -5.3635  -5.3251
    -5.2323  -5.1962  -5.1630  -5.1393  -5.1141  -5.0579  -5.0387  -5.0290
    -4.9810  -4.9551  -4.8728  -4.8510  -4.8242  -4.6694  -4.6584  -4.6328
    -4.5991  -4.5877  -4.5709  -4.5539  -4.5158  -4.4915  -4.4762  -4.4475
    -4.4237  -4.3818  -4.3444  -4.3353  -4.3063  -4.2710  -4.2459  -4.2086
    -4.2037  -4.1909  -4.1719  -4.1206  -4.0792  -4.0695  -4.0515  -4.0442
    -4.0147  -3.9939  -3.9848  -3.9520  -3.9375  -3.9304  -3.9077  -3.8743
    -3.8660  -3.8333  -3.7946  -3.7776  -3.7454  -3.7278  -3.7243  -3.7037
    -3.6835  -3.6740  -3.6339  -3.5983  -3.5814  -3.5508  -3.5220  -3.5179
    -3.4970  -3.4797  -3.4740  -3.4371  -3.4055  -3.3522  -3.3458  -3.3266
    -3.2851  -3.2775  -3.2316  -3.1860  -3.1092  -3.0733  -3.0181  -2.9702
    -2.9300  -2.9204  -2.8828  -2.8538  -2.7187  -2.7036  -2.6752  -2.6512
    -2.6215  -2.6072  -2.5660  -2.5422  -2.5202  -2.5085  -2.4455  -2.4383
    -2.4022  -2.3959  -2.3435  -2.3287  -2.3205  -2.2687  -2.2101  -2.2051
    -2.1692  -2.1558  -2.1469  -2.1138  -2.0816  -2.0574  -2.0258  -2.0047
    -1.9814  -1.9051  -1.8596  -1.8440  -1.8181  -1.7891  -1.7663  -1.7063
    -1.7000  -1.6783  -1.6386  -1.6111  -1.5787  -1.5260  -1.5112  -1.4983
    -1.4739  -1.4100  -1.3652  -1.3499  -1.2975  -1.2840  -1.2028  -1.1975
    -1.1359  -1.0242  -0.9269  -0.8686  -0.7750  -0.4717   0.1132   1.0161
     1.2730   1.4415   1.6652   1.7120   1.8632   1.9407   2.0187   2.0738
     2.1338   2.1559   2.2259   2.2650   2.2953   2.3379   2.4788   2.4820
     2.5068   2.5272   2.5317   2.5520   2.5802   2.6085   2.6187   2.6268
     2.6318   2.6495   2.6718   2.7310   2.7357   2.7639   2.7766   2.8086
     2.8324   2.8437   2.8928   2.8958   2.9212   2.9441   3.0057   3.0192
     3.0289   3.0894   3.1197   3.1416   3.1758   3.1844   3.2191   3.2348
     3.2633   3.2904   3.3071   3.3353   3.3549   3.3877   3.3921   3.4152
     3.4504   3.4811   3.5294   3.5375   3.5841   3.6188   3.6264   3.6625
     3.7051   3.7499   3.7746   3.8035   3.8311   3.8716   3.9246   3.9931
     4.1349   4.1605   4.2547   4.3257   4.3490   4.4368   4.4649   4.5730
     4.6472   4.6573   4.7066   4.7864

          k = 0.2500-0.0000 0.0000 (149546 PWs)   bands (ev):

  -103.4546-103.4529-102.8825-102.8081-102.6147-102.5356-102.4960-102.4578
   -78.5267 -78.5246 -78.5230 -78.5190 -78.5099 -78.1379 -78.0888 -78.0660
   -73.6468 -73.1365 -72.3164 -72.1322 -71.4963 -71.3094 -70.7846 -63.9746
   -63.9589 -63.8170 -63.8117 -63.7250 -63.7181 -63.3757 -63.3130 -63.2994
   -63.2030 -63.1903 -63.1739 -63.0921 -63.0371 -63.0236 -62.9984 -62.9658
   -62.9652 -62.9520 -62.9136 -62.8839 -62.8817 -62.8217 -62.7998 -47.4329
   -47.3984 -47.3881 -47.3600 -47.3162 -47.3161 -47.2960 -47.2828 -47.2727
   -47.2477 -47.2346 -47.2207 -47.1876 -47.1742 -47.1697 -47.1055 -47.0977
   -47.0278 -46.9524 -46.9328 -46.9296 -46.7517 -46.6295 -46.5920 -45.1975
   -44.9747 -44.8409 -44.6103 -44.4961 -44.3470 -44.3170 -44.0616 -43.4696
   -43.2775 -43.2444 -43.1526 -43.1354 -43.0086 -42.8856 -42.4820 -42.4708
   -42.4369 -42.4022 -42.1275 -41.9022 -23.6811 -19.2479 -18.9318 -18.8656
   -18.8143 -18.7008 -18.5765 -18.5375 -18.4506 -18.3349 -18.3113 -18.2703
   -18.2324 -18.1719 -18.1591 -18.1006 -18.0664 -17.9815 -17.9359 -17.9164
   -17.8893 -17.8495 -17.8146 -17.8064 -17.7858 -17.7774 -17.7504 -17.7221
   -17.7101 -17.6860 -17.6746 -17.6565 -17.6307 -17.6201 -17.6001 -17.5657
   -17.5344 -17.5168 -17.4823 -17.4599 -17.4491 -17.4376 -17.4179 -17.4059
   -17.3744 -17.3054 -17.2939 -17.2183 -17.1512 -15.0084  -7.7448  -6.9160
    -6.6903  -6.6345  -6.5781  -6.4968  -6.3654  -6.2249  -6.2003  -6.1650
    -6.0933  -6.0405  -6.0251  -5.9866  -5.9578  -5.8960  -5.8917  -5.8581
    -5.8166  -5.7800  -5.7422  -5.7018  -5.6563  -5.6274  -5.5955  -5.5632
    -5.5242  -5.4974  -5.4581  -5.4429  -5.3967  -5.3507  -5.3274  -5.3220
    -5.2866  -5.2497  -5.2211  -5.1757  -5.1467  -5.1236  -5.0878  -5.0391
    -5.0073  -4.9595  -4.9532  -4.8909  -4.8456  -4.8173  -4.7692  -4.7463
    -4.7032  -4.6616  -4.6527  -4.6335  -4.6032  -4.5721  -4.5653  -4.5391
    -4.5209  -4.4651  -4.4535  -4.4302  -4.3971  -4.3749  -4.3316  -4.3257
    -4.2959  -4.2815  -4.2565  -4.2132  -4.2033  -4.1687  -4.1339  -4.1152
    -4.0951  -4.0780  -4.0423  -4.0281  -3.9921  -3.9698  -3.9312  -3.9031
    -3.8698  -3.8394  -3.8097  -3.7966  -3.7584  -3.7216  -3.7005  -3.6650
    -3.6215  -3.6010  -3.5679  -3.5457  -3.5166  -3.4962  -3.4557  -3.4407
    -3.4218  -3.3822  -3.3457  -3.3278  -3.3045  -3.2538  -3.2288  -3.2154
    -3.2063  -3.1754  -3.1564  -3.1105  -3.0926  -3.0767  -3.0206  -2.9893
    -2.9720  -2.9460  -2.9105  -2.8930  -2.8462  -2.8212  -2.8044  -2.7468
    -2.7202  -2.6867  -2.6510  -2.6222  -2.5746  -2.5509  -2.5013  -2.4813
    -2.4469  -2.3828  -2.3596  -2.3245  -2.2913  -2.2544  -2.2463  -2.2067
    -2.1836  -2.1400  -2.1277  -2.0999  -2.0745  -2.0431  -2.0061  -1.9655
    -1.9355  -1.9150  -1.8881  -1.8538  -1.8270  -1.7812  -1.7454  -1.7078
    -1.6757  -1.6555  -1.6227  -1.6036  -1.5684  -1.5482  -1.5266  -1.4979
    -1.4726  -1.4259  -1.3979  -1.3584  -1.3164  -1.2572  -1.2215  -1.1648
    -1.1316  -1.0588  -1.0162  -0.9504  -0.7790  -0.4752   0.1200   1.0061
     1.2431   1.4244   1.6904   1.7474   1.9132   1.9199   2.0146   2.0312
     2.1179   2.1616   2.2051   2.2768   2.2804   2.3648   2.4433   2.4634
     2.5016   2.5187   2.5615   2.5688   2.5991   2.6221   2.6367   2.6550
     2.6792   2.6925   2.7273   2.7500   2.7807   2.7971   2.8295   2.8666
     2.8772   2.9052   2.9243   2.9518   2.9720   3.0067   3.0318   3.0627
     3.1016   3.1202   3.1392   3.1637   3.1921   3.2056   3.2321   3.2529
     3.2802   3.2877   3.3062   3.3492   3.3576   3.3852   3.4163   3.4320
     3.4723   3.4882   3.4964   3.5408   3.5783   3.5910   3.6332   3.6758
     3.7058   3.7427   3.7637   3.7843   3.8079   3.8331   3.8849   3.9608
     3.9867   4.0599   4.1163   4.1706   4.2190   4.3371   4.4020   4.4399
     4.4679   4.6398   4.6755   4.7549

          k = 0.2500-0.2340 0.0000 (149458 PWs)   bands (ev):

  -103.4546-103.4529-102.8825-102.8081-102.6147-102.5356-102.4960-102.4578
   -78.5267 -78.5246 -78.5230 -78.5190 -78.5099 -78.1379 -78.0888 -78.0660
   -73.6468 -73.1365 -72.3164 -72.1322 -71.4963 -71.3094 -70.7846 -63.9746
   -63.9589 -63.8170 -63.8117 -63.7250 -63.7181 -63.3757 -63.3130 -63.2994
   -63.2030 -63.1903 -63.1739 -63.0921 -63.0371 -63.0236 -62.9984 -62.9658
   -62.9652 -62.9520 -62.9136 -62.8839 -62.8817 -62.8217 -62.7998 -47.4329
   -47.3984 -47.3881 -47.3599 -47.3162 -47.3161 -47.2960 -47.2828 -47.2727
   -47.2477 -47.2346 -47.2207 -47.1876 -47.1742 -47.1697 -47.1055 -47.0977
   -47.0278 -46.9524 -46.9328 -46.9296 -46.7517 -46.6295 -46.5920 -45.1975
   -44.9747 -44.8409 -44.6103 -44.4961 -44.3470 -44.3170 -44.0616 -43.4696
   -43.2775 -43.2444 -43.1526 -43.1354 -43.0086 -42.8856 -42.4820 -42.4708
   -42.4369 -42.4022 -42.1275 -41.9022 -23.6811 -19.1763 -19.0960 -18.8678
   -18.7633 -18.6581 -18.5423 -18.4961 -18.4442 -18.4181 -18.3601 -18.2789
   -18.1799 -18.1391 -18.1138 -18.0901 -18.0418 -18.0011 -17.9789 -17.9565
   -17.9117 -17.8812 -17.8190 -17.8048 -17.7924 -17.7587 -17.7483 -17.7185
   -17.7070 -17.6979 -17.6532 -17.6319 -17.6233 -17.6086 -17.5947 -17.5774
   -17.5720 -17.4893 -17.4843 -17.4624 -17.4494 -17.4334 -17.4172 -17.4058
   -17.3780 -17.3052 -17.2903 -17.2198 -17.1545 -15.0084  -7.7448  -6.8267
    -6.6845  -6.5772  -6.5529  -6.4872  -6.4085  -6.3025  -6.1943  -6.1402
    -6.1175  -6.0626  -6.0371  -5.9818  -5.9539  -5.9251  -5.8775  -5.8309
    -5.8049  -5.7776  -5.7226  -5.6822  -5.6588  -5.6253  -5.6092  -5.5947
    -5.5594  -5.5359  -5.5011  -5.4724  -5.4522  -5.4143  -5.3681  -5.3454
    -5.3129  -5.2703  -5.2516  -5.1962  -5.1473  -5.1054  -5.0745  -5.0415
    -5.0140  -4.9890  -4.9422  -4.8991  -4.8621  -4.8088  -4.7602  -4.7444
    -4.7173  -4.6810  -4.6433  -4.6036  -4.5927  -4.5709  -4.5499  -4.5240
    -4.5082  -4.4659  -4.4407  -4.4246  -4.4000  -4.3496  -4.3185  -4.2793
    -4.2672  -4.2371  -4.2116  -4.1859  -4.1600  -4.1494  -4.1253  -4.1114
    -4.0976  -4.0512  -4.0349  -3.9763  -3.9617  -3.9442  -3.9351  -3.8884
    -3.8414  -3.8320  -3.7945  -3.7549  -3.7321  -3.6925  -3.6816  -3.6451
    -3.6404  -3.6179  -3.5897  -3.5783  -3.5244  -3.5090  -3.4724  -3.4309
    -3.4136  -3.4009  -3.3522  -3.3262  -3.3137  -3.2823  -3.2438  -3.2232
    -3.1902  -3.1771  -3.1591  -3.1217  -3.0977  -3.0564  -3.0398  -3.0116
    -2.9766  -2.9446  -2.9113  -2.8786  -2.8459  -2.8238  -2.7833  -2.7543
    -2.6967  -2.6681  -2.6362  -2.6116  -2.5869  -2.5441  -2.4895  -2.4681
    -2.4355  -2.4187  -2.3717  -2.3384  -2.3178  -2.2558  -2.2332  -2.2131
    -2.1835  -2.1679  -2.1314  -2.1013  -2.0689  -2.0339  -2.0208  -1.9945
    -1.9691  -1.9181  -1.8917  -1.8684  -1.8426  -1.8225  -1.7700  -1.7389
    -1.6854  -1.6605  -1.6395  -1.6115  -1.5843  -1.5536  -1.5204  -1.4897
    -1.4535  -1.4042  -1.3653  -1.3249  -1.3188  -1.2678  -1.2437  -1.1859
    -1.1773  -1.0453  -1.0038  -0.9301  -0.8195  -0.4752   0.1480   1.0060
     1.2438   1.4323   1.6683   1.7418   1.9120   1.9217   2.0185   2.1269
     2.1481   2.1801   2.2117   2.2676   2.3518   2.3786   2.4492   2.4868
     2.5070   2.5295   2.5562   2.5817   2.6048   2.6155   2.6286   2.6471
     2.6590   2.6819   2.7049   2.7328   2.7614   2.7786   2.8332   2.8442
     2.8637   2.8939   2.9205   2.9449   2.9894   3.0058   3.0450   3.0570
     3.0974   3.1120   3.1322   3.1540   3.1908   3.2061   3.2340   3.2445
     3.2676   3.2972   3.3124   3.3254   3.3471   3.3776   3.4066   3.4297
     3.4405   3.4592   3.4956   3.5452   3.5657   3.5874   3.6267   3.6428
     3.7110   3.7361   3.7595   3.7862   3.8149   3.8621   3.9331   3.9679
     4.0145   4.1137   4.1430   4.1865   4.2396   4.3271   4.3615   4.4536
     4.5068   4.6306   4.6608   4.7739

          k =-0.5000 0.0000 0.0000 (149560 PWs)   bands (ev):

  -103.4545-103.4530-102.8825-102.8082-102.6147-102.5356-102.4960-102.4579
   -78.5268 -78.5229 -78.5224 -78.5212 -78.5106 -78.1379 -78.0885 -78.0665
   -73.6468 -73.1365 -72.3164 -72.1322 -71.4963 -71.3095 -70.7846 -63.9693
   -63.9642 -63.8169 -63.8118 -63.7248 -63.7182 -63.3757 -63.3130 -63.2994
   -63.2030 -63.1903 -63.1739 -63.0921 -63.0371 -63.0236 -62.9984 -62.9658
   -62.9652 -62.9520 -62.9136 -62.8839 -62.8816 -62.8217 -62.7998 -47.4007
   -47.3979 -47.3920 -47.3629 -47.3405 -47.3162 -47.2953 -47.2797 -47.2770
   -47.2475 -47.2315 -47.2243 -47.1869 -47.1750 -47.1696 -47.0977 -47.0707
   -47.0624 -46.9499 -46.9354 -46.9296 -46.7517 -46.6293 -46.5922 -45.1975
   -44.9747 -44.8409 -44.6104 -44.4961 -44.3470 -44.3170 -44.0616 -43.4697
   -43.2775 -43.2445 -43.1525 -43.1354 -43.0086 -42.8856 -42.4821 -42.4710
   -42.4372 -42.4022 -42.1277 -41.9022 -23.6810 -18.9628 -18.8661 -18.7038
   -18.6472 -18.6165 -18.5669 -18.5263 -18.4935 -18.4702 -18.4082 -18.3716
   -18.2864 -18.2583 -18.2056 -18.1462 -18.1042 -18.0536 -18.0299 -18.0220
   -17.9626 -17.9222 -17.8138 -17.8092 -17.7756 -17.7692 -17.7500 -17.7137
   -17.7036 -17.6890 -17.6547 -17.6256 -17.6250 -17.6168 -17.5854 -17.5504
   -17.5280 -17.5221 -17.4721 -17.4669 -17.4514 -17.4329 -17.4005 -17.3844
   -17.3803 -17.3382 -17.2763 -17.2012 -17.1542 -15.0103  -7.7423  -6.5874
    -6.5179  -6.4866  -6.3165  -6.2473  -6.2399  -6.2071  -6.1763  -6.1440
    -6.1298  -6.0446  -5.9977  -5.9548  -5.8811  -5.8587  -5.8490  -5.8025
    -5.7077  -5.6922  -5.6607  -5.6126  -5.5942  -5.5832  -5.5611  -5.4929
    -5.4816  -5.4614  -5.4162  -5.3890  -5.3759  -5.3478  -5.3197  -5.2811
    -5.2487  -5.2199  -5.2112  -5.1760  -5.1714  -5.1336  -5.0865  -5.0447
    -5.0228  -4.9857  -4.9672  -4.9287  -4.9164  -4.8936  -4.8543  -4.8400
    -4.7918  -4.7631  -4.7341  -4.6866  -4.6763  -4.6438  -4.6384  -4.6025
    -4.5736  -4.5668  -4.5347  -4.5239  -4.5140  -4.4605  -4.4121  -4.3804
    -4.3630  -4.3182  -4.3050  -4.2751  -4.2571  -4.2300  -4.2139  -4.1801
    -4.1745  -4.1298  -4.1157  -4.1039  -4.0787  -4.0565  -3.9813  -3.8989
    -3.8839  -3.8722  -3.8195  -3.7959  -3.7898  -3.7332  -3.6997  -3.6689
    -3.6644  -3.6409  -3.6097  -3.6015  -3.5712  -3.5465  -3.5088  -3.4682
    -3.4365  -3.4090  -3.3838  -3.3668  -3.3093  -3.2560  -3.2327  -3.1683
    -3.1381  -3.1267  -3.1120  -3.1054  -3.0725  -3.0317  -2.9705  -2.9337
    -2.9151  -2.9080  -2.8978  -2.8450  -2.8330  -2.8156  -2.7638  -2.7412
    -2.7212  -2.6877  -2.6688  -2.6349  -2.5845  -2.5585  -2.5373  -2.4859
    -2.4762  -2.4018  -2.3919  -2.3238  -2.3032  -2.2801  -2.2016  -2.1926
    -2.1342  -2.1209  -2.0966  -2.0859  -2.0523  -2.0224  -2.0038  -1.9897
    -1.9164  -1.9057  -1.8716  -1.8072  -1.8005  -1.7742  -1.7504  -1.7292
    -1.7016  -1.6900  -1.6570  -1.5913  -1.5797  -1.5659  -1.5351  -1.5101
    -1.4589  -1.4309  -1.3752  -1.3480  -1.3174  -1.2848  -1.2490  -1.1968
    -1.1839  -1.0912  -1.0350  -0.9813  -0.9078  -0.4785   0.1494   0.9960
     1.2159   1.4151   1.6736   1.7723   1.9063   1.9704   2.0499   2.1065
     2.1309   2.1786   2.2288   2.2654   2.3338   2.3453   2.4040   2.4183
     2.4884   2.5301   2.5435   2.5814   2.5914   2.6177   2.6674   2.6786
     2.7078   2.7268   2.7545   2.7818   2.7934   2.8254   2.8710   2.9106
     2.9362   2.9461   2.9820   3.0044   3.0289   3.0569   3.0648   3.0973
     3.1225   3.1317   3.1449   3.1691   3.1837   3.1906   3.2338   3.2395
     3.2661   3.2723   3.2876   3.3132   3.3561   3.3766   3.3941   3.4291
     3.4582   3.4736   3.4878   3.5448   3.5711   3.5855   3.6262   3.6644
     3.6877   3.7043   3.7590   3.7872   3.8262   3.8541   3.8568   3.8792
     3.9688   3.9855   4.0741   4.1310   4.1752   4.2355   4.2676   4.3517
     4.3947   4.5054   4.5785   4.6207

          k =-0.5000-0.2340 0.0000 (149416 PWs)   bands (ev):

  -103.4545-103.4530-102.8825-102.8082-102.6147-102.5356-102.4960-102.4579
   -78.5268 -78.5229 -78.5224 -78.5212 -78.5106 -78.1379 -78.0885 -78.0665
   -73.6468 -73.1365 -72.3164 -72.1322 -71.4963 -71.3095 -70.7846 -63.9693
   -63.9642 -63.8169 -63.8118 -63.7248 -63.7182 -63.3757 -63.3130 -63.2994
   -63.2030 -63.1903 -63.1739 -63.0921 -63.0371 -63.0236 -62.9984 -62.9658
   -62.9652 -62.9520 -62.9136 -62.8839 -62.8816 -62.8217 -62.7998 -47.4007
   -47.3979 -47.3920 -47.3629 -47.3405 -47.3162 -47.2953 -47.2797 -47.2770
   -47.2475 -47.2315 -47.2243 -47.1869 -47.1750 -47.1696 -47.0977 -47.0707
   -47.0624 -46.9499 -46.9354 -46.9296 -46.7517 -46.6293 -46.5922 -45.1975
   -44.9747 -44.8409 -44.6104 -44.4961 -44.3470 -44.3170 -44.0616 -43.4697
   -43.2775 -43.2445 -43.1525 -43.1354 -43.0086 -42.8856 -42.4821 -42.4710
   -42.4372 -42.4022 -42.1277 -41.9022 -23.6810 -18.9160 -18.8180 -18.7982
   -18.7318 -18.6522 -18.5954 -18.5067 -18.4528 -18.3972 -18.3665 -18.3398
   -18.2661 -18.2363 -18.2147 -18.1828 -18.1784 -18.0859 -18.0222 -17.9547
   -17.9149 -17.8964 -17.8683 -17.8371 -17.8012 -17.7836 -17.7477 -17.7340
   -17.7012 -17.6460 -17.6318 -17.6276 -17.6243 -17.6183 -17.6010 -17.5776
   -17.5349 -17.5042 -17.4717 -17.4707 -17.4487 -17.4407 -17.3976 -17.3820
   -17.3659 -17.3384 -17.2755 -17.2013 -17.1568 -15.0103  -7.7423  -6.5133
    -6.4717  -6.4217  -6.2651  -6.2412  -6.1987  -6.1682  -6.1377  -6.1309
    -6.0672  -6.0410  -6.0143  -5.9685  -5.9213  -5.8734  -5.8621  -5.8219
    -5.7698  -5.7471  -5.7446  -5.7128  -5.6787  -5.6188  -5.5869  -5.5814
    -5.5132  -5.5074  -5.4591  -5.4141  -5.3756  -5.3411  -5.3295  -5.3031
    -5.2738  -5.2438  -5.2382  -5.2011  -5.1970  -5.1449  -5.1418  -5.0888
    -5.0638  -5.0272  -4.9886  -4.9754  -4.9475  -4.8849  -4.8714  -4.8508
    -4.7964  -4.7397  -4.7172  -4.6761  -4.6543  -4.5693  -4.5610  -4.5262
    -4.5091  -4.4775  -4.4597  -4.4534  -4.4481  -4.3724  -4.3573  -4.3479
    -4.3318  -4.3073  -4.2779  -4.2645  -4.2373  -4.2130  -4.1829  -4.1625
    -4.1358  -4.1065  -4.1011  -4.0688  -4.0248  -4.0116  -3.9512  -3.9286
    -3.9220  -3.9017  -3.8740  -3.8272  -3.7890  -3.7603  -3.7124  -3.7035
    -3.6450  -3.6123  -3.5863  -3.5497  -3.5390  -3.5153  -3.4634  -3.4122
    -3.4069  -3.3707  -3.3470  -3.2940  -3.2806  -3.2404  -3.2280  -3.2132
    -3.1775  -3.1711  -3.1607  -3.0976  -3.0942  -3.0591  -3.0403  -2.9980
    -2.9533  -2.9333  -2.9151  -2.8784  -2.8546  -2.8457  -2.8440  -2.7590
    -2.7520  -2.7160  -2.6869  -2.6520  -2.5924  -2.5679  -2.5301  -2.4673
    -2.4408  -2.3996  -2.3814  -2.3695  -2.3414  -2.2752  -2.2141  -2.1683
    -2.1536  -2.1359  -2.0954  -2.0745  -2.0719  -1.9922  -1.9755  -1.9445
    -1.9084  -1.8853  -1.8618  -1.8484  -1.8173  -1.7971  -1.7717  -1.7391
    -1.6981  -1.6901  -1.6523  -1.6065  -1.5928  -1.5693  -1.5187  -1.5107
    -1.4563  -1.4337  -1.3916  -1.3348  -1.3128  -1.2759  -1.2542  -1.1796
    -1.1630  -1.1013  -1.0766  -1.0028  -0.8868  -0.4785   0.1761   0.9960
     1.2194   1.4228   1.6496   1.7695   1.9074   1.9655   2.0527   2.1222
     2.1495   2.1892   2.2345   2.2588   2.3177   2.3393   2.4241   2.4818
     2.5132   2.5337   2.5480   2.5800   2.6006   2.6178   2.6587   2.6794
     2.7019   2.7221   2.7621   2.7708   2.7886   2.8116   2.8390   2.8805
     2.9171   2.9310   2.9582   2.9978   3.0253   3.0375   3.0802   3.0879
     3.1129   3.1254   3.1687   3.1728   3.1782   3.2287   3.2351   3.2545
     3.2645   3.2889   3.3044   3.3309   3.3658   3.3795   3.4130   3.4389
     3.4576   3.4814   3.5164   3.5495   3.5755   3.6229   3.6391   3.6635
     3.6922   3.7094   3.7449   3.7977   3.8167   3.8293   3.8789   3.8906
     3.9449   3.9886   4.0635   4.1207   4.1301   4.2076   4.2576   4.3133
     4.4374   4.4930   4.5677   4.6522

          k =-0.2500 0.0000 0.0000 (149546 PWs)   bands (ev):

  -103.4546-103.4529-102.8825-102.8081-102.6147-102.5356-102.4960-102.4578
   -78.5267 -78.5246 -78.5230 -78.5190 -78.5099 -78.1379 -78.0888 -78.0660
   -73.6468 -73.1365 -72.3164 -72.1322 -71.4963 -71.3094 -70.7846 -63.9746
   -63.9589 -63.8170 -63.8117 -63.7250 -63.7181 -63.3757 -63.3130 -63.2994
   -63.2030 -63.1903 -63.1739 -63.0921 -63.0371 -63.0236 -62.9984 -62.9658
   -62.9652 -62.9520 -62.9136 -62.8839 -62.8817 -62.8217 -62.7998 -47.4329
   -47.3984 -47.3881 -47.3600 -47.3162 -47.3161 -47.2960 -47.2828 -47.2727
   -47.2477 -47.2346 -47.2207 -47.1876 -47.1742 -47.1697 -47.1055 -47.0977
   -47.0278 -46.9524 -46.9328 -46.9296 -46.7517 -46.6295 -46.5920 -45.1975
   -44.9747 -44.8409 -44.6103 -44.4961 -44.3470 -44.3170 -44.0616 -43.4696
   -43.2775 -43.2444 -43.1526 -43.1354 -43.0086 -42.8856 -42.4820 -42.4708
   -42.4369 -42.4022 -42.1275 -41.9022 -23.6811 -19.2479 -18.9318 -18.8656
   -18.8143 -18.7008 -18.5765 -18.5375 -18.4506 -18.3349 -18.3113 -18.2703
   -18.2324 -18.1719 -18.1591 -18.1006 -18.0664 -17.9815 -17.9359 -17.9164
   -17.8893 -17.8495 -17.8146 -17.8064 -17.7858 -17.7774 -17.7504 -17.7221
   -17.7101 -17.6860 -17.6746 -17.6565 -17.6307 -17.6201 -17.6001 -17.5657
   -17.5344 -17.5168 -17.4823 -17.4599 -17.4491 -17.4376 -17.4179 -17.4059
   -17.3744 -17.3054 -17.2939 -17.2183 -17.1512 -15.0084  -7.7448  -6.9160
    -6.6903  -6.6345  -6.5781  -6.4968  -6.3654  -6.2249  -6.2003  -6.1650
    -6.0933  -6.0405  -6.0251  -5.9866  -5.9578  -5.8960  -5.8917  -5.8581
    -5.8166  -5.7800  -5.7422  -5.7018  -5.6563  -5.6274  -5.5955  -5.5632
    -5.5242  -5.4974  -5.4581  -5.4429  -5.3967  -5.3507  -5.3274  -5.3220
    -5.2866  -5.2497  -5.2211  -5.1757  -5.1467  -5.1236  -5.0878  -5.0391
    -5.0073  -4.9595  -4.9532  -4.8909  -4.8456  -4.8173  -4.7692  -4.7463
    -4.7032  -4.6616  -4.6527  -4.6335  -4.6032  -4.5721  -4.5653  -4.5391
    -4.5209  -4.4651  -4.4535  -4.4302  -4.3971  -4.3749  -4.3316  -4.3257
    -4.2959  -4.2815  -4.2565  -4.2132  -4.2033  -4.1687  -4.1339  -4.1152
    -4.0951  -4.0780  -4.0423  -4.0281  -3.9921  -3.9698  -3.9312  -3.9031
    -3.8698  -3.8394  -3.8097  -3.7966  -3.7584  -3.7216  -3.7005  -3.6650
    -3.6215  -3.6010  -3.5679  -3.5457  -3.5166  -3.4962  -3.4557  -3.4407
    -3.4218  -3.3822  -3.3457  -3.3278  -3.3045  -3.2538  -3.2288  -3.2154
    -3.2063  -3.1754  -3.1564  -3.1105  -3.0926  -3.0767  -3.0206  -2.9893
    -2.9720  -2.9460  -2.9105  -2.8930  -2.8462  -2.8212  -2.8044  -2.7468
    -2.7202  -2.6867  -2.6510  -2.6222  -2.5746  -2.5509  -2.5013  -2.4813
    -2.4469  -2.3828  -2.3596  -2.3245  -2.2913  -2.2544  -2.2463  -2.2067
    -2.1836  -2.1400  -2.1277  -2.0999  -2.0745  -2.0431  -2.0061  -1.9655
    -1.9355  -1.9150  -1.8881  -1.8538  -1.8270  -1.7812  -1.7454  -1.7078
    -1.6757  -1.6555  -1.6227  -1.6036  -1.5684  -1.5482  -1.5266  -1.4979
    -1.4726  -1.4259  -1.3979  -1.3584  -1.3164  -1.2572  -1.2215  -1.1648
    -1.1316  -1.0588  -1.0162  -0.9504  -0.7790  -0.4752   0.1200   1.0061
     1.2431   1.4244   1.6904   1.7474   1.9132   1.9199   2.0146   2.0312
     2.1179   2.1616   2.2051   2.2768   2.2804   2.3648   2.4433   2.4634
     2.5016   2.5187   2.5615   2.5688   2.5991   2.6221   2.6367   2.6550
     2.6792   2.6925   2.7273   2.7500   2.7807   2.7971   2.8295   2.8666
     2.8772   2.9052   2.9243   2.9518   2.9720   3.0067   3.0318   3.0627
     3.1016   3.1202   3.1392   3.1637   3.1921   3.2056   3.2321   3.2529
     3.2802   3.2877   3.3062   3.3492   3.3576   3.3852   3.4163   3.4320
     3.4723   3.4882   3.4964   3.5408   3.5783   3.5910   3.6332   3.6758
     3.7058   3.7427   3.7637   3.7843   3.8079   3.8331   3.8849   3.9608
     3.9867   4.0599   4.1163   4.1706   4.2190   4.3371   4.4020   4.4399
     4.4679   4.6397   4.6754   4.7559

          k =-0.2500-0.2340 0.0000 (149458 PWs)   bands (ev):

  -103.4546-103.4529-102.8825-102.8081-102.6147-102.5356-102.4960-102.4578
   -78.5267 -78.5246 -78.5230 -78.5190 -78.5099 -78.1379 -78.0888 -78.0660
   -73.6468 -73.1365 -72.3164 -72.1322 -71.4963 -71.3094 -70.7846 -63.9746
   -63.9589 -63.8170 -63.8117 -63.7250 -63.7181 -63.3757 -63.3130 -63.2994
   -63.2030 -63.1903 -63.1739 -63.0921 -63.0371 -63.0236 -62.9984 -62.9658
   -62.9652 -62.9520 -62.9136 -62.8839 -62.8817 -62.8217 -62.7998 -47.4329
   -47.3984 -47.3881 -47.3599 -47.3162 -47.3161 -47.2960 -47.2828 -47.2727
   -47.2477 -47.2346 -47.2207 -47.1876 -47.1742 -47.1697 -47.1055 -47.0977
   -47.0278 -46.9524 -46.9328 -46.9296 -46.7517 -46.6295 -46.5920 -45.1975
   -44.9747 -44.8409 -44.6103 -44.4961 -44.3470 -44.3170 -44.0616 -43.4696
   -43.2775 -43.2444 -43.1526 -43.1354 -43.0086 -42.8856 -42.4820 -42.4708
   -42.4369 -42.4022 -42.1275 -41.9022 -23.6811 -19.1763 -19.0960 -18.8678
   -18.7633 -18.6581 -18.5423 -18.4961 -18.4442 -18.4181 -18.3601 -18.2789
   -18.1799 -18.1391 -18.1138 -18.0901 -18.0418 -18.0011 -17.9789 -17.9565
   -17.9117 -17.8812 -17.8190 -17.8048 -17.7924 -17.7587 -17.7483 -17.7185
   -17.7070 -17.6979 -17.6532 -17.6319 -17.6233 -17.6086 -17.5947 -17.5774
   -17.5720 -17.4893 -17.4843 -17.4624 -17.4494 -17.4334 -17.4172 -17.4058
   -17.3780 -17.3052 -17.2903 -17.2198 -17.1545 -15.0084  -7.7448  -6.8267
    -6.6845  -6.5772  -6.5529  -6.4872  -6.4085  -6.3025  -6.1943  -6.1402
    -6.1175  -6.0626  -6.0371  -5.9818  -5.9539  -5.9251  -5.8775  -5.8309
    -5.8049  -5.7776  -5.7226  -5.6822  -5.6588  -5.6253  -5.6092  -5.5947
    -5.5594  -5.5359  -5.5011  -5.4724  -5.4522  -5.4143  -5.3681  -5.3454
    -5.3129  -5.2703  -5.2516  -5.1962  -5.1473  -5.1054  -5.0745  -5.0415
    -5.0140  -4.9890  -4.9422  -4.8991  -4.8621  -4.8088  -4.7602  -4.7444
    -4.7173  -4.6810  -4.6433  -4.6036  -4.5927  -4.5709  -4.5499  -4.5240
    -4.5082  -4.4659  -4.4407  -4.4246  -4.4000  -4.3496  -4.3185  -4.2793
    -4.2672  -4.2371  -4.2116  -4.1859  -4.1600  -4.1494  -4.1253  -4.1114
    -4.0976  -4.0512  -4.0349  -3.9763  -3.9617  -3.9442  -3.9351  -3.8884
    -3.8414  -3.8320  -3.7945  -3.7549  -3.7321  -3.6925  -3.6816  -3.6451
    -3.6404  -3.6179  -3.5897  -3.5783  -3.5244  -3.5090  -3.4724  -3.4309
    -3.4136  -3.4009  -3.3522  -3.3262  -3.3137  -3.2823  -3.2438  -3.2232
    -3.1902  -3.1771  -3.1591  -3.1217  -3.0977  -3.0564  -3.0398  -3.0116
    -2.9766  -2.9446  -2.9113  -2.8786  -2.8459  -2.8238  -2.7833  -2.7543
    -2.6967  -2.6681  -2.6362  -2.6116  -2.5869  -2.5441  -2.4895  -2.4681
    -2.4355  -2.4187  -2.3717  -2.3384  -2.3178  -2.2558  -2.2332  -2.2131
    -2.1835  -2.1679  -2.1314  -2.1013  -2.0689  -2.0339  -2.0208  -1.9945
    -1.9691  -1.9181  -1.8917  -1.8684  -1.8426  -1.8225  -1.7700  -1.7389
    -1.6854  -1.6605  -1.6395  -1.6115  -1.5843  -1.5536  -1.5204  -1.4897
    -1.4535  -1.4042  -1.3653  -1.3249  -1.3188  -1.2678  -1.2437  -1.1859
    -1.1773  -1.0453  -1.0038  -0.9301  -0.8195  -0.4752   0.1480   1.0060
     1.2438   1.4323   1.6683   1.7418   1.9120   1.9217   2.0185   2.1269
     2.1481   2.1801   2.2117   2.2676   2.3518   2.3786   2.4492   2.4868
     2.5070   2.5295   2.5562   2.5817   2.6048   2.6155   2.6286   2.6471
     2.6590   2.6819   2.7049   2.7328   2.7614   2.7786   2.8332   2.8442
     2.8637   2.8939   2.9205   2.9449   2.9894   3.0058   3.0450   3.0570
     3.0974   3.1120   3.1322   3.1540   3.1908   3.2061   3.2340   3.2445
     3.2676   3.2972   3.3124   3.3254   3.3471   3.3776   3.4066   3.4297
     3.4405   3.4592   3.4956   3.5452   3.5657   3.5874   3.6267   3.6428
     3.7110   3.7361   3.7595   3.7862   3.8149   3.8621   3.9331   3.9679
     4.0145   4.1137   4.1430   4.1865   4.2396   4.3271   4.3615   4.4536
     4.5068   4.6306   4.6608   4.7739

     the Fermi energy is    -0.3660 ev

!    total energy              =   -7956.51522070 Ry
     estimated scf accuracy    <          8.5E-09 Ry
     smearing contrib. (-TS)   =       0.00172183 Ry
     internal energy E=F+TS    =   -7956.51694253 Ry

     The total energy is F=E-TS. E is the sum of the following terms:
     one-electron contribution =  -66202.75340119 Ry
     hartree contribution      =   33214.35042175 Ry
     xc contribution           =   -1066.03266737 Ry
     ewald contribution        =   26659.94106940 Ry
     Hubbard energy            =       4.05727112 Ry
     one-center paw contrib.   =    -566.07963625 Ry

     total magnetization       =    38.10 Bohr mag/cell
     absolute magnetization    =    65.33 Bohr mag/cell

     convergence has been achieved in  13 iterations

     negative rho (up, down):  2.818E-03 2.434E-02
     force_hub    :    834.05s CPU    840.90s WALL (       1 calls)
     dndtau       :    806.88s CPU    813.39s WALL (     450 calls)
     dprojdtau    :    613.26s CPU    618.35s WALL (   10350 calls)
     calc_doverla :    155.74s CPU    156.91s WALL (     450 calls)
     matel_dSdtau :    113.93s CPU    114.89s WALL (     900 calls)

     Forces acting on atoms (cartesian axes, Ry/au):

     atom    1 type  3   force =     0.00046257    0.01355103    0.05344287
     atom    2 type  4   force =    -0.00124527   -0.00339083    0.00791445
     atom    3 type  3   force =     0.00085695    0.01135459    0.03660220
     atom    4 type  1   force =    -0.00117142   -0.01857999    0.11212326
     atom    5 type  1   force =     0.00146708   -0.01187002   -0.03176993
     atom    6 type  4   force =     0.00083966    0.00357933    0.00595071
     atom    7 type  3   force =    -0.00553484   -0.00968773   -0.01884970
     atom    8 type  4   force =    -0.00166146    0.00697663    0.00521952
     atom    9 type  3   force =     0.01153462    0.01114430    0.01233100
     atom   10 type  4   force =    -0.01431731   -0.00198811    0.00599348
     atom   11 type  3   force =    -0.00586499    0.00096201    0.00826118
     atom   12 type  1   force =     0.02339784   -0.02164072    0.04652920
     atom   13 type  4   force =    -0.01419496    0.00093581    0.01739894
     atom   14 type  3   force =     0.00565923   -0.00463815   -0.00322890
     atom   15 type  1   force =     0.02232301   -0.00711117   -0.01024548
     atom   16 type  3   force =    -0.00654630   -0.01674537   -0.00456387
     atom   17 type  1   force =    -0.00086378    0.01508439   -0.02383265
     atom   18 type  4   force =     0.01374638    0.00236553    0.01005327
     atom   19 type  4   force =    -0.03233098    0.00908207    0.01919094
     atom   20 type  3   force =    -0.00827056   -0.00138446   -0.01604866
     atom   21 type  1   force =     0.01198532    0.02130696    0.01360333
     atom   22 type  1   force =    -0.00869988   -0.01885203    0.02149427
     atom   23 type  4   force =     0.01225423    0.02169738    0.02188214
     atom   24 type  2   force =     0.00686851   -0.01691563   -0.00307604
     atom   25 type  5   force =     0.00327623    0.00070034    0.03289097
     atom   26 type  5   force =     0.00002125    0.00010340   -0.02590019
     atom   27 type  5   force =    -0.00200745    0.00117583    0.02847001
     atom   28 type  5   force =     0.00567550   -0.00179866    0.00679817
     atom   29 type  5   force =     0.01236963    0.00052734    0.01758370
     atom   30 type  5   force =    -0.00029668   -0.00067167    0.00583081
     atom   31 type  5   force =    -0.01122078   -0.00196278    0.01588110
     atom   32 type  5   force =    -0.00118550    0.00326197    0.00126002
     atom   33 type  5   force =     0.00042985    0.00676553   -0.04026902
     atom   34 type  5   force =     0.02302442   -0.00488603   -0.04111790
     atom   35 type  5   force =    -0.00005775    0.00826635   -0.03856043
     atom   36 type  5   force =    -0.02165564   -0.00490751   -0.04129358
     atom   37 type  5   force =     0.00071122   -0.00704190   -0.04046013
     atom   38 type  5   force =     0.02585661    0.00895394   -0.03885959
     atom   39 type  5   force =     0.00010085   -0.01280706   -0.03812581
     atom   40 type  5   force =    -0.02273926    0.00517510   -0.04227395
     atom   41 type  5   force =     0.00262768    0.00018446   -0.02490153
     atom   42 type  5   force =     0.00218668    0.00216125   -0.02198726
     atom   43 type  5   force =    -0.00710530   -0.00565107   -0.00173701
     atom   44 type  5   force =    -0.00327314   -0.00071931   -0.00270766
     atom   45 type  5   force =    -0.02794697   -0.00196021    0.03630307
     atom   46 type  5   force =    -0.00127049    0.00304365    0.06388068
     atom   47 type  5   force =     0.01688329   -0.00326613    0.00711389
     atom   48 type  5   force =    -0.00091602    0.01147151    0.00275215
     atom   49 type  5   force =    -0.00390245    0.00826995   -0.00075196
     atom   50 type  5   force =    -0.01109115   -0.00075606   -0.00605084
     atom   51 type  5   force =     0.00546388    0.00322681    0.00165620
     atom   52 type  5   force =    -0.00143846    0.02215978   -0.01115238
     atom   53 type  5   force =    -0.00046919   -0.01121734   -0.00331228
     atom   54 type  5   force =    -0.02205314    0.01838621   -0.00294695
     atom   55 type  5   force =    -0.00100360   -0.01524793   -0.00625549
     atom   56 type  5   force =     0.02198018    0.02388066   -0.00255641
     atom   57 type  5   force =    -0.00575419    0.00404028    0.00240411
     atom   58 type  5   force =     0.01593977   -0.00078404   -0.01663398
     atom   59 type  5   force =    -0.00175812   -0.01281521   -0.00727045
     atom   60 type  5   force =    -0.00160109    0.01569621    0.00181746
     atom   61 type  5   force =    -0.01107696   -0.00887058   -0.02241529
     atom   62 type  5   force =    -0.01749570    0.00817432   -0.00148407
     atom   63 type  5   force =    -0.00696518    0.00760129   -0.01014642
     atom   64 type  5   force =    -0.00038872   -0.00205918   -0.01345122
     atom   65 type  5   force =     0.03822959   -0.01333154   -0.00291171
     atom   66 type  5   force =     0.00986623    0.02701885   -0.00000852
     atom   67 type  5   force =    -0.02297902   -0.01863088    0.00046903
     atom   68 type  5   force =    -0.00231979   -0.00353212    0.00187336
     atom   69 type  5   force =     0.03302552    0.00453477    0.00352068
     atom   70 type  5   force =     0.00197037   -0.03369444   -0.00386191
     atom   71 type  5   force =    -0.01626700    0.00229142    0.00363143
     atom   72 type  5   force =    -0.00416197   -0.01596638   -0.01010987
     atom   73 type  6   force =     0.01312319    0.00125966    0.00441531
     atom   74 type  6   force =    -0.00763095    0.00191324    0.01400647
     atom   75 type  7   force =    -0.00542395   -0.00290192   -0.01942038

     Total force =     0.160241     Total SCF correction =     0.000184

     Writing all to output data dir ./tmp_hs__leader_builder__ortho__rho/hc__leader_builder__ortho__fragment.save/ :
     XML data file, charge density, pseudopotentials, collected wavefunctions

     init_run     :     20.11s CPU     21.76s WALL (       1 calls)
     electrons    :    753.02s CPU    773.37s WALL (       1 calls)
     forces       :    850.02s CPU    857.46s WALL (       1 calls)

     Called by init_run:
     wfcinit      :      9.88s CPU     10.88s WALL (       1 calls)
     potinit      :      4.00s CPU      4.25s WALL (       1 calls)
     hinit0       :      1.88s CPU      1.93s WALL (       1 calls)

     Called by electrons:
     c_bands      :    591.96s CPU    602.31s WALL (      14 calls)
     sum_band     :    100.65s CPU    106.24s WALL (      14 calls)
     v_of_rho     :     27.36s CPU     28.12s WALL (      14 calls)
     newd         :     16.66s CPU     20.31s WALL (      14 calls)
     PAW_pot      :      6.04s CPU      6.06s WALL (      14 calls)
     mix_rho      :      8.96s CPU      9.08s WALL (      14 calls)

     Called by c_bands:
     init_us_2    :     12.02s CPU     12.28s WALL (      62 calls)
     cegterg      :    527.80s CPU    537.71s WALL (      28 calls)

     Called by *egterg:
     cdiaghg      :      8.07s CPU      8.14s WALL (      88 calls)
     h_psi        :    284.57s CPU    288.70s WALL (      92 calls)
     s_psi        :     52.46s CPU     52.82s WALL (      98 calls)
     g_psi        :      0.99s CPU      0.99s WALL (      64 calls)

     Called by h_psi:
     h_psi:calbec :     50.73s CPU     51.06s WALL (      92 calls)
     vloc_psi     :    120.95s CPU    122.13s WALL (      92 calls)
                                        0.00s GPU  (      92 calls)
     add_vuspsi   :     47.23s CPU     47.54s WALL (      92 calls)
     vhpsi        :     63.49s CPU     64.08s WALL (      92 calls)

     General routines
     calbec       :    212.91s CPU    214.60s WALL (    3856 calls)
     fft          :     25.03s CPU     25.31s WALL (     365 calls)
     ffts         :      5.40s CPU      5.44s WALL (    1532 calls)
     fftw         :    132.58s CPU    133.93s WALL (   59736 calls)
     interpolate  :      2.66s CPU      2.68s WALL (      28 calls)

     Parallel routines

     Hubbard U routines
     new_ns       :      6.19s CPU      6.39s WALL (      14 calls)
     vhpsi        :     63.49s CPU     64.08s WALL (      92 calls)
     force_hub    :    834.05s CPU    840.90s WALL (       1 calls)

     PWSCF        :  27m 5.52s CPU  27m36.18s WALL


   This run was terminated on:  11:23:39  10Sep2026            

=------------------------------------------------------------------------------=
   JOB DONE.
=------------------------------------------------------------------------------=
Note: The following floating-point exceptions are signalling: IEEE_DENORMAL
Note: The following floating-point exceptions are signalling: IEEE_UNDERFLOW_FLAG IEEE_DENORMAL
Note: The following floating-point exceptions are signalling: IEEE_UNDERFLOW_FLAG IEEE_DENORMAL
Note: The following floating-point exceptions are signalling: IEEE_DENORMAL
Note: The following floating-point exceptions are signalling: IEEE_UNDERFLOW_FLAG IEEE_DENORMAL
Note: The following floating-point exceptions are signalling: IEEE_UNDERFLOW_FLAG IEEE_DENORMAL
Note: The following floating-point exceptions are signalling: IEEE_UNDERFLOW_FLAG IEEE_DENORMAL
Note: The following floating-point exceptions are signalling: IEEE_DENORMAL
Note: The following floating-point exceptions are signalling: IEEE_UNDERFLOW_FLAG IEEE_DENORMAL
Note: The following floating-point exceptions are signalling: IEEE_UNDERFLOW_FLAG IEEE_DENORMAL
Note: The following floating-point exceptions are signalling: IEEE_UNDERFLOW_FLAG IEEE_DENORMAL
Note: The following floating-point exceptions are signalling: IEEE_UNDERFLOW_FLAG IEEE_DENORMAL
Note: The following floating-point exceptions are signalling: IEEE_UNDERFLOW_FLAG IEEE_DENORMAL
Note: The following floating-point exceptions are signalling: IEEE_DENORMAL
Note: The following floating-point exceptions are signalling: IEEE_UNDERFLOW_FLAG IEEE_DENORMAL
Note: The following floating-point exceptions are signalling: IEEE_UNDERFLOW_FLAG IEEE_DENORMAL
Note: The following floating-point exceptions are signalling: IEEE_UNDERFLOW_FLAG IEEE_DENORMAL
Note: The following floating-point exceptions are signalling: IEEE_UNDERFLOW_FLAG IEEE_DENORMAL
Note: The following floating-point exceptions are signalling: IEEE_UNDERFLOW_FLAG IEEE_DENORMAL
Note: The following floating-point exceptions are signalling: IEEE_DENORMAL
Note: The following floating-point exceptions are signalling: IEEE_UNDERFLOW_FLAG IEEE_DENORMAL
Note: The following floating-point exceptions are signalling: IEEE_DENORMAL
Note: The following floating-point exceptions are signalling: IEEE_UNDERFLOW_FLAG IEEE_DENORMAL
Note: The following floating-point exceptions are signalling: IEEE_UNDERFLOW_FLAG IEEE_DENORMAL
Note: The following floating-point exceptions are signalling: IEEE_UNDERFLOW_FLAG IEEE_DENORMAL
Note: The following floating-point exceptions are signalling: IEEE_UNDERFLOW_FLAG IEEE_DENORMAL
Note: The following floating-point exceptions are signalling: IEEE_UNDERFLOW_FLAG IEEE_DENORMAL
Note: The following floating-point exceptions are signalling: IEEE_UNDERFLOW_FLAG IEEE_DENORMAL
Note: The following floating-point exceptions are signalling: IEEE_UNDERFLOW_FLAG IEEE_DENORMAL
Note: The following floating-point exceptions are signalling: IEEE_DENORMAL
Note: The following floating-point exceptions are signalling: IEEE_DENORMAL
Note: The following floating-point exceptions are signalling: IEEE_UNDERFLOW_FLAG IEEE_DENORMAL
Note: The following floating-point exceptions are signalling: IEEE_UNDERFLOW_FLAG IEEE_DENORMAL
Note: The following floating-point exceptions are signalling: IEEE_UNDERFLOW_FLAG IEEE_DENORMAL
Note: The following floating-point exceptions are signalling: IEEE_DENORMAL
Note: The following floating-point exceptions are signalling: IEEE_DENORMAL
Note: The following floating-point exceptions are signalling: IEEE_UNDERFLOW_FLAG IEEE_DENORMAL
Note: The following floating-point exceptions are signalling: IEEE_DENORMAL
Note: The following floating-point exceptions are signalling: IEEE_UNDERFLOW_FLAG IEEE_DENORMAL
Note: The following floating-point exceptions are signalling: IEEE_UNDERFLOW_FLAG IEEE_DENORMAL
Note: The following floating-point exceptions are signalling: IEEE_UNDERFLOW_FLAG IEEE_DENORMAL
Note: The following floating-point exceptions are signalling: IEEE_DENORMAL
Note: The following floating-point exceptions are signalling: IEEE_UNDERFLOW_FLAG IEEE_DENORMAL
Note: The following floating-point exceptions are signalling: IEEE_DENORMAL
Note: The following floating-point exceptions are signalling: IEEE_UNDERFLOW_FLAG IEEE_DENORMAL
Note: The following floating-point exceptions are signalling: IEEE_DENORMAL
Note: The following floating-point exceptions are signalling: IEEE_UNDERFLOW_FLAG IEEE_DENORMAL
Note: The following floating-point exceptions are signalling: IEEE_UNDERFLOW_FLAG IEEE_DENORMAL
Note: The following floating-point exceptions are signalling: IEEE_UNDERFLOW_FLAG IEEE_DENORMAL
Note: The following floating-point exceptions are signalling: IEEE_UNDERFLOW_FLAG IEEE_DENORMAL
Note: The following floating-point exceptions are signalling: IEEE_UNDERFLOW_FLAG IEEE_DENORMAL
Note: The following floating-point exceptions are signalling: IEEE_UNDERFLOW_FLAG IEEE_DENORMAL
Note: The following floating-point exceptions are signalling: IEEE_DENORMAL
Note: The following floating-point exceptions are signalling: IEEE_UNDERFLOW_FLAG IEEE_DENORMAL
Note: The following floating-point exceptions are signalling: IEEE_DENORMAL
Note: The following floating-point exceptions are signalling: IEEE_UNDERFLOW_FLAG IEEE_DENORMAL
Note: The following floating-point exceptions are signalling: IEEE_UNDERFLOW_FLAG IEEE_DENORMAL
Note: The following floating-point exceptions are signalling: IEEE_UNDERFLOW_FLAG IEEE_DENORMAL
Note: The following floating-point exceptions are signalling: IEEE_DENORMAL
Note: The following floating-point exceptions are signalling: IEEE_UNDERFLOW_FLAG IEEE_DENORMAL
Note: The following floating-point exceptions are signalling: IEEE_UNDERFLOW_FLAG IEEE_DENORMAL
Note: The following floating-point exceptions are signalling: IEEE_UNDERFLOW_FLAG IEEE_DENORMAL
Note: The following floating-point exceptions are signalling: IEEE_UNDERFLOW_FLAG IEEE_DENORMAL
Note: The following floating-point exceptions are signalling: IEEE_UNDERFLOW_FLAG IEEE_DENORMAL
Note: The following floating-point exceptions are signalling: IEEE_UNDERFLOW_FLAG IEEE_DENORMAL
Note: The following floating-point exceptions are signalling: IEEE_UNDERFLOW_FLAG IEEE_DENORMAL
Note: The following floating-point exceptions are signalling: IEEE_UNDERFLOW_FLAG IEEE_DENORMAL
Note: The following floating-point exceptions are signalling: IEEE_UNDERFLOW_FLAG IEEE_DENORMAL
Note: The following floating-point exceptions are signalling: IEEE_UNDERFLOW_FLAG IEEE_DENORMAL
Note: The following floating-point exceptions are signalling: IEEE_UNDERFLOW_FLAG IEEE_DENORMAL
Note: The following floating-point exceptions are signalling: IEEE_UNDERFLOW_FLAG IEEE_DENORMAL
Note: The following floating-point exceptions are signalling: IEEE_UNDERFLOW_FLAG IEEE_DENORMAL
Note: The following floating-point exceptions are signalling: IEEE_UNDERFLOW_FLAG IEEE_DENORMAL
