
     Program PWSCF v.7.5 starts on  7Aug2026 at 16:33:45 

     This program is part of the open-source Quantum ESPRESSO suite
     for quantum simulation of materials; please cite
         "P. Giannozzi et al., J. Phys.:Condens. Matter 21 395502 (2009);
         "P. Giannozzi et al., J. Phys.:Condens. Matter 29 465901 (2017);
         "P. Giannozzi et al., J. Chem. Phys. 152 154105 (2020);
          URL http://www.quantum-espresso.org", 
     in publications or presentations arising from this work. More details at
     http://www.quantum-espresso.org/quote

     Parallel version (MPI & OpenMP), running on       4 processor cores
     Number of MPI processes:                 4
     Threads/MPI process:                     1

     MPI processes distributed on     1 nodes
     47446 MiB available memory on the printing compute node when the environment starts

     Reading input from s0_OOH__base.run.in

     Current dimensions of program PWSCF are:
     Max number of different atomic species (ntypx) = 10
     Max number of k-points (npk) =  40000
     Max angular momentum in pseudopotentials (lmaxx) =  4
     file O.pbe-n-kjpaw_psl.0.1.UPF: wavefunction(s)  2P renormalized
     Message from routine setup:
     using ibrav=0 with symmetry is DISCOURAGED, use correct ibrav instead

     K-points division:     npool     =       4
     Subspace diagonalization in iterative solution of the eigenvalue problem:
     a serial algorithm will be used


     G-vector sticks info
     --------------------
     sticks:   dense  smooth     PW     G-vecs:    dense   smooth      PW
     Sum        3587    1793    513               925697   327113   49625

     Using Slab Decomposition



     bravais-lattice index     =            0
     lattice parameter (alat)  =       5.8714  a.u.
     unit-cell volume          =    3384.5999 (a.u.)^3
     number of atoms/cell      =           21
     number of atomic types    =            3
     number of electrons       =       181.00
     number of Kohn-Sham states=          109
     kinetic-energy cutoff     =      80.0000  Ry
     charge density cutoff     =     640.0000  Ry
     scf convergence threshold =      1.0E-06
     mixing beta               =       0.3000
     number of iterations used =            8  local-TF  mixing
     Exchange-correlation= SLA  PW   PBX  PBC
                           (   1   4   3   4   0   0   0)

     celldm(1)=   5.871379  celldm(2)=   0.000000  celldm(3)=   0.000000
     celldm(4)=   0.000000  celldm(5)=   0.000000  celldm(6)=   0.000000

     crystal axes: (cart. coord. in units of alat)
               a(1) = (   1.000000   0.000000   0.000000 )  
               a(2) = (   0.000000   2.044624   0.000000 )  
               a(3) = (   0.000000   0.000000   8.178497 )  

     reciprocal axes: (cart. coord. in units 2 pi/alat)
               b(1) = (  1.000000  0.000000  0.000000 )  
               b(2) = (  0.000000  0.489087  0.000000 )  
               b(3) = (  0.000000  0.000000  0.122272 )  


     PseudoPot. # 1 for H  read from file:
     /usr/share/espresso/pseudo/H.pbe-rrkjus_psl.1.0.0.UPF
     MD5 check sum: f52b6d4d1c606e5624b1dc7b2218f220
     Pseudo is Ultrasoft, Zval =  1.0
     Generated using "atomic" code by A. Dal Corso  v.5.1
     Using radial grid of  929 points,  2 beta functions with: 
                l(1) =   0
                l(2) =   0
     Q(r) pseudized with 0 coefficients 


     PseudoPot. # 2 for Ru read from file:
     /usr/share/espresso/pseudo/Ru_ONCV_PBE-1.0.oncvpsp.upf
     MD5 check sum: be037bb81c227cfb9b1461a9f099f4bd
     Pseudo is Norm-conserving, Zval = 16.0
     Generated using ONCVPSP code by D. R. Hamann
     Using radial grid of 1458 points,  6 beta functions with: 
                l(1) =   0
                l(2) =   0
                l(3) =   1
                l(4) =   1
                l(5) =   2
                l(6) =   2

     PseudoPot. # 3 for O  read from file:
     /usr/share/espresso/pseudo/O.pbe-n-kjpaw_psl.0.1.UPF
     MD5 check sum: 0234752ac141de4415c5fc33072bef88
     Pseudo is Projector augmented-wave + core cor, Zval =  6.0
     Generated using "atomic" code by A. Dal Corso  v.5.0.99 svn rev. 10869
     Shape of augmentation charge: BESSEL
     Using radial grid of 1095 points,  4 beta functions with: 
                l(1) =   0
                l(2) =   0
                l(3) =   1
                l(4) =   1
     Q(r) pseudized with 0 coefficients 


     atomic species   valence    mass     pseudopotential
     H                 1.00     1.00800     H ( 1.00)
     Ru               16.00   101.07000     Ru( 1.00)
     O                 6.00    15.99900     O ( 1.00)

      2 Sym. Ops. (no inversion) found ( 1 have fractional translation)



   Cartesian axes

     site n.     atom                  positions (alat units)
         1        Ru     tau(   1) = (   0.0000000   0.5111560   3.0669363  )
         2        Ru     tau(   2) = (   0.5000000   1.5334681   3.0669363  )
         3        Ru     tau(   3) = (   0.0036513   1.5334681   4.1010901  )
         4        Ru     tau(   4) = (   0.5011434   0.5111560   4.0829838  )
         5        Ru     tau(   5) = (  -0.0034005   0.5111560   5.1128160  )
         6        Ru     tau(   6) = (   0.5023911   1.5334681   5.1500971  )
         7        O      tau(   7) = (   0.0000000   1.5334681   3.4656380  )
         8        O      tau(   8) = (   0.0000000   1.5334681   2.6682346  )
         9        O      tau(   9) = (   0.5000000   0.1124543   3.0669363  )
        10        O      tau(  10) = (   0.5000000   0.9098578   3.0669363  )
        11        O      tau(  11) = (   0.0014323   0.5111560   4.4911398  )
        12        O      tau(  12) = (   0.0000000   0.5111560   3.6905466  )
        13        O      tau(  13) = (   0.5034297   1.1369455   4.0929878  )
        14        O      tau(  14) = (   0.5034297   1.9299908   4.0929878  )
        15        O      tau(  15) = (   0.0031289   1.5334681   5.5052300  )
        16        O      tau(  16) = (   0.0021555   1.5334681   4.7241012  )
        17        O      tau(  17) = (   0.5023215   0.1156519   5.1188702  )
        18        O      tau(  18) = (   0.5023215   0.9066602   5.1188702  )
        19        O      tau(  19) = (   0.0666044   0.5111560   5.7356750  )
        20        O      tau(  20) = (  -0.2099082   0.5111560   6.0861679  )
        21        H      tau(  21) = (  -0.5108953   0.5111560   5.9503934  )

     number of k points=    15  Marzari-Vanderbilt smearing, width (Ry)=  0.0100
                       cart. coord. in units 2pi/alat
        k(    1) = (   0.0000000   0.0000000   0.0000000), wk =   0.0625000
        k(    2) = (   0.0000000   0.1222719   0.0000000), wk =   0.1250000
        k(    3) = (   0.0000000  -0.2445437   0.0000000), wk =   0.0625000
        k(    4) = (   0.1250000   0.0000000   0.0000000), wk =   0.1250000
        k(    5) = (   0.1250000   0.1222719   0.0000000), wk =   0.2500000
        k(    6) = (   0.1250000  -0.2445437   0.0000000), wk =   0.1250000
        k(    7) = (   0.2500000   0.0000000   0.0000000), wk =   0.1250000
        k(    8) = (   0.2500000   0.1222719   0.0000000), wk =   0.2500000
        k(    9) = (   0.2500000  -0.2445437   0.0000000), wk =   0.1250000
        k(   10) = (   0.3750000   0.0000000   0.0000000), wk =   0.1250000
        k(   11) = (   0.3750000   0.1222719   0.0000000), wk =   0.2500000
        k(   12) = (   0.3750000  -0.2445437   0.0000000), wk =   0.1250000
        k(   13) = (  -0.5000000   0.0000000   0.0000000), wk =   0.0625000
        k(   14) = (  -0.5000000   0.1222719   0.0000000), wk =   0.1250000
        k(   15) = (  -0.5000000  -0.2445437   0.0000000), wk =   0.0625000

     Dense  grid:   925697 G-vectors     FFT dimensions: (  48, 100, 400)

     Smooth grid:   327113 G-vectors     FFT dimensions: (  36,  72, 288)

     Estimated max dynamical RAM per process >       1.43 GB

     Estimated total dynamical RAM >       5.06 GB

     Initial potential from superposition of free atoms

     starting charge     180.9967, renormalised to     181.0000

     negative rho (up, down):  7.992E-05 0.000E+00
     Starting wfcs are  117 randomized atomic wfcs
     Checking if some PAW data can be deallocated... 

     total cpu time spent up to now is       22.7 secs

     per-process dynamical memory:   891.0 Mb

     Self-consistent Calculation

     iteration #  1     ecut=    80.00 Ry     beta= 0.30
     Davidson diagonalization with overlap
     ethr =  1.00E-02,  avg # of iterations =  2.0

     negative rho (up, down):  1.950E-07 0.000E+00

     total cpu time spent up to now is       73.9 secs

     total energy              =   -1714.87169453 Ry
     estimated scf accuracy    <       4.42730599 Ry

     iteration #  2     ecut=    80.00 Ry     beta= 0.30
     Davidson diagonalization with overlap
     ethr =  2.45E-03,  avg # of iterations =  1.0

     total cpu time spent up to now is      115.9 secs

     total energy              =   -1714.94615828 Ry
     estimated scf accuracy    <       1.19050956 Ry

     iteration #  3     ecut=    80.00 Ry     beta= 0.30
     Davidson diagonalization with overlap
     ethr =  6.58E-04,  avg # of iterations =  1.5

     total cpu time spent up to now is      160.5 secs

     total energy              =   -1715.00232886 Ry
     estimated scf accuracy    <       0.65705374 Ry

     iteration #  4     ecut=    80.00 Ry     beta= 0.30
     Davidson diagonalization with overlap
     ethr =  3.63E-04,  avg # of iterations =  1.0

     total cpu time spent up to now is      202.7 secs

     total energy              =   -1715.01358486 Ry
     estimated scf accuracy    <       0.15717694 Ry

     iteration #  5     ecut=    80.00 Ry     beta= 0.30
     Davidson diagonalization with overlap
     ethr =  8.68E-05,  avg # of iterations =  1.7

     total cpu time spent up to now is      247.4 secs

     total energy              =   -1715.00874503 Ry
     estimated scf accuracy    <       0.08390477 Ry

     iteration #  6     ecut=    80.00 Ry     beta= 0.30
     Davidson diagonalization with overlap
     ethr =  4.64E-05,  avg # of iterations =  2.9

     total cpu time spent up to now is      293.7 secs

     total energy              =   -1715.00864170 Ry
     estimated scf accuracy    <       0.02343106 Ry

     iteration #  7     ecut=    80.00 Ry     beta= 0.30
     Davidson diagonalization with overlap
     ethr =  1.29E-05,  avg # of iterations =  4.6

     total cpu time spent up to now is      341.9 secs

     total energy              =   -1715.00909910 Ry
     estimated scf accuracy    <       0.01452316 Ry

     iteration #  8     ecut=    80.00 Ry     beta= 0.30
     Davidson diagonalization with overlap
     ethr =  8.02E-06,  avg # of iterations =  2.5

     total cpu time spent up to now is      387.6 secs

     total energy              =   -1715.00757562 Ry
     estimated scf accuracy    <       0.01134696 Ry

     iteration #  9     ecut=    80.00 Ry     beta= 0.30
     Davidson diagonalization with overlap
     ethr =  6.27E-06,  avg # of iterations =  3.9

     total cpu time spent up to now is      434.2 secs

     total energy              =   -1715.00738085 Ry
     estimated scf accuracy    <       0.00514053 Ry

     iteration # 10     ecut=    80.00 Ry     beta= 0.30
     Davidson diagonalization with overlap
     ethr =  2.84E-06,  avg # of iterations =  2.5

     negative rho (up, down):  8.752E-05 0.000E+00

     total cpu time spent up to now is      480.5 secs

     total energy              =   -1715.00708838 Ry
     estimated scf accuracy    <       0.00335368 Ry

     iteration # 11     ecut=    80.00 Ry     beta= 0.30
     Davidson diagonalization with overlap
     ethr =  1.85E-06,  avg # of iterations =  1.9

     negative rho (up, down):  1.557E-03 0.000E+00

     total cpu time spent up to now is      525.8 secs

     total energy              =   -1715.00700276 Ry
     estimated scf accuracy    <       0.00145475 Ry

     iteration # 12     ecut=    80.00 Ry     beta= 0.30
     Davidson diagonalization with overlap
     ethr =  8.04E-07,  avg # of iterations =  1.4

     negative rho (up, down):  4.415E-03 0.000E+00

     total cpu time spent up to now is      570.1 secs

     total energy              =   -1715.00694742 Ry
     estimated scf accuracy    <       0.00083463 Ry

     iteration # 13     ecut=    80.00 Ry     beta= 0.30
     Davidson diagonalization with overlap
     ethr =  4.61E-07,  avg # of iterations =  4.4

     negative rho (up, down):  2.658E-03 0.000E+00

     total cpu time spent up to now is      618.7 secs

     total energy              =   -1715.00692809 Ry
     estimated scf accuracy    <       0.00047405 Ry

     iteration # 14     ecut=    80.00 Ry     beta= 0.30
     Davidson diagonalization with overlap
     ethr =  2.62E-07,  avg # of iterations =  1.1

     negative rho (up, down):  2.958E-03 0.000E+00

     total cpu time spent up to now is      661.9 secs

     total energy              =   -1715.00696013 Ry
     estimated scf accuracy    <       0.00025475 Ry

     iteration # 15     ecut=    80.00 Ry     beta= 0.30
     Davidson diagonalization with overlap
     ethr =  1.41E-07,  avg # of iterations =  1.4

     negative rho (up, down):  2.538E-03 0.000E+00

     total cpu time spent up to now is      706.5 secs

     total energy              =   -1715.00699815 Ry
     estimated scf accuracy    <       0.00009345 Ry

     iteration # 16     ecut=    80.00 Ry     beta= 0.30
     Davidson diagonalization with overlap
     ethr =  5.16E-08,  avg # of iterations =  1.1

     negative rho (up, down):  1.345E-03 0.000E+00

     total cpu time spent up to now is      749.2 secs

     total energy              =   -1715.00700963 Ry
     estimated scf accuracy    <       0.00005538 Ry

     iteration # 17     ecut=    80.00 Ry     beta= 0.30
     Davidson diagonalization with overlap
     ethr =  3.06E-08,  avg # of iterations =  1.1

     negative rho (up, down):  1.191E-03 0.000E+00

     total cpu time spent up to now is      792.3 secs

     total energy              =   -1715.00703706 Ry
     estimated scf accuracy    <       0.00002087 Ry

     iteration # 18     ecut=    80.00 Ry     beta= 0.30
     Davidson diagonalization with overlap
     ethr =  1.15E-08,  avg # of iterations =  1.6

     negative rho (up, down):  7.489E-04 0.000E+00

     total cpu time spent up to now is      836.5 secs

     total energy              =   -1715.00704063 Ry
     estimated scf accuracy    <       0.00001377 Ry

     iteration # 19     ecut=    80.00 Ry     beta= 0.30
     Davidson diagonalization with overlap
     ethr =  7.61E-09,  avg # of iterations =  1.1

     negative rho (up, down):  4.820E-04 0.000E+00

     total cpu time spent up to now is      878.9 secs

     total energy              =   -1715.00704095 Ry
     estimated scf accuracy    <       0.00000582 Ry

     iteration # 20     ecut=    80.00 Ry     beta= 0.30
     Davidson diagonalization with overlap
     ethr =  3.21E-09,  avg # of iterations =  1.4

     negative rho (up, down):  2.065E-04 0.000E+00

     total cpu time spent up to now is      923.2 secs

     total energy              =   -1715.00704081 Ry
     estimated scf accuracy    <       0.00000322 Ry

     iteration # 21     ecut=    80.00 Ry     beta= 0.30
     Davidson diagonalization with overlap
     ethr =  1.78E-09,  avg # of iterations =  1.4

     negative rho (up, down):  1.988E-04 0.000E+00

     total cpu time spent up to now is      967.5 secs

     total energy              =   -1715.00704051 Ry
     estimated scf accuracy    <       0.00000194 Ry

     iteration # 22     ecut=    80.00 Ry     beta= 0.30
     Davidson diagonalization with overlap
     ethr =  1.07E-09,  avg # of iterations =  1.5

     negative rho (up, down):  9.706E-05 0.000E+00

     total cpu time spent up to now is     1008.1 secs

     End of self-consistent calculation

          k = 0.0000 0.0000 0.0000 ( 40831 PWs)   bands (ev):

   -72.4799 -72.2265 -72.0651 -72.0364 -72.0214 -71.7185 -42.5691 -42.4110
   -42.3976 -42.3702 -42.3473 -42.3007 -42.2519 -42.0900 -42.0864 -41.9501
   -41.9319 -41.9041 -41.8924 -41.8861 -41.8645 -41.8572 -41.6144 -41.5809
   -22.2474 -18.6118 -18.3030 -18.1556 -17.9887 -17.6033 -17.4711 -17.1328
   -16.8561 -16.7913 -16.7268 -16.4829 -15.8039 -14.2600  -7.2877  -6.9278
    -6.9161  -6.9054  -6.4233  -6.0304  -5.4663  -5.4174  -5.4038  -5.3743
    -5.3536  -5.3021  -5.1790  -4.9679  -4.8867  -4.0746  -4.0209  -3.6051
    -3.3013  -2.9751  -2.8793  -2.8030  -2.7667  -2.6533  -2.6205  -2.4251
    -2.3552  -2.2319  -2.1321  -2.0943  -1.9171  -1.7242  -1.7006  -1.5576
    -1.2300  -1.1287  -0.9733  -0.8370  -0.5393  -0.4495  -0.1322   0.0571
     0.0633   0.1044   0.1710   0.1860   0.2456   0.4042   0.4930   0.8060
     0.8456   0.9392   1.3171   1.4375   1.5761   2.0939   2.4309   2.5338
     2.7159   3.0596   3.6153   4.4217   5.0384   5.5143   5.5906   5.7988
     6.0302   6.0494   6.0550   6.1038   6.2583

          k = 0.0000 0.1223 0.0000 ( 40974 PWs)   bands (ev):

   -72.4799 -72.2265 -72.0651 -72.0363 -72.0215 -71.7185 -42.5679 -42.4110
   -42.3966 -42.3700 -42.3475 -42.3007 -42.2499 -42.0900 -42.0863 -41.9501
   -41.9332 -41.9041 -41.8917 -41.8862 -41.8652 -41.8594 -41.6144 -41.5820
   -22.2472 -18.5036 -18.1692 -18.0286 -18.0139 -17.6153 -17.5176 -17.1394
   -16.9960 -16.9341 -16.8864 -16.4815 -15.8010 -14.2600  -7.2840  -6.5260
    -6.4705  -6.4437  -6.3773  -6.0225  -5.3983  -5.3672  -5.3284  -5.3238
    -5.2958  -5.2198  -5.1247  -4.9658  -4.7016  -4.0858  -3.9707  -3.8264
    -3.6040  -3.4816  -3.3485  -3.2151  -2.9288  -2.8461  -2.7495  -2.5613
    -2.5300  -2.4338  -2.4095  -2.2679  -2.1725  -1.9972  -1.8226  -1.6644
    -1.4427  -1.2925  -1.1339  -0.8841  -0.6985  -0.5414   0.2379   0.2554
     0.4190   0.5421   0.6347   0.6710   0.6897   0.7178   0.8198   0.8320
     0.8703   1.0161   1.3075   1.4266   1.6328   2.1114   2.1923   2.4569
     2.6991   2.9117   4.0086   4.7451   5.2386   5.5364   5.5906   5.7381
     5.8023   5.8476   5.8761   6.0450   6.3141

          k = 0.0000-0.2445 0.0000 ( 41014 PWs)   bands (ev):

   -72.4799 -72.2265 -72.0651 -72.0362 -72.0216 -71.7185 -42.5668 -42.4110
   -42.3956 -42.3699 -42.3476 -42.3007 -42.2478 -42.0900 -42.0863 -41.9501
   -41.9345 -41.9041 -41.8909 -41.8863 -41.8659 -41.8616 -41.6145 -41.5832
   -22.2471 -18.3370 -18.1265 -17.8979 -17.7712 -17.7478 -17.6302 -17.1840
   -17.1545 -17.0709 -17.0412 -16.4817 -15.7988 -14.2600  -7.2839  -6.4533
    -6.0610  -5.7575  -5.7221  -5.6499  -5.3879  -5.3734  -5.2764  -5.2274
    -5.2153  -5.1304  -4.9589  -4.7256  -4.5687  -4.3112  -4.2233  -4.1814
    -4.1229  -4.0963  -3.9985  -3.6137  -3.3748  -3.1315  -2.9047  -2.7956
    -2.7944  -2.6674  -2.4405  -2.4277  -2.3221  -2.1047  -1.7606  -1.5572
    -1.3534  -1.2406  -1.1335  -0.8299  -0.7820  -0.6940   0.2402   0.2986
     0.7563   0.7739   0.8119   0.9102   0.9798   1.0125   1.1285   1.1337
     1.1964   1.2337   1.3679   1.4800   1.5452   1.9051   1.9852   2.4010
     2.4665   3.0216   4.6160   4.6316   5.4857   5.5136   5.5488   5.5707
     5.5842   5.8309   5.8312   6.0445   6.1377

          k = 0.1250 0.0000 0.0000 ( 40851 PWs)   bands (ev):

   -72.4783 -72.2250 -72.0636 -72.0348 -72.0199 -71.7169 -42.5669 -42.4390
   -42.3955 -42.3654 -42.3455 -42.2991 -42.2495 -42.1123 -42.0859 -41.9465
   -41.9276 -41.9191 -41.9135 -41.9028 -41.8901 -41.8532 -41.6418 -41.5765
   -22.1698 -18.4833 -18.1855 -18.0445 -17.8955 -17.5269 -17.3838 -17.1928
   -16.9319 -16.8701 -16.8083 -16.5598 -15.8470 -14.4203  -7.4151  -6.7552
    -6.7393  -6.7263  -6.2424  -6.0237  -5.4921  -5.4919  -5.4742  -5.3262
    -5.2927  -5.1820  -4.8311  -4.6849  -4.6643  -4.3335  -3.8616  -3.4931
    -3.3833  -3.2096  -3.0746  -2.8601  -2.7900  -2.7238  -2.7035  -2.6174
    -2.4140  -2.4095  -2.3658  -2.0640  -1.9719  -1.8152  -1.7476  -1.7340
    -1.6317  -1.5451  -1.5020  -0.9612  -0.7446  -0.4907  -0.0884   0.2531
     0.3142   0.3856   0.4766   0.5630   0.5799   0.6796   0.7830   0.8986
     1.0114   1.0188   1.5001   1.5459   1.7080   1.9521   2.2837   2.5824
     2.6822   2.9155   3.7707   4.5351   5.0815   5.1804   5.3190   5.6066
     5.6727   5.7272   5.7340   5.7900   6.3062

          k = 0.1250 0.1223 0.0000 ( 40932 PWs)   bands (ev):

   -72.4783 -72.2250 -72.0636 -72.0347 -72.0199 -71.7169 -42.5661 -42.4390
   -42.3948 -42.3653 -42.3457 -42.2991 -42.2480 -42.1123 -42.0858 -41.9465
   -41.9287 -41.9184 -41.9134 -41.9029 -41.8909 -41.8546 -41.6417 -41.5774
   -22.1697 -18.3819 -18.0584 -17.9327 -17.9063 -17.5295 -17.4354 -17.1983
   -17.0608 -17.0019 -16.9549 -16.5586 -15.8447 -14.4202  -7.4147  -6.3731
    -6.3132  -6.2873  -6.2071  -6.0128  -5.4915  -5.4008  -5.3840  -5.3320
    -5.2163  -4.9628  -4.8496  -4.6877  -4.5248  -4.3284  -3.8793  -3.7337
    -3.5660  -3.4400  -3.3567  -3.2558  -3.1186  -3.0519  -2.9737  -2.8413
    -2.7563  -2.7094  -2.5067  -2.3890  -2.2052  -1.9095  -1.8490  -1.6904
    -1.6269  -1.4733  -1.2641  -0.7979  -0.7656  -0.6324   0.1803   0.3723
     0.5218   0.6015   0.6383   0.7386   0.7802   0.9799   1.0165   1.0559
     1.1467   1.2171   1.5008   1.6099   1.7017   2.0115   2.0740   2.3605
     2.6666   2.9071   4.0974   4.7677   5.0977   5.1471   5.2613   5.4228
     5.4990   5.6292   5.6391   5.7937   6.3520

          k = 0.1250-0.2445 0.0000 ( 40974 PWs)   bands (ev):

   -72.4783 -72.2250 -72.0636 -72.0346 -72.0200 -71.7169 -42.5652 -42.4390
   -42.3941 -42.3651 -42.3458 -42.2991 -42.2465 -42.1123 -42.0858 -41.9466
   -41.9298 -41.9175 -41.9134 -41.9031 -41.8918 -41.8561 -41.6416 -41.5783
   -22.1695 -18.2278 -18.0164 -17.7887 -17.6664 -17.6564 -17.5554 -17.2510
   -17.2096 -17.1306 -17.0903 -16.5587 -15.8428 -14.4202  -7.4155  -6.2767
    -6.0441  -5.5619  -5.5213  -5.4683  -5.4320  -5.4169  -5.3764  -5.3471
    -5.3111  -4.8625  -4.7069  -4.5511  -4.4423  -4.3082  -4.2253  -4.0968
    -3.9066  -3.8151  -3.8050  -3.6956  -3.6083  -3.5583  -3.3097  -3.0529
    -2.9693  -2.9204  -2.7458  -2.5107  -2.1787  -1.9184  -1.9143  -1.5459
    -1.3621  -1.1553  -1.0981  -1.0201  -0.7533  -0.6850   0.3625   0.4602
     0.5166   0.6807   0.7498   0.8063   0.8458   1.1361   1.4006   1.4493
     1.4763   1.5149   1.5196   1.5891   1.7734   1.8816   1.9321   2.2837
     2.3584   3.0548   4.5702   4.6679   4.9138   4.9767   5.0454   5.3463
     5.4369   5.6296   5.7685   5.9152   6.2210

          k = 0.2500 0.0000 0.0000 ( 40947 PWs)   bands (ev):

   -72.4745 -72.2214 -72.0598 -72.0310 -72.0162 -71.7131 -42.5618 -42.5060
   -42.3906 -42.3536 -42.3413 -42.2958 -42.2438 -42.1742 -42.0759 -41.9835
   -41.9787 -41.9619 -41.9300 -41.9173 -41.8970 -41.8434 -41.7073 -41.5657
   -21.9697 -18.1569 -17.8972 -17.7723 -17.6914 -17.4122 -17.2984 -17.1632
   -17.1108 -17.0555 -16.9999 -16.7238 -15.9037 -14.8297  -7.6192  -6.3196
    -6.2800  -6.2547  -5.8360  -5.7511  -5.5617  -5.5411  -5.4172  -5.1804
    -5.1150  -4.8105  -4.7536  -4.3838  -4.2744  -4.1984  -4.0592  -3.8057
    -3.6771  -3.5593  -3.5041  -3.4984  -3.2423  -3.0022  -2.8849  -2.7246
    -2.5502  -2.5241  -2.3932  -2.2832  -2.2755  -2.1001  -1.9467  -1.8803
    -1.7383  -1.5410  -0.9564  -0.9552  -0.9250  -0.7501  -0.1087   0.2131
     0.6844   0.7387   0.7466   0.7747   0.9370   1.1131   1.2591   1.3081
     1.3591   1.4641   1.4911   1.6834   1.7555   1.7935   2.0219   2.2921
     2.5220   2.8263   4.0356   4.3341   4.7119   4.9301   4.9836   5.1261
     5.1349   5.2127   5.2736   5.5868   6.1154

          k = 0.2500 0.1223 0.0000 ( 40905 PWs)   bands (ev):

   -72.4745 -72.2214 -72.0598 -72.0310 -72.0163 -71.7131 -42.5616 -42.5061
   -42.3905 -42.3534 -42.3414 -42.2958 -42.2436 -42.1743 -42.0759 -41.9821
   -41.9784 -41.9626 -41.9301 -41.9178 -41.8970 -41.8440 -41.7069 -41.5661
   -21.9696 -18.0820 -17.8047 -17.7252 -17.6551 -17.4257 -17.3165 -17.2171
   -17.1865 -17.1354 -17.0819 -16.7233 -15.9032 -14.8295  -7.6202  -6.0386
    -5.9642  -5.9365  -5.8267  -5.7428  -5.5555  -5.3728  -5.2814  -5.2162
    -5.0468  -4.8412  -4.5167  -4.4225  -4.3209  -4.2376  -4.1410  -4.0938
    -3.9936  -3.8961  -3.7088  -3.4713  -3.3336  -3.0480  -2.9745  -2.8269
    -2.7355  -2.6215  -2.5870  -2.4046  -2.3210  -2.0832  -1.8773  -1.8180
    -1.6849  -1.5625  -1.0302  -0.9398  -0.9049  -0.7505  -0.1372   0.2785
     0.6473   0.7709   0.7881   1.0416   1.1557   1.1893   1.2682   1.3109
     1.3903   1.4981   1.5511   1.6885   1.8590   1.8930   2.0127   2.1992
     2.3955   2.9460   4.1811   4.2893   4.4888   4.5231   4.5831   4.9595
     5.1029   5.3427   5.7163   5.8584   6.2366

          k = 0.2500-0.2445 0.0000 ( 40892 PWs)   bands (ev):

   -72.4745 -72.2214 -72.0598 -72.0309 -72.0163 -71.7132 -42.5613 -42.5062
   -42.3903 -42.3533 -42.3415 -42.2958 -42.2435 -42.1744 -42.0759 -41.9807
   -41.9780 -41.9633 -41.9302 -41.9184 -41.8971 -41.8447 -41.7066 -41.5666
   -21.9695 -17.9723 -17.7747 -17.5644 -17.5581 -17.4237 -17.4153 -17.3818
   -17.2691 -17.2290 -17.1123 -16.7234 -15.9027 -14.8293  -7.6213  -5.8610
    -5.7991  -5.5540  -5.4776  -5.4655  -5.4644  -5.3017  -5.0617  -5.0520
    -4.9084  -4.8409  -4.6927  -4.6926  -4.6335  -4.3688  -4.3491  -4.2417
    -3.9785  -3.9551  -3.8293  -3.5460  -3.3343  -3.2301  -3.1547  -3.1415
    -3.0935  -2.9442  -2.8701  -2.6526  -2.2896  -1.9516  -1.7245  -1.5341
    -1.5219  -1.2608  -1.1668  -0.9966  -0.8902  -0.8241   0.1438   0.1737
     0.4941   0.6228   0.8014   0.9041   1.1851   1.3390   1.4277   1.4607
     1.5719   1.6042   1.7227   1.7570   1.9433   2.0383   2.0810   2.0980
     2.2533   3.0400   4.0109   4.0791   4.1666   4.3523   4.3746   4.9609
     5.2330   5.4170   6.0177   6.0311   6.2899

          k = 0.3750 0.0000 0.0000 ( 40852 PWs)   bands (ev):

   -72.4707 -72.2178 -72.0561 -72.0272 -72.0126 -71.7094 -42.5722 -42.5566
   -42.3857 -42.3413 -42.3371 -42.2943 -42.2380 -42.2342 -42.0671 -42.0455
   -42.0428 -42.0235 -41.9219 -41.9069 -41.8929 -41.8336 -41.7720 -41.5548
   -21.7472 -17.8269 -17.6423 -17.5444 -17.4718 -17.3793 -17.3023 -17.2841
   -17.2347 -17.1845 -17.0378 -16.7583 -15.8775 -15.2690  -7.6841  -5.9060
    -5.8014  -5.7109  -5.6608  -5.5902  -5.4788  -5.3853  -5.2679  -5.2090
    -5.0995  -4.9355  -4.7552  -4.4821  -4.4340  -4.3005  -4.1105  -4.0714
    -3.9531  -3.7352  -3.6500  -3.1925  -3.1556  -3.0769  -3.0677  -2.9632
    -2.7875  -2.5308  -2.4705  -2.4335  -2.1797  -2.0711  -1.9247  -1.9002
    -1.6831  -1.3447  -1.1957  -1.0402  -0.6720  -0.3255  -0.1619   0.3827
     0.6581   0.7722   0.8803   0.8941   0.9599   1.0761   1.1333   1.1856
     1.3265   1.4949   1.5281   1.6771   1.9089   1.9575   2.0194   2.3610
     2.4189   2.7056   3.6485   4.0888   4.5655   4.7052   4.7146   4.8177
     4.8378   5.0826   5.2542   5.4485   5.9190

          k = 0.3750 0.1223 0.0000 ( 40842 PWs)   bands (ev):

   -72.4707 -72.2178 -72.0561 -72.0272 -72.0126 -71.7094 -42.5723 -42.5571
   -42.3862 -42.3411 -42.3373 -42.2944 -42.2398 -42.2343 -42.0670 -42.0435
   -42.0420 -42.0241 -41.9219 -41.9069 -41.8929 -41.8334 -41.7713 -41.5549
   -21.7471 -17.8117 -17.6444 -17.6104 -17.5350 -17.4261 -17.3389 -17.2100
   -17.1641 -17.1307 -17.0407 -16.7593 -15.8777 -15.2685  -7.6848  -5.7966
    -5.7537  -5.7329  -5.6713  -5.5979  -5.4830  -5.3521  -5.3285  -5.2236
    -5.1749  -5.1003  -4.6206  -4.4100  -4.3332  -4.2098  -4.1500  -4.0375
    -4.0007  -3.8055  -3.4226  -3.2563  -3.1706  -3.0087  -2.9253  -2.8130
    -2.7253  -2.5640  -2.4540  -2.4198  -2.3136  -2.1487  -1.9588  -1.6908
    -1.6289  -1.5432  -1.3192  -1.0124  -0.8029  -0.3729  -0.1969   0.2271
     0.4143   0.5347   0.7810   0.8795   0.9242   1.0326   1.0674   1.1305
     1.2147   1.2537   1.5699   1.9377   2.1138   2.1793   2.2749   2.3266
     2.3670   2.8170   3.6492   3.9533   3.9825   4.0745   4.1461   4.5850
     5.3014   5.6378   5.8849   5.9854   6.0932

          k = 0.3750-0.2445 0.0000 ( 40856 PWs)   bands (ev):

   -72.4707 -72.2178 -72.0561 -72.0272 -72.0126 -71.7094 -42.5724 -42.5577
   -42.3867 -42.3410 -42.3374 -42.2944 -42.2415 -42.2345 -42.0668 -42.0414
   -42.0413 -42.0246 -41.9220 -41.9070 -41.8929 -41.8333 -41.7706 -41.5549
   -21.7470 -17.7876 -17.6866 -17.6165 -17.6020 -17.4530 -17.3565 -17.1599
   -17.1123 -17.0991 -17.0423 -16.7604 -15.8779 -15.2680  -7.6854  -5.7449
    -5.7040  -5.6598  -5.5921  -5.5524  -5.4847  -5.4794  -5.3904  -5.3152
    -5.2435  -5.1777  -4.6592  -4.4088  -4.2261  -4.1574  -3.9627  -3.8806
    -3.8761  -3.7566  -3.4118  -3.2140  -3.2004  -2.9967  -2.8894  -2.8104
    -2.7613  -2.6702  -2.5752  -2.4985  -2.2261  -2.0329  -1.9410  -1.7634
    -1.6779  -1.2802  -1.2697  -1.0181  -1.0125  -0.4906  -0.1458  -0.0478
     0.0746   0.1285   0.6698   0.9174   0.9304   1.0616   1.1368   1.1562
     1.1993   1.3406   1.4857   1.8943   2.1594   2.2421   2.4371   2.4423
     2.5321   2.9162   3.4532   3.5453   3.6521   3.7822   4.1715   4.5867
     5.3852   5.8471   6.2656   6.2995   6.4151

          k =-0.5000 0.0000 0.0000 ( 40876 PWs)   bands (ev):

   -72.4691 -72.2163 -72.0546 -72.0257 -72.0111 -71.7078 -42.5994 -42.5545
   -42.3837 -42.3359 -42.3356 -42.2959 -42.2570 -42.2357 -42.0760 -42.0692
   -42.0586 -42.0497 -41.9177 -41.9026 -41.8913 -41.8295 -41.7985 -41.5503
   -21.6468 -17.7735 -17.4658 -17.4576 -17.4038 -17.3543 -17.3477 -17.3071
   -17.2878 -17.2590 -17.0649 -16.6860 -15.8403 -15.4595  -7.6704  -5.9353
    -5.7779  -5.6915  -5.5578  -5.4253  -5.3860  -5.2960  -5.1727  -5.1250
    -5.0905  -4.9807  -4.7769  -4.7474  -4.5473  -4.4405  -4.2626  -4.0160
    -3.6890  -3.4093  -3.3603  -3.3464  -3.3147  -3.2858  -3.1319  -2.9906
    -2.7619  -2.6805  -2.3651  -2.2598  -2.0556  -2.0084  -1.8909  -1.8215
    -1.5142  -1.3908  -1.2698  -1.1906  -0.6430  -0.1055  -0.0897   0.4097
     0.4250   0.7780   0.8733   0.8802   0.9095   0.9283   1.0188   1.0600
     1.1121   1.3460   1.4483   1.6608   1.8401   2.1525   2.2010   2.5259
     2.5924   2.5935   3.4228   4.0402   4.5078   4.5736   4.5903   4.7008
     4.8530   5.0903   5.2317   5.4028   5.9394

          k =-0.5000 0.1223 0.0000 ( 40858 PWs)   bands (ev):

   -72.4691 -72.2163 -72.0546 -72.0257 -72.0111 -71.7078 -42.5995 -42.5553
   -42.3845 -42.3359 -42.3356 -42.2959 -42.2571 -42.2385 -42.0735 -42.0682
   -42.0581 -42.0501 -41.9177 -41.9024 -41.8913 -41.8290 -41.7976 -41.5502
   -21.6467 -17.7703 -17.6321 -17.5874 -17.5520 -17.4527 -17.2946 -17.1441
   -17.1089 -17.0886 -17.0684 -16.6859 -15.8398 -15.4588  -7.6706  -5.9211
    -5.8167  -5.7661  -5.7429  -5.6627  -5.6384  -5.3352  -5.2916  -5.2305
    -5.1976  -4.8850  -4.6038  -4.4915  -4.3482  -4.1084  -4.0408  -3.7570
    -3.5325  -3.4361  -3.4139  -3.3895  -3.3173  -3.2782  -3.0819  -2.6998
    -2.5205  -2.4483  -2.3357  -2.3040  -2.1511  -2.1019  -1.8940  -1.7354
    -1.5502  -1.4670  -1.3645  -1.1735  -0.8576  -0.1955  -0.1420   0.2530
     0.3529   0.3971   0.4399   0.7423   0.7920   0.8771   0.8825   0.9026
     0.9201   1.0821   1.3928   2.0967   2.2716   2.3543   2.3856   2.4587
     2.5494   2.7290   3.4786   3.7311   3.7982   3.9085   4.0884   4.5123
     5.4316   5.8436   5.9643   6.0053   6.0607

          k =-0.5000-0.2445 0.0000 ( 40872 PWs)   bands (ev):

   -72.4691 -72.2163 -72.0546 -72.0257 -72.0111 -71.7078 -42.5996 -42.5562
   -42.3853 -42.3357 -42.3357 -42.2959 -42.2572 -42.2411 -42.0713 -42.0673
   -42.0575 -42.0505 -41.9178 -41.9023 -41.8912 -41.8285 -41.7967 -41.5500
   -21.6467 -17.7671 -17.7224 -17.6769 -17.6411 -17.4474 -17.2996 -17.0722
   -17.0444 -17.0113 -16.9938 -16.6857 -15.8393 -15.4579  -7.6709  -5.9970
    -5.9758  -5.9125  -5.8724  -5.7037  -5.5269  -5.4029  -5.2905  -5.2812
    -5.2028  -4.8854  -4.6465  -4.5739  -4.3871  -3.7980  -3.5856  -3.5754
    -3.5372  -3.4346  -3.3016  -3.1364  -3.0871  -3.0188  -2.9040  -2.7556
    -2.5798  -2.5386  -2.3446  -2.2460  -2.1762  -2.0933  -1.7665  -1.6984
    -1.5484  -1.4910  -1.4402  -1.2267  -0.9230  -0.5209  -0.3396  -0.1851
     0.0643   0.1480   0.3920   0.4602   0.7687   0.7866   0.8801   0.9109
     0.9166   1.0963   1.3688   2.0618   2.2558   2.4021   2.5931   2.6797
     2.7104   2.7886   3.3525   3.4029   3.5190   3.5225   4.1263   4.5162
     5.4778   6.0680   6.3728   6.3987   6.5313

     the Fermi energy is     1.5269 ev

!    total energy              =   -1715.00704029 Ry
     estimated scf accuracy    <       0.00000029 Ry
     smearing contrib. (-TS)   =      -0.00096003 Ry
     internal energy E=F+TS    =   -1715.00608026 Ry

     The total energy is F=E-TS. E is the sum of the following terms:
     one-electron contribution =  -17069.93433862 Ry
     hartree contribution      =    8562.51379494 Ry
     xc contribution           =    -222.25559017 Ry
     ewald contribution        =    7147.97059654 Ry
     one-center paw contrib.   =    -133.30054295 Ry

     convergence has been achieved in  22 iterations

     negative rho (up, down):  9.706E-05 0.000E+00

     Forces acting on atoms (cartesian axes, Ry/au):

     atom    1 type  2   force =    -0.00004422    0.00000000    0.06400879
     atom    2 type  2   force =     0.00000256    0.00000000   -0.08675565
     atom    3 type  2   force =    -0.00128842    0.00000000    0.00077900
     atom    4 type  2   force =     0.00013669    0.00000000    0.00061547
     atom    5 type  2   force =    -0.00121541    0.00000000   -0.00083937
     atom    6 type  2   force =     0.00109470    0.00000000    0.00119784
     atom    7 type  3   force =     0.00102364    0.00000000    0.02545434
     atom    8 type  3   force =     0.00028710    0.00000000    0.06186493
     atom    9 type  3   force =    -0.00003119    0.02444417   -0.02429265
     atom   10 type  3   force =    -0.00003119   -0.02444417   -0.02429265
     atom   11 type  3   force =     0.00010025    0.00000000   -0.00058607
     atom   12 type  3   force =     0.00199320    0.00000000   -0.01891081
     atom   13 type  3   force =    -0.00112627    0.00019171    0.00103393
     atom   14 type  3   force =    -0.00112627   -0.00019171    0.00103393
     atom   15 type  3   force =     0.00033028    0.00000000   -0.00046738
     atom   16 type  3   force =     0.00001414    0.00000000    0.00005721
     atom   17 type  3   force =    -0.00039667   -0.00044701   -0.00001434
     atom   18 type  3   force =    -0.00039667    0.00044701   -0.00001434
     atom   19 type  3   force =     0.00185143    0.00000000    0.00010337
     atom   20 type  3   force =    -0.00160609    0.00000000   -0.00099614
     atom   21 type  1   force =     0.00042841    0.00000000    0.00102061

     Total force =     0.004676     Total SCF correction =     0.001843
     SCF correction compared to forces is large: reduce conv_thr to get better values

     Writing all to output data dir ./tmp_s0_OOH__base/s0_OOH__base.save/ :
     XML data file, charge density, pseudopotentials, collected wavefunctions

     init_run     :     21.47s CPU     22.60s WALL (       1 calls)
     electrons    :    957.19s CPU    985.41s WALL (       1 calls)
     forces       :      8.95s CPU      9.48s WALL (       1 calls)

     Called by init_run:
     wfcinit      :     15.50s CPU     16.05s WALL (       1 calls)
     potinit      :      2.63s CPU      2.92s WALL (       1 calls)
     hinit0       :      2.39s CPU      2.48s WALL (       1 calls)

     Called by electrons:
     c_bands      :    700.32s CPU    719.49s WALL (      22 calls)
     sum_band     :    140.64s CPU    143.53s WALL (      22 calls)
     v_of_rho     :     24.24s CPU     26.75s WALL (      23 calls)
     newd         :      8.28s CPU     10.45s WALL (      23 calls)
     PAW_pot      :      8.63s CPU      8.64s WALL (      23 calls)
     mix_rho      :     74.31s CPU     75.94s WALL (      22 calls)

     Called by c_bands:
     init_us_2    :     12.76s CPU     12.85s WALL (     184 calls)
     cegterg      :    664.71s CPU    683.85s WALL (      88 calls)

     Called by *egterg:
     cdiaghg      :      4.98s CPU      4.98s WALL (     330 calls)
     h_psi        :    476.02s CPU    481.93s WALL (     334 calls)
     s_psi        :     41.54s CPU     41.54s WALL (     334 calls)
     g_psi        :      5.35s CPU      5.35s WALL (     242 calls)

     Called by h_psi:
     h_psi:calbec :     43.40s CPU     43.41s WALL (     334 calls)
     vloc_psi     :    386.57s CPU    386.94s WALL (     334 calls)
                                        0.00s GPU  (     334 calls)
     add_vuspsi   :     42.96s CPU     42.97s WALL (     334 calls)

     General routines
     calbec       :     66.68s CPU     66.70s WALL (     438 calls)
     fft          :     10.75s CPU     10.77s WALL (     308 calls)
     ffts         :     30.83s CPU     30.85s WALL (    2628 calls)
     fftw         :    380.44s CPU    380.73s WALL (   49770 calls)
     interpolate  :      2.19s CPU      2.22s WALL (      23 calls)

     Parallel routines

     PWSCF        :  16m27.92s CPU  16m58.03s WALL


   This run was terminated on:  16:50:43   7Aug2026            

=------------------------------------------------------------------------------=
   JOB DONE.
=------------------------------------------------------------------------------=
