
     Program PWSCF v.7.5 starts on  7Aug2026 at  2: 6:45 

     This program is part of the open-source Quantum ESPRESSO suite
     for quantum simulation of materials; please cite
         "P. Giannozzi et al., J. Phys.:Condens. Matter 21 395502 (2009);
         "P. Giannozzi et al., J. Phys.:Condens. Matter 29 465901 (2017);
         "P. Giannozzi et al., J. Chem. Phys. 152 154105 (2020);
          URL http://www.quantum-espresso.org", 
     in publications or presentations arising from this work. More details at
     http://www.quantum-espresso.org/quote

     Parallel version (MPI & OpenMP), running on       4 processor cores
     Number of MPI processes:                 4
     Threads/MPI process:                     1

     MPI processes distributed on     1 nodes
     22474 MiB available memory on the printing compute node when the environment starts

     Reading input from s0_OH__base.run.in

     Current dimensions of program PWSCF are:
     Max number of different atomic species (ntypx) = 10
     Max number of k-points (npk) =  40000
     Max angular momentum in pseudopotentials (lmaxx) =  4
     file O.pbe-n-kjpaw_psl.0.1.UPF: wavefunction(s)  2P renormalized
     Message from routine setup:
     using ibrav=0 with symmetry is DISCOURAGED, use correct ibrav instead

     K-points division:     npool     =       4
     Subspace diagonalization in iterative solution of the eigenvalue problem:
     a serial algorithm will be used


     G-vector sticks info
     --------------------
     sticks:   dense  smooth     PW     G-vecs:    dense   smooth      PW
     Sum        3587    1793    513               925697   327113   49625

     Using Slab Decomposition



     bravais-lattice index     =            0
     lattice parameter (alat)  =       5.8714  a.u.
     unit-cell volume          =    3384.5999 (a.u.)^3
     number of atoms/cell      =           20
     number of atomic types    =            3
     number of electrons       =       175.00
     number of Kohn-Sham states=          106
     kinetic-energy cutoff     =      80.0000  Ry
     charge density cutoff     =     640.0000  Ry
     scf convergence threshold =      1.0E-06
     mixing beta               =       0.3000
     number of iterations used =            8  local-TF  mixing
     Exchange-correlation= SLA  PW   PBX  PBC
                           (   1   4   3   4   0   0   0)

     celldm(1)=   5.871379  celldm(2)=   0.000000  celldm(3)=   0.000000
     celldm(4)=   0.000000  celldm(5)=   0.000000  celldm(6)=   0.000000

     crystal axes: (cart. coord. in units of alat)
               a(1) = (   1.000000   0.000000   0.000000 )  
               a(2) = (   0.000000   2.044624   0.000000 )  
               a(3) = (   0.000000   0.000000   8.178497 )  

     reciprocal axes: (cart. coord. in units 2 pi/alat)
               b(1) = (  1.000000  0.000000  0.000000 )  
               b(2) = (  0.000000  0.489087  0.000000 )  
               b(3) = (  0.000000  0.000000  0.122272 )  


     PseudoPot. # 1 for H  read from file:
     /usr/share/espresso/pseudo/H.pbe-rrkjus_psl.1.0.0.UPF
     MD5 check sum: f52b6d4d1c606e5624b1dc7b2218f220
     Pseudo is Ultrasoft, Zval =  1.0
     Generated using "atomic" code by A. Dal Corso  v.5.1
     Using radial grid of  929 points,  2 beta functions with: 
                l(1) =   0
                l(2) =   0
     Q(r) pseudized with 0 coefficients 


     PseudoPot. # 2 for Ru read from file:
     /usr/share/espresso/pseudo/Ru_ONCV_PBE-1.0.oncvpsp.upf
     MD5 check sum: be037bb81c227cfb9b1461a9f099f4bd
     Pseudo is Norm-conserving, Zval = 16.0
     Generated using ONCVPSP code by D. R. Hamann
     Using radial grid of 1458 points,  6 beta functions with: 
                l(1) =   0
                l(2) =   0
                l(3) =   1
                l(4) =   1
                l(5) =   2
                l(6) =   2

     PseudoPot. # 3 for O  read from file:
     /usr/share/espresso/pseudo/O.pbe-n-kjpaw_psl.0.1.UPF
     MD5 check sum: 0234752ac141de4415c5fc33072bef88
     Pseudo is Projector augmented-wave + core cor, Zval =  6.0
     Generated using "atomic" code by A. Dal Corso  v.5.0.99 svn rev. 10869
     Shape of augmentation charge: BESSEL
     Using radial grid of 1095 points,  4 beta functions with: 
                l(1) =   0
                l(2) =   0
                l(3) =   1
                l(4) =   1
     Q(r) pseudized with 0 coefficients 


     atomic species   valence    mass     pseudopotential
     H                 1.00     1.00800     H ( 1.00)
     Ru               16.00   101.07000     Ru( 1.00)
     O                 6.00    15.99900     O ( 1.00)

      2 Sym. Ops. (no inversion) found ( 1 have fractional translation)



   Cartesian axes

     site n.     atom                  positions (alat units)
         1        Ru     tau(   1) = (   0.0000000   0.5111560   3.0669363  )
         2        Ru     tau(   2) = (   0.5000000   1.5334681   3.0669363  )
         3        Ru     tau(   3) = (  -0.0006221   1.5334681   4.1058017  )
         4        Ru     tau(   4) = (   0.4990454   0.5111560   4.0846743  )
         5        Ru     tau(   5) = (  -0.0030127   0.5111560   5.1199908  )
         6        Ru     tau(   6) = (   0.4953194   1.5334681   5.1556333  )
         7        O      tau(   7) = (   0.0000000   1.5334681   3.4656380  )
         8        O      tau(   8) = (   0.0000000   1.5334681   2.6682346  )
         9        O      tau(   9) = (   0.5000000   0.1124543   3.0669363  )
        10        O      tau(  10) = (   0.5000000   0.9098578   3.0669363  )
        11        O      tau(  11) = (  -0.0020184   0.5111560   4.4919854  )
        12        O      tau(  12) = (   0.0000000   0.5111560   3.6905466  )
        13        O      tau(  13) = (   0.4993872   1.1375269   4.0986622  )
        14        O      tau(  14) = (   0.4993872   1.9294094   4.0986622  )
        15        O      tau(  15) = (  -0.0048095   1.5334681   5.5072493  )
        16        O      tau(  16) = (  -0.0034309   1.5334681   4.7292681  )
        17        O      tau(  17) = (   0.4957213   0.1173129   5.1226215  )
        18        O      tau(  18) = (   0.4957213   0.9049992   5.1226215  )
        19        O      tau(  19) = (  -0.0263874   0.5111560   5.7402711  )
        20        H      tau(  20) = (   0.2647104   0.5111560   5.8625747  )

     number of k points=    15  Marzari-Vanderbilt smearing, width (Ry)=  0.0100
                       cart. coord. in units 2pi/alat
        k(    1) = (   0.0000000   0.0000000   0.0000000), wk =   0.0625000
        k(    2) = (   0.0000000   0.1222719   0.0000000), wk =   0.1250000
        k(    3) = (   0.0000000  -0.2445437   0.0000000), wk =   0.0625000
        k(    4) = (   0.1250000   0.0000000   0.0000000), wk =   0.1250000
        k(    5) = (   0.1250000   0.1222719   0.0000000), wk =   0.2500000
        k(    6) = (   0.1250000  -0.2445437   0.0000000), wk =   0.1250000
        k(    7) = (   0.2500000   0.0000000   0.0000000), wk =   0.1250000
        k(    8) = (   0.2500000   0.1222719   0.0000000), wk =   0.2500000
        k(    9) = (   0.2500000  -0.2445437   0.0000000), wk =   0.1250000
        k(   10) = (   0.3750000   0.0000000   0.0000000), wk =   0.1250000
        k(   11) = (   0.3750000   0.1222719   0.0000000), wk =   0.2500000
        k(   12) = (   0.3750000  -0.2445437   0.0000000), wk =   0.1250000
        k(   13) = (  -0.5000000   0.0000000   0.0000000), wk =   0.0625000
        k(   14) = (  -0.5000000   0.1222719   0.0000000), wk =   0.1250000
        k(   15) = (  -0.5000000  -0.2445437   0.0000000), wk =   0.0625000

     Dense  grid:   925697 G-vectors     FFT dimensions: (  48, 100, 400)

     Smooth grid:   327113 G-vectors     FFT dimensions: (  36,  72, 288)

     Estimated max dynamical RAM per process >       1.40 GB

     Estimated total dynamical RAM >       4.96 GB

     Initial potential from superposition of free atoms

     starting charge     174.9967, renormalised to     175.0000

     negative rho (up, down):  8.199E-05 0.000E+00
     Starting wfcs are  113 randomized atomic wfcs
     Checking if some PAW data can be deallocated... 

     total cpu time spent up to now is       31.8 secs

     per-process dynamical memory:   876.3 Mb

     Self-consistent Calculation

     iteration #  1     ecut=    80.00 Ry     beta= 0.30
     Davidson diagonalization with overlap
     ethr =  1.00E-02,  avg # of iterations =  2.0

     negative rho (up, down):  4.788E-07 0.000E+00

     total cpu time spent up to now is      108.5 secs

     total energy              =   -1673.37874252 Ry
     estimated scf accuracy    <       4.55901642 Ry

     iteration #  2     ecut=    80.00 Ry     beta= 0.30
     Davidson diagonalization with overlap
     ethr =  2.61E-03,  avg # of iterations =  1.1

     negative rho (up, down):  3.733E-06 0.000E+00

     total cpu time spent up to now is      172.2 secs

     total energy              =   -1673.46065710 Ry
     estimated scf accuracy    <       1.37956180 Ry

     iteration #  3     ecut=    80.00 Ry     beta= 0.30
     Davidson diagonalization with overlap
     ethr =  7.88E-04,  avg # of iterations =  1.2

     negative rho (up, down):  4.095E-08 0.000E+00

     total cpu time spent up to now is      249.6 secs

     total energy              =   -1673.51622912 Ry
     estimated scf accuracy    <       0.46002550 Ry

     iteration #  4     ecut=    80.00 Ry     beta= 0.30
     Davidson diagonalization with overlap
     ethr =  2.63E-04,  avg # of iterations =  1.2

     total cpu time spent up to now is      314.2 secs

     total energy              =   -1673.53680445 Ry
     estimated scf accuracy    <       0.14687001 Ry

     iteration #  5     ecut=    80.00 Ry     beta= 0.30
     Davidson diagonalization with overlap
     ethr =  8.39E-05,  avg # of iterations =  1.7

     total cpu time spent up to now is      392.9 secs

     total energy              =   -1673.53268637 Ry
     estimated scf accuracy    <       0.07778382 Ry

     iteration #  6     ecut=    80.00 Ry     beta= 0.30
     Davidson diagonalization with overlap
     ethr =  4.44E-05,  avg # of iterations =  2.1

     total cpu time spent up to now is      458.7 secs

     total energy              =   -1673.53162993 Ry
     estimated scf accuracy    <       0.03274152 Ry

     iteration #  7     ecut=    80.00 Ry     beta= 0.30
     Davidson diagonalization with overlap
     ethr =  1.87E-05,  avg # of iterations =  2.7

     total cpu time spent up to now is      521.5 secs

     total energy              =   -1673.53198301 Ry
     estimated scf accuracy    <       0.01642902 Ry

     iteration #  8     ecut=    80.00 Ry     beta= 0.30
     Davidson diagonalization with overlap
     ethr =  9.39E-06,  avg # of iterations =  1.3

     total cpu time spent up to now is      583.9 secs

     total energy              =   -1673.53037418 Ry
     estimated scf accuracy    <       0.01471846 Ry

     iteration #  9     ecut=    80.00 Ry     beta= 0.30
     Davidson diagonalization with overlap
     ethr =  8.41E-06,  avg # of iterations =  2.9

     total cpu time spent up to now is      648.8 secs

     total energy              =   -1673.52983741 Ry
     estimated scf accuracy    <       0.00645482 Ry

     iteration # 10     ecut=    80.00 Ry     beta= 0.30
     Davidson diagonalization with overlap
     ethr =  3.69E-06,  avg # of iterations =  3.8

     negative rho (up, down):  8.489E-05 0.000E+00

     total cpu time spent up to now is      716.6 secs

     total energy              =   -1673.52950841 Ry
     estimated scf accuracy    <       0.00382585 Ry

     iteration # 11     ecut=    80.00 Ry     beta= 0.30
     Davidson diagonalization with overlap
     ethr =  2.19E-06,  avg # of iterations =  2.6

     negative rho (up, down):  3.853E-03 0.000E+00

     total cpu time spent up to now is      781.3 secs

     total energy              =   -1673.52921924 Ry
     estimated scf accuracy    <       0.00217983 Ry

     iteration # 12     ecut=    80.00 Ry     beta= 0.30
     Davidson diagonalization with overlap
     ethr =  1.25E-06,  avg # of iterations =  3.8

     negative rho (up, down):  5.236E-03 0.000E+00

     total cpu time spent up to now is      850.0 secs

     total energy              =   -1673.52913660 Ry
     estimated scf accuracy    <       0.00133804 Ry

     iteration # 13     ecut=    80.00 Ry     beta= 0.30
     Davidson diagonalization with overlap
     ethr =  7.65E-07,  avg # of iterations =  1.7

     negative rho (up, down):  5.738E-03 0.000E+00

     total cpu time spent up to now is      913.3 secs

     total energy              =   -1673.52906276 Ry
     estimated scf accuracy    <       0.00070785 Ry

     iteration # 14     ecut=    80.00 Ry     beta= 0.30
     Davidson diagonalization with overlap
     ethr =  4.04E-07,  avg # of iterations =  2.9

     negative rho (up, down):  5.384E-03 0.000E+00

     total cpu time spent up to now is      985.4 secs

     total energy              =   -1673.52905671 Ry
     estimated scf accuracy    <       0.00035499 Ry

     iteration # 15     ecut=    80.00 Ry     beta= 0.30
     Davidson diagonalization with overlap
     ethr =  2.03E-07,  avg # of iterations =  1.3

     negative rho (up, down):  4.357E-03 0.000E+00

     total cpu time spent up to now is     1055.7 secs

     total energy              =   -1673.52909186 Ry
     estimated scf accuracy    <       0.00026180 Ry

     iteration # 16     ecut=    80.00 Ry     beta= 0.30
     Davidson diagonalization with overlap
     ethr =  1.50E-07,  avg # of iterations =  1.6

     negative rho (up, down):  2.526E-03 0.000E+00

     total cpu time spent up to now is     1119.4 secs

     total energy              =   -1673.52912206 Ry
     estimated scf accuracy    <       0.00009075 Ry

     iteration # 17     ecut=    80.00 Ry     beta= 0.30
     Davidson diagonalization with overlap
     ethr =  5.19E-08,  avg # of iterations =  1.5

     negative rho (up, down):  1.852E-03 0.000E+00

     total cpu time spent up to now is     1182.5 secs

     total energy              =   -1673.52914209 Ry
     estimated scf accuracy    <       0.00002338 Ry

     iteration # 18     ecut=    80.00 Ry     beta= 0.30
     Davidson diagonalization with overlap
     ethr =  1.34E-08,  avg # of iterations =  1.9

     negative rho (up, down):  1.108E-03 0.000E+00

     total cpu time spent up to now is     1247.0 secs

     total energy              =   -1673.52913896 Ry
     estimated scf accuracy    <       0.00000980 Ry

     iteration # 19     ecut=    80.00 Ry     beta= 0.30
     Davidson diagonalization with overlap
     ethr =  5.60E-09,  avg # of iterations =  1.6

     negative rho (up, down):  6.890E-04 0.000E+00

     total cpu time spent up to now is     1321.0 secs

     total energy              =   -1673.52913929 Ry
     estimated scf accuracy    <       0.00000361 Ry

     iteration # 20     ecut=    80.00 Ry     beta= 0.30
     Davidson diagonalization with overlap
     ethr =  2.07E-09,  avg # of iterations =  1.9

     negative rho (up, down):  3.040E-04 0.000E+00

     total cpu time spent up to now is     1384.8 secs

     total energy              =   -1673.52913777 Ry
     estimated scf accuracy    <       0.00000132 Ry

     iteration # 21     ecut=    80.00 Ry     beta= 0.30
     Davidson diagonalization with overlap
     ethr =  7.53E-10,  avg # of iterations =  2.3

     negative rho (up, down):  1.031E-04 0.000E+00

     total cpu time spent up to now is     1445.6 secs

     End of self-consistent calculation

          k = 0.0000 0.0000 0.0000 ( 40831 PWs)   bands (ev):

   -72.6234 -72.3627 -72.2291 -72.1659 -72.1226 -71.8409 -42.6831 -42.5795
   -42.5296 -42.5151 -42.4644 -42.4214 -42.3594 -42.2258 -42.2245 -42.1239
   -42.0619 -42.0271 -42.0235 -42.0052 -41.9846 -41.9631 -41.7415 -41.7014
   -18.7193 -18.4350 -18.2816 -18.0798 -17.7432 -17.5825 -17.4133 -17.1078
   -16.9813 -16.9093 -16.8178 -16.6362 -15.9294  -7.0437  -7.0314  -7.0102
    -6.5980  -6.1419  -5.5619  -5.5457  -5.5145  -5.5048  -5.4464  -5.4290
    -5.3150  -5.0771  -4.8038  -4.7608  -3.7814  -3.4816  -3.0875  -2.9816
    -2.8899  -2.8282  -2.7658  -2.5871  -2.5400  -2.4213  -2.2722  -2.2351
    -2.0714  -2.0274  -1.7878  -1.7731  -1.4141  -1.2822  -1.1796  -1.0891
    -0.9545  -0.8794  -0.5884  -0.2729  -0.2584  -0.0537  -0.0265  -0.0215
     0.0645   0.0651   0.3203   0.4690   0.6007   0.6952   0.9368   1.1889
     1.3462   1.3665   1.9482   2.3091   2.4214   2.5790   2.9272   3.6069
     4.3781   4.9121   5.4909   5.6054   5.6843   5.9105   5.9385   5.9646
     5.9777   6.3112

          k = 0.0000 0.1223 0.0000 ( 40974 PWs)   bands (ev):

   -72.6233 -72.3627 -72.2291 -72.1659 -72.1226 -71.8409 -42.6818 -42.5795
   -42.5287 -42.5151 -42.4645 -42.4214 -42.3573 -42.2258 -42.2245 -42.1253
   -42.0620 -42.0268 -42.0236 -42.0053 -41.9869 -41.9634 -41.7416 -41.7025
   -18.6069 -18.3037 -18.1491 -18.1198 -17.7647 -17.6249 -17.4013 -17.1403
   -17.1181 -17.0362 -16.9664 -16.6368 -15.9267  -6.6500  -6.5813  -6.5691
    -6.5246  -6.1336  -5.5624  -5.4623  -5.4463  -5.4283  -5.4257  -5.3458
    -5.2006  -5.0755  -4.8016  -4.5691  -3.9617  -3.7000  -3.6310  -3.3799
    -3.3258  -3.0783  -2.9481  -2.8995  -2.6575  -2.6312  -2.5344  -2.4394
    -2.3395  -2.1326  -1.9447  -1.9064  -1.6705  -1.4541  -1.4049  -1.1139
    -1.0613  -0.8570  -0.6957  -0.2822   0.2200   0.2760   0.3667   0.5106
     0.5310   0.5872   0.5900   0.6988   0.7149   0.7856   0.9433   1.1788
     1.3111   1.4573   2.0021   2.0437   2.3147   2.5729   2.7906   4.0000
     4.7655   5.1115   5.4904   5.5977   5.6347   5.6908   5.7293   5.7673
     5.9313   6.3331

          k = 0.0000-0.2445 0.0000 ( 41014 PWs)   bands (ev):

   -72.6233 -72.3627 -72.2291 -72.1659 -72.1226 -71.8409 -42.6805 -42.5795
   -42.5278 -42.5150 -42.4645 -42.4214 -42.3551 -42.2258 -42.2244 -42.1268
   -42.0620 -42.0265 -42.0236 -42.0053 -41.9892 -41.9637 -41.7416 -41.7036
   -18.4213 -18.2491 -18.0527 -17.8904 -17.8895 -17.7488 -17.3751 -17.2885
   -17.2680 -17.1266 -17.0748 -16.6396 -15.9246  -6.6158  -6.1700  -5.8623
    -5.8522  -5.7737  -5.5605  -5.4496  -5.4059  -5.3548  -5.3525  -5.2543
    -5.0700  -4.8348  -4.6908  -4.6394  -4.3585  -4.2900  -4.2184  -4.1019
    -3.8805  -3.5471  -3.0806  -3.0096  -2.9794  -2.9151  -2.8844  -2.5684
    -2.4994  -2.2449  -1.8887  -1.7429  -1.6125  -1.4688  -1.4459  -1.1973
    -0.8906  -0.8576  -0.7779  -0.3079   0.2539   0.3556   0.6688   0.7725
     0.8526   0.8604   0.9406   1.0142   1.0149   1.0760   1.0983   1.2543
     1.3650   1.3985   1.7805   1.8246   2.2659   2.3137   2.9115   4.4650
     4.8891   5.3836   5.4083   5.4333   5.4605   5.4982   5.7184   5.9043
     5.9295   5.9804

          k = 0.1250 0.0000 0.0000 ( 40851 PWs)   bands (ev):

   -72.6218 -72.3612 -72.2275 -72.1644 -72.1210 -71.8393 -42.6809 -42.6081
   -42.5276 -42.5101 -42.4626 -42.4197 -42.3570 -42.2504 -42.2217 -42.1197
   -42.0593 -42.0540 -42.0507 -42.0032 -41.9887 -41.9806 -41.7689 -41.6969
   -18.5898 -18.3164 -18.1693 -17.9858 -17.6565 -17.5043 -17.4024 -17.1401
   -17.0573 -16.9889 -16.9006 -16.7147 -15.9744  -6.8675  -6.8518  -6.8337
    -6.4116  -6.1472  -5.6120  -5.5845  -5.5839  -5.4280  -5.4258  -5.2395
    -4.9937  -4.7994  -4.7590  -4.5806  -3.6545  -3.6383  -3.3134  -3.1858
    -2.9670  -2.9065  -2.8286  -2.7650  -2.7491  -2.5435  -2.5133  -2.4909
    -2.1275  -2.1223  -1.9207  -1.8580  -1.8566  -1.7360  -1.6174  -1.2305
    -1.1668  -0.8612  -0.7627  -0.4178  -0.0068   0.1774   0.2102   0.2780
     0.3738   0.4999   0.6256   0.7037   0.7817   0.8440   1.0404   1.3615
     1.3778   1.5926   1.8019   2.1589   2.4430   2.5672   2.7830   3.7773
     4.4924   4.9765   5.1294   5.2211   5.4976   5.6163   5.6376   5.6642
     5.7082   6.4119

          k = 0.1250 0.1223 0.0000 ( 40932 PWs)   bands (ev):

   -72.6218 -72.3612 -72.2275 -72.1644 -72.1211 -71.8393 -42.6798 -42.6081
   -42.5269 -42.5101 -42.4627 -42.4197 -42.3554 -42.2504 -42.2217 -42.1209
   -42.0593 -42.0536 -42.0506 -42.0033 -41.9905 -41.9808 -41.7689 -41.6978
   -18.4839 -18.1914 -18.0407 -18.0228 -17.6708 -17.5513 -17.3880 -17.1850
   -17.1809 -17.0938 -17.0367 -16.7159 -15.9722  -6.4924  -6.4203  -6.4137
    -6.3552  -6.1366  -5.5799  -5.5182  -5.5083  -5.4462  -5.3331  -5.0734
    -4.9608  -4.8018  -4.7783  -4.4242  -3.8400  -3.7142  -3.6126  -3.4847
    -3.3481  -3.2325  -3.1481  -3.0580  -2.9587  -2.9218  -2.8485  -2.6458
    -2.5309  -2.3400  -2.0148  -1.8470  -1.8060  -1.7648  -1.4740  -1.1852
    -0.9815  -0.8787  -0.7665  -0.3749   0.2085   0.3320   0.4816   0.4976
     0.6058   0.7469   0.8694   0.8894   0.9771   1.0567   1.1003   1.3604
     1.4524   1.5824   1.8871   1.9348   2.2153   2.5331   2.7912   4.1076
     4.7524   5.0162   5.0866   5.1573   5.3775   5.3869   5.5090   5.5287
     5.7663   6.4074

          k = 0.1250-0.2445 0.0000 ( 40974 PWs)   bands (ev):

   -72.6218 -72.3612 -72.2275 -72.1643 -72.1211 -71.8393 -42.6788 -42.6081
   -42.5262 -42.5100 -42.4627 -42.4197 -42.3538 -42.2504 -42.2216 -42.1221
   -42.0593 -42.0531 -42.0505 -42.0035 -41.9924 -41.9811 -41.7688 -41.6988
   -18.3114 -18.1351 -17.9456 -17.7890 -17.7875 -17.6805 -17.3654 -17.3450
   -17.3177 -17.1834 -17.1133 -16.7190 -15.9705  -6.4354  -6.1663  -5.6614
    -5.6520  -5.5662  -5.5446  -5.5437  -5.4793  -5.4759  -5.4374  -5.0088
    -4.8840  -4.8152  -4.5281  -4.4706  -4.1616  -4.0956  -3.9350  -3.9313
    -3.8411  -3.7747  -3.6775  -3.3374  -3.3095  -3.1117  -3.0585  -2.8874
    -2.6599  -2.4123  -2.0471  -1.7509  -1.6050  -1.5297  -1.3518  -1.1725
    -0.9330  -0.8703  -0.7774  -0.3388   0.3273   0.4546   0.4782   0.5883
     0.7264   0.7923   1.0859   1.2710   1.3299   1.3405   1.4025   1.4066
     1.4669   1.6320   1.7630   1.7653   2.1491   2.2083   2.9407   4.5198
     4.7282   4.8012   4.9158   4.9962   5.3211   5.3268   5.5113   5.6421
     5.9685   6.0725

          k = 0.2500 0.0000 0.0000 ( 40947 PWs)   bands (ev):

   -72.6179 -72.3576 -72.2238 -72.1607 -72.1174 -71.8356 -42.6760 -42.6755
   -42.5227 -42.4983 -42.4583 -42.4163 -42.3512 -42.3122 -42.2117 -42.1188
   -42.1161 -42.1095 -42.0648 -42.0404 -41.9949 -41.9709 -41.8344 -41.6861
   -18.2596 -18.0240 -17.8918 -17.7833 -17.5209 -17.4162 -17.2957 -17.2367
   -17.1761 -17.1412 -17.0949 -16.8842 -16.0351  -6.4284  -6.3850  -6.3740
    -5.9636  -5.9496  -5.6551  -5.6502  -5.5208  -5.2810  -5.2715  -5.0021
    -4.7593  -4.5170  -4.3907  -4.1821  -4.0777  -3.9434  -3.8017  -3.6864
    -3.5521  -3.3393  -3.3025  -3.0082  -2.8322  -2.6690  -2.6433  -2.5008
    -2.4213  -2.3974  -2.2258  -2.0843  -2.0500  -1.8440  -1.7202  -1.2305
    -1.1471  -1.0505  -0.9929  -0.6992   0.0735   0.3390   0.5776   0.6271
     0.6912   0.8174   1.0053   1.1644   1.2131   1.3096   1.3413   1.3668
     1.5645   1.6381   1.6591   1.8889   2.1481   2.3894   2.7155   4.0232
     4.3082   4.6242   4.8297   4.9058   5.0143   5.0267   5.0872   5.1571
     5.7108   6.1479

          k = 0.2500 0.1223 0.0000 ( 40905 PWs)   bands (ev):

   -72.6179 -72.3576 -72.2238 -72.1606 -72.1174 -71.8356 -42.6761 -42.6752
   -42.5226 -42.4982 -42.4584 -42.4163 -42.3511 -42.3123 -42.2117 -42.1176
   -42.1158 -42.1101 -42.0653 -42.0408 -41.9949 -41.9714 -41.8341 -41.6866
   -18.1799 -17.9308 -17.8200 -17.7808 -17.5443 -17.4365 -17.3378 -17.2942
   -17.2756 -17.1774 -17.1309 -16.8878 -16.0346  -6.1575  -6.0744  -6.0570
    -5.9686  -5.9066  -5.6492  -5.4832  -5.3926  -5.3260  -5.1539  -5.0802
    -4.6340  -4.4781  -4.3966  -4.2979  -4.2239  -4.1982  -4.1190  -3.8501
    -3.7128  -3.5020  -3.1860  -3.0798  -2.9949  -2.8876  -2.7525  -2.7180
    -2.5756  -2.4739  -2.2161  -2.0276  -1.9870  -1.8280  -1.7574  -1.3270
    -1.0893  -1.0495  -0.8606  -0.7223   0.0147   0.3907   0.6256   0.7223
     0.9412   1.0397   1.0713   1.1599   1.2161   1.2704   1.3798   1.4243
     1.5672   1.7327   1.7607   1.8887   2.0643   2.2672   2.8337   4.1095
     4.2219   4.3984   4.4394   4.5472   4.8321   5.0581   5.3870   5.5968
     5.8356   6.2333

          k = 0.2500-0.2445 0.0000 ( 40892 PWs)   bands (ev):

   -72.6179 -72.3576 -72.2238 -72.1606 -72.1174 -71.8356 -42.6761 -42.6750
   -42.5225 -42.4982 -42.4584 -42.4163 -42.3510 -42.3123 -42.2117 -42.1164
   -42.1153 -42.1108 -42.0657 -42.0411 -41.9949 -41.9719 -41.8337 -41.6870
   -18.0539 -17.8823 -17.7203 -17.6756 -17.5472 -17.5356 -17.5055 -17.3756
   -17.3182 -17.2333 -17.1261 -16.8927 -16.0342  -6.0045  -5.9823  -5.6459
    -5.5898  -5.5809  -5.5605  -5.4100  -5.2210  -5.1573  -5.0480  -4.9985
    -4.8308  -4.8173  -4.7637  -4.5073  -4.4878  -4.2244  -3.9798  -3.9494
    -3.7078  -3.4406  -3.3504  -3.2747  -3.2711  -3.2104  -3.1978  -3.0077
    -2.9110  -2.5219  -2.1302  -1.9213  -1.7292  -1.6738  -1.4568  -1.3890
    -1.1216  -1.0360  -0.9615  -0.5010   0.1205   0.1969   0.5301   0.7008
     0.7508   1.1267   1.2294   1.3014   1.3376   1.4416   1.4692   1.5958
     1.6167   1.8169   1.8731   1.9628   2.0039   2.1312   2.9273   3.8922
     3.9639   4.0405   4.2137   4.5223   4.8315   5.2715   5.4653   5.8846
     6.0474   6.1453

          k = 0.3750 0.0000 0.0000 ( 40852 PWs)   bands (ev):

   -72.6141 -72.3540 -72.2201 -72.1569 -72.1137 -71.8318 -42.7429 -42.6703
   -42.5179 -42.4863 -42.4541 -42.4151 -42.3714 -42.3454 -42.2028 -42.1815
   -42.1806 -42.1216 -42.0993 -42.0393 -41.9880 -41.9611 -41.8990 -41.6752
   -17.9115 -17.7513 -17.6620 -17.5818 -17.4767 -17.4105 -17.4098 -17.3568
   -17.2819 -17.1702 -17.0604 -16.9315 -16.0102  -6.0497  -5.9304  -5.8598
    -5.7970  -5.6859  -5.5784  -5.5440  -5.3610  -5.3409  -5.2049  -5.0337
    -4.9066  -4.6165  -4.5332  -4.4419  -4.2178  -4.0360  -4.0060  -3.7703
    -3.4961  -3.2826  -3.2030  -3.2013  -3.0959  -2.9327  -2.6699  -2.6143
    -2.5468  -2.2829  -2.1925  -2.0648  -2.0379  -1.8688  -1.5446  -1.3536
    -1.3199  -1.1572  -0.9954  -0.7454   0.1824   0.5093   0.6450   0.7478
     0.7534   0.8407   0.9545   0.9746   1.0630   1.1832   1.3532   1.4278
     1.5982   1.7843   1.8661   1.9242   2.2329   2.3030   2.5952   3.4949
     4.1992   4.4259   4.5859   4.6010   4.6925   4.7336   4.9799   5.1324
     5.7469   5.8061

          k = 0.3750 0.1223 0.0000 ( 40842 PWs)   bands (ev):

   -72.6141 -72.3540 -72.2201 -72.1569 -72.1137 -71.8318 -42.7430 -42.6708
   -42.5184 -42.4862 -42.4541 -42.4151 -42.3715 -42.3474 -42.2026 -42.1798
   -42.1792 -42.1222 -42.0994 -42.0394 -41.9880 -41.9609 -41.8983 -41.6753
   -17.8964 -17.7477 -17.7344 -17.6323 -17.5232 -17.4719 -17.3362 -17.2851
   -17.2179 -17.1681 -17.0583 -16.9380 -16.0104  -5.9882  -5.8645  -5.8503
    -5.8125  -5.6936  -5.6178  -5.4583  -5.4407  -5.3407  -5.2873  -5.2005
    -4.8356  -4.5112  -4.4599  -4.3329  -4.2184  -4.0839  -4.0210  -3.5695
    -3.4103  -3.3333  -3.1830  -3.0819  -2.9576  -2.8524  -2.6974  -2.5664
    -2.5398  -2.5037  -2.2778  -2.0944  -1.8861  -1.8042  -1.7348  -1.4504
    -1.3415  -1.1226  -0.9500  -0.9160   0.0564   0.2455   0.3743   0.6683
     0.7666   0.8005   0.8918   0.9354   0.9959   1.0488   1.1301   1.4317
     1.8406   2.0173   2.0694   2.1638   2.2066   2.2573   2.7041   3.4932
     3.8378   3.8593   3.9531   4.2437   4.4491   5.4038   5.6852   5.7849
     5.9052   6.0024

          k = 0.3750-0.2445 0.0000 ( 40856 PWs)   bands (ev):

   -72.6141 -72.3540 -72.2201 -72.1569 -72.1137 -71.8318 -42.7431 -42.6713
   -42.5188 -42.4862 -42.4542 -42.4151 -42.3716 -42.3495 -42.2025 -42.1790
   -42.1769 -42.1227 -42.0995 -42.0394 -41.9880 -41.9607 -41.8976 -41.6753
   -17.8667 -17.8091 -17.7335 -17.6860 -17.5430 -17.5070 -17.2863 -17.2386
   -17.1787 -17.1660 -17.0545 -16.9449 -16.0107  -5.9615  -5.8474  -5.7727
    -5.7140  -5.6558  -5.5924  -5.5808  -5.4888  -5.4127  -5.3586  -5.2879
    -4.8795  -4.5334  -4.3176  -4.2754  -4.0832  -3.9054  -3.8595  -3.5452
    -3.3264  -3.3058  -3.1167  -3.0109  -2.9443  -2.9125  -2.8082  -2.7195
    -2.6580  -2.5657  -2.1975  -2.0931  -1.9038  -1.8200  -1.5735  -1.4635
    -1.3001  -1.1315  -1.1049  -0.8168  -0.2222  -0.0854   0.0016   0.4273
     0.7851   0.8325   0.9357   1.0020   1.0231   1.0685   1.2173   1.3240
     1.7812   2.0559   2.1192   2.3131   2.3744   2.4089   2.8019   3.3205
     3.4270   3.5258   3.6347   4.2688   4.4505   5.6858   5.7911   6.1556
     6.1880   6.2833

          k =-0.5000 0.0000 0.0000 ( 40876 PWs)   bands (ev):

   -72.6125 -72.3525 -72.2186 -72.1554 -72.1122 -71.8302 -42.7704 -42.6681
   -42.5159 -42.4812 -42.4524 -42.4188 -42.3916 -42.3430 -42.2118 -42.2071
   -42.1947 -42.1473 -42.0951 -42.0366 -41.9852 -41.9571 -41.9253 -41.6707
   -17.8433 -17.5909 -17.5494 -17.5216 -17.4810 -17.4367 -17.4299 -17.4156
   -17.3573 -17.1989 -17.0200 -16.8565 -15.9725  -6.0981  -5.9142  -5.8410
    -5.6508  -5.5205  -5.5002  -5.4149  -5.2785  -5.2628  -5.2229  -5.0779
    -4.8761  -4.8725  -4.7256  -4.5467  -4.3881  -4.0145  -3.5097  -3.4858
    -3.4727  -3.4450  -3.4228  -3.2313  -3.0430  -2.9579  -2.8378  -2.4617
    -2.3762  -2.1677  -2.1490  -2.0435  -2.0405  -1.6502  -1.6252  -1.5403
    -1.3672  -1.2701  -0.9262  -0.6855   0.2600   0.2791   0.6445   0.7174
     0.7610   0.7915   0.8081   0.8829   0.9352   0.9891   1.2247   1.2673
     1.5615   1.7539   2.0724   2.1091   2.4017   2.4782   2.4786   3.2574
     4.1515   4.3708   4.4515   4.4737   4.5756   4.7395   4.9527   5.1027
     5.7372   5.8306

          k =-0.5000 0.1223 0.0000 ( 40858 PWs)   bands (ev):

   -72.6125 -72.3525 -72.2186 -72.1554 -72.1122 -71.8302 -42.7705 -42.6690
   -42.5166 -42.4812 -42.4524 -42.4189 -42.3917 -42.3463 -42.2088 -42.2061
   -42.1942 -42.1478 -42.0949 -42.0366 -41.9852 -41.9565 -41.9245 -41.6706
   -17.8400 -17.7591 -17.7148 -17.6311 -17.5428 -17.4299 -17.2716 -17.2404
   -17.1983 -17.1695 -17.0200 -16.8603 -15.9720  -6.1026  -5.9217  -5.8882
    -5.8463  -5.7799  -5.7709  -5.4536  -5.4024  -5.3358  -5.3135  -4.9803
    -4.8984  -4.6098  -4.3101  -4.1778  -4.1408  -3.6703  -3.6376  -3.5444
    -3.4593  -3.4474  -3.3968  -3.1587  -2.8221  -2.7787  -2.5162  -2.4532
    -2.3934  -2.2817  -2.2563  -2.0422  -1.9087  -1.7991  -1.6604  -1.5313
    -1.4352  -1.2272  -1.1160  -0.7838   0.1151   0.1967   0.2441   0.2933
     0.6202   0.6634   0.7098   0.7562   0.7733   0.7927   0.9574   1.2366
     2.0072   2.1771   2.2519   2.2703   2.3450   2.4420   2.6110   3.3108
     3.6135   3.6734   3.7821   4.1851   4.3754   5.7158   5.8141   5.8298
     5.8895   5.9335

          k =-0.5000-0.2445 0.0000 ( 40872 PWs)   bands (ev):

   -72.6125 -72.3525 -72.2186 -72.1554 -72.1122 -71.8302 -42.7706 -42.6698
   -42.5174 -42.4812 -42.4524 -42.4189 -42.3918 -42.3495 -42.2062 -42.2051
   -42.1934 -42.1483 -42.0948 -42.0367 -41.9852 -41.9560 -41.9236 -41.6704
   -17.8496 -17.8367 -17.8046 -17.7200 -17.5357 -17.4367 -17.1976 -17.1718
   -17.1435 -17.0774 -17.0168 -16.8643 -15.9715  -6.1313  -6.1024  -6.0468
    -5.9928  -5.8113  -5.6879  -5.5131  -5.3818  -5.3751  -5.3193  -4.9930
    -4.9320  -4.6941  -4.3656  -3.7414  -3.7232  -3.6432  -3.4524  -3.4459
    -3.2562  -3.2041  -3.1134  -3.0040  -2.8688  -2.7145  -2.7003  -2.4755
    -2.4431  -2.3901  -2.2184  -2.0354  -1.8586  -1.6753  -1.5772  -1.5754
    -1.5159  -1.3288  -1.0722  -1.0340  -0.4104  -0.1500  -0.0677   0.1440
     0.2975   0.6328   0.6517   0.7489   0.7812   0.7922   0.9717   1.2228
     1.9503   2.1629   2.2827   2.5165   2.5571   2.5974   2.6707   3.2269
     3.2837   3.3498   3.3952   4.2155   4.3792   5.8998   5.9376   6.2304
     6.2777   6.4023

     the Fermi energy is     1.3952 ev

!    total energy              =   -1673.52913813 Ry
     estimated scf accuracy    <       0.00000054 Ry
     smearing contrib. (-TS)   =      -0.00093208 Ry
     internal energy E=F+TS    =   -1673.52820605 Ry

     The total energy is F=E-TS. E is the sum of the following terms:
     one-electron contribution =  -16974.23562081 Ry
     hartree contribution      =    8511.40746994 Ry
     xc contribution           =    -214.90920336 Ry
     ewald contribution        =    7127.96989477 Ry
     one-center paw contrib.   =    -123.76074659 Ry

     convergence has been achieved in  21 iterations

     negative rho (up, down):  1.031E-04 0.000E+00

     Forces acting on atoms (cartesian axes, Ry/au):

     atom    1 type  2   force =    -0.00000702    0.00000000    0.06383292
     atom    2 type  2   force =    -0.00004096    0.00000000   -0.08481051
     atom    3 type  2   force =    -0.00055405    0.00000000   -0.00076505
     atom    4 type  2   force =     0.00064412    0.00000000   -0.00017621
     atom    5 type  2   force =    -0.00036463    0.00000000    0.00066343
     atom    6 type  2   force =     0.00086251    0.00000000   -0.00060281
     atom    7 type  3   force =    -0.00001550    0.00000000    0.02947715
     atom    8 type  3   force =    -0.00002852    0.00000000    0.06179795
     atom    9 type  3   force =    -0.00000779    0.02451057   -0.02441111
     atom   10 type  3   force =    -0.00000779   -0.02451057   -0.02441111
     atom   11 type  3   force =     0.00071842    0.00000000    0.00044864
     atom   12 type  3   force =    -0.00188912    0.00000000   -0.01627896
     atom   13 type  3   force =    -0.00037469   -0.00023728   -0.00183722
     atom   14 type  3   force =    -0.00037469    0.00023728   -0.00183722
     atom   15 type  3   force =     0.00054113    0.00000000    0.00065818
     atom   16 type  3   force =     0.00011479    0.00000000   -0.00161195
     atom   17 type  3   force =    -0.00041291    0.00137004    0.00013532
     atom   18 type  3   force =    -0.00041291   -0.00137004    0.00013532
     atom   19 type  3   force =     0.00099794    0.00000000   -0.00142853
     atom   20 type  1   force =     0.00061167    0.00000000    0.00102178

     Total force =     0.004775     Total SCF correction =     0.002926
     SCF correction compared to forces is large: reduce conv_thr to get better values

     Writing all to output data dir ./tmp_s0_OH__base/s0_OH__base.save/ :
     XML data file, charge density, pseudopotentials, collected wavefunctions

     init_run     :     29.01s CPU     31.68s WALL (       1 calls)
     electrons    :   1316.46s CPU   1413.81s WALL (       1 calls)
     forces       :     10.88s CPU     12.11s WALL (       1 calls)

     Called by init_run:
     wfcinit      :     22.18s CPU     23.93s WALL (       1 calls)
     potinit      :      2.84s CPU      3.26s WALL (       1 calls)
     hinit0       :      2.85s CPU      3.09s WALL (       1 calls)

     Called by electrons:
     c_bands      :    924.90s CPU    992.43s WALL (      21 calls)
     sum_band     :    229.22s CPU    243.31s WALL (      21 calls)
     v_of_rho     :     32.42s CPU     37.67s WALL (      22 calls)
     newd         :     10.86s CPU     14.56s WALL (      22 calls)
     PAW_pot      :     14.14s CPU     14.71s WALL (      22 calls)
     mix_rho      :    103.68s CPU    109.92s WALL (      21 calls)

     Called by c_bands:
     init_us_2    :     17.06s CPU     17.97s WALL (     176 calls)
     cegterg      :    871.03s CPU    936.25s WALL (      84 calls)

     Called by *egterg:
     cdiaghg      :      5.34s CPU      5.56s WALL (     385 calls)
     h_psi        :    656.39s CPU    693.02s WALL (     389 calls)
     s_psi        :     40.68s CPU     42.30s WALL (     389 calls)
     g_psi        :      6.07s CPU      6.33s WALL (     301 calls)

     Called by h_psi:
     h_psi:calbec :     45.29s CPU     47.13s WALL (     389 calls)
     vloc_psi     :    562.96s CPU    587.49s WALL (     389 calls)
                                        0.00s GPU  (     389 calls)
     add_vuspsi   :     43.26s CPU     45.18s WALL (     389 calls)

     General routines
     calbec       :     68.69s CPU     71.43s WALL (     489 calls)
     fft          :     15.95s CPU     16.59s WALL (     295 calls)
     ffts         :     36.88s CPU     38.43s WALL (    2495 calls)
     fftw         :    528.57s CPU    551.45s WALL (   46394 calls)
     interpolate  :      2.71s CPU      2.84s WALL (      22 calls)

     Parallel routines

     PWSCF        :  22m36.70s CPU  24m18.20s WALL


   This run was terminated on:   2:31: 3   7Aug2026            

=------------------------------------------------------------------------------=
   JOB DONE.
=------------------------------------------------------------------------------=
