
     Program PWSCF v.7.5 starts on  7Aug2026 at  5: 9:17 

     This program is part of the open-source Quantum ESPRESSO suite
     for quantum simulation of materials; please cite
         "P. Giannozzi et al., J. Phys.:Condens. Matter 21 395502 (2009);
         "P. Giannozzi et al., J. Phys.:Condens. Matter 29 465901 (2017);
         "P. Giannozzi et al., J. Chem. Phys. 152 154105 (2020);
          URL http://www.quantum-espresso.org", 
     in publications or presentations arising from this work. More details at
     http://www.quantum-espresso.org/quote

     Parallel version (MPI & OpenMP), running on       4 processor cores
     Number of MPI processes:                 4
     Threads/MPI process:                     1

     MPI processes distributed on     1 nodes
     13623 MiB available memory on the printing compute node when the environment starts

     Reading input from s0_OOH__spin0.5.run.in

     Current dimensions of program PWSCF are:
     Max number of different atomic species (ntypx) = 10
     Max number of k-points (npk) =  40000
     Max angular momentum in pseudopotentials (lmaxx) =  4
     file O.pbe-n-kjpaw_psl.0.1.UPF: wavefunction(s)  2P renormalized
     Message from routine setup:
     using ibrav=0 with symmetry is DISCOURAGED, use correct ibrav instead

     K-points division:     npool     =       4
     Subspace diagonalization in iterative solution of the eigenvalue problem:
     a serial algorithm will be used


     G-vector sticks info
     --------------------
     sticks:   dense  smooth     PW     G-vecs:    dense   smooth      PW
     Sum        3587    1793    513               925697   327113   49625

     Using Slab Decomposition



     bravais-lattice index     =            0
     lattice parameter (alat)  =       5.8714  a.u.
     unit-cell volume          =    3384.5999 (a.u.)^3
     number of atoms/cell      =           21
     number of atomic types    =            3
     number of electrons       =       181.00
     number of Kohn-Sham states=          109
     kinetic-energy cutoff     =      80.0000  Ry
     charge density cutoff     =     640.0000  Ry
     scf convergence threshold =      1.0E-06
     mixing beta               =       0.3000
     number of iterations used =            8  local-TF  mixing
     Exchange-correlation= SLA  PW   PBX  PBC
                           (   1   4   3   4   0   0   0)

     celldm(1)=   5.871379  celldm(2)=   0.000000  celldm(3)=   0.000000
     celldm(4)=   0.000000  celldm(5)=   0.000000  celldm(6)=   0.000000

     crystal axes: (cart. coord. in units of alat)
               a(1) = (   1.000000   0.000000   0.000000 )  
               a(2) = (   0.000000   2.044624   0.000000 )  
               a(3) = (   0.000000   0.000000   8.178497 )  

     reciprocal axes: (cart. coord. in units 2 pi/alat)
               b(1) = (  1.000000  0.000000  0.000000 )  
               b(2) = (  0.000000  0.489087  0.000000 )  
               b(3) = (  0.000000  0.000000  0.122272 )  


     PseudoPot. # 1 for H  read from file:
     /usr/share/espresso/pseudo/H.pbe-rrkjus_psl.1.0.0.UPF
     MD5 check sum: f52b6d4d1c606e5624b1dc7b2218f220
     Pseudo is Ultrasoft, Zval =  1.0
     Generated using "atomic" code by A. Dal Corso  v.5.1
     Using radial grid of  929 points,  2 beta functions with: 
                l(1) =   0
                l(2) =   0
     Q(r) pseudized with 0 coefficients 


     PseudoPot. # 2 for Ru read from file:
     /usr/share/espresso/pseudo/Ru_ONCV_PBE-1.0.oncvpsp.upf
     MD5 check sum: be037bb81c227cfb9b1461a9f099f4bd
     Pseudo is Norm-conserving, Zval = 16.0
     Generated using ONCVPSP code by D. R. Hamann
     Using radial grid of 1458 points,  6 beta functions with: 
                l(1) =   0
                l(2) =   0
                l(3) =   1
                l(4) =   1
                l(5) =   2
                l(6) =   2

     PseudoPot. # 3 for O  read from file:
     /usr/share/espresso/pseudo/O.pbe-n-kjpaw_psl.0.1.UPF
     MD5 check sum: 0234752ac141de4415c5fc33072bef88
     Pseudo is Projector augmented-wave + core cor, Zval =  6.0
     Generated using "atomic" code by A. Dal Corso  v.5.0.99 svn rev. 10869
     Shape of augmentation charge: BESSEL
     Using radial grid of 1095 points,  4 beta functions with: 
                l(1) =   0
                l(2) =   0
                l(3) =   1
                l(4) =   1
     Q(r) pseudized with 0 coefficients 


     atomic species   valence    mass     pseudopotential
     H                 1.00     1.00800     H ( 1.00)
     Ru               16.00   101.07000     Ru( 1.00)
     O                 6.00    15.99900     O ( 1.00)

     Starting magnetic structure 
     atomic species   magnetization
     H               0.000
     Ru              0.500
     O               0.000

      2 Sym. Ops. (no inversion) found ( 1 have fractional translation)



   Cartesian axes

     site n.     atom                  positions (alat units)
         1        Ru     tau(   1) = (   0.0000000   0.5111560   3.0669363  )
         2        Ru     tau(   2) = (   0.5000000   1.5334681   3.0669363  )
         3        Ru     tau(   3) = (   0.0036513   1.5334681   4.1010901  )
         4        Ru     tau(   4) = (   0.5011434   0.5111560   4.0829838  )
         5        Ru     tau(   5) = (  -0.0034005   0.5111560   5.1128160  )
         6        Ru     tau(   6) = (   0.5023911   1.5334681   5.1500971  )
         7        O      tau(   7) = (   0.0000000   1.5334681   3.4656380  )
         8        O      tau(   8) = (   0.0000000   1.5334681   2.6682346  )
         9        O      tau(   9) = (   0.5000000   0.1124543   3.0669363  )
        10        O      tau(  10) = (   0.5000000   0.9098578   3.0669363  )
        11        O      tau(  11) = (   0.0014323   0.5111560   4.4911398  )
        12        O      tau(  12) = (   0.0000000   0.5111560   3.6905466  )
        13        O      tau(  13) = (   0.5034297   1.1369455   4.0929878  )
        14        O      tau(  14) = (   0.5034297   1.9299908   4.0929878  )
        15        O      tau(  15) = (   0.0031289   1.5334681   5.5052300  )
        16        O      tau(  16) = (   0.0021555   1.5334681   4.7241012  )
        17        O      tau(  17) = (   0.5023215   0.1156519   5.1188702  )
        18        O      tau(  18) = (   0.5023215   0.9066602   5.1188702  )
        19        O      tau(  19) = (   0.0666044   0.5111560   5.7356750  )
        20        O      tau(  20) = (  -0.2099082   0.5111560   6.0861679  )
        21        H      tau(  21) = (  -0.5108953   0.5111560   5.9503934  )

     number of k points=    15  Marzari-Vanderbilt smearing, width (Ry)=  0.0100
                       cart. coord. in units 2pi/alat
        k(    1) = (   0.0000000   0.0000000   0.0000000), wk =   0.0312500
        k(    2) = (   0.0000000   0.1222719   0.0000000), wk =   0.0625000
        k(    3) = (   0.0000000  -0.2445437   0.0000000), wk =   0.0312500
        k(    4) = (   0.1250000   0.0000000   0.0000000), wk =   0.0625000
        k(    5) = (   0.1250000   0.1222719   0.0000000), wk =   0.1250000
        k(    6) = (   0.1250000  -0.2445437   0.0000000), wk =   0.0625000
        k(    7) = (   0.2500000   0.0000000   0.0000000), wk =   0.0625000
        k(    8) = (   0.2500000   0.1222719   0.0000000), wk =   0.1250000
        k(    9) = (   0.2500000  -0.2445437   0.0000000), wk =   0.0625000
        k(   10) = (   0.3750000   0.0000000   0.0000000), wk =   0.0625000
        k(   11) = (   0.3750000   0.1222719   0.0000000), wk =   0.1250000
        k(   12) = (   0.3750000  -0.2445437   0.0000000), wk =   0.0625000
        k(   13) = (  -0.5000000   0.0000000   0.0000000), wk =   0.0312500
        k(   14) = (  -0.5000000   0.1222719   0.0000000), wk =   0.0625000
        k(   15) = (  -0.5000000  -0.2445437   0.0000000), wk =   0.0312500

     Dense  grid:   925697 G-vectors     FFT dimensions: (  48, 100, 400)

     Smooth grid:   327113 G-vectors     FFT dimensions: (  36,  72, 288)

     Estimated max dynamical RAM per process >       2.04 GB

     Estimated total dynamical RAM >       6.85 GB
     Generating pointlists ...
     new r_m :   0.1362 (alat units)  0.7997 (a.u.) for type    1
     new r_m :   0.2527 (alat units)  1.4839 (a.u.) for type    2
     new r_m :   0.1362 (alat units)  0.7997 (a.u.) for type    3

     Initial potential from superposition of free atoms

     starting charge     180.9967, renormalised to     181.0000

     negative rho (up, down):  3.995E-05 4.005E-05
     Starting wfcs are  117 randomized atomic wfcs
     Checking if some PAW data can be deallocated... 

     total cpu time spent up to now is       65.9 secs

     per-process dynamical memory:  1296.3 Mb

     Self-consistent Calculation

     iteration #  1     ecut=    80.00 Ry     beta= 0.30
     Davidson diagonalization with overlap
     ethr =  1.00E-02,  avg # of iterations =  2.0

     negative rho (up, down):  2.714E-06 1.812E-06

     total cpu time spent up to now is      267.1 secs

     total energy              =   -1713.03630103 Ry
     estimated scf accuracy    <       8.46434046 Ry

     total magnetization       =    22.96 Bohr mag/cell
     absolute magnetization    =    23.39 Bohr mag/cell

     iteration #  2     ecut=    80.00 Ry     beta= 0.30
     Davidson diagonalization with overlap
     ethr =  4.68E-03,  avg # of iterations =  1.0

     negative rho (up, down):  4.139E-08 4.148E-08

     total cpu time spent up to now is      396.6 secs

     total energy              =   -1713.79311589 Ry
     estimated scf accuracy    <       2.75916969 Ry

     total magnetization       =    18.71 Bohr mag/cell
     absolute magnetization    =    19.47 Bohr mag/cell

     iteration #  3     ecut=    80.00 Ry     beta= 0.30
     Davidson diagonalization with overlap
     ethr =  1.52E-03,  avg # of iterations =  2.0

     negative rho (up, down):  1.115E-08 1.257E-08

     total cpu time spent up to now is      562.8 secs

     total energy              =   -1714.30763925 Ry
     estimated scf accuracy    <       1.52190453 Ry

     total magnetization       =    13.23 Bohr mag/cell
     absolute magnetization    =    14.71 Bohr mag/cell

     iteration #  4     ecut=    80.00 Ry     beta= 0.30
     Davidson diagonalization with overlap
     ethr =  8.41E-04,  avg # of iterations =  1.0

     negative rho (up, down):  2.093E-08 1.285E-08

     total cpu time spent up to now is      694.8 secs

     total energy              =   -1714.64902954 Ry
     estimated scf accuracy    <       0.59460443 Ry

     total magnetization       =    13.81 Bohr mag/cell
     absolute magnetization    =    14.69 Bohr mag/cell

     iteration #  5     ecut=    80.00 Ry     beta= 0.30
     Davidson diagonalization with overlap
     ethr =  3.29E-04,  avg # of iterations =  1.5

     negative rho (up, down):  1.728E-08 1.037E-08

     total cpu time spent up to now is      839.8 secs

     total energy              =   -1714.83764706 Ry
     estimated scf accuracy    <       0.27259740 Ry

     total magnetization       =    10.49 Bohr mag/cell
     absolute magnetization    =    11.19 Bohr mag/cell

     iteration #  6     ecut=    80.00 Ry     beta= 0.30
     Davidson diagonalization with overlap
     ethr =  1.51E-04,  avg # of iterations =  2.5

     negative rho (up, down):  1.487E-08 8.443E-09

     total cpu time spent up to now is      985.8 secs

     total energy              =   -1714.88150750 Ry
     estimated scf accuracy    <       0.30761124 Ry

     total magnetization       =     7.90 Bohr mag/cell
     absolute magnetization    =     8.70 Bohr mag/cell

     iteration #  7     ecut=    80.00 Ry     beta= 0.30
     Davidson diagonalization with overlap
     ethr =  1.51E-04,  avg # of iterations =  1.0

     negative rho (up, down):  1.033E-08 6.491E-09

     total cpu time spent up to now is     1124.8 secs

     total energy              =   -1714.93492390 Ry
     estimated scf accuracy    <       0.26200954 Ry

     total magnetization       =     7.49 Bohr mag/cell
     absolute magnetization    =     8.23 Bohr mag/cell

     iteration #  8     ecut=    80.00 Ry     beta= 0.30
     Davidson diagonalization with overlap
     ethr =  1.45E-04,  avg # of iterations =  1.3

     total cpu time spent up to now is     1264.7 secs

     total energy              =   -1714.97353413 Ry
     estimated scf accuracy    <       0.10865821 Ry

     total magnetization       =     5.88 Bohr mag/cell
     absolute magnetization    =     6.38 Bohr mag/cell

     iteration #  9     ecut=    80.00 Ry     beta= 0.30
     Davidson diagonalization with overlap
     ethr =  6.00E-05,  avg # of iterations =  4.2

     total cpu time spent up to now is     1420.2 secs

     total energy              =   -1714.99294171 Ry
     estimated scf accuracy    <       0.05652340 Ry

     total magnetization       =     4.58 Bohr mag/cell
     absolute magnetization    =     4.90 Bohr mag/cell

     iteration # 10     ecut=    80.00 Ry     beta= 0.30
     Davidson diagonalization with overlap
     ethr =  3.12E-05,  avg # of iterations =  2.6

     total cpu time spent up to now is     1558.9 secs

     total energy              =   -1715.00233114 Ry
     estimated scf accuracy    <       0.05811638 Ry

     total magnetization       =     3.76 Bohr mag/cell
     absolute magnetization    =     3.93 Bohr mag/cell

     iteration # 11     ecut=    80.00 Ry     beta= 0.30
     Davidson diagonalization with overlap
     ethr =  3.12E-05,  avg # of iterations =  1.5

     total cpu time spent up to now is     1698.0 secs

     total energy              =   -1715.00853099 Ry
     estimated scf accuracy    <       0.02867747 Ry

     total magnetization       =     3.01 Bohr mag/cell
     absolute magnetization    =     3.11 Bohr mag/cell

     iteration # 12     ecut=    80.00 Ry     beta= 0.30
     Davidson diagonalization with overlap
     ethr =  1.58E-05,  avg # of iterations =  2.0

     total cpu time spent up to now is     1837.4 secs

     total energy              =   -1715.00986452 Ry
     estimated scf accuracy    <       0.01623598 Ry

     total magnetization       =     2.63 Bohr mag/cell
     absolute magnetization    =     2.74 Bohr mag/cell

     iteration # 13     ecut=    80.00 Ry     beta= 0.30
     Davidson diagonalization with overlap
     ethr =  8.97E-06,  avg # of iterations =  1.7

     total cpu time spent up to now is     1988.9 secs

     total energy              =   -1715.01137322 Ry
     estimated scf accuracy    <       0.00890367 Ry

     total magnetization       =     2.18 Bohr mag/cell
     absolute magnetization    =     2.45 Bohr mag/cell

     iteration # 14     ecut=    80.00 Ry     beta= 0.30
     Davidson diagonalization with overlap
     ethr =  4.92E-06,  avg # of iterations =  1.3

     total cpu time spent up to now is     2130.5 secs

     total energy              =   -1715.01105284 Ry
     estimated scf accuracy    <       0.00708300 Ry

     total magnetization       =     2.07 Bohr mag/cell
     absolute magnetization    =     2.38 Bohr mag/cell

     iteration # 15     ecut=    80.00 Ry     beta= 0.30
     Davidson diagonalization with overlap
     ethr =  3.91E-06,  avg # of iterations =  2.1

     total cpu time spent up to now is     2274.7 secs

     total energy              =   -1715.01146453 Ry
     estimated scf accuracy    <       0.00401112 Ry

     total magnetization       =     1.75 Bohr mag/cell
     absolute magnetization    =     2.25 Bohr mag/cell

     iteration # 16     ecut=    80.00 Ry     beta= 0.30
     Davidson diagonalization with overlap
     ethr =  2.22E-06,  avg # of iterations =  2.4

     total cpu time spent up to now is     2417.6 secs

     total energy              =   -1715.01121465 Ry
     estimated scf accuracy    <       0.00176611 Ry

     total magnetization       =     1.69 Bohr mag/cell
     absolute magnetization    =     2.24 Bohr mag/cell

     iteration # 17     ecut=    80.00 Ry     beta= 0.30
     Davidson diagonalization with overlap
     ethr =  9.76E-07,  avg # of iterations =  1.4

     negative rho (up, down):  9.152E-05 1.051E-04

     total cpu time spent up to now is     2556.9 secs

     total energy              =   -1715.01091054 Ry
     estimated scf accuracy    <       0.00154921 Ry

     total magnetization       =     1.54 Bohr mag/cell
     absolute magnetization    =     2.23 Bohr mag/cell

     iteration # 18     ecut=    80.00 Ry     beta= 0.30
     Davidson diagonalization with overlap
     ethr =  8.56E-07,  avg # of iterations =  2.9

     negative rho (up, down):  1.417E-04 1.585E-04

     total cpu time spent up to now is     2706.2 secs

     total energy              =   -1715.01135207 Ry
     estimated scf accuracy    <       0.00102127 Ry

     total magnetization       =     1.37 Bohr mag/cell
     absolute magnetization    =     2.31 Bohr mag/cell

     iteration # 19     ecut=    80.00 Ry     beta= 0.30
     Davidson diagonalization with overlap
     ethr =  5.64E-07,  avg # of iterations =  2.0

     negative rho (up, down):  1.317E-04 1.519E-04

     total cpu time spent up to now is     2844.5 secs

     total energy              =   -1715.01158406 Ry
     estimated scf accuracy    <       0.00066983 Ry

     total magnetization       =     1.45 Bohr mag/cell
     absolute magnetization    =     2.40 Bohr mag/cell

     iteration # 20     ecut=    80.00 Ry     beta= 0.30
     Davidson diagonalization with overlap
     ethr =  3.70E-07,  avg # of iterations =  1.4

     negative rho (up, down):  5.371E-04 5.708E-04

     total cpu time spent up to now is     2979.9 secs

     total energy              =   -1715.01155526 Ry
     estimated scf accuracy    <       0.00045574 Ry

     total magnetization       =     1.50 Bohr mag/cell
     absolute magnetization    =     2.45 Bohr mag/cell

     iteration # 21     ecut=    80.00 Ry     beta= 0.30
     Davidson diagonalization with overlap
     ethr =  2.52E-07,  avg # of iterations =  2.9

     negative rho (up, down):  2.899E-04 3.030E-04

     total cpu time spent up to now is     3129.7 secs

     total energy              =   -1715.01175349 Ry
     estimated scf accuracy    <       0.00034589 Ry

     total magnetization       =     1.44 Bohr mag/cell
     absolute magnetization    =     2.56 Bohr mag/cell

     iteration # 22     ecut=    80.00 Ry     beta= 0.30
     Davidson diagonalization with overlap
     ethr =  1.91E-07,  avg # of iterations =  1.9

     negative rho (up, down):  3.329E-04 3.453E-04

     total cpu time spent up to now is     3266.9 secs

     total energy              =   -1715.01182883 Ry
     estimated scf accuracy    <       0.00006053 Ry

     total magnetization       =     1.48 Bohr mag/cell
     absolute magnetization    =     2.57 Bohr mag/cell

     iteration # 23     ecut=    80.00 Ry     beta= 0.30
     Davidson diagonalization with overlap
     ethr =  3.34E-08,  avg # of iterations =  2.1

     negative rho (up, down):  7.368E-05 7.518E-05

     total cpu time spent up to now is     3412.7 secs

     total energy              =   -1715.01187492 Ry
     estimated scf accuracy    <       0.00003710 Ry

     total magnetization       =     1.43 Bohr mag/cell
     absolute magnetization    =     2.60 Bohr mag/cell

     iteration # 24     ecut=    80.00 Ry     beta= 0.30
     Davidson diagonalization with overlap
     ethr =  2.05E-08,  avg # of iterations =  2.0

     negative rho (up, down):  2.131E-05 2.050E-05

     total cpu time spent up to now is     3555.4 secs

     total energy              =   -1715.01190028 Ry
     estimated scf accuracy    <       0.00000963 Ry

     total magnetization       =     1.43 Bohr mag/cell
     absolute magnetization    =     2.59 Bohr mag/cell

     iteration # 25     ecut=    80.00 Ry     beta= 0.30
     Davidson diagonalization with overlap
     ethr =  5.32E-09,  avg # of iterations =  2.7

     negative rho (up, down):  4.646E-05 4.492E-05

     total cpu time spent up to now is     3716.6 secs

     total energy              =   -1715.01191430 Ry
     estimated scf accuracy    <       0.00000287 Ry

     total magnetization       =     1.40 Bohr mag/cell
     absolute magnetization    =     2.60 Bohr mag/cell

     iteration # 26     ecut=    80.00 Ry     beta= 0.30
     Davidson diagonalization with overlap
     ethr =  1.59E-09,  avg # of iterations =  3.0

     negative rho (up, down):  4.035E-05 3.849E-05

     total cpu time spent up to now is     3866.8 secs

     total energy              =   -1715.01191917 Ry
     estimated scf accuracy    <       0.00000219 Ry

     total magnetization       =     1.39 Bohr mag/cell
     absolute magnetization    =     2.60 Bohr mag/cell

     iteration # 27     ecut=    80.00 Ry     beta= 0.30
     Davidson diagonalization with overlap
     ethr =  1.21E-09,  avg # of iterations =  2.3

     negative rho (up, down):  6.243E-05 6.069E-05

     total cpu time spent up to now is     4018.0 secs

     total energy              =   -1715.01192372 Ry
     estimated scf accuracy    <       0.00000151 Ry

     total magnetization       =     1.37 Bohr mag/cell
     absolute magnetization    =     2.59 Bohr mag/cell

     iteration # 28     ecut=    80.00 Ry     beta= 0.30
     Davidson diagonalization with overlap
     ethr =  8.32E-10,  avg # of iterations =  2.9

     negative rho (up, down):  7.568E-05 7.410E-05

     total cpu time spent up to now is     4165.3 secs

     total energy              =   -1715.01192771 Ry
     estimated scf accuracy    <       0.00000113 Ry

     total magnetization       =     1.36 Bohr mag/cell
     absolute magnetization    =     2.59 Bohr mag/cell

     iteration # 29     ecut=    80.00 Ry     beta= 0.30
     Davidson diagonalization with overlap
     ethr =  6.22E-10,  avg # of iterations =  3.3

     negative rho (up, down):  4.942E-05 4.797E-05

     Magnetic moment per site  (integrated on atomic sphere of radius R)
     atom   1 (R=0.253)  charge= 10.8712  magn= -0.1769
     atom   2 (R=0.253)  charge= 10.7775  magn=  0.5087
     atom   3 (R=0.253)  charge= 10.8073  magn= -0.1439
     atom   4 (R=0.253)  charge= 10.8198  magn=  0.0722
     atom   5 (R=0.253)  charge= 10.8125  magn= -0.0387
     atom   6 (R=0.253)  charge= 10.7791  magn=  0.3655
     atom   7 (R=0.136)  charge=  2.1380  magn=  0.0173
     atom   8 (R=0.136)  charge=  2.1133  magn=  0.0878
     atom   9 (R=0.136)  charge=  2.1361  magn= -0.0077
     atom  10 (R=0.136)  charge=  2.1361  magn= -0.0077
     atom  11 (R=0.136)  charge=  2.1348  magn=  0.0017
     atom  12 (R=0.136)  charge=  2.1321  magn= -0.0017
     atom  13 (R=0.136)  charge=  2.1380  magn= -0.0034
     atom  14 (R=0.136)  charge=  2.1380  magn= -0.0034
     atom  15 (R=0.136)  charge=  2.1230  magn=  0.0899
     atom  16 (R=0.136)  charge=  2.1360  magn=  0.0079
     atom  17 (R=0.136)  charge=  2.1397  magn= -0.0002
     atom  18 (R=0.136)  charge=  2.1397  magn= -0.0002
     atom  19 (R=0.136)  charge=  2.1247  magn=  0.0065
     atom  20 (R=0.136)  charge=  2.1293  magn=  0.0048
     atom  21 (R=0.136)  charge=  0.4073  magn= -0.0001

     total cpu time spent up to now is     4309.6 secs

     End of self-consistent calculation

 ------ SPIN UP ------------


          k = 0.0000 0.0000 0.0000 ( 40831 PWs)   bands (ev):

   -72.6159 -72.5319 -72.0302 -72.0274 -71.9591 -71.6473 -42.7196 -42.6630
   -42.6202 -42.5872 -42.5735 -42.4613 -42.3030 -42.2755 -42.1796 -41.9455
   -41.8965 -41.8749 -41.8420 -41.8028 -41.8019 -41.7710 -41.5369 -41.4885
   -22.2261 -18.5972 -18.2923 -18.1395 -17.9788 -17.6182 -17.5175 -17.1137
   -16.8340 -16.7701 -16.7063 -16.5457 -15.9861 -14.2424  -7.2624  -6.9304
    -6.9267  -6.8867  -6.4063  -6.1179  -5.4600  -5.4307  -5.3997  -5.3654
    -5.3489  -5.3361  -5.2870  -5.1273  -4.8994  -4.0490  -4.0244  -3.5801
    -3.3449  -2.9800  -2.8920  -2.7804  -2.7472  -2.6860  -2.6404  -2.5112
    -2.3574  -2.2513  -2.1365  -2.0964  -1.9041  -1.7320  -1.6911  -1.5648
    -1.2087  -1.1824  -0.9968  -0.9671  -0.5539  -0.4746  -0.3015  -0.1824
     0.0026   0.0592   0.1013   0.1487   0.3317   0.3788   0.4769   0.9048
     0.9087   0.9370   0.9806   1.1596   1.5194   2.0447   2.4571   2.5504
     2.6596   3.0484   3.5968   4.4139   4.9317   5.4964   5.5865   5.6307
     5.9149   6.0671   6.1024   6.1334   6.2401

          k = 0.0000 0.1223 0.0000 ( 40974 PWs)   bands (ev):

   -72.6159 -72.5319 -72.0302 -72.0274 -71.9592 -71.6473 -42.7188 -42.6623
   -42.6202 -42.5872 -42.5735 -42.4613 -42.3030 -42.2739 -42.1795 -41.9455
   -41.8976 -41.8747 -41.8420 -41.8031 -41.8019 -41.7728 -41.5369 -41.4893
   -22.2260 -18.4883 -18.1589 -18.0263 -17.9958 -17.6260 -17.5555 -17.1201
   -16.9785 -16.9145 -16.8697 -16.5435 -15.9830 -14.2424  -7.2582  -6.5166
    -6.4615  -6.4422  -6.3654  -6.1070  -5.4284  -5.4032  -5.3698  -5.3109
    -5.2687  -5.2036  -5.1930  -5.1207  -4.7157  -4.0640  -3.9641  -3.8593
    -3.5871  -3.4776  -3.3761  -3.2415  -2.9122  -2.8375  -2.7585  -2.5741
    -2.5637  -2.5152  -2.4253  -2.2555  -2.2054  -2.0044  -1.8366  -1.6692
    -1.4308  -1.3710  -1.1763  -1.0027  -0.7609  -0.5608   0.2477   0.2785
     0.3439   0.3983   0.5118   0.5463   0.6733   0.6805   0.7739   0.9096
     0.9488   0.9843   1.0807   1.1560   1.5536   2.0084   2.2770   2.4223
     2.7245   2.8958   3.9941   4.7146   5.1731   5.4768   5.5747   5.6187
     5.8087   5.8552   5.8993   5.9577   6.3083

          k = 0.0000-0.2445 0.0000 ( 41014 PWs)   bands (ev):

   -72.6159 -72.5319 -72.0302 -72.0274 -71.9592 -71.6473 -42.7179 -42.6617
   -42.6202 -42.5872 -42.5735 -42.4613 -42.3030 -42.2723 -42.1795 -41.9455
   -41.8986 -41.8744 -41.8421 -41.8034 -41.8019 -41.7745 -41.5369 -41.4901
   -22.2258 -18.3141 -18.1334 -17.8783 -17.7779 -17.7504 -17.6408 -17.1613
   -17.1493 -17.0511 -17.0348 -16.5438 -15.9809 -14.2424  -7.2581  -6.4364
    -6.1413  -5.7387  -5.6993  -5.6307  -5.4242  -5.4088  -5.3726  -5.2079
    -5.1800  -5.1531  -5.0673  -4.7202  -4.5992  -4.3297  -4.2577  -4.1902
    -4.1521  -4.1010  -4.0165  -3.5911  -3.3489  -3.1368  -2.9466  -2.8436
    -2.7933  -2.7001  -2.4417  -2.4270  -2.4184  -2.1057  -1.7828  -1.5367
    -1.4340  -1.3076  -1.1553  -0.8504  -0.8330  -0.7944   0.2967   0.3294
     0.6780   0.7331   0.7838   0.8458   0.9013   0.9483   1.0126   1.0282
     1.0878   1.1794   1.1809   1.3985   1.5488   1.6904   2.0731   2.4021
     2.4934   3.0423   4.5492   4.6526   5.3682   5.5243   5.5525   5.5957
     5.6295   5.6845   5.8414   5.9436   6.0817

          k = 0.1250 0.0000 0.0000 ( 40851 PWs)   bands (ev):

   -72.6144 -72.5304 -72.0286 -72.0259 -71.9576 -71.6458 -42.7176 -42.6611
   -42.6172 -42.5997 -42.5828 -42.4871 -42.3012 -42.2732 -42.1778 -41.9409
   -41.9018 -41.8922 -41.8692 -41.8301 -41.8002 -41.7668 -41.5644 -41.4839
   -22.1486 -18.4683 -18.1737 -18.0281 -17.8844 -17.5409 -17.4262 -17.1742
   -16.9096 -16.8488 -16.7878 -16.6252 -16.0349 -14.4025  -7.3891  -6.7592
    -6.7522  -6.7089  -6.2252  -6.0882  -5.5060  -5.4756  -5.4634  -5.3559
    -5.3156  -5.1779  -4.9364  -4.8555  -4.6749  -4.3095  -3.8673  -3.4675
    -3.3587  -3.2544  -3.0890  -2.8628  -2.7981  -2.7306  -2.6836  -2.6626
    -2.4514  -2.4354  -2.3775  -2.0788  -1.9799  -1.9258  -1.7888  -1.7317
    -1.6250  -1.5982  -1.5154  -1.0148  -0.8599  -0.4989  -0.1499   0.2161
     0.2912   0.3364   0.4420   0.5010   0.5936   0.6600   0.7137   0.9340
     0.9416   1.0840   1.1512   1.4692   1.4956   1.9010   2.3048   2.5275
     2.7098   2.9054   3.7581   4.5239   5.0006   5.1472   5.1746   5.4840
     5.6369   5.7447   5.7826   5.8199   6.3060

          k = 0.1250 0.1223 0.0000 ( 40932 PWs)   bands (ev):

   -72.6144 -72.5304 -72.0286 -72.0259 -71.9576 -71.6458 -42.7169 -42.6606
   -42.6172 -42.5997 -42.5828 -42.4871 -42.3012 -42.2721 -42.1778 -41.9409
   -41.9017 -41.8930 -41.8691 -41.8302 -41.8002 -41.7682 -41.5643 -41.4846
   -22.1485 -18.3661 -18.0467 -17.9291 -17.8884 -17.5361 -17.4705 -17.1799
   -17.0435 -16.9822 -16.9388 -16.6234 -16.0324 -14.4024  -7.3886  -6.3669
    -6.3122  -6.2830  -6.1969  -6.0713  -5.5038  -5.4434  -5.3632  -5.3272
    -5.2028  -4.9704  -4.9471  -4.8570  -4.5410  -4.3055  -3.8837  -3.7598
    -3.5533  -3.4316  -3.3560  -3.2675  -3.1361  -3.0804  -2.9917  -2.8439
    -2.7564  -2.6953  -2.5852  -2.4037  -2.2733  -1.9746  -1.8663  -1.7241
    -1.6364  -1.4662  -1.2982  -0.9077  -0.8262  -0.6519   0.1354   0.3353
     0.4956   0.5576   0.6063   0.6918   0.7269   0.9076   0.9742   1.0481
     1.1118   1.2098   1.2709   1.4687   1.5560   1.9199   2.1422   2.3238
     2.6814   2.9142   4.0850   4.7366   5.0667   5.1012   5.1732   5.4235
     5.4603   5.5469   5.6468   5.7540   6.3523

          k = 0.1250-0.2445 0.0000 ( 40974 PWs)   bands (ev):

   -72.6144 -72.5304 -72.0286 -72.0259 -71.9576 -71.6458 -42.7163 -42.6601
   -42.6172 -42.5997 -42.5828 -42.4871 -42.3012 -42.2709 -42.1778 -41.9409
   -41.9016 -41.8939 -41.8691 -41.8302 -41.8002 -41.7696 -41.5643 -41.4853
   -22.1483 -18.2046 -18.0232 -17.7691 -17.6820 -17.6454 -17.5557 -17.2282
   -17.2075 -17.1112 -17.0878 -16.6238 -16.0305 -14.4024  -7.3894  -6.2594
    -6.1064  -5.5445  -5.4983  -5.4958  -5.4526  -5.4140  -5.3686  -5.3180
    -5.3101  -4.9569  -4.8663  -4.5538  -4.4631  -4.2921  -4.2182  -4.1345
    -3.9219  -3.8337  -3.8113  -3.7273  -3.6154  -3.6112  -3.2964  -3.0263
    -2.9615  -2.9214  -2.7625  -2.5864  -2.2935  -2.0054  -1.9002  -1.5542
    -1.3462  -1.1985  -1.1282  -1.0192  -0.8459  -0.7685   0.3371   0.4384
     0.5085   0.6625   0.7175   0.7451   0.8332   1.0461   1.0784   1.2886
     1.4150   1.4869   1.5030   1.5578   1.7159   1.7215   1.9975   2.2816
     2.3796   3.0811   4.5905   4.6033   4.8855   5.0227   5.0309   5.3173
     5.3571   5.5222   5.6806   5.9325   6.1716

          k = 0.2500 0.0000 0.0000 ( 40947 PWs)   bands (ev):

   -72.6106 -72.5268 -72.0248 -72.0223 -71.9539 -71.6420 -42.7127 -42.6687
   -42.6564 -42.6038 -42.5724 -42.5488 -42.2969 -42.2678 -42.1738 -41.9671
   -41.9367 -41.9258 -41.8954 -41.8816 -41.7966 -41.7567 -41.6302 -41.4728
   -21.9486 -18.1409 -17.8819 -17.7549 -17.6770 -17.4231 -17.2838 -17.1879
   -17.0881 -17.0340 -16.9792 -16.8048 -16.1035 -14.8113  -7.5931  -6.3288
    -6.2970  -6.2434  -5.8714  -5.7330  -5.5516  -5.5341  -5.4255  -5.1860
    -5.1582  -4.7869  -4.7543  -4.4113  -4.3191  -4.2094  -4.1521  -3.8695
    -3.6975  -3.5488  -3.5203  -3.5175  -3.2304  -3.0516  -3.0460  -2.7418
    -2.5662  -2.5089  -2.4147  -2.2937  -2.2855  -2.0861  -1.9893  -1.9741
    -1.7459  -1.5603  -1.0950  -0.9504  -0.9278  -0.8103  -0.1300   0.1742
     0.6731   0.7097   0.7497   0.8155   0.9302   1.0763   1.1016   1.1688
     1.2556   1.4007   1.4338   1.5770   1.6603   1.6640   1.9918   2.2616
     2.5200   2.8714   4.0129   4.2451   4.6812   4.7930   4.9077   5.1464
     5.1768   5.1875   5.2502   5.5533   6.1154

          k = 0.2500 0.1223 0.0000 ( 40905 PWs)   bands (ev):

   -72.6106 -72.5268 -72.0248 -72.0223 -71.9539 -71.6420 -42.7125 -42.6687
   -42.6563 -42.6038 -42.5724 -42.5488 -42.2969 -42.2677 -42.1738 -41.9672
   -41.9365 -41.9257 -41.8949 -41.8820 -41.7966 -41.7573 -41.6300 -41.4732
   -21.9485 -18.0648 -17.7890 -17.7171 -17.6390 -17.4229 -17.3114 -17.2121
   -17.1765 -17.1170 -17.0743 -16.8041 -16.1028 -14.8111  -7.5941  -6.0465
    -5.9797  -5.9271  -5.8556  -5.7284  -5.5429  -5.3642  -5.2988  -5.2446
    -5.0550  -4.8195  -4.5245  -4.4156  -4.3989  -4.2672  -4.1506  -4.0951
    -4.0269  -3.9325  -3.8073  -3.4713  -3.3637  -3.1846  -3.0279  -2.8073
    -2.7213  -2.6081  -2.5924  -2.4242  -2.3318  -2.1428  -1.9170  -1.8617
    -1.6993  -1.6023  -1.0934  -1.0340  -0.9020  -0.7939  -0.1668   0.2377
     0.6331   0.7279   0.7919   0.9972   1.0672   1.1594   1.1910   1.2313
     1.2499   1.3705   1.3915   1.6501   1.8278   1.8857   1.9720   2.1763
     2.4051   2.9787   4.1326   4.2291   4.4667   4.5510   4.5639   4.8035
     5.1073   5.3193   5.6978   5.7848   6.2331

          k = 0.2500-0.2445 0.0000 ( 40892 PWs)   bands (ev):

   -72.6106 -72.5268 -72.0248 -72.0223 -71.9539 -71.6420 -42.7123 -42.6688
   -42.6562 -42.6038 -42.5723 -42.5488 -42.2969 -42.2675 -42.1738 -41.9673
   -41.9363 -41.9257 -41.8943 -41.8825 -41.7966 -41.7579 -41.6297 -41.4735
   -21.9484 -17.9479 -17.7807 -17.5511 -17.5447 -17.4100 -17.3938 -17.3591
   -17.2724 -17.2108 -17.1247 -16.8044 -16.1023 -14.8109  -7.5952  -5.8961
    -5.7798  -5.5356  -5.4911  -5.4845  -5.4404  -5.3395  -5.0615  -5.0325
    -4.9180  -4.8505  -4.6909  -4.6803  -4.6364  -4.4430  -4.3386  -4.2853
    -4.0081  -4.0043  -3.9295  -3.5505  -3.3542  -3.2583  -3.2069  -3.1667
    -3.0710  -3.0686  -2.8503  -2.6409  -2.3092  -2.0692  -1.7400  -1.5574
    -1.5261  -1.2804  -1.1754  -1.0887  -0.9531  -0.8717   0.1195   0.1584
     0.5074   0.5131   0.7916   0.8908   1.0757   1.1011   1.2138   1.2528
     1.5466   1.5689   1.7368   1.7959   1.9103   2.0295   2.0603   2.0780
     2.2705   3.0679   3.9900   4.1266   4.1531   4.2456   4.3895   4.8006
     5.2470   5.3609   5.9300   6.0501   6.2373

          k = 0.3750 0.0000 0.0000 ( 40852 PWs)   bands (ev):

   -72.6068 -72.5232 -72.0210 -72.0186 -71.9502 -71.6382 -42.7339 -42.7077
   -42.6518 -42.6099 -42.5934 -42.5617 -42.2928 -42.2624 -42.1698 -42.0300
   -41.9994 -41.9600 -41.9159 -41.8710 -41.7934 -41.7464 -41.6953 -41.4617
   -21.7262 -17.8069 -17.6266 -17.5266 -17.4573 -17.3906 -17.2852 -17.2612
   -17.2129 -17.1636 -17.0360 -16.8698 -16.0813 -15.2501  -7.6583  -5.9210
    -5.8262  -5.7062  -5.6493  -5.5993  -5.4875  -5.3742  -5.3041  -5.1957
    -5.0945  -4.9693  -4.7425  -4.4879  -4.4246  -4.3232  -4.1093  -4.1034
    -3.9949  -3.7298  -3.6597  -3.2013  -3.1475  -3.1373  -3.0935  -2.9953
    -2.9069  -2.5668  -2.5438  -2.4858  -2.1446  -2.1417  -1.9011  -1.8934
    -1.7886  -1.3623  -1.2170  -1.1865  -0.7759  -0.3025  -0.1566   0.3855
     0.5409   0.6258   0.6399   0.8240   0.9162   1.0075   1.0674   1.1661
     1.2644   1.3957   1.6075   1.7588   1.8239   1.9088   2.0360   2.3021
     2.3598   2.7587   3.5435   4.0950   4.3737   4.7364   4.7681   4.7700
     4.8718   4.9731   5.1867   5.4361   5.9027

          k = 0.3750 0.1223 0.0000 ( 40842 PWs)   bands (ev):

   -72.6068 -72.5232 -72.0210 -72.0186 -71.9502 -71.6382 -42.7339 -42.7081
   -42.6521 -42.6100 -42.5934 -42.5617 -42.2928 -42.2635 -42.1698 -42.0303
   -41.9988 -41.9587 -41.9159 -41.8710 -41.7934 -41.7464 -41.6949 -41.4617
   -21.7261 -17.7900 -17.6290 -17.5910 -17.5158 -17.4402 -17.3211 -17.1883
   -17.1456 -17.1125 -17.0374 -16.8711 -16.0816 -15.2496  -7.6589  -5.8076
    -5.7643  -5.7473  -5.6610  -5.6123  -5.4958  -5.3624  -5.3288  -5.2281
    -5.1685  -5.1103  -4.6131  -4.4045  -4.3557  -4.2213  -4.1560  -4.0737
    -3.9992  -3.8159  -3.4219  -3.2986  -3.2075  -3.0474  -2.9622  -2.8575
    -2.8038  -2.5992  -2.4516  -2.4223  -2.3354  -2.1825  -2.0394  -1.6937
    -1.6599  -1.6260  -1.3556  -1.1288  -0.8884  -0.3648  -0.1932   0.1679
     0.3985   0.4511   0.5637   0.7127   0.8073   0.8881   1.0526   1.1369
     1.1804   1.2923   1.5907   1.7788   2.1219   2.1850   2.2445   2.2709
     2.4037   2.8525   3.5521   3.9256   4.0148   4.0613   4.1556   4.3880
     5.3106   5.6076   5.8492   5.9110   6.0830

          k = 0.3750-0.2445 0.0000 ( 40856 PWs)   bands (ev):

   -72.6068 -72.5232 -72.0210 -72.0186 -71.9502 -71.6382 -42.7340 -42.7085
   -42.6524 -42.6101 -42.5934 -42.5617 -42.2928 -42.2645 -42.1698 -42.0305
   -41.9983 -41.9574 -41.9159 -41.8711 -41.7934 -41.7463 -41.6944 -41.4617
   -21.7260 -17.7616 -17.6729 -17.5939 -17.5860 -17.4678 -17.3387 -17.1379
   -17.0997 -17.0802 -17.0354 -16.8729 -16.0819 -15.2491  -7.6596  -5.7354
    -5.7052  -5.6646  -5.6216  -5.5928  -5.5124  -5.4697  -5.4052  -5.3170
    -5.2193  -5.1609  -4.6413  -4.4620  -4.2133  -4.2037  -3.9546  -3.8721
    -3.8651  -3.7767  -3.4482  -3.2619  -3.2446  -2.9811  -2.9471  -2.8146
    -2.7738  -2.7501  -2.6005  -2.5062  -2.2090  -2.0767  -2.0605  -1.8134
    -1.7633  -1.3206  -1.3012  -1.0875  -1.0675  -0.5201  -0.1499  -0.1389
     0.0365   0.0931   0.5663   0.6479   0.7763   0.9121   1.0154   1.1845
     1.2534   1.3994   1.5324   1.7151   2.1761   2.1779   2.4238   2.4294
     2.5871   2.9396   3.4244   3.5967   3.6337   3.6825   4.1835   4.3855
     5.4003   5.8098   6.2387   6.2865   6.3219

          k =-0.5000 0.0000 0.0000 ( 40876 PWs)   bands (ev):

   -72.6052 -72.5217 -72.0194 -72.0171 -71.9486 -71.6367 -42.7607 -42.7057
   -42.6499 -42.6350 -42.5890 -42.5573 -42.2912 -42.2602 -42.1682 -42.0559
   -42.0258 -41.9866 -41.9110 -41.8666 -41.7922 -41.7422 -41.7221 -41.4570
   -21.6258 -17.7494 -17.4786 -17.4457 -17.3840 -17.3314 -17.3287 -17.2854
   -17.2753 -17.2381 -17.0813 -16.7818 -16.0428 -15.4405  -7.6447  -5.9238
    -5.8087  -5.7034  -5.5494  -5.4434  -5.3861  -5.3016  -5.2269  -5.1165
    -5.0928  -4.9715  -4.8337  -4.7306  -4.5356  -4.4755  -4.2837  -4.0058
    -3.6790  -3.4017  -3.3457  -3.3343  -3.3154  -3.3105  -3.1696  -2.9990
    -2.8254  -2.6601  -2.3999  -2.2478  -2.1002  -2.0611  -2.0154  -1.8092
    -1.7986  -1.3853  -1.2895  -1.2326  -0.7548  -0.0813  -0.0812   0.1047
     0.1906   0.5051   0.8517   0.8634   0.9000   0.9225   0.9715   1.0210
     1.1356   1.2700   1.4661   1.7465   1.9256   1.9997   2.2886   2.4483
     2.5058   2.6450   3.3263   4.0513   4.2965   4.6147   4.6439   4.7574
     4.7645   4.9549   5.1649   5.4166   5.9153

          k =-0.5000 0.1223 0.0000 ( 40858 PWs)   bands (ev):

   -72.6052 -72.5217 -72.0194 -72.0171 -71.9486 -71.6367 -42.7608 -42.7063
   -42.6504 -42.6351 -42.5890 -42.5573 -42.2912 -42.2618 -42.1682 -42.0562
   -42.0251 -41.9848 -41.9110 -41.8665 -41.7922 -41.7418 -41.7215 -41.4569
   -21.6258 -17.7456 -17.6119 -17.5644 -17.5341 -17.4760 -17.2798 -17.1221
   -17.0871 -17.0846 -17.0692 -16.7821 -16.0423 -15.4397  -7.6449  -5.9012
    -5.8121  -5.7832  -5.7782  -5.6999  -5.6476  -5.3482  -5.2843  -5.2421
    -5.2052  -4.8696  -4.5986  -4.5317  -4.3530  -4.1090  -4.0465  -3.7464
    -3.5707  -3.4294  -3.4117  -3.3925  -3.3170  -3.3017  -3.0874  -2.7436
    -2.5113  -2.4865  -2.3372  -2.2764  -2.1531  -2.1273  -2.0468  -1.8041
    -1.7815  -1.5109  -1.3930  -1.1816  -0.9697  -0.1877  -0.1269   0.0757
     0.1878   0.1949   0.3032   0.4603   0.7072   0.8665   0.8989   0.9400
     0.9853   1.1555   1.4218   1.9323   2.2959   2.3680   2.3754   2.3792
     2.5955   2.7395   3.3776   3.7166   3.8326   3.8896   4.1001   4.2984
     5.4468   5.8032   5.9222   5.9842   6.0007

          k =-0.5000-0.2445 0.0000 ( 40872 PWs)   bands (ev):

   -72.6052 -72.5217 -72.0194 -72.0171 -71.9486 -71.6367 -42.7609 -42.7069
   -42.6508 -42.6352 -42.5890 -42.5573 -42.2912 -42.2635 -42.1682 -42.0565
   -42.0244 -41.9831 -41.9110 -41.8664 -41.7922 -41.7415 -41.7210 -41.4568
   -21.6257 -17.7417 -17.7024 -17.6536 -17.6235 -17.4737 -17.2821 -17.0889
   -17.0222 -16.9889 -16.9747 -16.7824 -16.0419 -15.4388  -7.6452  -5.9955
    -5.9802  -5.9187  -5.8885  -5.7498  -5.5023  -5.4551  -5.2990  -5.2883
    -5.1775  -4.8654  -4.6409  -4.6266  -4.3715  -3.7939  -3.6257  -3.5982
    -3.5345  -3.4273  -3.3205  -3.1265  -3.0896  -3.0106  -2.9062  -2.7411
    -2.6181  -2.5410  -2.3587  -2.3037  -2.2260  -2.1230  -1.9000  -1.7599
    -1.6995  -1.5360  -1.4770  -1.2297  -1.0060  -0.6162  -0.3389  -0.2988
    -0.0181   0.1304   0.1795   0.2370   0.4826   0.7677   0.8675   0.9410
     0.9946   1.1675   1.4058   1.8717   2.2713   2.3240   2.5897   2.7113
     2.7388   2.8012   3.3339   3.4149   3.4551   3.4988   4.1387   4.2994
     5.4931   6.0491   6.3082   6.4207   6.4231

 ------ SPIN DOWN ----------


          k = 0.0000 0.0000 0.0000 ( 40831 PWs)   bands (ev):

   -72.3237 -72.1271 -72.0727 -72.0595 -71.9705 -71.7850 -42.4016 -42.3828
   -42.3606 -42.2146 -42.2045 -42.1782 -42.1059 -42.0578 -41.9395 -41.9333
   -41.9174 -41.9127 -41.8875 -41.8829 -41.8634 -41.8119 -41.6874 -41.6649
   -22.2076 -18.5945 -18.2841 -18.1407 -17.9643 -17.5476 -17.4091 -17.1115
   -16.8560 -16.7811 -16.7107 -16.3339 -15.6948 -14.2181  -7.2575  -6.9057
    -6.8942  -6.8887  -6.4007  -5.9462  -5.4450  -5.4025  -5.3698  -5.3601
    -5.3055  -5.2603  -5.0418  -4.9437  -4.8502  -4.0501  -3.9911  -3.5834
    -3.2356  -2.9463  -2.8327  -2.7899  -2.7504  -2.6264  -2.5663  -2.3213
    -2.3116  -2.1671  -2.1029  -2.0763  -1.9002  -1.6947  -1.6807  -1.5167
    -1.2180  -1.0976  -0.9185  -0.7157  -0.5078  -0.3952   0.0620   0.0756
     0.1157   0.1724   0.2152   0.2379   0.2960   0.4596   0.5221   0.7377
     0.7875   0.9750   1.5906   1.6209   1.7860   2.1457   2.4685   2.5279
     2.8046   3.1089   3.6692   4.4619   5.1185   5.5605   5.6345   5.8741
     6.0399   6.0799   6.0818   6.1178   6.2735

          k = 0.0000 0.1223 0.0000 ( 40974 PWs)   bands (ev):

   -72.3237 -72.1271 -72.0727 -72.0595 -71.9706 -71.7850 -42.4001 -42.3828
   -42.3606 -42.2131 -42.2044 -42.1752 -42.1060 -42.0578 -41.9394 -41.9331
   -41.9191 -41.9159 -41.8876 -41.8830 -41.8634 -41.8121 -41.6874 -41.6665
   -22.2075 -18.4854 -18.1475 -18.0047 -17.9987 -17.5569 -17.4703 -17.1187
   -16.9942 -16.9226 -16.8632 -16.3327 -15.6920 -14.2181  -7.2539  -6.5010
    -6.4522  -6.4364  -6.3529  -5.9400  -5.3667  -5.3230  -5.2946  -5.2753
    -5.2537  -5.2267  -5.0184  -4.9419  -4.6645  -4.0606  -3.9446  -3.7762
    -3.5826  -3.4487  -3.2974  -3.1712  -2.9212  -2.8244  -2.7230  -2.5368
    -2.4860  -2.3732  -2.2927  -2.2451  -2.1003  -1.9574  -1.7924  -1.6280
    -1.4167  -1.2562  -1.0543  -0.7719  -0.6359  -0.4867   0.1727   0.2766
     0.5573   0.6039   0.6699   0.7055   0.7254   0.7462   0.8513   0.8581
     0.8671   1.0425   1.5833   1.6708   1.7943   2.1554   2.2378   2.5243
     2.7060   2.9612   4.0577   4.7821   5.3242   5.5827   5.6635   5.7814
     5.7945   5.8271   5.9118   6.1331   6.3319

          k = 0.0000-0.2445 0.0000 ( 41014 PWs)   bands (ev):

   -72.3237 -72.1271 -72.0727 -72.0595 -71.9706 -71.7850 -42.3985 -42.3828
   -42.3605 -42.2116 -42.2044 -42.1720 -42.1060 -42.0578 -41.9394 -41.9330
   -41.9208 -41.9193 -41.8876 -41.8830 -41.8634 -41.8122 -41.6875 -41.6682
   -22.2073 -18.3187 -18.0942 -17.8864 -17.7608 -17.6756 -17.6088 -17.1693
   -17.1462 -17.0537 -17.0052 -16.3326 -15.6898 -14.2181  -7.2539  -6.4307
    -5.9846  -5.7384  -5.7109  -5.6591  -5.3630  -5.2781  -5.2184  -5.2012
    -5.1596  -5.1419  -4.9369  -4.6892  -4.5377  -4.2778  -4.1752  -4.1509
    -4.0672  -4.0638  -3.9372  -3.5927  -3.3642  -3.1008  -2.8581  -2.7631
    -2.7303  -2.6257  -2.4179  -2.3876  -2.1631  -2.0640  -1.7024  -1.5457
    -1.3197  -1.1823  -1.0752  -0.7791  -0.6879  -0.6060   0.1729   0.3238
     0.7085   0.7535   0.8180   0.9599   0.9808   1.0962   1.1350   1.2632
     1.3011   1.4654   1.5162   1.5793   1.7939   1.9518   2.0993   2.4519
     2.4921   3.0241   4.6507   4.6865   5.4971   5.5285   5.5434   5.5995
     5.6638   5.8618   5.8944   6.1342   6.2115

          k = 0.1250 0.0000 0.0000 ( 40851 PWs)   bands (ev):

   -72.3221 -72.1256 -72.0712 -72.0580 -71.9690 -71.7835 -42.3993 -42.3810
   -42.3588 -42.2325 -42.2124 -42.1755 -42.1015 -42.0559 -41.9657 -41.9602
   -41.9147 -41.9132 -41.9090 -41.8785 -41.8595 -41.8385 -41.7146 -41.6606
   -22.1300 -18.4664 -18.1677 -18.0296 -17.8723 -17.4814 -17.3149 -17.1714
   -16.9319 -16.8600 -16.7923 -16.4061 -15.7365 -14.3786  -7.3851  -6.7287
    -6.7145  -6.7123  -6.2208  -5.9511  -5.4853  -5.4641  -5.4496  -5.3061
    -5.2248  -5.1662  -4.7240  -4.6309  -4.5959  -4.3029  -3.8318  -3.4837
    -3.3688  -3.1410  -3.0415  -2.8320  -2.7869  -2.6868  -2.6811  -2.5837
    -2.4008  -2.3480  -2.2488  -1.9988  -1.9428  -1.7542  -1.7027  -1.6855
    -1.5968  -1.4881  -1.4519  -0.8979  -0.6455  -0.4539  -0.0137   0.2665
     0.3254   0.4601   0.4623   0.5426   0.6835   0.7098   0.8603   0.8949
     0.9742   1.0992   1.5920   1.8001   2.0145   2.0239   2.3230   2.6673
     2.6713   2.9639   3.8188   4.5735   5.1385   5.2452   5.4061   5.6851
     5.7186   5.7248   5.7574   5.7672   6.3297

          k = 0.1250 0.1223 0.0000 ( 40932 PWs)   bands (ev):

   -72.3221 -72.1256 -72.0712 -72.0580 -71.9690 -71.7835 -42.3982 -42.3810
   -42.3587 -42.2325 -42.2113 -42.1732 -42.1015 -42.0558 -41.9656 -41.9599
   -41.9152 -41.9141 -41.9120 -41.8785 -41.8595 -41.8384 -41.7145 -41.6620
   -22.1299 -18.3640 -18.0378 -17.9091 -17.8922 -17.4844 -17.3812 -17.1763
   -17.0584 -16.9904 -16.9306 -16.4051 -15.7343 -14.3786  -7.3848  -6.3474
    -6.2920  -6.2778  -6.1821  -5.9432  -5.4665  -5.3795  -5.3504  -5.2989
    -5.2086  -4.9300  -4.7423  -4.6118  -4.4826  -4.2971  -3.8457  -3.6975
    -3.5424  -3.4152  -3.3305  -3.2135  -3.0767  -3.0126  -2.9410  -2.8152
    -2.7335  -2.6941  -2.4401  -2.3310  -2.0975  -1.8687  -1.7927  -1.6416
    -1.5804  -1.4420  -1.1931  -0.7328  -0.6760  -0.5836   0.2359   0.3858
     0.5069   0.6390   0.7249   0.7630   0.8333   0.9846   1.0456   1.0805
     1.1776   1.2652   1.6329   1.8107   2.0027   2.0520   2.1538   2.4392
     2.6865   2.9249   4.1441   4.8046   5.1572   5.1885   5.3005   5.4383
     5.5282   5.6584   5.7183   5.8482   6.3817

          k = 0.1250-0.2445 0.0000 ( 40974 PWs)   bands (ev):

   -72.3221 -72.1256 -72.0711 -72.0580 -71.9690 -71.7835 -42.3970 -42.3810
   -42.3587 -42.2325 -42.2102 -42.1709 -42.1016 -42.0558 -41.9655 -41.9595
   -41.9161 -41.9150 -41.9145 -41.8785 -41.8595 -41.8383 -41.7144 -41.6633
   -22.1297 -18.2094 -17.9854 -17.7768 -17.6567 -17.5982 -17.5330 -17.2369
   -17.1981 -17.1129 -17.0492 -16.4049 -15.7325 -14.3785  -7.3855  -6.2552
    -5.9732  -5.5409  -5.5139  -5.4581  -5.4271  -5.3575  -5.3450  -5.3415
    -5.3083  -4.7504  -4.6321  -4.5185  -4.4179  -4.2773  -4.1964  -4.0401
    -3.8632  -3.7876  -3.7737  -3.6343  -3.5649  -3.5106  -3.2818  -3.0502
    -2.9550  -2.8856  -2.7165  -2.4111  -2.0551  -1.8864  -1.8461  -1.5019
    -1.3434  -1.1071  -1.0168  -0.9935  -0.6589  -0.6100   0.3832   0.4773
     0.5185   0.7313   0.7750   0.8533   0.8757   1.1826   1.3863   1.4927
     1.5555   1.5668   1.6671   1.7824   1.9191   2.0454   2.0559   2.3418
     2.3938   3.0484   4.5909   4.7347   4.9559   4.9667   5.0357   5.3754
     5.5039   5.7140   5.8648   5.9389   6.2860

          k = 0.2500 0.0000 0.0000 ( 40947 PWs)   bands (ev):

   -72.3183 -72.1220 -72.0675 -72.0543 -71.9653 -71.7797 -42.3939 -42.3770
   -42.3545 -42.2990 -42.2071 -42.1690 -42.0911 -42.0514 -42.0285 -42.0246
   -41.9798 -41.9032 -41.9029 -41.9001 -41.8678 -41.8492 -41.7796 -41.6503
   -21.9297 -18.1409 -17.8810 -17.7581 -17.6716 -17.3816 -17.2766 -17.1108
   -17.0980 -17.0457 -16.9839 -16.5486 -15.7898 -14.7885  -7.5895  -6.2883
    -6.2499  -6.2378  -5.7854  -5.7314  -5.5426  -5.5216  -5.3788  -5.1553
    -5.0777  -4.7902  -4.7257  -4.3613  -4.2162  -4.1651  -3.9383  -3.7453
    -3.6661  -3.5431  -3.4696  -3.4471  -3.2165  -2.9283  -2.8006  -2.6789
    -2.5218  -2.5162  -2.3280  -2.2527  -2.2510  -2.0815  -1.8970  -1.7203
    -1.6950  -1.4986  -0.9218  -0.9122  -0.8161  -0.6871  -0.0556   0.2292
     0.6932   0.7410   0.7764   0.8123   0.9088   1.0840   1.2713   1.3150
     1.3763   1.5702   1.7993   1.8146   1.8740   2.0665   2.1033   2.3715
     2.5655   2.7979   4.0762   4.4101   4.7776   5.0076   5.0368   5.1162
     5.1528   5.1831   5.3601   5.6494   6.1469

          k = 0.2500 0.1223 0.0000 ( 40905 PWs)   bands (ev):

   -72.3183 -72.1220 -72.0675 -72.0543 -71.9653 -71.7797 -42.3936 -42.3770
   -42.3544 -42.2991 -42.2069 -42.1691 -42.0911 -42.0514 -42.0281 -42.0234
   -41.9792 -41.9095 -41.9039 -41.8952 -41.8678 -41.8492 -41.7790 -41.6510
   -21.9296 -18.0651 -17.7853 -17.7085 -17.6395 -17.3992 -17.2962 -17.2026
   -17.1616 -17.1200 -17.0420 -16.5481 -15.7894 -14.7883  -7.5905  -6.0055
    -5.9362  -5.9211  -5.7795  -5.7210  -5.5365  -5.3532  -5.2487  -5.1777
    -5.0228  -4.8229  -4.4836  -4.3985  -4.2671  -4.1844  -4.1100  -4.0749
    -3.9393  -3.8262  -3.6067  -3.4399  -3.2869  -2.9960  -2.9031  -2.8193
    -2.7147  -2.6045  -2.5730  -2.3643  -2.2796  -2.0209  -1.7996  -1.7218
    -1.6184  -1.5045  -0.9899  -0.8807  -0.8225  -0.6882  -0.0890   0.3065
     0.6742   0.7952   0.8201   1.0427   1.1744   1.1850   1.2722   1.3288
     1.4500   1.6418   1.8159   1.8596   1.9350   2.0057   2.1354   2.2728
     2.4316   2.9311   4.2232   4.3691   4.5126   4.5460   4.5872   5.0444
     5.1342   5.3789   5.7737   5.9271   6.2715

          k = 0.2500-0.2445 0.0000 ( 40892 PWs)   bands (ev):

   -72.3183 -72.1219 -72.0674 -72.0543 -71.9653 -71.7798 -42.3934 -42.3770
   -42.3544 -42.2992 -42.2067 -42.1692 -42.0911 -42.0514 -42.0279 -42.0219
   -41.9787 -41.9132 -41.9047 -41.8931 -41.8678 -41.8492 -41.7784 -41.6517
   -21.9295 -17.9538 -17.7498 -17.5481 -17.5378 -17.4112 -17.4076 -17.3694
   -17.2478 -17.2094 -17.0559 -16.5478 -15.7890 -14.7882  -7.5916  -5.8087
    -5.7795  -5.5364  -5.4538  -5.4497  -5.4342  -5.2715  -5.0366  -5.0264
    -4.8903  -4.8139  -4.6735  -4.6589  -4.6121  -4.3215  -4.3069  -4.1837
    -3.9377  -3.8605  -3.7472  -3.4977  -3.2996  -3.2054  -3.1177  -3.0907
    -3.0818  -2.8738  -2.8557  -2.6263  -2.2466  -1.8051  -1.6805  -1.5026
    -1.4326  -1.2231  -1.1343  -0.9228  -0.8536  -0.7213   0.1582   0.2337
     0.5034   0.6923   0.8382   0.9253   1.2596   1.3851   1.3916   1.5721
     1.6288   1.7928   1.8409   1.9225   2.0192   2.0898   2.1451   2.1849
     2.3027   3.0290   4.0624   4.0685   4.1574   4.4007   4.4313   5.0477
     5.2594   5.4801   6.0534   6.1107   6.3507

          k = 0.3750 0.0000 0.0000 ( 40852 PWs)   bands (ev):

   -72.3144 -72.1183 -72.0637 -72.0506 -71.9616 -71.7760 -42.3884 -42.3798
   -42.3582 -42.3502 -42.2018 -42.1625 -42.0924 -42.0890 -42.0782 -42.0484
   -42.0439 -41.9646 -41.8931 -41.8911 -41.8571 -41.8494 -41.8339 -41.6400
   -21.7069 -17.8091 -17.6207 -17.5409 -17.4537 -17.3501 -17.2842 -17.2817
   -17.2252 -17.1684 -16.9907 -16.5580 -15.7621 -15.2285  -7.6546  -5.8731
    -5.7616  -5.6867  -5.6380  -5.5681  -5.4436  -5.3647  -5.2047  -5.1885
    -5.0849  -4.8914  -4.7342  -4.4636  -4.4087  -4.2425  -4.0750  -4.0424
    -3.9073  -3.7105  -3.6184  -3.1727  -3.1031  -3.0604  -2.9934  -2.9189
    -2.7156  -2.4786  -2.4324  -2.3770  -2.1798  -1.9593  -1.9142  -1.8711
    -1.5335  -1.2938  -1.1156  -0.9395  -0.5818  -0.2936  -0.1341   0.3563
     0.6898   0.7772   0.9053   0.9302   1.0783   1.2223   1.2233   1.3909
     1.4445   1.5255   1.6224   1.6278   1.9227   1.9832   2.1474   2.4644
     2.5426   2.6697   3.7393   4.1186   4.6631   4.6847   4.7280   4.7746
     4.9186   5.1574   5.3443   5.5046   5.9539

          k = 0.3750 0.1223 0.0000 ( 40842 PWs)   bands (ev):

   -72.3144 -72.1183 -72.0637 -72.0506 -71.9616 -71.7760 -42.3893 -42.3799
   -42.3583 -42.3502 -42.2027 -42.1672 -42.0896 -42.0876 -42.0772 -42.0484
   -42.0428 -41.9657 -41.8932 -41.8904 -41.8571 -41.8486 -41.8336 -41.6400
   -21.7068 -17.7941 -17.6284 -17.6048 -17.5168 -17.3969 -17.3188 -17.2118
   -17.1507 -17.1131 -16.9937 -16.5586 -15.7623 -15.2280  -7.6552  -5.7658
    -5.7173  -5.7055  -5.6390  -5.5781  -5.4383  -5.3142  -5.3044  -5.1989
    -5.1569  -5.0702  -4.5898  -4.3869  -4.3041  -4.1629  -4.1157  -3.9978
    -3.9742  -3.7657  -3.4083  -3.1979  -3.1230  -2.9720  -2.8658  -2.7776
    -2.6811  -2.5072  -2.4397  -2.3923  -2.2805  -2.0925  -1.8231  -1.6712
    -1.5510  -1.4332  -1.2532  -0.9219  -0.7208  -0.3342  -0.1711   0.2409
     0.4527   0.5956   0.7992   0.9043   1.0352   1.0450   1.1729   1.2240
     1.2977   1.4973   1.5858   2.0870   2.1358   2.2046   2.3467   2.3521
     2.4574   2.8011   3.7345   3.9717   4.0199   4.0760   4.1713   4.6817
     5.3319   5.6814   5.9545   6.0518   6.1316

          k = 0.3750-0.2445 0.0000 ( 40856 PWs)   bands (ev):

   -72.3144 -72.1183 -72.0637 -72.0506 -71.9616 -71.7760 -42.3901 -42.3799
   -42.3584 -42.3502 -42.2036 -42.1714 -42.0896 -42.0847 -42.0755 -42.0484
   -42.0417 -41.9668 -41.8933 -41.8898 -41.8571 -41.8478 -41.8332 -41.6400
   -21.7067 -17.7683 -17.6860 -17.6038 -17.5793 -17.4230 -17.3363 -17.1623
   -17.0995 -17.0788 -16.9960 -16.5594 -15.7625 -15.2276  -7.6558  -5.7235
    -5.6758  -5.6021  -5.5635  -5.5091  -5.4676  -5.4377  -5.3548  -5.2973
    -5.2375  -5.1593  -4.6339  -4.3457  -4.2108  -4.1037  -3.9611  -3.8495
    -3.8371  -3.7163  -3.3672  -3.1731  -3.1431  -2.9838  -2.8397  -2.8152
    -2.7202  -2.6125  -2.5254  -2.4598  -2.2082  -1.9393  -1.7690  -1.7063
    -1.6125  -1.2244  -1.2176  -0.9496  -0.9434  -0.4313  -0.1169   0.0225
     0.0654   0.2293   0.6589   0.9575   1.1003   1.1231   1.1741   1.2814
     1.2854   1.4852   1.5073   2.0782   2.1924   2.3193   2.4676   2.5049
     2.5193   2.9091   3.5082   3.5309   3.6499   3.8764   4.1986   4.6835
     5.4123   5.8972   6.2849   6.3938   6.4831

          k =-0.5000 0.0000 0.0000 ( 40876 PWs)   bands (ev):

   -72.3129 -72.1168 -72.0622 -72.0490 -71.9601 -71.7745 -42.3982 -42.3861
   -42.3653 -42.3486 -42.1996 -42.1598 -42.1171 -42.1147 -42.0755 -42.0701
   -42.0484 -41.9886 -41.8890 -41.8873 -41.8728 -41.8526 -41.8329 -41.6356
   -21.6064 -17.7518 -17.4646 -17.4216 -17.3926 -17.3545 -17.3302 -17.2978
   -17.2652 -17.2429 -17.0075 -16.4953 -15.7251 -15.4193  -7.6408  -5.9157
    -5.7515  -5.6352  -5.5395  -5.3807  -5.3643  -5.2716  -5.1072  -5.0925
    -5.0672  -4.9681  -4.7342  -4.7145  -4.5262  -4.3819  -4.2245  -3.9959
    -3.6420  -3.3851  -3.3709  -3.3465  -3.2709  -3.2429  -3.0929  -2.9845
    -2.6981  -2.6632  -2.3147  -2.2320  -2.0637  -1.9765  -1.8053  -1.6075
    -1.3611  -1.3563  -1.2428  -1.0806  -0.5527  -0.0747  -0.0532   0.3331
     0.7928   0.8383   0.9135   0.9275   0.9510   0.9930   1.1117   1.1456
     1.2444   1.4587   1.4956   1.6023   1.7810   2.1497   2.2836   2.5545
     2.6431   2.7357   3.5097   4.0654   4.5485   4.5990   4.6113   4.6496
     4.9486   5.2004   5.3265   5.4326   5.9771

          k =-0.5000 0.1223 0.0000 ( 40858 PWs)   bands (ev):

   -72.3129 -72.1168 -72.0622 -72.0490 -71.9601 -71.7745 -42.3984 -42.3875
   -42.3653 -42.3485 -42.2010 -42.1687 -42.1149 -42.1081 -42.0752 -42.0688
   -42.0485 -41.9895 -41.8887 -41.8864 -41.8713 -41.8526 -41.8329 -41.6354
   -21.6063 -17.7486 -17.6346 -17.5778 -17.5312 -17.4159 -17.2723 -17.1471
   -17.0990 -17.0684 -17.0112 -16.4948 -15.7245 -15.4187  -7.6410  -5.9027
    -5.7934  -5.7143  -5.7061  -5.6314  -5.5882  -5.3146  -5.2679  -5.1979
    -5.1729  -4.8669  -4.5777  -4.4328  -4.3151  -4.0685  -4.0197  -3.7184
    -3.4889  -3.4257  -3.3885  -3.3519  -3.3017  -3.2384  -3.0656  -2.6549
    -2.4994  -2.4048  -2.3155  -2.3034  -2.1226  -2.0764  -1.6973  -1.6396
    -1.4521  -1.3472  -1.2749  -1.1522  -0.7656  -0.1621  -0.1109   0.2987
     0.3242   0.4883   0.7559   0.8492   0.8601   0.8844   0.9296   0.9338
     1.0161   1.1479   1.4167   2.2328   2.2770   2.3633   2.4572   2.5333
     2.5504   2.7720   3.5712   3.7570   3.8181   3.9081   4.1142   4.6151
     5.4589   5.8962   6.0358   6.0421   6.1275

          k =-0.5000-0.2445 0.0000 ( 40872 PWs)   bands (ev):

   -72.3129 -72.1168 -72.0622 -72.0490 -71.9601 -71.7745 -42.3985 -42.3889
   -42.3653 -42.3485 -42.2024 -42.1756 -42.1151 -42.1013 -42.0749 -42.0675
   -42.0486 -41.9904 -41.8885 -41.8854 -41.8699 -41.8526 -41.8328 -41.6352
   -21.6063 -17.7455 -17.7252 -17.6674 -17.6199 -17.4101 -17.2780 -17.0474
   -17.0150 -17.0013 -16.9737 -16.4944 -15.7240 -15.4179  -7.6412  -5.9769
    -5.9138  -5.8931  -5.8397  -5.6609  -5.5114  -5.3528  -5.2630  -5.2528
    -5.1950  -4.8709  -4.6319  -4.5006  -4.3652  -3.7524  -3.5417  -3.5297
    -3.5187  -3.4055  -3.2793  -3.1218  -3.0698  -2.9998  -2.8736  -2.7410
    -2.5410  -2.5216  -2.3101  -2.1437  -2.1235  -2.0622  -1.6218  -1.5376
    -1.5235  -1.4777  -1.2914  -1.2135  -0.8340  -0.4247  -0.3452  -0.0830
     0.1095   0.2152   0.3413   0.7782   0.8100   0.8712   0.9278   0.9329
     1.0311   1.1471   1.3889   2.2455   2.2881   2.4946   2.6300   2.6605
     2.7169   2.8103   3.3873   3.4095   3.5223   3.6160   4.1525   4.6183
     5.5054   6.1040   6.4165   6.4757   6.6053

     the Fermi energy is     1.5482 ev

!    total energy              =   -1715.01193102 Ry
     estimated scf accuracy    <       0.00000100 Ry
     smearing contrib. (-TS)   =      -0.00019505 Ry
     internal energy E=F+TS    =   -1715.01173597 Ry

     The total energy is F=E-TS. E is the sum of the following terms:
     one-electron contribution =  -17069.94121340 Ry
     hartree contribution      =    8562.54748957 Ry
     xc contribution           =    -222.29084392 Ry
     ewald contribution        =    7147.97059654 Ry
     one-center paw contrib.   =    -133.29776475 Ry

     total magnetization       =     1.35 Bohr mag/cell
     absolute magnetization    =     2.59 Bohr mag/cell

     convergence has been achieved in  29 iterations

mkdir fail: [2] No such file or directory

 %%%%%%%%%%%%%%%%%%%%%%%%%%%%%%%%%%%%%%%%%%%%%%%%%%%%%%%%%%%%%%%%%%%%%%%%%%%%%%
     Error in routine create_directory (1):
     unable to create directory ./tmp_s0_OOH__spin0.5/s0_OOH__spin0.5.save/
 %%%%%%%%%%%%%%%%%%%%%%%%%%%%%%%%%%%%%%%%%%%%%%%%%%%%%%%%%%%%%%%%%%%%%%%%%%%%%%

     stopping ...
--------------------------------------------------------------------------
MPI_ABORT was invoked on rank 1 in communicator MPI_COMM_WORLD
  Proc: [[5302,1],1]
  Errorcode: 1

NOTE: invoking MPI_ABORT causes Open MPI to kill all MPI processes.
You may or may not see output from other processes, depending on
exactly when Open MPI kills them.
--------------------------------------------------------------------------
--------------------------------------------------------------------------
prterun has exited due to process rank 3 with PID 0 on node be2d195a3225 calling
"abort". This may have caused other processes in the application to be
terminated by signals sent by prterun (as reported here).
--------------------------------------------------------------------------
 0000000    0.06560233
     atom    9 type  3   force =     0.00000139    0.02506037   -0.02519968
     atom   10 type  3   force =     0.00000139   -0.02506037   -0.02519968
     atom   11 type  3   force =     0.00004937    0.00000000   -0.00008648
     atom   12 type  3   force =     0.00195830    0.00000000   -0.01895791
     atom   13 type  3   force =    -0.00123602    0.00037227    0.00014023
     atom   14 type  3   force =    -0.00123602   -0.00037227    0.00014023
     atom   15 type  3   force =     0.00015692    0.00000000   -0.00291899
     atom   16 type  3   force =     0.00005492    0.00000000    0.00475724
     atom   17 type  3   force =    -0.00029862   -0.00040123    0.00068956
     atom   18 type  3   force =    -0.00029862    0.00040123    0.00068956
     atom   19 type  3   force =     0.00183473    0.00000000   -0.00053051
     atom   20 type  3   force =    -0.00168190    0.00000000   -0.00067708
     atom   21 type  1   force =     0.00046941    0.00000000    0.00103895

     Total force =     0.007490     Total SCF correction =     0.000583

     Writing all to output data dir ./tmp_s0_OOH__spin0.5/s0_OOH__spin0.5.save/ :
     XML data file, charge density, pseudopotentials, collected wavefunctions

     init_run     :     55.46s CPU     60.33s WALL (       1 calls)
     electrons    :   4005.76s CPU   4266.96s WALL (       1 calls)
     forces       :     18.90s CPU     20.91s WALL (       1 calls)

     Called by init_run:
     wfcinit      :     44.18s CPU     47.35s WALL (       1 calls)
     potinit      :      5.56s CPU      6.58s WALL (       1 calls)
     hinit0       :      4.20s CPU      4.52s WALL (       1 calls)

     Called by electrons:
     c_bands      :   2998.50s CPU   3193.72s WALL (      30 calls)
     sum_band     :    641.13s CPU    675.36s WALL (      30 calls)
     v_of_rho     :    119.90s CPU    137.16s WALL (      31 calls)
     newd         :     26.42s CPU     29.20s WALL (      31 calls)
     PAW_pot      :     41.51s CPU     43.30s WALL (      31 calls)
     mix_rho      :    173.52s CPU    183.29s WALL (      30 calls)

     Called by c_bands:
     init_us_2    :     47.78s CPU     50.06s WALL (     496 calls)
     cegterg      :   2549.90s CPU   2726.04s WALL (     240 calls)

     Called by *egterg:
     cdiaghg      :     13.37s CPU     13.79s WALL (     784 calls)
     h_psi        :   1932.53s CPU   2044.84s WALL (     792 calls)
     s_psi        :    126.12s CPU    131.27s WALL (     792 calls)
     g_psi        :     16.00s CPU     16.57s WALL (     544 calls)

     Called by h_psi:
     h_psi:calbec :    136.58s CPU    142.63s WALL (     792 calls)
     vloc_psi     :   1656.21s CPU   1730.20s WALL (     792 calls)
                                        0.00s GPU  (     792 calls)
     add_vuspsi   :    128.58s CPU    134.15s WALL (     792 calls)

     General routines
     calbec       :    205.11s CPU    214.07s WALL (    1064 calls)
     fft          :     45.17s CPU     46.87s WALL (     788 calls)
     ffts         :     63.12s CPU     65.78s WALL (    3689 calls)
     fftw         :   1561.64s CPU   1631.06s WALL (  138052 calls)
     interpolate  :      6.07s CPU      6.35s WALL (      62 calls)

     Parallel routines

     PWSCF        :      1h 8m CPU      1h12m WALL


   This run was terminated on:   5:18:38   7Aug2026            

=------------------------------------------------------------------------------=
   JOB DONE.
=------------------------------------------------------------------------------=
Note: The following floating-point exceptions are signalling: IEEE_DENORMAL
Note: The following floating-point exceptions are signalling: IEEE_DENORMAL
Note: The following floating-point exceptions are signalling: IEEE_DENORMAL
