
     Program PWSCF v.7.5 starts on  7Aug2026 at  3:52: 0 

     This program is part of the open-source Quantum ESPRESSO suite
     for quantum simulation of materials; please cite
         "P. Giannozzi et al., J. Phys.:Condens. Matter 21 395502 (2009);
         "P. Giannozzi et al., J. Phys.:Condens. Matter 29 465901 (2017);
         "P. Giannozzi et al., J. Chem. Phys. 152 154105 (2020);
          URL http://www.quantum-espresso.org", 
     in publications or presentations arising from this work. More details at
     http://www.quantum-espresso.org/quote

     Parallel version (MPI & OpenMP), running on       4 processor cores
     Number of MPI processes:                 4
     Threads/MPI process:                     1

     MPI processes distributed on     1 nodes
     15599 MiB available memory on the printing compute node when the environment starts

     Reading input from s0_OOH__base.run.in

     Current dimensions of program PWSCF are:
     Max number of different atomic species (ntypx) = 10
     Max number of k-points (npk) =  40000
     Max angular momentum in pseudopotentials (lmaxx) =  4
     file O.pbe-n-kjpaw_psl.0.1.UPF: wavefunction(s)  2P renormalized
     Message from routine setup:
     using ibrav=0 with symmetry is DISCOURAGED, use correct ibrav instead

     K-points division:     npool     =       4
     Subspace diagonalization in iterative solution of the eigenvalue problem:
     a serial algorithm will be used


     G-vector sticks info
     --------------------
     sticks:   dense  smooth     PW     G-vecs:    dense   smooth      PW
     Sum        3587    1793    513               925697   327113   49625

     Using Slab Decomposition



     bravais-lattice index     =            0
     lattice parameter (alat)  =       5.8714  a.u.
     unit-cell volume          =    3384.5999 (a.u.)^3
     number of atoms/cell      =           21
     number of atomic types    =            3
     number of electrons       =       181.00
     number of Kohn-Sham states=          109
     kinetic-energy cutoff     =      80.0000  Ry
     charge density cutoff     =     640.0000  Ry
     scf convergence threshold =      1.0E-06
     mixing beta               =       0.3000
     number of iterations used =            8  local-TF  mixing
     Exchange-correlation= SLA  PW   PBX  PBC
                           (   1   4   3   4   0   0   0)

     celldm(1)=   5.871379  celldm(2)=   0.000000  celldm(3)=   0.000000
     celldm(4)=   0.000000  celldm(5)=   0.000000  celldm(6)=   0.000000

     crystal axes: (cart. coord. in units of alat)
               a(1) = (   1.000000   0.000000   0.000000 )  
               a(2) = (   0.000000   2.044624   0.000000 )  
               a(3) = (   0.000000   0.000000   8.178497 )  

     reciprocal axes: (cart. coord. in units 2 pi/alat)
               b(1) = (  1.000000  0.000000  0.000000 )  
               b(2) = (  0.000000  0.489087  0.000000 )  
               b(3) = (  0.000000  0.000000  0.122272 )  


     PseudoPot. # 1 for H  read from file:
     /usr/share/espresso/pseudo/H.pbe-rrkjus_psl.1.0.0.UPF
     MD5 check sum: f52b6d4d1c606e5624b1dc7b2218f220
     Pseudo is Ultrasoft, Zval =  1.0
     Generated using "atomic" code by A. Dal Corso  v.5.1
     Using radial grid of  929 points,  2 beta functions with: 
                l(1) =   0
                l(2) =   0
     Q(r) pseudized with 0 coefficients 


     PseudoPot. # 2 for Ru read from file:
     /usr/share/espresso/pseudo/Ru_ONCV_PBE-1.0.oncvpsp.upf
     MD5 check sum: be037bb81c227cfb9b1461a9f099f4bd
     Pseudo is Norm-conserving, Zval = 16.0
     Generated using ONCVPSP code by D. R. Hamann
     Using radial grid of 1458 points,  6 beta functions with: 
                l(1) =   0
                l(2) =   0
                l(3) =   1
                l(4) =   1
                l(5) =   2
                l(6) =   2

     PseudoPot. # 3 for O  read from file:
     /usr/share/espresso/pseudo/O.pbe-n-kjpaw_psl.0.1.UPF
     MD5 check sum: 0234752ac141de4415c5fc33072bef88
     Pseudo is Projector augmented-wave + core cor, Zval =  6.0
     Generated using "atomic" code by A. Dal Corso  v.5.0.99 svn rev. 10869
     Shape of augmentation charge: BESSEL
     Using radial grid of 1095 points,  4 beta functions with: 
                l(1) =   0
                l(2) =   0
                l(3) =   1
                l(4) =   1
     Q(r) pseudized with 0 coefficients 


     atomic species   valence    mass     pseudopotential
     H                 1.00     1.00800     H ( 1.00)
     Ru               16.00   101.07000     Ru( 1.00)
     O                 6.00    15.99900     O ( 1.00)

      2 Sym. Ops. (no inversion) found ( 1 have fractional translation)



   Cartesian axes

     site n.     atom                  positions (alat units)
         1        Ru     tau(   1) = (   0.0000000   0.5111560   3.0669363  )
         2        Ru     tau(   2) = (   0.5000000   1.5334681   3.0669363  )
         3        Ru     tau(   3) = (   0.0036513   1.5334681   4.1010901  )
         4        Ru     tau(   4) = (   0.5011434   0.5111560   4.0829838  )
         5        Ru     tau(   5) = (  -0.0034005   0.5111560   5.1128160  )
         6        Ru     tau(   6) = (   0.5023911   1.5334681   5.1500971  )
         7        O      tau(   7) = (   0.0000000   1.5334681   3.4656380  )
         8        O      tau(   8) = (   0.0000000   1.5334681   2.6682346  )
         9        O      tau(   9) = (   0.5000000   0.1124543   3.0669363  )
        10        O      tau(  10) = (   0.5000000   0.9098578   3.0669363  )
        11        O      tau(  11) = (   0.0014323   0.5111560   4.4911398  )
        12        O      tau(  12) = (   0.0000000   0.5111560   3.6905466  )
        13        O      tau(  13) = (   0.5034297   1.1369455   4.0929878  )
        14        O      tau(  14) = (   0.5034297   1.9299908   4.0929878  )
        15        O      tau(  15) = (   0.0031289   1.5334681   5.5052300  )
        16        O      tau(  16) = (   0.0021555   1.5334681   4.7241012  )
        17        O      tau(  17) = (   0.5023215   0.1156519   5.1188702  )
        18        O      tau(  18) = (   0.5023215   0.9066602   5.1188702  )
        19        O      tau(  19) = (   0.0666044   0.5111560   5.7356750  )
        20        O      tau(  20) = (  -0.2099082   0.5111560   6.0861679  )
        21        H      tau(  21) = (  -0.5108953   0.5111560   5.9503934  )

     number of k points=    15  Marzari-Vanderbilt smearing, width (Ry)=  0.0100
                       cart. coord. in units 2pi/alat
        k(    1) = (   0.0000000   0.0000000   0.0000000), wk =   0.0625000
        k(    2) = (   0.0000000   0.1222719   0.0000000), wk =   0.1250000
        k(    3) = (   0.0000000  -0.2445437   0.0000000), wk =   0.0625000
        k(    4) = (   0.1250000   0.0000000   0.0000000), wk =   0.1250000
        k(    5) = (   0.1250000   0.1222719   0.0000000), wk =   0.2500000
        k(    6) = (   0.1250000  -0.2445437   0.0000000), wk =   0.1250000
        k(    7) = (   0.2500000   0.0000000   0.0000000), wk =   0.1250000
        k(    8) = (   0.2500000   0.1222719   0.0000000), wk =   0.2500000
        k(    9) = (   0.2500000  -0.2445437   0.0000000), wk =   0.1250000
        k(   10) = (   0.3750000   0.0000000   0.0000000), wk =   0.1250000
        k(   11) = (   0.3750000   0.1222719   0.0000000), wk =   0.2500000
        k(   12) = (   0.3750000  -0.2445437   0.0000000), wk =   0.1250000
        k(   13) = (  -0.5000000   0.0000000   0.0000000), wk =   0.0625000
        k(   14) = (  -0.5000000   0.1222719   0.0000000), wk =   0.1250000
        k(   15) = (  -0.5000000  -0.2445437   0.0000000), wk =   0.0625000

     Dense  grid:   925697 G-vectors     FFT dimensions: (  48, 100, 400)

     Smooth grid:   327113 G-vectors     FFT dimensions: (  36,  72, 288)

     Estimated max dynamical RAM per process >       1.43 GB

     Estimated total dynamical RAM >       5.06 GB

     Initial potential from superposition of free atoms

     starting charge     180.9967, renormalised to     181.0000

     negative rho (up, down):  7.992E-05 0.000E+00
     Starting wfcs are  117 randomized atomic wfcs
     Checking if some PAW data can be deallocated... 

     total cpu time spent up to now is       34.0 secs

     per-process dynamical memory:   891.0 Mb

     Self-consistent Calculation

     iteration #  1     ecut=    80.00 Ry     beta= 0.30
     Davidson diagonalization with overlap
     ethr =  1.00E-02,  avg # of iterations =  2.0

     negative rho (up, down):  1.950E-07 0.000E+00

     total cpu time spent up to now is      118.3 secs

     total energy              =   -1714.87169453 Ry
     estimated scf accuracy    <       4.42730599 Ry

     iteration #  2     ecut=    80.00 Ry     beta= 0.30
     Davidson diagonalization with overlap
     ethr =  2.45E-03,  avg # of iterations =  1.0

     total cpu time spent up to now is      188.0 secs

     total energy              =   -1714.94615825 Ry
     estimated scf accuracy    <       1.19050956 Ry

     iteration #  3     ecut=    80.00 Ry     beta= 0.30
     Davidson diagonalization with overlap
     ethr =  6.58E-04,  avg # of iterations =  1.5

     total cpu time spent up to now is      260.3 secs

     total energy              =   -1715.00238026 Ry
     estimated scf accuracy    <       0.65705395 Ry

     iteration #  4     ecut=    80.00 Ry     beta= 0.30
     Davidson diagonalization with overlap
     ethr =  3.63E-04,  avg # of iterations =  1.0

     total cpu time spent up to now is      330.7 secs

     total energy              =   -1715.01356984 Ry
     estimated scf accuracy    <       0.15718874 Ry

     iteration #  5     ecut=    80.00 Ry     beta= 0.30
     Davidson diagonalization with overlap
     ethr =  8.68E-05,  avg # of iterations =  1.7

     total cpu time spent up to now is      404.5 secs

     total energy              =   -1715.00874844 Ry
     estimated scf accuracy    <       0.08405121 Ry

     iteration #  6     ecut=    80.00 Ry     beta= 0.30
     Davidson diagonalization with overlap
     ethr =  4.64E-05,  avg # of iterations =  2.9

     total cpu time spent up to now is      478.8 secs

     total energy              =   -1715.00865681 Ry
     estimated scf accuracy    <       0.02348957 Ry

     iteration #  7     ecut=    80.00 Ry     beta= 0.30
     Davidson diagonalization with overlap
     ethr =  1.30E-05,  avg # of iterations =  4.6

     negative rho (up, down):  1.099E-08 0.000E+00

     total cpu time spent up to now is      562.4 secs

     total energy              =   -1715.00909463 Ry
     estimated scf accuracy    <       0.01434706 Ry

     iteration #  8     ecut=    80.00 Ry     beta= 0.30
     Davidson diagonalization with overlap
     ethr =  7.93E-06,  avg # of iterations =  2.5

     total cpu time spent up to now is      636.6 secs

     total energy              =   -1715.00756099 Ry
     estimated scf accuracy    <       0.01126362 Ry

     iteration #  9     ecut=    80.00 Ry     beta= 0.30
     Davidson diagonalization with overlap
     ethr =  6.22E-06,  avg # of iterations =  3.9

     total cpu time spent up to now is      711.9 secs

     total energy              =   -1715.00737786 Ry
     estimated scf accuracy    <       0.00520214 Ry

     iteration # 10     ecut=    80.00 Ry     beta= 0.30
     Davidson diagonalization with overlap
     ethr =  2.87E-06,  avg # of iterations =  2.4

     negative rho (up, down):  1.114E-04 0.000E+00

     total cpu time spent up to now is      786.4 secs

     total energy              =   -1715.00708545 Ry
     estimated scf accuracy    <       0.00332859 Ry

     iteration # 11     ecut=    80.00 Ry     beta= 0.30
     Davidson diagonalization with overlap
     ethr =  1.84E-06,  avg # of iterations =  2.0

     negative rho (up, down):  1.580E-03 0.000E+00

     total cpu time spent up to now is      858.8 secs

     total energy              =   -1715.00700367 Ry
     estimated scf accuracy    <       0.00143890 Ry

     iteration # 12     ecut=    80.00 Ry     beta= 0.30
     Davidson diagonalization with overlap
     ethr =  7.95E-07,  avg # of iterations =  1.3

     negative rho (up, down):  4.355E-03 0.000E+00

     total cpu time spent up to now is      929.6 secs

     total energy              =   -1715.00694430 Ry
     estimated scf accuracy    <       0.00083326 Ry

     iteration # 13     ecut=    80.00 Ry     beta= 0.30
     Davidson diagonalization with overlap
     ethr =  4.60E-07,  avg # of iterations =  4.4

     negative rho (up, down):  2.571E-03 0.000E+00

     total cpu time spent up to now is     1009.1 secs

     total energy              =   -1715.00692780 Ry
     estimated scf accuracy    <       0.00046769 Ry

     iteration # 14     ecut=    80.00 Ry     beta= 0.30
     Davidson diagonalization with overlap
     ethr =  2.58E-07,  avg # of iterations =  1.1

     negative rho (up, down):  3.085E-03 0.000E+00

     total cpu time spent up to now is     1077.7 secs

     total energy              =   -1715.00696169 Ry
     estimated scf accuracy    <       0.00025644 Ry

     iteration # 15     ecut=    80.00 Ry     beta= 0.30
     Davidson diagonalization with overlap
     ethr =  1.42E-07,  avg # of iterations =  1.5

     negative rho (up, down):  2.509E-03 0.000E+00

     total cpu time spent up to now is     1154.7 secs

     total energy              =   -1715.00699884 Ry
     estimated scf accuracy    <       0.00008917 Ry

     iteration # 16     ecut=    80.00 Ry     beta= 0.30
     Davidson diagonalization with overlap
     ethr =  4.93E-08,  avg # of iterations =  1.0

     negative rho (up, down):  1.313E-03 0.000E+00

     total cpu time spent up to now is     1225.1 secs

     total energy              =   -1715.00700897 Ry
     estimated scf accuracy    <       0.00005779 Ry

     iteration # 17     ecut=    80.00 Ry     beta= 0.30
     Davidson diagonalization with overlap
     ethr =  3.19E-08,  avg # of iterations =  1.1

     negative rho (up, down):  1.012E-03 0.000E+00

     total cpu time spent up to now is     1296.5 secs

     total energy              =   -1715.00703573 Ry
     estimated scf accuracy    <       0.00002298 Ry

     iteration # 18     ecut=    80.00 Ry     beta= 0.30
     Davidson diagonalization with overlap
     ethr =  1.27E-08,  avg # of iterations =  1.7

     negative rho (up, down):  5.796E-04 0.000E+00

     total cpu time spent up to now is     1369.8 secs

     total energy              =   -1715.00703974 Ry
     estimated scf accuracy    <       0.00001586 Ry

     iteration # 19     ecut=    80.00 Ry     beta= 0.30
     Davidson diagonalization with overlap
     ethr =  8.76E-09,  avg # of iterations =  1.4

     negative rho (up, down):  3.590E-04 0.000E+00

     total cpu time spent up to now is     1443.0 secs

     total energy              =   -1715.00704003 Ry
     estimated scf accuracy    <       0.00000647 Ry

     iteration # 20     ecut=    80.00 Ry     beta= 0.30
     Davidson diagonalization with overlap
     ethr =  3.57E-09,  avg # of iterations =  1.1

     negative rho (up, down):  1.802E-04 0.000E+00

     total cpu time spent up to now is     1514.8 secs

     total energy              =   -1715.00704051 Ry
     estimated scf accuracy    <       0.00000349 Ry

     iteration # 21     ecut=    80.00 Ry     beta= 0.30
     Davidson diagonalization with overlap
     ethr =  1.93E-09,  avg # of iterations =  1.3

     negative rho (up, down):  1.820E-04 0.000E+00

     total cpu time spent up to now is     1586.9 secs

     total energy              =   -1715.00704057 Ry
     estimated scf accuracy    <       0.00000186 Ry

     iteration # 22     ecut=    80.00 Ry     beta= 0.30
     Davidson diagonalization with overlap
     ethr =  1.03E-09,  avg # of iterations =  1.4

     negative rho (up, down):  9.711E-05 0.000E+00

     total cpu time spent up to now is     1648.8 secs

     End of self-consistent calculation

          k = 0.0000 0.0000 0.0000 ( 40831 PWs)   bands (ev):

   -72.4797 -72.2263 -72.0649 -72.0362 -72.0212 -71.7182 -42.5688 -42.4108
   -42.3973 -42.3699 -42.3472 -42.3006 -42.2518 -42.0898 -42.0862 -41.9499
   -41.9317 -41.9039 -41.8922 -41.8859 -41.8644 -41.8570 -41.6141 -41.5806
   -22.2471 -18.6115 -18.3026 -18.1552 -17.9884 -17.6030 -17.4708 -17.1325
   -16.8558 -16.7909 -16.7264 -16.4826 -15.8036 -14.2597  -7.2874  -6.9275
    -6.9158  -6.9051  -6.4231  -6.0302  -5.4660  -5.4171  -5.4036  -5.3740
    -5.3534  -5.3018  -5.1788  -4.9677  -4.8864  -4.0743  -4.0207  -3.6048
    -3.3010  -2.9748  -2.8790  -2.8027  -2.7663  -2.6530  -2.6202  -2.4248
    -2.3549  -2.2316  -2.1318  -2.0941  -1.9168  -1.7239  -1.7003  -1.5573
    -1.2297  -1.1284  -0.9730  -0.8368  -0.5390  -0.4492  -0.1319   0.0574
     0.0635   0.1047   0.1712   0.1863   0.2458   0.4044   0.4932   0.8062
     0.8458   0.9395   1.3173   1.4378   1.5763   2.0941   2.4312   2.5341
     2.7162   3.0599   3.6155   4.4220   5.0387   5.5146   5.5909   5.7991
     6.0305   6.0497   6.0553   6.1041   6.2594

          k = 0.0000 0.1223 0.0000 ( 40974 PWs)   bands (ev):

   -72.4797 -72.2263 -72.0649 -72.0361 -72.0213 -71.7182 -42.5677 -42.4108
   -42.3964 -42.3698 -42.3473 -42.3006 -42.2497 -42.0898 -42.0861 -41.9499
   -41.9330 -41.9039 -41.8915 -41.8860 -41.8650 -41.8592 -41.6141 -41.5818
   -22.2469 -18.5033 -18.1688 -18.0283 -18.0136 -17.6150 -17.5173 -17.1391
   -16.9957 -16.9338 -16.8860 -16.4812 -15.8008 -14.2597  -7.2837  -6.5258
    -6.4702  -6.4434  -6.3770  -6.0223  -5.3980  -5.3669  -5.3281  -5.3235
    -5.2955  -5.2195  -5.1244  -4.9655  -4.7013  -4.0855  -3.9704  -3.8261
    -3.6037  -3.4813  -3.3482  -3.2148  -2.9285  -2.8458  -2.7492  -2.5610
    -2.5297  -2.4336  -2.4092  -2.2676  -2.1722  -1.9970  -1.8222  -1.6641
    -1.4424  -1.2922  -1.1336  -0.8838  -0.6982  -0.5411   0.2381   0.2556
     0.4193   0.5424   0.6349   0.6713   0.6899   0.7181   0.8200   0.8323
     0.8706   1.0163   1.3077   1.4268   1.6331   2.1117   2.1926   2.4572
     2.6993   2.9120   4.0088   4.7454   5.2389   5.5366   5.5909   5.7383
     5.8026   5.8479   5.8764   6.0452   6.3147

          k = 0.0000-0.2445 0.0000 ( 41014 PWs)   bands (ev):

   -72.4797 -72.2263 -72.0649 -72.0360 -72.0214 -71.7182 -42.5665 -42.4107
   -42.3954 -42.3696 -42.3475 -42.3006 -42.2477 -42.0898 -42.0861 -41.9499
   -41.9343 -41.9039 -41.8907 -41.8861 -41.8657 -41.8614 -41.6142 -41.5829
   -22.2468 -18.3367 -18.1262 -17.8975 -17.7708 -17.7475 -17.6298 -17.1837
   -17.1542 -17.0706 -17.0408 -16.4814 -15.7985 -14.2597  -7.2836  -6.4530
    -6.0607  -5.7572  -5.7218  -5.6496  -5.3876  -5.3732  -5.2761  -5.2271
    -5.2150  -5.1301  -4.9587  -4.7253  -4.5684  -4.3109  -4.2230  -4.1811
    -4.1226  -4.0960  -3.9982  -3.6134  -3.3745  -3.1312  -2.9044  -2.7953
    -2.7941  -2.6671  -2.4402  -2.4274  -2.3219  -2.1044  -1.7603  -1.5568
    -1.3531  -1.2403  -1.1331  -0.8296  -0.7817  -0.6937   0.2404   0.2988
     0.7565   0.7742   0.8121   0.9105   0.9801   1.0127   1.1287   1.1339
     1.1966   1.2339   1.3681   1.4802   1.5455   1.9053   1.9854   2.4013
     2.4667   3.0219   4.6163   4.6319   5.4860   5.5139   5.5491   5.5710
     5.5845   5.8311   5.8314   6.0447   6.1380

          k = 0.1250 0.0000 0.0000 ( 40851 PWs)   bands (ev):

   -72.4781 -72.2248 -72.0634 -72.0346 -72.0197 -71.7166 -42.5667 -42.4388
   -42.3953 -42.3652 -42.3453 -42.2989 -42.2494 -42.1121 -42.0857 -41.9463
   -41.9274 -41.9189 -41.9133 -41.9026 -41.8899 -41.8530 -41.6415 -41.5762
   -22.1695 -18.4830 -18.1852 -18.0441 -17.8952 -17.5266 -17.3835 -17.1925
   -16.9316 -16.8697 -16.8079 -16.5595 -15.8468 -14.4200  -7.4148  -6.7548
    -6.7390  -6.7260  -6.2421  -6.0235  -5.4919  -5.4916  -5.4739  -5.3259
    -5.2924  -5.1817  -4.8309  -4.6846  -4.6641  -4.3332  -3.8613  -3.4928
    -3.3830  -3.2093  -3.0743  -2.8598  -2.7897  -2.7235  -2.7032  -2.6171
    -2.4137  -2.4092  -2.3656  -2.0637  -1.9717  -1.8149  -1.7473  -1.7337
    -1.6314  -1.5448  -1.5017  -0.9610  -0.7444  -0.4904  -0.0881   0.2533
     0.3145   0.3858   0.4768   0.5632   0.5802   0.6798   0.7832   0.8989
     1.0116   1.0191   1.5003   1.5461   1.7082   1.9523   2.2840   2.5827
     2.6824   2.9157   3.7709   4.5353   5.0817   5.1806   5.3192   5.6068
     5.6730   5.7275   5.7343   5.7903   6.3068

          k = 0.1250 0.1223 0.0000 ( 40932 PWs)   bands (ev):

   -72.4781 -72.2248 -72.0634 -72.0345 -72.0198 -71.7166 -42.5658 -42.4388
   -42.3946 -42.3650 -42.3455 -42.2989 -42.2478 -42.1121 -42.0857 -41.9463
   -41.9285 -41.9181 -41.9132 -41.9027 -41.8908 -41.8544 -41.6414 -41.5771
   -22.1694 -18.3815 -18.0581 -17.9324 -17.9059 -17.5292 -17.4351 -17.1980
   -17.0604 -17.0015 -16.9546 -16.5583 -15.8444 -14.4199  -7.4144  -6.3728
    -6.3129  -6.2871  -6.2068  -6.0126  -5.4912  -5.4005  -5.3837  -5.3317
    -5.2160  -4.9625  -4.8493  -4.6875  -4.5245  -4.3280  -3.8790  -3.7335
    -3.5657  -3.4397  -3.3564  -3.2556  -3.1183  -3.0516  -2.9734  -2.8410
    -2.7559  -2.7091  -2.5064  -2.3887  -2.2049  -1.9092  -1.8487  -1.6901
    -1.6266  -1.4730  -1.2639  -0.7977  -0.7653  -0.6321   0.1805   0.3725
     0.5221   0.6017   0.6386   0.7389   0.7804   0.9801   1.0168   1.0562
     1.1470   1.2173   1.5010   1.6102   1.7019   2.0118   2.0743   2.3607
     2.6668   2.9074   4.0977   4.7680   5.0979   5.1474   5.2615   5.4231
     5.4993   5.6295   5.6394   5.7940   6.3523

          k = 0.1250-0.2445 0.0000 ( 40974 PWs)   bands (ev):

   -72.4781 -72.2248 -72.0634 -72.0344 -72.0199 -71.7166 -42.5649 -42.4388
   -42.3938 -42.3649 -42.3457 -42.2989 -42.2463 -42.1121 -42.0856 -41.9463
   -41.9296 -41.9173 -41.9132 -41.9029 -41.8916 -41.8559 -41.6413 -41.5781
   -22.1692 -18.2274 -18.0161 -17.7884 -17.6660 -17.6561 -17.5550 -17.2507
   -17.2092 -17.1303 -17.0899 -16.5585 -15.8426 -14.4199  -7.4152  -6.2765
    -6.0439  -5.5616  -5.5210  -5.4681  -5.4317  -5.4166  -5.3761  -5.3468
    -5.3108  -4.8622  -4.7067  -4.5509  -4.4421  -4.3079  -4.2250  -4.0965
    -3.9063  -3.8147  -3.8047  -3.6953  -3.6080  -3.5580  -3.3094  -3.0526
    -2.9690  -2.9201  -2.7456  -2.5104  -2.1785  -1.9181  -1.9140  -1.5456
    -1.3618  -1.1550  -1.0978  -1.0197  -0.7531  -0.6847   0.3627   0.4604
     0.5168   0.6809   0.7501   0.8065   0.8460   1.1363   1.4008   1.4495
     1.4766   1.5152   1.5199   1.5893   1.7736   1.8819   1.9323   2.2840
     2.3587   3.0551   4.5704   4.6681   4.9141   4.9769   5.0457   5.3465
     5.4372   5.6299   5.7687   5.9154   6.2213

          k = 0.2500 0.0000 0.0000 ( 40947 PWs)   bands (ev):

   -72.4743 -72.2212 -72.0597 -72.0308 -72.0161 -71.7129 -42.5615 -42.5058
   -42.3904 -42.3533 -42.3411 -42.2956 -42.2436 -42.1740 -42.0757 -41.9833
   -41.9785 -41.9617 -41.9298 -41.9171 -41.8969 -41.8432 -41.7070 -41.5654
   -21.9694 -18.1565 -17.8968 -17.7719 -17.6911 -17.4119 -17.2982 -17.1629
   -17.1104 -17.0551 -16.9995 -16.7236 -15.9034 -14.8294  -7.6189  -6.3193
    -6.2797  -6.2544  -5.8358  -5.7508  -5.5614  -5.5408  -5.4169  -5.1801
    -5.1147  -4.8102  -4.7533  -4.3835  -4.2741  -4.1981  -4.0589  -3.8054
    -3.6768  -3.5590  -3.5038  -3.4981  -3.2421  -3.0019  -2.8847  -2.7243
    -2.5499  -2.5238  -2.3929  -2.2829  -2.2752  -2.0997  -1.9464  -1.8801
    -1.7380  -1.5407  -0.9561  -0.9549  -0.9248  -0.7498  -0.1085   0.2133
     0.6846   0.7390   0.7469   0.7749   0.9373   1.1133   1.2593   1.3084
     1.3594   1.4644   1.4913   1.6837   1.7557   1.7938   2.0221   2.2923
     2.5222   2.8265   4.0359   4.3343   4.7121   4.9304   4.9838   5.1263
     5.1352   5.2130   5.2739   5.5871   6.1157

          k = 0.2500 0.1223 0.0000 ( 40905 PWs)   bands (ev):

   -72.4743 -72.2212 -72.0597 -72.0308 -72.0161 -71.7129 -42.5613 -42.5058
   -42.3902 -42.3532 -42.3412 -42.2956 -42.2435 -42.1741 -42.0757 -41.9819
   -41.9782 -41.9624 -41.9299 -41.9176 -41.8969 -41.8438 -41.7067 -41.5659
   -21.9693 -18.0816 -17.8043 -17.7249 -17.6548 -17.4253 -17.3162 -17.2167
   -17.1862 -17.1350 -17.0816 -16.7231 -15.9029 -14.8292  -7.6199  -6.0383
    -5.9639  -5.9362  -5.8264  -5.7426  -5.5553  -5.3725  -5.2811  -5.2159
    -5.0465  -4.8409  -4.5164  -4.4222  -4.3206  -4.2373  -4.1407  -4.0935
    -3.9933  -3.8958  -3.7085  -3.4710  -3.3333  -3.0477  -2.9742  -2.8266
    -2.7352  -2.6212  -2.5867  -2.4043  -2.3207  -2.0829  -1.8770  -1.8177
    -1.6846  -1.5622  -1.0299  -0.9396  -0.9046  -0.7502  -0.1370   0.2787
     0.6476   0.7711   0.7883   1.0419   1.1559   1.1896   1.2685   1.3111
     1.3905   1.4984   1.5514   1.6887   1.8593   1.8932   2.0130   2.1995
     2.3957   2.9463   4.1814   4.2896   4.4891   4.5234   4.5834   4.9598
     5.1031   5.3430   5.7165   5.8587   6.2369

          k = 0.2500-0.2445 0.0000 ( 40892 PWs)   bands (ev):

   -72.4743 -72.2212 -72.0597 -72.0307 -72.0162 -71.7129 -42.5611 -42.5059
   -42.3901 -42.3530 -42.3414 -42.2956 -42.2434 -42.1742 -42.0757 -41.9805
   -41.9778 -41.9631 -41.9300 -41.9182 -41.8969 -41.8445 -41.7063 -41.5664
   -21.9692 -17.9719 -17.7744 -17.5641 -17.5577 -17.4233 -17.4150 -17.3815
   -17.2688 -17.2287 -17.1120 -16.7231 -15.9025 -14.8290  -7.6210  -5.8608
    -5.7989  -5.5538  -5.4773  -5.4653  -5.4641  -5.3014  -5.0614  -5.0517
    -4.9081  -4.8406  -4.6924  -4.6923  -4.6332  -4.3685  -4.3488  -4.2414
    -3.9782  -3.9548  -3.8290  -3.5457  -3.3340  -3.2298  -3.1544  -3.1412
    -3.0932  -2.9439  -2.8698  -2.6523  -2.2893  -1.9514  -1.7242  -1.5338
    -1.5216  -1.2605  -1.1665  -0.9964  -0.8899  -0.8238   0.1440   0.1740
     0.4944   0.6231   0.8016   0.9043   1.1854   1.3392   1.4279   1.4610
     1.5722   1.6044   1.7230   1.7573   1.9436   2.0385   2.0812   2.0982
     2.2535   3.0403   4.0112   4.0794   4.1669   4.3525   4.3749   4.9612
     5.2332   5.4173   6.0179   6.0313   6.2902

          k = 0.3750 0.0000 0.0000 ( 40852 PWs)   bands (ev):

   -72.4704 -72.2176 -72.0559 -72.0270 -72.0124 -71.7091 -42.5719 -42.5563
   -42.3855 -42.3410 -42.3369 -42.2942 -42.2379 -42.2340 -42.0669 -42.0453
   -42.0426 -42.0234 -41.9217 -41.9067 -41.8927 -41.8334 -41.7717 -41.5546
   -21.7469 -17.8266 -17.6419 -17.5441 -17.4714 -17.3789 -17.3020 -17.2837
   -17.2343 -17.1841 -17.0375 -16.7580 -15.8772 -15.2686  -7.6838  -5.9057
    -5.8011  -5.7106  -5.6605  -5.5899  -5.4785  -5.3850  -5.2676  -5.2087
    -5.0993  -4.9353  -4.7549  -4.4818  -4.4337  -4.3003  -4.1103  -4.0711
    -3.9528  -3.7349  -3.6497  -3.1922  -3.1553  -3.0766  -3.0674  -2.9629
    -2.7872  -2.5305  -2.4702  -2.4332  -2.1794  -2.0708  -1.9244  -1.8999
    -1.6829  -1.3444  -1.1954  -1.0400  -0.6717  -0.3252  -0.1617   0.3829
     0.6584   0.7724   0.8805   0.8943   0.9601   1.0763   1.1336   1.1858
     1.3268   1.4951   1.5284   1.6774   1.9091   1.9577   2.0196   2.3612
     2.4191   2.7059   3.6487   4.0891   4.5658   4.7055   4.7149   4.8180
     4.8380   5.0828   5.2545   5.4488   5.9193

          k = 0.3750 0.1223 0.0000 ( 40842 PWs)   bands (ev):

   -72.4704 -72.2176 -72.0559 -72.0270 -72.0124 -71.7091 -42.5720 -42.5569
   -42.3860 -42.3409 -42.3371 -42.2942 -42.2396 -42.2341 -42.0668 -42.0433
   -42.0418 -42.0239 -41.9217 -41.9067 -41.8927 -41.8332 -41.7710 -41.5546
   -21.7468 -17.8114 -17.6440 -17.6100 -17.5346 -17.4258 -17.3386 -17.2097
   -17.1637 -17.1303 -17.0404 -16.7590 -15.8775 -15.2682  -7.6845  -5.7963
    -5.7534  -5.7326  -5.6710  -5.5976  -5.4828  -5.3518  -5.3282  -5.2233
    -5.1747  -5.1000  -4.6203  -4.4097  -4.3329  -4.2095  -4.1497  -4.0372
    -4.0004  -3.8052  -3.4224  -3.2560  -3.1703  -3.0084  -2.9250  -2.8127
    -2.7251  -2.5637  -2.4537  -2.4194  -2.3133  -2.1485  -1.9585  -1.6905
    -1.6286  -1.5429  -1.3189  -1.0121  -0.8026  -0.3726  -0.1967   0.2274
     0.4145   0.5349   0.7813   0.8797   0.9245   1.0329   1.0676   1.1307
     1.2150   1.2540   1.5702   1.9380   2.1141   2.1796   2.2751   2.3269
     2.3672   2.8173   3.6495   3.9535   3.9828   4.0748   4.1464   4.5853
     5.3016   5.6381   5.8851   5.9857   6.0934

          k = 0.3750-0.2445 0.0000 ( 40856 PWs)   bands (ev):

   -72.4704 -72.2176 -72.0559 -72.0270 -72.0125 -71.7091 -42.5721 -42.5574
   -42.3865 -42.3408 -42.3372 -42.2942 -42.2413 -42.2342 -42.0666 -42.0412
   -42.0411 -42.0245 -41.9217 -41.9068 -41.8927 -41.8331 -41.7703 -41.5546
   -21.7468 -17.7872 -17.6863 -17.6162 -17.6017 -17.4527 -17.3562 -17.1596
   -17.1119 -17.0988 -17.0420 -16.7601 -15.8777 -15.2677  -7.6851  -5.7446
    -5.7037  -5.6595  -5.5918  -5.5521  -5.4844  -5.4791  -5.3901  -5.3149
    -5.2432  -5.1774  -4.6589  -4.4085  -4.2259  -4.1571  -3.9624  -3.8803
    -3.8757  -3.7563  -3.4116  -3.2137  -3.2001  -2.9963  -2.8892  -2.8101
    -2.7610  -2.6699  -2.5749  -2.4982  -2.2258  -2.0326  -1.9407  -1.7631
    -1.6776  -1.2799  -1.2694  -1.0179  -1.0122  -0.4903  -0.1455  -0.0475
     0.0748   0.1287   0.6701   0.9176   0.9307   1.0618   1.1370   1.1564
     1.1996   1.3409   1.4860   1.8945   2.1597   2.2424   2.4373   2.4426
     2.5324   2.9164   3.4534   3.5455   3.6524   3.7824   4.1717   4.5869
     5.3854   5.8474   6.2658   6.2998   6.4153

          k =-0.5000 0.0000 0.0000 ( 40876 PWs)   bands (ev):

   -72.4689 -72.2160 -72.0544 -72.0255 -72.0109 -71.7075 -42.5991 -42.5542
   -42.3835 -42.3357 -42.3353 -42.2957 -42.2568 -42.2355 -42.0758 -42.0689
   -42.0584 -42.0495 -41.9175 -41.9024 -41.8911 -41.8293 -41.7982 -41.5501
   -21.6465 -17.7732 -17.4655 -17.4573 -17.4035 -17.3540 -17.3473 -17.3068
   -17.2875 -17.2586 -17.0646 -16.6858 -15.8401 -15.4592  -7.6701  -5.9350
    -5.7776  -5.6912  -5.5576  -5.4250  -5.3857  -5.2957  -5.1724  -5.1247
    -5.0902  -4.9804  -4.7766  -4.7471  -4.5471  -4.4402  -4.2624  -4.0157
    -3.6887  -3.4090  -3.3600  -3.3461  -3.3144  -3.2855  -3.1316  -2.9903
    -2.7616  -2.6803  -2.3648  -2.2595  -2.0552  -2.0082  -1.8906  -1.8213
    -1.5140  -1.3905  -1.2695  -1.1903  -0.6427  -0.1052  -0.0894   0.4100
     0.4252   0.7782   0.8735   0.8804   0.9097   0.9286   1.0190   1.0602
     1.1123   1.3463   1.4486   1.6611   1.8404   2.1527   2.2013   2.5262
     2.5926   2.5938   3.4231   4.0405   4.5081   4.5738   4.5905   4.7011
     4.8533   5.0905   5.2319   5.4030   5.9397

          k =-0.5000 0.1223 0.0000 ( 40858 PWs)   bands (ev):

   -72.4689 -72.2160 -72.0544 -72.0255 -72.0109 -71.7075 -42.5992 -42.5550
   -42.3842 -42.3357 -42.3354 -42.2957 -42.2569 -42.2383 -42.0733 -42.0680
   -42.0579 -42.0499 -41.9175 -41.9022 -41.8911 -41.8288 -41.7973 -41.5499
   -21.6465 -17.7699 -17.6317 -17.5870 -17.5516 -17.4524 -17.2943 -17.1438
   -17.1085 -17.0882 -17.0681 -16.6856 -15.8396 -15.4584  -7.6703  -5.9208
    -5.8164  -5.7658  -5.7427  -5.6624  -5.6381  -5.3349  -5.2913  -5.2302
    -5.1973  -4.8847  -4.6035  -4.4912  -4.3479  -4.1081  -4.0405  -3.7568
    -3.5323  -3.4358  -3.4136  -3.3892  -3.3170  -3.2779  -3.0816  -2.6996
    -2.5202  -2.4480  -2.3354  -2.3037  -2.1508  -2.1016  -1.8937  -1.7351
    -1.5499  -1.4667  -1.3642  -1.1731  -0.8573  -0.1952  -0.1417   0.2532
     0.3532   0.3973   0.4402   0.7426   0.7922   0.8774   0.8827   0.9028
     0.9203   1.0823   1.3930   2.0969   2.2718   2.3546   2.3858   2.4589
     2.5496   2.7293   3.4788   3.7314   3.7985   3.9087   4.0887   4.5126
     5.4319   5.8439   5.9646   6.0056   6.0609

          k =-0.5000-0.2445 0.0000 ( 40872 PWs)   bands (ev):

   -72.4689 -72.2160 -72.0544 -72.0255 -72.0109 -71.7075 -42.5994 -42.5559
   -42.3850 -42.3356 -42.3355 -42.2957 -42.2570 -42.2410 -42.0711 -42.0670
   -42.0573 -42.0504 -41.9175 -41.9021 -41.8911 -41.8283 -41.7965 -41.5498
   -21.6464 -17.7667 -17.7221 -17.6766 -17.6407 -17.4471 -17.2994 -17.0719
   -17.0440 -17.0109 -16.9935 -16.6855 -15.8391 -15.4576  -7.6706  -5.9967
    -5.9755  -5.9122  -5.8721  -5.7034  -5.5266  -5.4026  -5.2902  -5.2809
    -5.2025  -4.8851  -4.6462  -4.5736  -4.3868  -3.7977  -3.5854  -3.5751
    -3.5369  -3.4343  -3.3012  -3.1361  -3.0868  -3.0184  -2.9037  -2.7553
    -2.5795  -2.5383  -2.3443  -2.2457  -2.1759  -2.0930  -1.7662  -1.6982
    -1.5481  -1.4907  -1.4400  -1.2264  -0.9227  -0.5206  -0.3394  -0.1849
     0.0646   0.1483   0.3922   0.4605   0.7689   0.7868   0.8802   0.9111
     0.9169   1.0965   1.3691   2.0620   2.2560   2.4023   2.5933   2.6800
     2.7107   2.7888   3.3528   3.4031   3.5192   3.5227   4.1265   4.5164
     5.4780   6.0682   6.3731   6.3990   6.5316

     the Fermi energy is     1.5272 ev

!    total energy              =   -1715.00704027 Ry
     estimated scf accuracy    <       0.00000030 Ry
     smearing contrib. (-TS)   =      -0.00095998 Ry
     internal energy E=F+TS    =   -1715.00608030 Ry

     The total energy is F=E-TS. E is the sum of the following terms:
     one-electron contribution =  -17069.93425012 Ry
     hartree contribution      =    8562.51362043 Ry
     xc contribution           =    -222.25550720 Ry
     ewald contribution        =    7147.97059654 Ry
     one-center paw contrib.   =    -133.30053994 Ry

     convergence has been achieved in  22 iterations

     negative rho (up, down):  9.711E-05 0.000E+00

     Forces acting on atoms (cartesian axes, Ry/au):

     atom    1 type  2   force =    -0.00004274    0.00000000    0.06401065
     atom    2 type  2   force =     0.00000404    0.00000000   -0.08674469
     atom    3 type  2   force =    -0.00128721    0.00000000    0.00077949
     atom    4 type  2   force =     0.00013862    0.00000000    0.00061648
     atom    5 type  2   force =    -0.00121581    0.00000000   -0.00083807
     atom    6 type  2   force =     0.00109610    0.00000000    0.00120200
     atom    7 type  3   force =     0.00102512    0.00000000    0.02545275
     atom    8 type  3   force =     0.00028845    0.00000000    0.06183399
     atom    9 type  3   force =    -0.00002981    0.02445221   -0.02428891
     atom   10 type  3   force =    -0.00002981   -0.02445221   -0.02428891
     atom   11 type  3   force =     0.00010158    0.00000000   -0.00058078
     atom   12 type  3   force =     0.00199419    0.00000000   -0.01890921
     atom   13 type  3   force =    -0.00112486    0.00020368    0.00103998
     atom   14 type  3   force =    -0.00112486   -0.00020368    0.00103998
     atom   15 type  3   force =     0.00033174    0.00000000   -0.00047761
     atom   16 type  3   force =     0.00001566    0.00000000    0.00007051
     atom   17 type  3   force =    -0.00039404   -0.00044505   -0.00000651
     atom   18 type  3   force =    -0.00039404    0.00044505   -0.00000651
     atom   19 type  3   force =     0.00182769    0.00000000    0.00012128
     atom   20 type  3   force =    -0.00160805    0.00000000   -0.00104695
     atom   21 type  1   force =     0.00042804    0.00000000    0.00102102

     Total force =     0.004683     Total SCF correction =     0.002235
     SCF correction compared to forces is large: reduce conv_thr to get better values

     Writing all to output data dir ./tmp_s0_OOH__base/s0_OOH__base.save/ :
     XML data file, charge density, pseudopotentials, collected wavefunctions

     init_run     :     30.87s CPU     33.73s WALL (       1 calls)
     electrons    :   1505.75s CPU   1614.95s WALL (       1 calls)
     forces       :     11.24s CPU     12.52s WALL (       1 calls)

     Called by init_run:
     wfcinit      :     20.41s CPU     22.06s WALL (       1 calls)
     potinit      :      3.56s CPU      4.05s WALL (       1 calls)
     hinit0       :      3.05s CPU      3.29s WALL (       1 calls)

     Called by electrons:
     c_bands      :   1068.61s CPU   1144.74s WALL (      22 calls)
     sum_band     :    251.70s CPU    266.99s WALL (      22 calls)
     v_of_rho     :     34.06s CPU     39.33s WALL (      23 calls)
     newd         :     11.36s CPU     15.48s WALL (      23 calls)
     PAW_pot      :     13.08s CPU     13.59s WALL (      23 calls)
     mix_rho      :    125.56s CPU    133.51s WALL (      22 calls)

     Called by c_bands:
     init_us_2    :     17.73s CPU     18.69s WALL (     184 calls)
     cegterg      :    935.05s CPU   1005.67s WALL (      88 calls)

     Called by *egterg:
     cdiaghg      :      5.35s CPU      5.57s WALL (     330 calls)
     h_psi        :    704.11s CPU    743.52s WALL (     334 calls)
     s_psi        :     45.95s CPU     47.88s WALL (     334 calls)
     g_psi        :      6.06s CPU      6.30s WALL (     242 calls)

     Called by h_psi:
     h_psi:calbec :     50.42s CPU     52.38s WALL (     334 calls)
     vloc_psi     :    601.04s CPU    627.96s WALL (     334 calls)
                                        0.00s GPU  (     334 calls)
     add_vuspsi   :     47.58s CPU     49.67s WALL (     334 calls)

     General routines
     calbec       :     78.18s CPU     81.20s WALL (     438 calls)
     fft          :     16.89s CPU     17.70s WALL (     308 calls)
     ffts         :     40.56s CPU     42.44s WALL (    2628 calls)
     fftw         :    562.61s CPU    587.86s WALL (   49770 calls)
     interpolate  :      3.03s CPU      3.20s WALL (      23 calls)

     Parallel routines

     PWSCF        :  25m48.43s CPU  27m42.11s WALL


   This run was terminated on:   4:19:43   7Aug2026            

=------------------------------------------------------------------------------=
   JOB DONE.
=------------------------------------------------------------------------------=
