
     Program PWSCF v.7.5 starts on 31Aug2026 at 21:53:40 

     This program is part of the open-source Quantum ESPRESSO suite
     for quantum simulation of materials; please cite
         "P. Giannozzi et al., J. Phys.:Condens. Matter 21 395502 (2009);
         "P. Giannozzi et al., J. Phys.:Condens. Matter 29 465901 (2017);
         "P. Giannozzi et al., J. Chem. Phys. 152 154105 (2020);
          URL http://www.quantum-espresso.org", 
     in publications or presentations arising from this work. More details at
     http://www.quantum-espresso.org/quote

     Parallel version (MPI & OpenMP), running on     128 processor cores
     Number of MPI processes:               128
     Threads/MPI process:                     1

     MPI processes distributed on     1 nodes
     229201 MiB available memory on the printing compute node when the environment starts

     Reading input from s0_OOH__u000__sp2m010.run.in

     Current dimensions of program PWSCF are:
     Max number of different atomic species (ntypx) = 10
     Max number of k-points (npk) =  40000
     Max angular momentum in pseudopotentials (lmaxx) =  4
     file O.pbe-n-kjpaw_psl.0.1.UPF: wavefunction(s)  2P renormalized
     Message from routine setup:
     using ibrav=0 with symmetry is DISCOURAGED, use correct ibrav instead

     K-points division:     npool     =       4
     R & G space division:  proc/nbgrp/npool/nimage =      32
     Subspace diagonalization in iterative solution of the eigenvalue problem:
     a serial algorithm will be used


     Parallelization info
     --------------------
     sticks:   dense  smooth     PW     G-vecs:    dense   smooth      PW
     Min         113      57     16                29407    10389    1566
     Max         114      58     17                29434    10403    1581
     Sum        3639    1825    519               941385   332621   50331

     Using Slab Decomposition



     bravais-lattice index     =            0
     lattice parameter (alat)  =       5.9602  a.u.
     unit-cell volume          =    3444.9838 (a.u.)^3
     number of atoms/cell      =           21
     number of atomic types    =            3
     number of electrons       =       175.00
     number of Kohn-Sham states=          106
     kinetic-energy cutoff     =      80.0000  Ry
     charge density cutoff     =     640.0000  Ry
     scf convergence threshold =      1.0E-06
     mixing beta               =       0.3000
     number of iterations used =            8  local-TF  mixing
     Exchange-correlation= SLA  PW   PBX  PBC
                           (   1   4   3   4   0   0   0)

     celldm(1)=   5.960196  celldm(2)=   0.000000  celldm(3)=   0.000000
     celldm(4)=   0.000000  celldm(5)=   0.000000  celldm(6)=   0.000000

     crystal axes: (cart. coord. in units of alat)
               a(1) = (   1.000000   0.000000   0.000000 )  
               a(2) = (   0.000000   2.016846   0.000000 )  
               a(3) = (   0.000000   0.000000   8.067384 )  

     reciprocal axes: (cart. coord. in units 2 pi/alat)
               b(1) = (  1.000000  0.000000  0.000000 )  
               b(2) = (  0.000000  0.495824  0.000000 )  
               b(3) = (  0.000000  0.000000  0.123956 )  


     PseudoPot. # 1 for H  read from file:
     /anvil/projects/x-che260157/pseudo/H.pbe-rrkjus_psl.1.0.0.UPF
     MD5 check sum: f52b6d4d1c606e5624b1dc7b2218f220
     Pseudo is Ultrasoft, Zval =  1.0
     Generated using "atomic" code by A. Dal Corso  v.5.1
     Using radial grid of  929 points,  2 beta functions with: 
                l(1) =   0
                l(2) =   0
     Q(r) pseudized with 0 coefficients 


     PseudoPot. # 2 for Ir read from file:
     /anvil/projects/x-che260157/pseudo/Ir_pbe_v1.2.uspp.F.UPF
     MD5 check sum: 8836f839c3459d2b385c504ce6d91f2c
     Pseudo is Ultrasoft + core correction, Zval = 15.0
     Generated by new atomic code, or converted to UPF format
     Using radial grid of  983 points,  7 beta functions with: 
                l(1) =   0
                l(2) =   0
                l(3) =   1
                l(4) =   1
                l(5) =   1
                l(6) =   2
                l(7) =   2
     Q(r) pseudized with  8 coefficients,  rinner =    1.400   1.400   1.400
                                                       1.400   1.400

     PseudoPot. # 3 for O  read from file:
     /anvil/projects/x-che260157/pseudo/O.pbe-n-kjpaw_psl.0.1.UPF
     MD5 check sum: 0234752ac141de4415c5fc33072bef88
     Pseudo is Projector augmented-wave + core cor, Zval =  6.0
     Generated using "atomic" code by A. Dal Corso  v.5.0.99 svn rev. 10869
     Shape of augmentation charge: BESSEL
     Using radial grid of 1095 points,  4 beta functions with: 
                l(1) =   0
                l(2) =   0
                l(3) =   1
                l(4) =   1
     Q(r) pseudized with 0 coefficients 


     atomic species   valence    mass     pseudopotential
     H                 1.00     1.00800     H ( 1.00)
     Ir               15.00   192.21700     Ir( 1.00)
     O                 6.00    15.99900     O ( 1.00)

     Starting magnetic structure 
     atomic species   magnetization
     H               0.000
     Ir              0.100
     O               0.000

      2 Sym. Ops. (no inversion) found ( 1 have fractional translation)



   Cartesian axes

     site n.     atom                  positions (alat units)
         1        Ir     tau(   1) = (   0.0000000   1.5126346   3.0252692  )
         2        Ir     tau(   2) = (   0.5000000   0.5042115   3.0252692  )
         3        Ir     tau(   3) = (  -0.0023840   0.5042115   4.0424363  )
         4        Ir     tau(   4) = (   0.4990610   1.5126346   4.0354930  )
         5        Ir     tau(   5) = (   0.0012848   1.5126346   5.0614101  )
         6        Ir     tau(   6) = (   0.4948989   0.5042115   5.0639483  )
         7        O      tau(   7) = (   0.0000000   0.5042115   3.4185541  )
         8        O      tau(   8) = (   0.0000000   0.5042115   2.6319842  )
         9        O      tau(   9) = (   0.5000000   1.1193496   3.0252692  )
        10        O      tau(  10) = (   0.5000000   1.9059196   3.0252692  )
        11        O      tau(  11) = (  -0.0006886   1.5126346   4.4334117  )
        12        O      tau(  12) = (   0.0000000   1.5126346   3.6404072  )
        13        O      tau(  13) = (   0.4978055   0.1177569   4.0372497  )
        14        O      tau(  14) = (   0.4978055   0.8906661   4.0372497  )
        15        O      tau(  15) = (  -0.0045322   0.5042115   5.4396437  )
        16        O      tau(  16) = (  -0.0052389   0.5042115   4.6686027  )
        17        O      tau(  17) = (   0.4950664   1.1230207   5.0499889  )
        18        O      tau(  18) = (   0.4950664   1.9022485   5.0499889  )
        19        O      tau(  19) = (  -0.1157108   1.5126346   5.6562437  )
        20        O      tau(  20) = (   0.1683169   1.5126346   6.0083143  )
        21        H      tau(  21) = (  -0.0522583   1.5126346   6.2279178  )

     number of k points=    15  Marzari-Vanderbilt smearing, width (Ry)=  0.0100
                       cart. coord. in units 2pi/alat
        k(    1) = (   0.0000000   0.0000000   0.0000000), wk =   0.0312500
        k(    2) = (   0.0000000   0.1239559   0.0000000), wk =   0.0625000
        k(    3) = (   0.0000000  -0.2479118   0.0000000), wk =   0.0312500
        k(    4) = (   0.1250000   0.0000000   0.0000000), wk =   0.0625000
        k(    5) = (   0.1250000   0.1239559   0.0000000), wk =   0.1250000
        k(    6) = (   0.1250000  -0.2479118   0.0000000), wk =   0.0625000
        k(    7) = (   0.2500000   0.0000000   0.0000000), wk =   0.0625000
        k(    8) = (   0.2500000   0.1239559   0.0000000), wk =   0.1250000
        k(    9) = (   0.2500000  -0.2479118   0.0000000), wk =   0.0625000
        k(   10) = (   0.3750000   0.0000000   0.0000000), wk =   0.0625000
        k(   11) = (   0.3750000   0.1239559   0.0000000), wk =   0.1250000
        k(   12) = (   0.3750000  -0.2479118   0.0000000), wk =   0.0625000
        k(   13) = (  -0.5000000   0.0000000   0.0000000), wk =   0.0312500
        k(   14) = (  -0.5000000   0.1239559   0.0000000), wk =   0.0625000
        k(   15) = (  -0.5000000  -0.2479118   0.0000000), wk =   0.0312500

     Dense  grid:   941385 G-vectors     FFT dimensions: (  48, 100, 400)

     Smooth grid:   332621 G-vectors     FFT dimensions: (  36,  72, 288)

     Estimated max dynamical RAM per process >      94.00 MB

     Estimated total dynamical RAM >      10.40 GB
     Generating pointlists ...
     new r_m :   0.1284 (alat units)  0.7652 (a.u.) for type    1
     new r_m :   0.2501 (alat units)  1.4905 (a.u.) for type    2
     new r_m :   0.1284 (alat units)  0.7652 (a.u.) for type    3

     Initial potential from superposition of free atoms

     starting charge     171.9998, renormalised to     175.0000

     negative rho (up, down):  1.223E+00 9.997E-01
     Starting wfcs are  129 randomized atomic wfcs
     Checking if some PAW data can be deallocated... 

     total cpu time spent up to now is        3.3 secs

     per-process dynamical memory:   113.7 Mb

     Self-consistent Calculation

     iteration #  1     ecut=    80.00 Ry     beta= 0.30
     Davidson diagonalization with overlap
     ethr =  1.00E-02,  avg # of iterations =  3.7

     negative rho (up, down):  1.120E+00 9.363E-01

     total cpu time spent up to now is        9.5 secs

     total energy              =   -1674.64169347 Ry
     estimated scf accuracy    <      68.31422696 Ry

     total magnetization       =     2.74 Bohr mag/cell
     absolute magnetization    =     3.46 Bohr mag/cell

     iteration #  2     ecut=    80.00 Ry     beta= 0.30
     Davidson diagonalization with overlap
     ethr =  1.00E-02,  avg # of iterations =  1.0

     negative rho (up, down):  1.026E+00 8.900E-01

     total cpu time spent up to now is       13.5 secs

     total energy              =   -1673.88777127 Ry
     estimated scf accuracy    <      14.26767375 Ry

     total magnetization       =     2.68 Bohr mag/cell
     absolute magnetization    =     3.42 Bohr mag/cell

     iteration #  3     ecut=    80.00 Ry     beta= 0.30
     Davidson diagonalization with overlap
     ethr =  8.15E-03,  avg # of iterations =  1.1

     negative rho (up, down):  9.724E-01 8.900E-01

     total cpu time spent up to now is       18.1 secs

     total energy              =   -1673.98993746 Ry
     estimated scf accuracy    <       2.71201772 Ry

     total magnetization       =     1.67 Bohr mag/cell
     absolute magnetization    =     2.42 Bohr mag/cell

     iteration #  4     ecut=    80.00 Ry     beta= 0.30
     Davidson diagonalization with overlap
     ethr =  1.55E-03,  avg # of iterations =  5.5

     negative rho (up, down):  9.798E-01 9.136E-01

     total cpu time spent up to now is       23.9 secs

     total energy              =   -1674.12816729 Ry
     estimated scf accuracy    <       0.58732736 Ry

     total magnetization       =     1.27 Bohr mag/cell
     absolute magnetization    =     1.68 Bohr mag/cell

     iteration #  5     ecut=    80.00 Ry     beta= 0.30
     Davidson diagonalization with overlap
     ethr =  3.36E-04,  avg # of iterations =  4.8

     negative rho (up, down):  9.795E-01 9.306E-01

     total cpu time spent up to now is       29.3 secs

     total energy              =   -1674.12939404 Ry
     estimated scf accuracy    <       1.03372842 Ry

     total magnetization       =     1.07 Bohr mag/cell
     absolute magnetization    =     1.56 Bohr mag/cell

     iteration #  6     ecut=    80.00 Ry     beta= 0.30
     Davidson diagonalization with overlap
     ethr =  3.36E-04,  avg # of iterations =  1.0

     negative rho (up, down):  9.854E-01 9.612E-01

     total cpu time spent up to now is       33.5 secs

     total energy              =   -1674.10228349 Ry
     estimated scf accuracy    <       0.71630875 Ry

     total magnetization       =     0.92 Bohr mag/cell
     absolute magnetization    =     1.36 Bohr mag/cell

     iteration #  7     ecut=    80.00 Ry     beta= 0.30
     Davidson diagonalization with overlap
     ethr =  3.36E-04,  avg # of iterations =  1.5

     negative rho (up, down):  9.877E-01 9.760E-01

     total cpu time spent up to now is       39.5 secs

     total energy              =   -1674.09887307 Ry
     estimated scf accuracy    <       0.24074404 Ry

     total magnetization       =     0.63 Bohr mag/cell
     absolute magnetization    =     1.02 Bohr mag/cell

     iteration #  8     ecut=    80.00 Ry     beta= 0.30
     Davidson diagonalization with overlap
     ethr =  1.38E-04,  avg # of iterations =  5.1

     negative rho (up, down):  9.876E-01 9.794E-01

     total cpu time spent up to now is       46.8 secs

     total energy              =   -1674.09612737 Ry
     estimated scf accuracy    <       0.04218838 Ry

     total magnetization       =     0.39 Bohr mag/cell
     absolute magnetization    =     0.86 Bohr mag/cell

     iteration #  9     ecut=    80.00 Ry     beta= 0.30
     Davidson diagonalization with overlap
     ethr =  2.41E-05,  avg # of iterations =  8.3

     negative rho (up, down):  9.811E-01 9.771E-01

     total cpu time spent up to now is       56.3 secs

     total energy              =   -1674.09431245 Ry
     estimated scf accuracy    <       0.03796699 Ry

     total magnetization       =     0.25 Bohr mag/cell
     absolute magnetization    =     0.79 Bohr mag/cell

     iteration # 10     ecut=    80.00 Ry     beta= 0.30
     Davidson diagonalization with overlap
     ethr =  2.17E-05,  avg # of iterations =  5.6

     negative rho (up, down):  9.714E-01 9.685E-01

     total cpu time spent up to now is       62.1 secs

     total energy              =   -1674.09330506 Ry
     estimated scf accuracy    <       0.00902088 Ry

     total magnetization       =     0.09 Bohr mag/cell
     absolute magnetization    =     0.75 Bohr mag/cell

     iteration # 11     ecut=    80.00 Ry     beta= 0.30
     Davidson diagonalization with overlap
     ethr =  5.15E-06,  avg # of iterations = 10.3

     negative rho (up, down):  9.579E-01 9.566E-01

     total cpu time spent up to now is       69.4 secs

     total energy              =   -1674.09214369 Ry
     estimated scf accuracy    <       0.00506774 Ry

     total magnetization       =    -0.04 Bohr mag/cell
     absolute magnetization    =     0.77 Bohr mag/cell

     iteration # 12     ecut=    80.00 Ry     beta= 0.30
     Davidson diagonalization with overlap
     ethr =  2.90E-06,  avg # of iterations =  7.8

     negative rho (up, down):  9.500E-01 9.495E-01

     total cpu time spent up to now is       75.1 secs

     total energy              =   -1674.09206647 Ry
     estimated scf accuracy    <       0.00216251 Ry

     total magnetization       =    -0.17 Bohr mag/cell
     absolute magnetization    =     0.81 Bohr mag/cell

     iteration # 13     ecut=    80.00 Ry     beta= 0.30
     Davidson diagonalization with overlap
     ethr =  1.24E-06,  avg # of iterations =  5.5

     negative rho (up, down):  9.514E-01 9.532E-01

     total cpu time spent up to now is       80.6 secs

     total energy              =   -1674.09210654 Ry
     estimated scf accuracy    <       0.00124966 Ry

     total magnetization       =    -0.24 Bohr mag/cell
     absolute magnetization    =     0.86 Bohr mag/cell

     iteration # 14     ecut=    80.00 Ry     beta= 0.30
     Davidson diagonalization with overlap
     ethr =  7.14E-07,  avg # of iterations =  5.9

     negative rho (up, down):  9.537E-01 9.574E-01

     total cpu time spent up to now is       86.3 secs

     total energy              =   -1674.09208287 Ry
     estimated scf accuracy    <       0.00073273 Ry

     total magnetization       =    -0.29 Bohr mag/cell
     absolute magnetization    =     0.87 Bohr mag/cell

     iteration # 15     ecut=    80.00 Ry     beta= 0.30
     Davidson diagonalization with overlap
     ethr =  4.19E-07,  avg # of iterations =  6.8

     negative rho (up, down):  9.551E-01 9.588E-01

     total cpu time spent up to now is       91.9 secs

     total energy              =   -1674.09212347 Ry
     estimated scf accuracy    <       0.00045568 Ry

     total magnetization       =    -0.33 Bohr mag/cell
     absolute magnetization    =     0.88 Bohr mag/cell

     iteration # 16     ecut=    80.00 Ry     beta= 0.30
     Davidson diagonalization with overlap
     ethr =  2.60E-07,  avg # of iterations =  4.2

     negative rho (up, down):  9.551E-01 9.583E-01

     total cpu time spent up to now is       96.6 secs

     total energy              =   -1674.09214396 Ry
     estimated scf accuracy    <       0.00028505 Ry

     total magnetization       =    -0.34 Bohr mag/cell
     absolute magnetization    =     0.88 Bohr mag/cell

     iteration # 17     ecut=    80.00 Ry     beta= 0.30
     Davidson diagonalization with overlap
     ethr =  1.63E-07,  avg # of iterations =  4.6

     negative rho (up, down):  9.555E-01 9.591E-01

     total cpu time spent up to now is      101.4 secs

     total energy              =   -1674.09217899 Ry
     estimated scf accuracy    <       0.00024951 Ry

     total magnetization       =    -0.33 Bohr mag/cell
     absolute magnetization    =     0.87 Bohr mag/cell

     iteration # 18     ecut=    80.00 Ry     beta= 0.30
     Davidson diagonalization with overlap
     ethr =  1.43E-07,  avg # of iterations =  3.9

     negative rho (up, down):  9.548E-01 9.586E-01

     total cpu time spent up to now is      106.0 secs

     total energy              =   -1674.09222884 Ry
     estimated scf accuracy    <       0.00015080 Ry

     total magnetization       =    -0.35 Bohr mag/cell
     absolute magnetization    =     0.85 Bohr mag/cell

     iteration # 19     ecut=    80.00 Ry     beta= 0.30
     Davidson diagonalization with overlap
     ethr =  8.62E-08,  avg # of iterations =  5.0

     negative rho (up, down):  9.538E-01 9.578E-01

     total cpu time spent up to now is      111.0 secs

     total energy              =   -1674.09225367 Ry
     estimated scf accuracy    <       0.00003662 Ry

     total magnetization       =    -0.38 Bohr mag/cell
     absolute magnetization    =     0.83 Bohr mag/cell

     iteration # 20     ecut=    80.00 Ry     beta= 0.30
     Davidson diagonalization with overlap
     ethr =  2.09E-08,  avg # of iterations =  2.6

     negative rho (up, down):  9.528E-01 9.572E-01

     total cpu time spent up to now is      115.7 secs

     total energy              =   -1674.09225924 Ry
     estimated scf accuracy    <       0.00001818 Ry

     total magnetization       =    -0.40 Bohr mag/cell
     absolute magnetization    =     0.81 Bohr mag/cell

     iteration # 21     ecut=    80.00 Ry     beta= 0.30
     Davidson diagonalization with overlap
     c_bands:  1 eigenvalues not converged
     ethr =  1.04E-08,  avg # of iterations =  7.4

     negative rho (up, down):  9.524E-01 9.572E-01

     total cpu time spent up to now is      121.5 secs

     total energy              =   -1674.09226259 Ry
     estimated scf accuracy    <       0.00000421 Ry

     total magnetization       =    -0.42 Bohr mag/cell
     absolute magnetization    =     0.79 Bohr mag/cell

     iteration # 22     ecut=    80.00 Ry     beta= 0.30
     Davidson diagonalization with overlap
     ethr =  2.41E-09,  avg # of iterations =  6.6

     negative rho (up, down):  9.522E-01 9.573E-01

     total cpu time spent up to now is      127.2 secs

     total energy              =   -1674.09226596 Ry
     estimated scf accuracy    <       0.00000201 Ry

     total magnetization       =    -0.43 Bohr mag/cell
     absolute magnetization    =     0.77 Bohr mag/cell

     iteration # 23     ecut=    80.00 Ry     beta= 0.30
     Davidson diagonalization with overlap
     ethr =  1.15E-09,  avg # of iterations =  2.2

     negative rho (up, down):  9.519E-01 9.574E-01

     total cpu time spent up to now is      131.6 secs

     total energy              =   -1674.09226818 Ry
     estimated scf accuracy    <       0.00000147 Ry

     total magnetization       =    -0.45 Bohr mag/cell
     absolute magnetization    =     0.77 Bohr mag/cell

     iteration # 24     ecut=    80.00 Ry     beta= 0.30
     Davidson diagonalization with overlap
     ethr =  8.40E-10,  avg # of iterations =  2.2

     negative rho (up, down):  9.517E-01 9.575E-01

     total cpu time spent up to now is      136.2 secs

     total energy              =   -1674.09227126 Ry
     estimated scf accuracy    <       0.00000136 Ry

     total magnetization       =    -0.46 Bohr mag/cell
     absolute magnetization    =     0.76 Bohr mag/cell

     iteration # 25     ecut=    80.00 Ry     beta= 0.30
     Davidson diagonalization with overlap
     ethr =  7.77E-10,  avg # of iterations =  2.1

     negative rho (up, down):  9.517E-01 9.575E-01

     total cpu time spent up to now is      140.7 secs

     total energy              =   -1674.09227303 Ry
     estimated scf accuracy    <       0.00000134 Ry

     total magnetization       =    -0.47 Bohr mag/cell
     absolute magnetization    =     0.76 Bohr mag/cell

     iteration # 26     ecut=    80.00 Ry     beta= 0.30
     Davidson diagonalization with overlap
     ethr =  7.64E-10,  avg # of iterations =  1.8

     negative rho (up, down):  9.518E-01 9.575E-01

     total cpu time spent up to now is      144.9 secs

     total energy              =   -1674.09227084 Ry
     estimated scf accuracy    <       0.00000134 Ry

     total magnetization       =    -0.48 Bohr mag/cell
     absolute magnetization    =     0.76 Bohr mag/cell

     iteration # 27     ecut=    80.00 Ry     beta= 0.30
     Davidson diagonalization with overlap
     ethr =  7.64E-10,  avg # of iterations =  2.0

     negative rho (up, down):  9.517E-01 9.576E-01

     total cpu time spent up to now is      149.2 secs

     total energy              =   -1674.09227255 Ry
     estimated scf accuracy    <       0.00000133 Ry

     total magnetization       =    -0.47 Bohr mag/cell
     absolute magnetization    =     0.76 Bohr mag/cell

     iteration # 28     ecut=    80.00 Ry     beta= 0.30
     Davidson diagonalization with overlap
     ethr =  7.60E-10,  avg # of iterations =  2.0

     negative rho (up, down):  9.518E-01 9.575E-01

     total cpu time spent up to now is      153.5 secs

     total energy              =   -1674.09227231 Ry
     estimated scf accuracy    <       0.00000132 Ry

     total magnetization       =    -0.48 Bohr mag/cell
     absolute magnetization    =     0.76 Bohr mag/cell

     iteration # 29     ecut=    80.00 Ry     beta= 0.30
     Davidson diagonalization with overlap
     ethr =  7.56E-10,  avg # of iterations =  1.0

     negative rho (up, down):  9.517E-01 9.575E-01

     total cpu time spent up to now is      157.5 secs

     total energy              =   -1674.09227291 Ry
     estimated scf accuracy    <       0.00000133 Ry

     total magnetization       =    -0.47 Bohr mag/cell
     absolute magnetization    =     0.76 Bohr mag/cell

     iteration # 30     ecut=    80.00 Ry     beta= 0.30
     Davidson diagonalization with overlap
     ethr =  7.56E-10,  avg # of iterations =  1.0

     negative rho (up, down):  9.517E-01 9.576E-01

     total cpu time spent up to now is      161.5 secs

     total energy              =   -1674.09227403 Ry
     estimated scf accuracy    <       0.00000134 Ry

     total magnetization       =    -0.48 Bohr mag/cell
     absolute magnetization    =     0.76 Bohr mag/cell

     iteration # 31     ecut=    80.00 Ry     beta= 0.30
     Davidson diagonalization with overlap
     ethr =  7.56E-10,  avg # of iterations =  1.1

     negative rho (up, down):  9.517E-01 9.575E-01

     total cpu time spent up to now is      165.7 secs

     total energy              =   -1674.09227317 Ry
     estimated scf accuracy    <       0.00000137 Ry

     total magnetization       =    -0.48 Bohr mag/cell
     absolute magnetization    =     0.76 Bohr mag/cell

     iteration # 32     ecut=    80.00 Ry     beta= 0.30
     Davidson diagonalization with overlap
     ethr =  7.56E-10,  avg # of iterations =  1.0

     negative rho (up, down):  9.517E-01 9.575E-01

     total cpu time spent up to now is      169.8 secs

     total energy              =   -1674.09227247 Ry
     estimated scf accuracy    <       0.00000134 Ry

     total magnetization       =    -0.48 Bohr mag/cell
     absolute magnetization    =     0.76 Bohr mag/cell

     iteration # 33     ecut=    80.00 Ry     beta= 0.30
     Davidson diagonalization with overlap
     ethr =  7.56E-10,  avg # of iterations =  1.0

     negative rho (up, down):  9.517E-01 9.575E-01

     total cpu time spent up to now is      174.5 secs

     total energy              =   -1674.09227211 Ry
     estimated scf accuracy    <       0.00000134 Ry

     total magnetization       =    -0.48 Bohr mag/cell
     absolute magnetization    =     0.76 Bohr mag/cell

     iteration # 34     ecut=    80.00 Ry     beta= 0.30
     Davidson diagonalization with overlap
     ethr =  7.56E-10,  avg # of iterations =  1.0

     negative rho (up, down):  9.520E-01 9.571E-01

     total cpu time spent up to now is      178.4 secs

     total energy              =   -1674.09225988 Ry
     estimated scf accuracy    <       0.00000130 Ry

     total magnetization       =    -0.47 Bohr mag/cell
     absolute magnetization    =     0.76 Bohr mag/cell

     iteration # 35     ecut=    80.00 Ry     beta= 0.30
     Davidson diagonalization with overlap
     ethr =  7.44E-10,  avg # of iterations =  3.1

     negative rho (up, down):  9.522E-01 9.569E-01

     total cpu time spent up to now is      183.5 secs

     total energy              =   -1674.09225913 Ry
     estimated scf accuracy    <       0.00000119 Ry

     total magnetization       =    -0.44 Bohr mag/cell
     absolute magnetization    =     0.76 Bohr mag/cell

     iteration # 36     ecut=    80.00 Ry     beta= 0.30
     Davidson diagonalization with overlap
     ethr =  6.80E-10,  avg # of iterations =  2.7

     negative rho (up, down):  9.527E-01 9.563E-01

     total cpu time spent up to now is      188.3 secs

     total energy              =   -1674.09223005 Ry
     estimated scf accuracy    <       0.00000114 Ry

     total magnetization       =    -0.42 Bohr mag/cell
     absolute magnetization    =     0.77 Bohr mag/cell

     iteration # 37     ecut=    80.00 Ry     beta= 0.30
     Davidson diagonalization with overlap
     ethr =  6.54E-10,  avg # of iterations =  4.1

     negative rho (up, down):  9.526E-01 9.566E-01

     Magnetic moment per site  (integrated on atomic sphere of radius R)
     atom   1 (R=0.250)  charge=  9.3488  magn=  0.0129
     atom   2 (R=0.250)  charge=  9.2678  magn=  0.0049
     atom   3 (R=0.250)  charge=  9.2934  magn= -0.0223
     atom   4 (R=0.250)  charge=  9.3044  magn=  0.0329
     atom   5 (R=0.250)  charge=  9.2885  magn= -0.1305
     atom   6 (R=0.250)  charge=  9.2632  magn=  0.0345
     atom   7 (R=0.128)  charge=  1.9433  magn= -0.0022
     atom   8 (R=0.128)  charge=  1.9200  magn=  0.0011
     atom   9 (R=0.128)  charge=  1.9404  magn=  0.0007
     atom  10 (R=0.128)  charge=  1.9404  magn=  0.0007
     atom  11 (R=0.128)  charge=  1.9396  magn= -0.0142
     atom  12 (R=0.128)  charge=  1.9381  magn=  0.0085
     atom  13 (R=0.128)  charge=  1.9431  magn=  0.0006
     atom  14 (R=0.128)  charge=  1.9431  magn=  0.0006
     atom  15 (R=0.128)  charge=  1.9248  magn=  0.0060
     atom  16 (R=0.128)  charge=  1.9416  magn= -0.0051
     atom  17 (R=0.128)  charge=  1.9420  magn=  0.0014
     atom  18 (R=0.128)  charge=  1.9420  magn=  0.0014
     atom  19 (R=0.128)  charge=  1.9226  magn= -0.0792
     atom  20 (R=0.128)  charge=  1.9365  magn= -0.0311
     atom  21 (R=0.128)  charge=  0.4046  magn=  0.0004

     total cpu time spent up to now is      193.9 secs

     End of self-consistent calculation

 ------ SPIN UP ------------


          k = 0.0000 0.0000 0.0000 ( 41611 PWs)   bands (ev):

   -48.1745 -48.0964 -48.0410 -48.0014 -47.9512 -47.9282 -47.8944 -47.8730
   -47.8686 -47.8309 -47.7992 -47.7194 -47.6785 -47.6641 -47.6536 -47.5666
   -47.5381 -47.3523 -21.0898 -18.6526 -18.3225 -18.1928 -17.8709 -17.3351
   -17.1337 -16.9328 -16.6994 -16.6388 -16.5938 -15.5011 -15.2375 -14.5069
    -7.3868  -7.3644  -7.3113  -6.8781  -6.0888  -6.0534  -5.6995  -5.6331
    -5.5164  -5.4506  -5.2085  -5.0140  -4.9762  -4.7815  -4.5073  -4.1906
    -3.5348  -3.5136  -2.8135  -2.8128  -2.6186  -2.5634  -2.3332  -2.2431
    -2.1681  -2.0102  -1.9624  -1.8932  -1.8815  -1.6811  -1.4866  -1.4558
    -1.3102  -1.1155  -0.9210  -0.7563  -0.6116  -0.3034  -0.1770  -0.1344
    -0.1298  -0.0437  -0.0159   0.0206   0.0765   0.1303   0.1862   0.2418
     0.7604   0.7816   0.8955   1.2717   1.4902   1.5790   2.0157   2.5960
     2.6184   2.7344   3.1916   3.5183   3.9241   4.5732   5.0716   5.4746
     5.8428   6.0459   6.4700   6.5655   6.5739   6.6232   6.6329   6.9206
     7.1372   7.3642

          k = 0.0000 0.1240 0.0000 ( 41688 PWs)   bands (ev):

   -48.1738 -48.0964 -48.0406 -48.0004 -47.9512 -47.9281 -47.8941 -47.8733
   -47.8686 -47.8310 -47.8000 -47.7204 -47.6785 -47.6641 -47.6536 -47.5667
   -47.5381 -47.3528 -21.0895 -18.5231 -18.1731 -18.0624 -17.9073 -17.3758
   -17.2378 -16.9400 -16.8306 -16.7936 -16.7484 -15.4975 -15.2340 -14.5060
    -6.9430  -6.8537  -6.8090  -6.7601  -6.0856  -6.0551  -5.6182  -5.5547
    -5.5150  -5.3608  -5.1035  -5.0125  -4.8791  -4.7805  -4.3244  -4.1911
    -3.7009  -3.5019  -3.4243  -3.3069  -3.1880  -3.0368  -2.8830  -2.6864
    -2.5163  -2.4626  -2.3910  -2.2310  -1.9420  -1.6336  -1.6020  -1.4648
    -1.2695  -1.1318  -1.0877  -0.8982  -0.4969  -0.3666  -0.1930  -0.1438
     0.1553   0.2029   0.3982   0.4910   0.5709   0.6166   0.6209   0.7192
     0.7952   0.8924   0.9197   1.2967   1.4930   1.5917   2.0580   2.3917
     2.6269   2.7300   2.9708   3.3204   4.4221   5.0602   5.4985   5.6641
     5.8816   6.1400   6.1801   6.2676   6.2861   6.6290   6.7974   6.9229
     7.1540   7.4334

          k = 0.0000-0.2479 0.0000 ( 41774 PWs)   bands (ev):

   -48.1731 -48.0964 -48.0402 -47.9994 -47.9512 -47.9281 -47.8937 -47.8737
   -47.8686 -47.8310 -47.8007 -47.7215 -47.6785 -47.6640 -47.6536 -47.5668
   -47.5381 -47.3533 -21.0892 -18.2929 -18.1225 -17.9159 -17.7168 -17.5363
   -17.4879 -17.0288 -16.9567 -16.8943 -16.8498 -15.4947 -15.2313 -14.5053
    -6.8958  -6.1563  -6.0839  -6.0147  -5.8958  -5.8398  -5.5275  -5.5116
    -5.4720  -5.2584  -5.0683  -5.0096  -4.7783  -4.4940  -4.4382  -4.3673
    -4.3452  -4.2766  -4.1922  -3.8238  -3.7546  -3.4017  -2.9810  -2.8896
    -2.8820  -2.8455  -2.7224  -2.3972  -2.1510  -1.6446  -1.6248  -1.2336
    -1.1567  -1.1441  -0.9412  -0.8216  -0.6398  -0.2836  -0.2606  -0.1972
     0.1645   0.2619   0.6970   0.7480   0.7484   0.8643   0.9147   1.1021
     1.1329   1.1463   1.2940   1.4618   1.5212   1.7345   1.7605   2.3045
     2.3656   2.7457   2.8791   3.1393   4.9765   5.0833   5.7659   5.8542
     5.9360   5.9754   6.0162   6.2540   6.4455   6.6298   6.8037   6.9243
     7.2681   7.4672

          k = 0.1250 0.0000 0.0000 ( 41611 PWs)   bands (ev):

   -48.1732 -48.0972 -48.0399 -48.0000 -47.9502 -47.9426 -47.9103 -47.8897
   -47.8663 -47.8471 -47.7970 -47.7172 -47.6798 -47.6762 -47.6526 -47.5830
   -47.5358 -47.3500 -21.0576 -18.5125 -18.1995 -18.0737 -17.7693 -17.2669
   -17.0462 -16.9970 -16.7791 -16.7178 -16.6777 -15.5529 -15.2794 -14.5117
    -7.2066  -7.1825  -7.1328  -6.7283  -6.0886  -6.0437  -5.6797  -5.5817
    -5.5388  -5.4154  -5.0868  -4.9973  -4.5602  -4.4872  -4.3920  -4.3213
    -3.5896  -3.4066  -3.2711  -2.8155  -2.7338  -2.7037  -2.6583  -2.5745
    -2.5028  -2.4454  -2.2424  -2.0528  -1.8224  -1.7777  -1.6507  -1.6336
    -1.4306  -1.3770  -1.2905  -1.1881  -0.8554  -0.6521  -0.1922  -0.1377
     0.0927   0.1431   0.2126   0.3300   0.4208   0.4303   0.6222   0.8354
     0.9871   0.9882   1.0408   1.3314   1.8053   1.9309   2.0097   2.4713
     2.5843   2.7730   3.0488   3.3613   4.1352   4.7845   5.2350   5.3432
     5.7502   5.9563   6.1003   6.1772   6.2027   6.2695   6.4643   6.8151
     7.2946   7.5820

          k = 0.1250 0.1240 0.0000 ( 41692 PWs)   bands (ev):

   -48.1727 -48.0972 -48.0396 -47.9994 -47.9502 -47.9425 -47.9100 -47.8898
   -47.8663 -47.8473 -47.7975 -47.7181 -47.6798 -47.6762 -47.6526 -47.5830
   -47.5358 -47.3504 -21.0574 -18.3889 -18.0561 -17.9433 -17.8057 -17.3028
   -17.1674 -16.9988 -16.8953 -16.8651 -16.8031 -15.5500 -15.2766 -14.5108
    -6.7944  -6.6973  -6.6543  -6.6163  -6.0857  -6.0453  -5.5839  -5.5447
    -5.4836  -5.3194  -5.1730  -4.7308  -4.5623  -4.4869  -4.3966  -4.2047
    -3.6040  -3.5057  -3.4282  -3.3972  -3.2429  -3.1313  -3.0870  -2.9945
    -2.9331  -2.8653  -2.5732  -2.4412  -2.1580  -1.9715  -1.7698  -1.4601
    -1.3422  -1.2505  -1.2091  -0.9297  -0.7499  -0.3803  -0.3043  -0.1849
     0.2713   0.3434   0.5472   0.6048   0.7079   0.8263   0.8787   0.9135
     1.0202   1.0895   1.2015   1.4029   1.8134   1.9675   2.0083   2.3143
     2.5041   2.7379   2.9345   3.2065   4.5306   5.1308   5.3765   5.4958
     5.7090   5.7349   5.9542   5.9905   6.1289   6.3487   6.4641   6.9481
     7.3286   7.4839

          k = 0.1250-0.2479 0.0000 ( 41706 PWs)   bands (ev):

   -48.1723 -48.0971 -48.0393 -47.9988 -47.9501 -47.9423 -47.9097 -47.8899
   -47.8663 -47.8475 -47.7981 -47.7189 -47.6797 -47.6762 -47.6526 -47.5830
   -47.5358 -47.3508 -21.0571 -18.1708 -17.9946 -17.7961 -17.6059 -17.4696
   -17.4441 -17.1007 -17.0023 -16.9549 -16.8671 -15.5476 -15.2742 -14.5101
    -6.7466  -6.1463  -6.0464  -5.7905  -5.7137  -5.6331  -5.6031  -5.5983
    -5.5321  -5.4667  -5.1907  -4.5693  -4.4946  -4.4302  -4.2498  -4.2078
    -4.0833  -4.0422  -3.9630  -3.9257  -3.8864  -3.6684  -3.5603  -3.3794
    -3.2822  -2.8761  -2.8140  -2.6660  -2.2841  -2.0220  -1.7605  -1.3544
    -1.2088  -1.0114  -0.9834  -0.7895  -0.6497  -0.4852  -0.2586  -0.1996
     0.2911   0.5804   0.5914   0.6606   0.7446   0.8352   1.0656   1.1048
     1.3927   1.4487   1.6237   1.6239   1.8236   1.8276   2.0524   2.2436
     2.3005   2.6611   2.7895   3.1537   4.9139   5.1735   5.3027   5.3321
     5.3866   5.5751   6.0818   6.1355   6.3686   6.4793   6.5489   6.8665
     7.4483   7.6097

          k = 0.2500 0.0000 0.0000 ( 41623 PWs)   bands (ev):

   -48.1703 -48.1011 -48.0372 -47.9968 -47.9754 -47.9485 -47.9478 -47.9297
   -47.8859 -47.8606 -47.7917 -47.7175 -47.7120 -47.6706 -47.6502 -47.6225
   -47.5303 -47.3443 -20.9784 -18.1480 -17.8921 -17.7767 -17.5394 -17.1624
   -17.1182 -16.9667 -16.9025 -16.8728 -16.8636 -15.6296 -15.3302 -14.5266
    -6.7630  -6.6948  -6.6550  -6.4719  -5.9906  -5.8511  -5.5842  -5.5656
    -5.4143  -5.2009  -5.0391  -4.7304  -4.6413  -4.4892  -4.1723  -3.9588
    -3.8562  -3.8301  -3.7478  -3.7037  -3.2491  -3.0934  -3.0435  -2.6532
    -2.5545  -2.4341  -2.4036  -2.3515  -2.2704  -2.1661  -2.1350  -2.0087
    -1.7960  -1.5059  -1.2007  -1.0965  -0.4972  -0.4949  -0.4328  -0.3708
     0.1469   0.3482   0.5324   0.5667   0.5932   0.8091   1.1288   1.1524
     1.3510   1.4585   1.6316   1.8313   1.8799   1.9476   2.1577   2.2911
     2.3923   2.7245   2.9188   2.9523   4.4363   4.8512   5.0843   5.3049
     5.3949   5.4462   5.5207   5.6433   5.7147   5.9128   6.4614   6.8909
     7.6741   7.7978

          k = 0.2500 0.1240 0.0000 ( 41653 PWs)   bands (ev):

   -48.1704 -48.1008 -48.0371 -47.9975 -47.9751 -47.9483 -47.9478 -47.9288
   -47.8862 -47.8606 -47.7919 -47.7175 -47.7124 -47.6706 -47.6502 -47.6223
   -47.5303 -47.3445 -20.9782 -18.0479 -17.7789 -17.6618 -17.5732 -17.2272
   -17.1398 -17.0489 -17.0266 -17.0078 -16.8346 -15.6285 -15.3294 -14.5259
    -6.5655  -6.3189  -6.2959  -6.2758  -5.9893  -5.8505  -5.5652  -5.4261
    -5.2495  -5.1139  -5.0663  -4.7889  -4.7140  -4.3414  -4.2958  -4.2683
    -4.2011  -4.0837  -3.9434  -3.5706  -3.3159  -3.1301  -2.9820  -2.9050
    -2.8136  -2.6991  -2.6874  -2.6389  -2.4444  -2.2249  -2.0281  -1.8287
    -1.5967  -1.5426  -1.2359  -1.0586  -0.7052  -0.4596  -0.3655  -0.2920
    -0.0206   0.4248   0.6328   0.8468   0.9507   1.0123   1.1248   1.2126
     1.2184   1.5700   1.6688   1.8266   1.8935   1.9841   2.2177   2.2880
     2.3428   2.5625   2.7910   3.0857   4.5432   4.7529   4.8006   4.9098
     4.9354   5.3971   5.6750   5.7677   6.1270   6.2696   6.5818   6.9845
     7.7727   7.8675

          k = 0.2500-0.2479 0.0000 ( 41680 PWs)   bands (ev):

   -48.1705 -48.1006 -48.0371 -47.9981 -47.9747 -47.9481 -47.9480 -47.9279
   -47.8864 -47.8606 -47.7920 -47.7175 -47.7128 -47.6706 -47.6502 -47.6222
   -47.5303 -47.3447 -20.9781 -17.8753 -17.6912 -17.5171 -17.4460 -17.3711
   -17.3494 -17.2458 -17.0697 -17.0506 -16.8325 -15.6276 -15.3287 -14.5252
    -6.5348  -6.0180  -5.8552  -5.6793  -5.6601  -5.6207  -5.5700  -5.1643
    -5.1561  -5.0949  -5.0101  -4.9987  -4.9175  -4.8320  -4.7760  -4.5545
    -4.1913  -3.9605  -3.7697  -3.6668  -3.4527  -3.4328  -3.3360  -3.2610
    -3.0800  -2.9607  -2.9059  -2.7164  -2.7110  -2.3322  -1.9140  -1.4758
    -1.4075  -1.1524  -1.1275  -0.9518  -0.9309  -0.7201  -0.3250  -0.2593
     0.2289   0.3779   0.6186   0.6667   0.8536   1.1001   1.2864   1.3967
     1.4115   1.6739   1.8048   1.9087   1.9154   2.0242   2.2340   2.3583
     2.4090   2.4543   2.6335   3.1673   4.3318   4.3436   4.4565   4.6325
     4.9636   5.5105   5.6808   5.9920   6.2853   6.6691   6.8020   6.9295
     7.9835   8.0042

          k = 0.3750 0.0000 0.0000 ( 41645 PWs)   bands (ev):

   -48.1673 -48.1093 -48.0344 -48.0040 -47.9936 -47.9856 -47.9700 -47.9466
   -47.9231 -47.8548 -47.7864 -47.7549 -47.7067 -47.6650 -47.6617 -47.6478
   -47.5248 -47.3386 -20.8966 -17.7185 -17.5724 -17.4646 -17.4147 -17.1723
   -17.1481 -17.1072 -17.0800 -17.0580 -16.7578 -15.6052 -15.2953 -14.5466
    -6.6073  -6.1570  -6.1122  -6.0713  -5.7666  -5.6197  -5.5273  -5.4150
    -5.3752  -5.3196  -5.1482  -4.8703  -4.8583  -4.7637  -4.6497  -4.4631
    -4.1153  -3.8609  -3.7674  -3.6482  -3.3303  -3.1682  -3.0334  -2.9396
    -2.8213  -2.5975  -2.4627  -2.3094  -2.2999  -2.1438  -1.9462  -1.7912
    -1.7727  -1.6064  -1.0495  -0.9219  -0.5438  -0.5150  -0.2640  -0.2252
    -0.0101   0.5246   0.5927   0.6213   0.6734   0.8955   0.9391   1.2980
     1.4282   1.4701   1.6639   1.6884   1.7940   1.9050   2.1422   2.2331
     2.5789   2.7321   2.7522   2.9165   4.2769   4.3885   4.8537   4.8987
     5.0133   5.2329   5.2572   5.5159   5.8159   5.9226   6.4657   7.0482
     8.2776   8.5988

          k = 0.3750 0.1240 0.0000 ( 41549 PWs)   bands (ev):

   -48.1684 -48.1086 -48.0347 -48.0035 -47.9980 -47.9856 -47.9656 -47.9466
   -47.9233 -47.8548 -47.7862 -47.7550 -47.7067 -47.6650 -47.6613 -47.6478
   -47.5248 -47.3386 -20.8965 -17.6875 -17.5547 -17.4970 -17.4413 -17.2235
   -17.2014 -17.0659 -17.0513 -17.0274 -16.7608 -15.6051 -15.2954 -14.5463
    -6.5985  -6.0286  -5.9937  -5.9543  -5.7689  -5.6489  -5.5717  -5.4856
    -5.4620  -5.3329  -5.3144  -5.1721  -4.7407  -4.5153  -4.4705  -4.2643
    -4.1970  -3.9289  -3.8557  -3.4016  -3.2471  -3.1205  -3.0420  -2.8324
    -2.7887  -2.5693  -2.4463  -2.3830  -2.2493  -2.2149  -2.0605  -1.9096
    -1.5272  -1.4155  -1.3362  -0.9127  -0.8161  -0.5251  -0.3656  -0.2272
    -0.1263   0.3902   0.5686   0.6286   0.7748   0.7864   0.8299   1.0122
     1.0598   1.3107   1.4452   1.6016   1.9273   2.3746   2.4101   2.4953
     2.5692   2.6603   2.7979   2.9378   4.1064   4.1642   4.3140   4.3560
     4.4219   5.2483   5.6345   6.0754   6.4082   6.5357   6.6482   7.1096
     8.3969   8.7029

          k = 0.3750-0.2479 0.0000 ( 41514 PWs)   bands (ev):

   -48.1694 -48.1079 -48.0350 -48.0030 -48.0014 -47.9856 -47.9621 -47.9466
   -47.9236 -47.8548 -47.7861 -47.7550 -47.7067 -47.6650 -47.6610 -47.6478
   -47.5248 -47.3386 -20.8965 -17.6343 -17.5567 -17.5238 -17.4741 -17.2482
   -17.2458 -17.0456 -17.0245 -17.0113 -16.7639 -15.6050 -15.2955 -14.5460
    -6.5947  -5.8979  -5.8177  -5.7916  -5.7100  -5.6306  -5.6179  -5.5809
    -5.5141  -5.4820  -5.4393  -5.3654  -4.7893  -4.5270  -4.2089  -4.0555
    -3.9679  -3.8866  -3.8831  -3.3329  -3.2191  -3.1032  -3.0521  -2.9451
    -2.6865  -2.6695  -2.4747  -2.4558  -2.3625  -2.2824  -1.8772  -1.8236
    -1.4871  -1.4156  -1.1620  -0.9771  -0.7452  -0.6342  -0.6334  -0.4190
    -0.0018   0.0687   0.1422   0.3990   0.6532   0.9197   0.9312   0.9455
     1.1796   1.3086   1.4004   1.4575   1.9140   2.3515   2.5605   2.5860
     2.7418   2.7588   2.8021   3.0702   3.6970   3.6999   3.8664   4.4000
     4.4064   5.2498   5.7127   6.4457   6.5815   6.9687   7.0747   7.1272
     8.5704   8.8131

          k =-0.5000 0.0000 0.0000 ( 41440 PWs)   bands (ev):

   -48.1660 -48.1147 -48.0333 -48.0144 -48.0003 -47.9923 -47.9864 -47.9497
   -47.9350 -47.8525 -47.7842 -47.7703 -47.7045 -47.6778 -47.6626 -47.6469
   -47.5225 -47.3363 -20.8620 -17.5369 -17.4250 -17.3685 -17.3275 -17.2214
   -17.2076 -17.1518 -17.1318 -17.0885 -16.7449 -15.5586 -15.2533 -14.5564
    -6.6531  -6.0523  -5.8229  -5.7663  -5.7410  -5.5992  -5.5793  -5.4825
    -5.3818  -5.3155  -5.2479  -4.9830  -4.9494  -4.8249  -4.6392  -4.5118
    -4.4701  -3.9545  -3.4591  -3.3778  -3.3642  -3.1217  -3.0740  -2.9853
    -2.9798  -2.9394  -2.5737  -2.2678  -2.1916  -2.0343  -1.8226  -1.6410
    -1.6000  -1.0202  -0.9489  -0.9305  -0.8730  -0.4598  -0.2778  -0.2065
     0.1970   0.5330   0.5379   0.5681   0.5937   0.7470   0.8429   0.9447
     1.2126   1.3040   1.4499   1.6280   1.8409   2.0053   2.0061   2.4277
     2.5559   2.6542   2.9272   3.1205   4.1018   4.2940   4.6670   4.7096
     4.8414   5.1559   5.2782   5.6327   5.8058   5.8380   6.5203   7.1822
     8.8014   9.2358

          k =-0.5000 0.1240 0.0000 ( 41518 PWs)   bands (ev):

   -48.1677 -48.1136 -48.0337 -48.0139 -48.0018 -48.0004 -47.9768 -47.9499
   -47.9351 -47.8525 -47.7839 -47.7704 -47.7044 -47.6773 -47.6626 -47.6469
   -47.5225 -47.3362 -20.8619 -17.5348 -17.5299 -17.5041 -17.4851 -17.1909
   -17.1058 -17.0620 -17.0158 -17.0093 -16.7475 -15.5575 -15.2526 -14.5565
    -6.6539  -6.0288  -5.9709  -5.9100  -5.7972  -5.7350  -5.7051  -5.6390
    -5.6004  -5.4648  -5.2943  -5.0929  -4.6571  -4.5738  -4.2699  -4.1084
    -3.9932  -3.6167  -3.4613  -3.4274  -3.4100  -3.3159  -3.1415  -3.1150
    -2.8819  -2.3546  -2.2608  -2.1975  -2.1720  -2.0991  -1.9132  -1.8629
    -1.4031  -1.2723  -0.9434  -0.8497  -0.8294  -0.7073  -0.4849  -0.2505
     0.0524   0.3386   0.5229   0.5426   0.5869   0.5984   0.6454   0.7479
     0.8818   0.9061   0.9717   1.2101   1.9563   2.5376   2.5745   2.6255
     2.6640   2.7788   2.8490   3.0470   3.8964   3.9348   4.1073   4.1562
     4.3239   5.1584   5.7682   6.2260   6.5378   6.5937   6.6710   7.2285
     8.8761   9.3923

          k =-0.5000-0.2479 0.0000 ( 41524 PWs)   bands (ev):

   -48.1693 -48.1125 -48.0341 -48.0134 -48.0067 -48.0004 -47.9719 -47.9500
   -47.9353 -47.8525 -47.7837 -47.7705 -47.7042 -47.6769 -47.6626 -47.6469
   -47.5225 -47.3361 -20.8619 -17.5973 -17.5904 -17.5664 -17.5318 -17.1572
   -17.1398 -16.9779 -16.9319 -16.9235 -16.7500 -15.5565 -15.2519 -14.5565
    -6.6555  -6.2276  -6.1430  -6.0321  -5.8478  -5.7549  -5.6779  -5.5794
    -5.5707  -5.4998  -5.3313  -5.0988  -4.7693  -4.6991  -4.1620  -3.5447
    -3.4542  -3.4466  -3.4368  -3.3787  -3.2055  -3.1194  -2.9406  -2.9352
    -2.7825  -2.7245  -2.4343  -2.2468  -2.1003  -2.0528  -1.7587  -1.7360
    -1.2950  -1.2343  -1.1962  -0.8773  -0.8165  -0.7801  -0.6527  -0.3347
    -0.3054  -0.1493   0.1279   0.2276   0.5456   0.5905   0.6297   0.6347
     0.7481   0.9034   0.9512   1.0871   1.9511   2.5529   2.6418   2.6523
     2.9183   2.9801   2.9845   3.0553   3.5069   3.5099   3.6984   4.1962
     4.3488   5.1606   5.8206   6.6585   6.7297   7.0634   7.2062   7.2632
     8.9626   9.5519

 ------ SPIN DOWN ----------


          k = 0.0000 0.0000 0.0000 ( 41611 PWs)   bands (ev):

   -48.2712 -48.1236 -48.0316 -48.0133 -47.9821 -47.9803 -47.9563 -47.8870
   -47.8709 -47.8225 -47.8019 -47.7507 -47.6644 -47.6330 -47.6318 -47.5568
   -47.5256 -47.3375 -21.2538 -18.6530 -18.3198 -18.1898 -17.8714 -17.3419
   -17.1405 -16.9532 -16.6966 -16.6352 -16.5900 -15.4822 -15.2331 -14.7226
    -7.3895  -7.3635  -7.3094  -6.8920  -6.1234  -6.0808  -5.7089  -5.6640
    -5.5093  -5.4470  -5.2305  -5.0042  -4.9728  -4.7801  -4.5712  -4.2601
    -3.6343  -3.5390  -2.8852  -2.8212  -2.6951  -2.6220  -2.3266  -2.2707
    -2.1657  -2.0107  -1.9622  -1.8924  -1.8903  -1.6759  -1.4966  -1.4576
    -1.3391  -1.1909  -0.9487  -0.7568  -0.6186  -0.3097  -0.2243  -0.1982
    -0.1379  -0.0188   0.0065   0.0300   0.0821   0.1289   0.1371   0.2383
     0.7256   0.7309   0.8860   1.1203   1.4965   1.5943   1.9172   2.4081
     2.6361   2.7378   3.1548   3.5031   3.9077   4.5561   5.0782   5.4244
     5.8520   6.0336   6.4086   6.5617   6.5761   6.5942   6.6316   6.9364
     7.1141   7.3576

          k = 0.0000 0.1240 0.0000 ( 41688 PWs)   bands (ev):

   -48.2712 -48.1217 -48.0312 -48.0133 -47.9823 -47.9821 -47.9550 -47.8866
   -47.8713 -47.8225 -47.8020 -47.7521 -47.6644 -47.6330 -47.6318 -47.5569
   -47.5256 -47.3379 -21.2535 -18.5237 -18.1702 -18.0596 -17.9089 -17.3804
   -17.2430 -16.9553 -16.8302 -16.7925 -16.7473 -15.4783 -15.2297 -14.7217
    -6.9540  -6.8568  -6.8134  -6.7597  -6.1199  -6.0821  -5.6268  -5.5888
    -5.5082  -5.3569  -5.1093  -5.0029  -4.8957  -4.7790  -4.3950  -4.2599
    -3.7348  -3.5552  -3.4462  -3.3403  -3.1927  -3.0704  -2.8867  -2.7270
    -2.5185  -2.4886  -2.4580  -2.2355  -1.9790  -1.6326  -1.6041  -1.4543
    -1.3152  -1.1969  -1.1109  -0.8982  -0.4947  -0.3794  -0.2119  -0.1364
     0.1156   0.1944   0.3343   0.4768   0.5857   0.6260   0.6309   0.7090
     0.7671   0.7851   0.9124   1.1772   1.4962   1.6042   1.9686   2.3852
     2.4825   2.7483   2.9162   3.3012   4.3968   5.0186   5.5038   5.6411
     5.8884   6.1090   6.1335   6.2745   6.2766   6.6369   6.7758   6.9386
     7.1163   7.4255

          k = 0.0000-0.2479 0.0000 ( 41774 PWs)   bands (ev):

   -48.2712 -48.1198 -48.0308 -48.0132 -47.9843 -47.9821 -47.9536 -47.8860
   -47.8719 -47.8225 -47.8020 -47.7535 -47.6643 -47.6330 -47.6318 -47.5570
   -47.5256 -47.3384 -21.2532 -18.2939 -18.1232 -17.9127 -17.7155 -17.5395
   -17.4893 -17.0212 -16.9570 -16.9175 -16.8515 -15.4752 -15.2269 -14.7211
    -6.9101  -6.2021  -6.0863  -6.0185  -5.9250  -5.8384  -5.5310  -5.5130
    -5.5063  -5.2542  -5.0640  -5.0003  -4.7767  -4.5099  -4.4384  -4.3611
    -4.3466  -4.3326  -4.2619  -3.8756  -3.8154  -3.4222  -3.0045  -2.9768
    -2.8747  -2.8408  -2.7218  -2.4035  -2.2877  -1.6472  -1.6264  -1.2744
    -1.2103  -1.1532  -0.9416  -0.8473  -0.6496  -0.2845  -0.2496  -0.1807
     0.1208   0.2642   0.6233   0.7152   0.7320   0.8420   0.8555   0.9240
     1.1233   1.1752   1.2920   1.4604   1.5441   1.7286   1.7565   2.1877
     2.3990   2.6647   2.7587   3.1533   4.9005   5.0790   5.7607   5.7837
     5.9435   5.9639   5.9995   6.2662   6.4165   6.6377   6.8057   6.9400
     7.2776   7.4012

          k = 0.1250 0.0000 0.0000 ( 41611 PWs)   bands (ev):

   -48.2708 -48.1220 -48.0305 -48.0289 -47.9811 -47.9785 -47.9549 -47.9035
   -47.8871 -47.8201 -47.8182 -47.7486 -47.6801 -47.6320 -47.6294 -47.5732
   -47.5233 -47.3351 -21.2219 -18.5127 -18.1968 -18.0706 -17.7684 -17.2742
   -17.0539 -17.0194 -16.7764 -16.7145 -16.6742 -15.5322 -15.2747 -14.7282
    -7.2098  -7.1805  -7.1309  -6.7499  -6.1370  -6.0464  -5.6913  -5.6030
    -5.5392  -5.4153  -5.0839  -5.0226  -4.5546  -4.4880  -4.4581  -4.3901
    -3.5952  -3.5066  -3.2910  -2.8156  -2.7939  -2.7337  -2.6586  -2.5835
    -2.5763  -2.4959  -2.2455  -2.0626  -1.8236  -1.7819  -1.6528  -1.6337
    -1.4318  -1.3876  -1.2891  -1.2042  -0.9382  -0.6908  -0.1943  -0.1653
     0.0895   0.1351   0.1635   0.3247   0.4296   0.4300   0.5677   0.8239
     0.8586   0.9754   1.0187   1.3144   1.8144   1.8639   2.0206   2.2664
     2.5772   2.7923   3.0037   3.3417   4.1124   4.7642   5.2390   5.3322
     5.7231   5.9601   6.0359   6.1683   6.2098   6.2624   6.4753   6.7844
     7.2680   7.5683

          k = 0.1250 0.1240 0.0000 ( 41692 PWs)   bands (ev):

   -48.2708 -48.1206 -48.0302 -48.0286 -47.9811 -47.9802 -47.9541 -47.9026
   -47.8875 -47.8201 -47.8182 -47.7498 -47.6801 -47.6320 -47.6294 -47.5733
   -47.5233 -47.3355 -21.2217 -18.3892 -18.0532 -17.9403 -17.8064 -17.3071
   -17.1731 -17.0147 -16.8964 -16.8634 -16.8039 -15.5291 -15.2719 -14.7273
    -6.8125  -6.6996  -6.6595  -6.6160  -6.1338  -6.0475  -5.5956  -5.5456
    -5.5072  -5.3179  -5.1724  -4.7573  -4.5592  -4.4870  -4.4624  -4.2678
    -3.6644  -3.5041  -3.4557  -3.4185  -3.2621  -3.1451  -3.1046  -3.0005
    -2.9619  -2.8779  -2.6127  -2.4701  -2.2382  -1.9776  -1.7767  -1.4626
    -1.3556  -1.2774  -1.2138  -0.9786  -0.7745  -0.4186  -0.2973  -0.1849
     0.2791   0.3185   0.5365   0.5627   0.6646   0.7614   0.8386   0.9081
     0.9836   1.0209   1.1993   1.3945   1.8089   1.9176   2.0116   2.2811
     2.3758   2.7150   2.8926   3.1938   4.4978   5.0939   5.3755   5.4963
     5.6721   5.7320   5.9152   5.9819   6.1361   6.3425   6.4738   6.9302
     7.2950   7.4706

          k = 0.1250-0.2479 0.0000 ( 41706 PWs)   bands (ev):

   -48.2708 -48.1192 -48.0299 -48.0284 -47.9820 -47.9810 -47.9534 -47.9018
   -47.8880 -47.8201 -47.8182 -47.7510 -47.6800 -47.6320 -47.6294 -47.5733
   -47.5233 -47.3359 -21.2214 -18.1708 -17.9956 -17.7934 -17.6042 -17.4719
   -17.4444 -17.0926 -17.0041 -16.9793 -16.8712 -15.5266 -15.2696 -14.7267
    -6.7696  -6.1913  -6.0487  -5.7949  -5.7304  -5.6336  -5.6276  -5.6037
    -5.5334  -5.4632  -5.1877  -4.5652  -4.4945  -4.4942  -4.3041  -4.2183
    -4.0871  -4.0366  -4.0240  -3.9194  -3.8858  -3.6637  -3.5563  -3.5117
    -3.3027  -2.8754  -2.8342  -2.6698  -2.4145  -2.0486  -1.7842  -1.3526
    -1.2548  -1.0378  -0.9795  -0.8193  -0.6701  -0.4973  -0.2508  -0.1999
     0.2957   0.5456   0.5467   0.6632   0.7327   0.8060   0.8145   1.0976
     1.3938   1.4393   1.6251   1.6254   1.8277   1.8283   2.0698   2.1349
     2.3323   2.5531   2.6700   3.1715   4.8473   5.1549   5.2548   5.3209
     5.3911   5.5730   6.0505   6.1430   6.3756   6.4925   6.5165   6.8680
     7.4581   7.5476

          k = 0.2500 0.0000 0.0000 ( 41623 PWs)   bands (ev):

   -48.2701 -48.1181 -48.0659 -48.0277 -47.9787 -47.9742 -47.9514 -47.9429
   -47.9260 -47.8572 -47.8142 -47.7437 -47.7178 -47.6297 -47.6238 -47.6127
   -47.5178 -47.3295 -21.1433 -18.1469 -17.8893 -17.7734 -17.5299 -17.1806
   -17.1402 -16.9643 -16.8996 -16.8744 -16.8700 -15.6048 -15.3248 -14.7449
    -6.7751  -6.6919  -6.6530  -6.5161  -6.0090  -5.8541  -5.5921  -5.5760
    -5.4249  -5.2053  -5.0521  -4.7624  -4.6580  -4.5251  -4.1732  -3.9599
    -3.9422  -3.8393  -3.7457  -3.7032  -3.2685  -3.1977  -3.0358  -2.6496
    -2.6108  -2.5030  -2.4091  -2.3783  -2.2791  -2.1999  -2.1440  -2.0245
    -1.7946  -1.5073  -1.2231  -1.0923  -0.5797  -0.5152  -0.4828  -0.3736
     0.0813   0.3509   0.4909   0.5310   0.5980   0.8166   0.9876   1.1163
     1.3240   1.4576   1.6202   1.8369   1.8915   1.9758   2.0969   2.1678
     2.3850   2.6513   2.9018   2.9392   4.4044   4.8542   5.0813   5.3037
     5.3224   5.4358   5.5285   5.6509   5.7172   5.8769   6.4424   6.8644
     7.6186   7.8033

          k = 0.2500 0.1240 0.0000 ( 41653 PWs)   bands (ev):

   -48.2702 -48.1185 -48.0646 -48.0277 -47.9787 -47.9753 -47.9562 -47.9372
   -47.9263 -47.8571 -47.8142 -47.7443 -47.7179 -47.6296 -47.6238 -47.6125
   -47.5178 -47.3296 -21.1432 -18.0465 -17.7760 -17.6585 -17.5685 -17.2322
   -17.1578 -17.0529 -17.0271 -17.0096 -16.8436 -15.6036 -15.3240 -14.7442
    -6.6170  -6.3216  -6.3006  -6.2736  -6.0070  -5.8535  -5.5752  -5.4336
    -5.2601  -5.1194  -5.0684  -4.8330  -4.7254  -4.3525  -4.3018  -4.2714
    -4.2292  -4.0993  -3.9537  -3.6720  -3.3261  -3.1530  -3.0335  -2.9468
    -2.8119  -2.7135  -2.6900  -2.6508  -2.4511  -2.2856  -2.0944  -1.8342
    -1.5986  -1.5527  -1.2513  -1.0553  -0.7547  -0.4776  -0.4002  -0.3004
    -0.0709   0.3781   0.6406   0.7851   0.8976   0.9864   1.0203   1.1851
     1.2202   1.5641   1.6746   1.8356   1.8977   2.0047   2.1128   2.2171
     2.3309   2.5167   2.7034   3.1018   4.5155   4.7086   4.7838   4.9158
     4.9389   5.3591   5.6873   5.7530   6.1244   6.2466   6.5645   6.9617
     7.7213   7.8746

          k = 0.2500-0.2479 0.0000 ( 41680 PWs)   bands (ev):

   -48.2702 -48.1188 -48.0633 -48.0277 -47.9787 -47.9764 -47.9590 -47.9335
   -47.9267 -47.8569 -47.8142 -47.7449 -47.7179 -47.6296 -47.6238 -47.6124
   -47.5178 -47.3298 -21.1431 -17.8703 -17.6932 -17.5184 -17.4445 -17.3684
   -17.3468 -17.2365 -17.0968 -17.0576 -16.8422 -15.6026 -15.3233 -14.7436
    -6.5925  -6.0357  -5.8595  -5.6963  -5.6598  -5.6177  -5.5788  -5.1702
    -5.1544  -5.1071  -5.0123  -4.9987  -4.9189  -4.8455  -4.8117  -4.5602
    -4.1925  -3.9957  -3.7771  -3.7433  -3.5309  -3.4486  -3.3525  -3.3091
    -3.0796  -2.9681  -2.9042  -2.7256  -2.7089  -2.4093  -2.0169  -1.4946
    -1.4080  -1.1566  -1.1296  -0.9628  -0.9467  -0.7080  -0.3910  -0.2601
     0.1659   0.3605   0.5362   0.6753   0.8376   0.9728   1.2255   1.3727
     1.4197   1.6718   1.8140   1.9090   1.9194   2.0524   2.2034   2.2396
     2.3624   2.4668   2.4900   3.1865   4.2618   4.3373   4.4645   4.6045
     4.9681   5.4582   5.6927   5.9919   6.2673   6.6739   6.7479   6.9305
     7.9533   7.9949

          k = 0.3750 0.0000 0.0000 ( 41645 PWs)   bands (ev):

   -48.2704 -48.1143 -48.1018 -48.0250 -47.9827 -47.9758 -47.9698 -47.9646
   -47.9479 -47.8958 -47.8083 -47.7553 -47.7387 -47.6519 -47.6273 -47.6181
   -47.5123 -47.3238 -21.0623 -17.7113 -17.5703 -17.4609 -17.3973 -17.2147
   -17.1459 -17.1183 -17.0775 -17.0556 -16.7705 -15.5784 -15.2895 -14.7665
    -6.6688  -6.1569  -6.1087  -6.0703  -5.8102  -5.6256  -5.5256  -5.4184
    -5.3848  -5.3209  -5.1512  -4.8839  -4.8622  -4.7707  -4.6500  -4.4796
    -4.1154  -3.8714  -3.8391  -3.6561  -3.4232  -3.1854  -3.0334  -2.9906
    -2.8286  -2.7153  -2.4632  -2.3277  -2.3084  -2.1452  -1.9653  -1.8111
    -1.7726  -1.6593  -1.0677  -0.9153  -0.5330  -0.5205  -0.3485  -0.3142
    -0.0767   0.5168   0.5395   0.5502   0.6794   0.9053   0.9286   1.3199
     1.4320   1.4553   1.5845   1.6357   1.7780   1.8759   2.1348   2.2516
     2.3750   2.7270   2.7717   2.8993   4.2651   4.3874   4.7725   4.8849
     5.0219   5.2433   5.2638   5.4894   5.8143   5.9053   6.4620   6.9635
     8.2456   8.6090

          k = 0.3750 0.1240 0.0000 ( 41549 PWs)   bands (ev):

   -48.2705 -48.1201 -48.0956 -48.0253 -47.9858 -47.9761 -47.9705 -47.9648
   -47.9443 -47.8953 -47.8083 -47.7553 -47.7388 -47.6516 -47.6273 -47.6181
   -47.5123 -47.3237 -21.0623 -17.6794 -17.5528 -17.4926 -17.4268 -17.2544
   -17.2103 -17.0658 -17.0549 -17.0295 -16.7734 -15.5781 -15.2896 -14.7662
    -6.6617  -6.0304  -5.9962  -5.9537  -5.8065  -5.6582  -5.5727  -5.4884
    -5.4679  -5.3308  -5.3159  -5.1716  -4.7632  -4.5293  -4.4741  -4.2700
    -4.1978  -3.9449  -3.8668  -3.5447  -3.2847  -3.1326  -3.0884  -2.8644
    -2.8191  -2.5736  -2.4815  -2.3849  -2.2497  -2.2047  -2.1539  -1.9184
    -1.5239  -1.4394  -1.3484  -0.9095  -0.8095  -0.5423  -0.4183  -0.2793
    -0.2210   0.3690   0.5610   0.6365   0.6973   0.7699   0.7825   1.0112
     1.0674   1.3315   1.4452   1.5131   1.8159   2.3098   2.3957   2.4255
     2.5824   2.6045   2.7908   2.9491   4.0614   4.1377   4.3209   4.3423
     4.4235   5.2611   5.5695   6.0712   6.4081   6.5278   6.6476   7.0307
     8.3667   8.7134

          k = 0.3750-0.2479 0.0000 ( 41514 PWs)   bands (ev):

   -48.2705 -48.1238 -48.0915 -48.0256 -47.9885 -47.9762 -47.9711 -47.9650
   -47.9413 -47.8949 -47.8083 -47.7554 -47.7388 -47.6512 -47.6273 -47.6181
   -47.5123 -47.3237 -21.0622 -17.6223 -17.5548 -17.5218 -17.4629 -17.2786
   -17.2527 -17.0421 -17.0297 -17.0157 -16.7764 -15.5778 -15.2897 -14.7660
    -6.6584  -5.8989  -5.8350  -5.8204  -5.7118  -5.6417  -5.6155  -5.5786
    -5.5176  -5.5012  -5.4396  -5.3526  -4.8140  -4.5277  -4.2204  -4.0547
    -3.9673  -3.8960  -3.8952  -3.4577  -3.2825  -3.2175  -3.0806  -2.9463
    -2.7098  -2.6632  -2.4780  -2.4525  -2.3622  -2.2933  -1.9799  -1.8237
    -1.4838  -1.4293  -1.1551  -0.9841  -0.7530  -0.6453  -0.6332  -0.4510
    -0.1262   0.0323   0.1426   0.3953   0.6680   0.8457   0.8476   0.9080
     1.1882   1.3291   1.3910   1.4643   1.7354   2.3438   2.3715   2.5787
     2.7364   2.7576   2.8161   3.0860   3.6202   3.6926   3.8748   4.3861
     4.4134   5.2626   5.6381   6.4430   6.5788   6.9698   7.0436   7.0777
     8.5417   8.8243

          k =-0.5000 0.0000 0.0000 ( 41440 PWs)   bands (ev):

   -48.2709 -48.1162 -48.1127 -48.0239 -47.9986 -47.9804 -47.9754 -47.9680
   -47.9465 -47.9115 -47.8058 -47.7707 -47.7366 -47.6680 -47.6263 -47.6158
   -47.5100 -47.3214 -21.0280 -17.5160 -17.4218 -17.3646 -17.3234 -17.2411
   -17.2194 -17.1496 -17.1295 -17.1096 -16.7577 -15.5320 -15.2476 -14.7768
    -6.7150  -6.0514  -5.8752  -5.7646  -5.7361  -5.5996  -5.5907  -5.4906
    -5.3790  -5.3169  -5.2552  -4.9811  -4.9498  -4.8211  -4.6417  -4.5227
    -4.4727  -3.9837  -3.5100  -3.3818  -3.3627  -3.2535  -3.1232  -3.0707
    -2.9921  -2.9621  -2.5555  -2.3402  -2.1677  -2.0399  -1.8184  -1.7421
    -1.6027  -1.0635  -0.9437  -0.9223  -0.8703  -0.4486  -0.3328  -0.3038
     0.0583   0.4892   0.5260   0.5646   0.5701   0.7764   0.8525   0.9485
     1.2120   1.2811   1.4622   1.6473   1.7888   1.8113   1.9904   2.4166
     2.5074   2.5811   2.9369   3.1169   4.1030   4.2793   4.5810   4.6939
     4.8504   5.1692   5.2904   5.6041   5.7879   5.8391   6.5167   7.0795
     8.7850   9.2498

          k =-0.5000 0.1240 0.0000 ( 41518 PWs)   bands (ev):

   -48.2710 -48.1259 -48.1029 -48.0243 -48.0013 -47.9806 -47.9755 -47.9686
   -47.9438 -47.9109 -47.8058 -47.7708 -47.7365 -47.6676 -47.6263 -47.6158
   -47.5100 -47.3213 -21.0279 -17.5278 -17.5135 -17.5013 -17.4822 -17.2251
   -17.1263 -17.0594 -17.0118 -17.0063 -16.7602 -15.5307 -15.2469 -14.7770
    -6.7156  -6.0332  -5.9724  -5.9203  -5.8064  -5.7819  -5.7082  -5.6346
    -5.6002  -5.4645  -5.2988  -5.0802  -4.6724  -4.5731  -4.2811  -4.1200
    -4.0083  -3.6545  -3.4639  -3.4345  -3.4119  -3.3093  -3.2177  -3.1425
    -3.1100  -2.3454  -2.2530  -2.2061  -2.1840  -2.0882  -2.0152  -1.8560
    -1.4028  -1.3001  -0.9348  -0.8474  -0.8317  -0.6985  -0.5609  -0.3301
    -0.0562   0.3508   0.4900   0.5173   0.5559   0.5862   0.6319   0.7768
     0.8913   0.9192   0.9835   1.1682   1.6855   2.4560   2.5469   2.6113
     2.6581   2.7826   2.8549   3.0448   3.8461   3.9051   4.1159   4.1612
     4.3097   5.1715   5.6933   6.2306   6.5367   6.5906   6.6744   7.1302
     8.8595   9.4063

          k =-0.5000-0.2479 0.0000 ( 41524 PWs)   bands (ev):

   -48.2711 -48.1305 -48.0981 -48.0247 -48.0037 -47.9807 -47.9756 -47.9691
   -47.9413 -47.9102 -47.8058 -47.7709 -47.7363 -47.6672 -47.6263 -47.6158
   -47.5100 -47.3212 -21.0279 -17.5950 -17.5875 -17.5642 -17.5111 -17.1993
   -17.1524 -16.9751 -16.9266 -16.9208 -16.7626 -15.5294 -15.2462 -14.7771
    -6.7168  -6.2284  -6.1492  -6.0317  -5.8502  -5.8214  -5.6778  -5.5838
    -5.5721  -5.4964  -5.3368  -5.0846  -4.7833  -4.6984  -4.1915  -3.5428
    -3.4638  -3.4463  -3.4400  -3.3735  -3.2942  -3.2067  -3.1231  -2.9391
    -2.7929  -2.7450  -2.4510  -2.2443  -2.0977  -2.0495  -1.8340  -1.7365
    -1.2928  -1.2350  -1.1830  -0.8639  -0.8142  -0.7778  -0.6796  -0.5025
    -0.3034  -0.1517   0.1547   0.1848   0.5195   0.5325   0.5728   0.6010
     0.7771   0.9128   0.9550   1.0704   1.6679   2.4674   2.5728   2.6759
     2.9059   2.9864   2.9922   3.0678   3.4308   3.5000   3.7076   4.2039
     4.3350   5.1736   5.7416   6.6552   6.7316   7.0636   7.1680   7.2094
     8.9458   9.5662

     the Fermi energy is     2.3877 ev

!    total energy              =   -1674.09225241 Ry
     estimated scf accuracy    <       0.00000100 Ry
     smearing contrib. (-TS)   =      -0.00184043 Ry
     internal energy E=F+TS    =   -1674.09041199 Ry

     The total energy is F=E-TS. E is the sum of the following terms:
     one-electron contribution =  -15403.26437170 Ry
     hartree contribution      =    7753.74319849 Ry
     xc contribution           =    -405.85313018 Ry
     ewald contribution        =    6514.55670889 Ry
     one-center paw contrib.   =    -133.27281749 Ry

     total magnetization       =    -0.37 Bohr mag/cell
     absolute magnetization    =     0.81 Bohr mag/cell

     convergence has been achieved in  37 iterations

     negative rho (up, down):  9.526E-01 9.566E-01

     Forces acting on atoms (cartesian axes, Ry/au):

     atom    1 type  2   force =    -0.00004488    0.00000000    0.03831454
     atom    2 type  2   force =     0.00018237    0.00000000   -0.03929288
     atom    3 type  2   force =     0.00042292    0.00000000   -0.00022607
     atom    4 type  2   force =     0.00063936    0.00000000   -0.00154200
     atom    5 type  2   force =    -0.00152022    0.00000000   -0.00135783
     atom    6 type  2   force =    -0.00060834    0.00000000    0.00094682
     atom    7 type  3   force =    -0.00101568    0.00000000   -0.00217573
     atom    8 type  3   force =     0.00005423    0.00000000    0.03276976
     atom    9 type  3   force =     0.00013791    0.02167937   -0.02512842
     atom   10 type  3   force =     0.00013791   -0.02167937   -0.02512842
     atom   11 type  3   force =     0.00115251    0.00000000   -0.00077634
     atom   12 type  3   force =    -0.00183324    0.00000000    0.01880891
     atom   13 type  3   force =     0.00066155   -0.00064030    0.00079782
     atom   14 type  3   force =     0.00066155    0.00064030    0.00079782
     atom   15 type  3   force =    -0.00114818    0.00000000    0.00124085
     atom   16 type  3   force =     0.00075626    0.00000000   -0.00035281
     atom   17 type  3   force =     0.00088564   -0.00006556   -0.00031465
     atom   18 type  3   force =     0.00088564    0.00006556   -0.00031465
     atom   19 type  3   force =     0.00123309    0.00000000    0.00274741
     atom   20 type  3   force =    -0.00161677    0.00000000    0.00023531
     atom   21 type  1   force =    -0.00002360    0.00000000   -0.00004945

     Total force =     0.005514     Total SCF correction =     0.002248
     SCF correction compared to forces is large: reduce conv_thr to get better values

     Writing all to output data dir ./tmp_s0_OOH__u000__sp2m010/s0_OOH__u000__sp2m010.save/ :
     XML data file, charge density, pseudopotentials, collected wavefunctions

     init_run     :      2.89s CPU      3.04s WALL (       1 calls)
     electrons    :    188.30s CPU    190.70s WALL (       1 calls)
     forces       :      0.88s CPU      0.90s WALL (       1 calls)

     Called by init_run:
     wfcinit      :      1.47s CPU      1.53s WALL (       1 calls)
     potinit      :      0.57s CPU      0.60s WALL (       1 calls)
     hinit0       :      0.48s CPU      0.51s WALL (       1 calls)

     Called by electrons:
     c_bands      :    143.59s CPU    145.26s WALL (      37 calls)
     sum_band     :     28.50s CPU     28.92s WALL (      37 calls)
     v_of_rho     :      5.03s CPU      5.12s WALL (      38 calls)
     newd         :      2.64s CPU      2.71s WALL (      38 calls)
     PAW_pot      :      2.16s CPU      2.17s WALL (      38 calls)
     mix_rho      :      5.41s CPU      5.50s WALL (      37 calls)

     Called by c_bands:
     init_us_2    :      3.49s CPU      3.55s WALL (     608 calls)
     cegterg      :    129.84s CPU    131.32s WALL (     296 calls)

     Called by *egterg:
     cdiaghg      :     17.35s CPU     17.44s WALL (    1593 calls)
     h_psi        :     82.52s CPU     83.66s WALL (    1601 calls)
     s_psi        :      5.72s CPU      5.76s WALL (    1601 calls)
     g_psi        :      0.36s CPU      0.37s WALL (    1297 calls)

     Called by h_psi:
     h_psi:calbec :      9.01s CPU      9.09s WALL (    1601 calls)
     vloc_psi     :     66.57s CPU     67.59s WALL (    1601 calls)
                                        0.00s GPU  (    1601 calls)
     add_vuspsi   :      6.04s CPU      6.09s WALL (    1601 calls)

     General routines
     calbec       :     12.72s CPU     12.83s WALL (    1929 calls)
     fft          :      3.65s CPU      3.71s WALL (     963 calls)
     ffts         :      3.76s CPU      3.81s WALL (    4578 calls)
     fftw         :     75.28s CPU     76.40s WALL (  168000 calls)
     interpolate  :      0.81s CPU      0.82s WALL (      76 calls)

     Parallel routines

     PWSCF        :   3m12.78s CPU   3m15.75s WALL


   This run was terminated on:  21:56:56  31Aug2026            

=------------------------------------------------------------------------------=
   JOB DONE.
=------------------------------------------------------------------------------=
Note: The following floating-point exceptions are signalling: IEEE_DENORMAL
Note: The following floating-point exceptions are signalling: IEEE_DENORMAL
Note: The following floating-point exceptions are signalling: IEEE_DENORMAL
Note: The following floating-point exceptions are signalling: IEEE_DENORMAL
Note: The following floating-point exceptions are signalling: IEEE_DENORMAL
Note: The following floating-point exceptions are signalling: IEEE_DENORMAL
Note: The following floating-point exceptions are signalling: IEEE_DENORMAL
Note: The following floating-point exceptions are signalling: IEEE_DENORMAL
Note: The following floating-point exceptions are signalling: IEEE_DENORMAL
Note: The following floating-point exceptions are signalling: IEEE_DENORMAL
Note: The following floating-point exceptions are signalling: IEEE_DENORMAL
Note: The following floating-point exceptions are signalling: IEEE_DENORMAL
Note: The following floating-point exceptions are signalling: IEEE_DENORMAL
Note: The following floating-point exceptions are signalling: IEEE_DENORMAL
Note: The following floating-point exceptions are signalling: IEEE_DENORMAL
Note: The following floating-point exceptions are signalling: IEEE_DENORMAL
Note: The following floating-point exceptions are signalling: IEEE_DENORMAL
Note: The following floating-point exceptions are signalling: IEEE_DENORMAL
Note: The following floating-point exceptions are signalling: IEEE_DENORMAL
Note: The following floating-point exceptions are signalling: IEEE_DENORMAL
Note: The following floating-point exceptions are signalling: IEEE_DENORMAL
Note: The following floating-point exceptions are signalling: IEEE_DENORMAL
Note: The following floating-point exceptions are signalling: IEEE_DENORMAL
Note: The following floating-point exceptions are signalling: IEEE_DENORMAL
Note: The following floating-point exceptions are signalling: IEEE_DENORMAL
Note: The following floating-point exceptions are signalling: IEEE_DENORMAL
Note: The following floating-point exceptions are signalling: IEEE_DENORMAL
Note: The following floating-point exceptions are signalling: IEEE_DENORMAL
