
     Program PWSCF v.7.5 starts on 31Aug2026 at 21:44:40 

     This program is part of the open-source Quantum ESPRESSO suite
     for quantum simulation of materials; please cite
         "P. Giannozzi et al., J. Phys.:Condens. Matter 21 395502 (2009);
         "P. Giannozzi et al., J. Phys.:Condens. Matter 29 465901 (2017);
         "P. Giannozzi et al., J. Chem. Phys. 152 154105 (2020);
          URL http://www.quantum-espresso.org", 
     in publications or presentations arising from this work. More details at
     http://www.quantum-espresso.org/quote

     Parallel version (MPI & OpenMP), running on     128 processor cores
     Number of MPI processes:               128
     Threads/MPI process:                     1

     MPI processes distributed on     1 nodes
     229130 MiB available memory on the printing compute node when the environment starts

     Reading input from s0_OH__u000__sp2m030.run.in

     Current dimensions of program PWSCF are:
     Max number of different atomic species (ntypx) = 10
     Max number of k-points (npk) =  40000
     Max angular momentum in pseudopotentials (lmaxx) =  4
     file O.pbe-n-kjpaw_psl.0.1.UPF: wavefunction(s)  2P renormalized
     Message from routine setup:
     using ibrav=0 with symmetry is DISCOURAGED, use correct ibrav instead

     K-points division:     npool     =       4
     R & G space division:  proc/nbgrp/npool/nimage =      32
     Subspace diagonalization in iterative solution of the eigenvalue problem:
     a serial algorithm will be used


     Parallelization info
     --------------------
     sticks:   dense  smooth     PW     G-vecs:    dense   smooth      PW
     Min         113      57     16                29407    10389    1566
     Max         114      58     17                29434    10403    1581
     Sum        3639    1825    519               941385   332621   50331

     Using Slab Decomposition



     bravais-lattice index     =            0
     lattice parameter (alat)  =       5.9602  a.u.
     unit-cell volume          =    3444.9838 (a.u.)^3
     number of atoms/cell      =           20
     number of atomic types    =            3
     number of electrons       =       169.00
     number of Kohn-Sham states=          102
     kinetic-energy cutoff     =      80.0000  Ry
     charge density cutoff     =     640.0000  Ry
     scf convergence threshold =      1.0E-06
     mixing beta               =       0.3000
     number of iterations used =            8  local-TF  mixing
     Exchange-correlation= SLA  PW   PBX  PBC
                           (   1   4   3   4   0   0   0)

     celldm(1)=   5.960196  celldm(2)=   0.000000  celldm(3)=   0.000000
     celldm(4)=   0.000000  celldm(5)=   0.000000  celldm(6)=   0.000000

     crystal axes: (cart. coord. in units of alat)
               a(1) = (   1.000000   0.000000   0.000000 )  
               a(2) = (   0.000000   2.016846   0.000000 )  
               a(3) = (   0.000000   0.000000   8.067384 )  

     reciprocal axes: (cart. coord. in units 2 pi/alat)
               b(1) = (  1.000000  0.000000  0.000000 )  
               b(2) = (  0.000000  0.495824  0.000000 )  
               b(3) = (  0.000000  0.000000  0.123956 )  


     PseudoPot. # 1 for H  read from file:
     /anvil/projects/x-che260157/pseudo/H.pbe-rrkjus_psl.1.0.0.UPF
     MD5 check sum: f52b6d4d1c606e5624b1dc7b2218f220
     Pseudo is Ultrasoft, Zval =  1.0
     Generated using "atomic" code by A. Dal Corso  v.5.1
     Using radial grid of  929 points,  2 beta functions with: 
                l(1) =   0
                l(2) =   0
     Q(r) pseudized with 0 coefficients 


     PseudoPot. # 2 for Ir read from file:
     /anvil/projects/x-che260157/pseudo/Ir_pbe_v1.2.uspp.F.UPF
     MD5 check sum: 8836f839c3459d2b385c504ce6d91f2c
     Pseudo is Ultrasoft + core correction, Zval = 15.0
     Generated by new atomic code, or converted to UPF format
     Using radial grid of  983 points,  7 beta functions with: 
                l(1) =   0
                l(2) =   0
                l(3) =   1
                l(4) =   1
                l(5) =   1
                l(6) =   2
                l(7) =   2
     Q(r) pseudized with  8 coefficients,  rinner =    1.400   1.400   1.400
                                                       1.400   1.400

     PseudoPot. # 3 for O  read from file:
     /anvil/projects/x-che260157/pseudo/O.pbe-n-kjpaw_psl.0.1.UPF
     MD5 check sum: 0234752ac141de4415c5fc33072bef88
     Pseudo is Projector augmented-wave + core cor, Zval =  6.0
     Generated using "atomic" code by A. Dal Corso  v.5.0.99 svn rev. 10869
     Shape of augmentation charge: BESSEL
     Using radial grid of 1095 points,  4 beta functions with: 
                l(1) =   0
                l(2) =   0
                l(3) =   1
                l(4) =   1
     Q(r) pseudized with 0 coefficients 


     atomic species   valence    mass     pseudopotential
     H                 1.00     1.00800     H ( 1.00)
     Ir               15.00   192.21700     Ir( 1.00)
     O                 6.00    15.99900     O ( 1.00)

     Starting magnetic structure 
     atomic species   magnetization
     H               0.000
     Ir              0.300
     O               0.000

      2 Sym. Ops. (no inversion) found ( 1 have fractional translation)



   Cartesian axes

     site n.     atom                  positions (alat units)
         1        Ir     tau(   1) = (   0.0000000   1.5126346   3.0252692  )
         2        Ir     tau(   2) = (   0.5000000   0.5042115   3.0252692  )
         3        Ir     tau(   3) = (  -0.0008242   0.5042115   4.0440689  )
         4        Ir     tau(   4) = (   0.4992639   1.5126346   4.0342031  )
         5        Ir     tau(   5) = (  -0.0026497   1.5126346   5.0620142  )
         6        Ir     tau(   6) = (   0.4951993   0.5042115   5.0709699  )
         7        O      tau(   7) = (   0.0000000   0.5042115   3.4185541  )
         8        O      tau(   8) = (   0.0000000   0.5042115   2.6319842  )
         9        O      tau(   9) = (   0.5000000   1.1193496   3.0252692  )
        10        O      tau(  10) = (   0.5000000   1.9059196   3.0252692  )
        11        O      tau(  11) = (  -0.0015798   1.5126346   4.4293404  )
        12        O      tau(  12) = (   0.0000000   1.5126346   3.6404072  )
        13        O      tau(  13) = (   0.4992996   0.1182431   4.0371691  )
        14        O      tau(  14) = (   0.4992996   0.8901799   4.0371691  )
        15        O      tau(  15) = (  -0.0050805   0.5042115   5.4448748  )
        16        O      tau(  16) = (  -0.0040464   0.5042115   4.6729430  )
        17        O      tau(  17) = (   0.4959964   1.1251299   5.0554257  )
        18        O      tau(  18) = (   0.4959964   1.9001393   5.0554257  )
        19        O      tau(  19) = (  -0.0349756   1.5126346   5.6753284  )
        20        H      tau(  20) = (   0.2502274   1.5126346   5.7991802  )

     number of k points=    15  Marzari-Vanderbilt smearing, width (Ry)=  0.0100
                       cart. coord. in units 2pi/alat
        k(    1) = (   0.0000000   0.0000000   0.0000000), wk =   0.0312500
        k(    2) = (   0.0000000   0.1239559   0.0000000), wk =   0.0625000
        k(    3) = (   0.0000000  -0.2479118   0.0000000), wk =   0.0312500
        k(    4) = (   0.1250000   0.0000000   0.0000000), wk =   0.0625000
        k(    5) = (   0.1250000   0.1239559   0.0000000), wk =   0.1250000
        k(    6) = (   0.1250000  -0.2479118   0.0000000), wk =   0.0625000
        k(    7) = (   0.2500000   0.0000000   0.0000000), wk =   0.0625000
        k(    8) = (   0.2500000   0.1239559   0.0000000), wk =   0.1250000
        k(    9) = (   0.2500000  -0.2479118   0.0000000), wk =   0.0625000
        k(   10) = (   0.3750000   0.0000000   0.0000000), wk =   0.0625000
        k(   11) = (   0.3750000   0.1239559   0.0000000), wk =   0.1250000
        k(   12) = (   0.3750000  -0.2479118   0.0000000), wk =   0.0625000
        k(   13) = (  -0.5000000   0.0000000   0.0000000), wk =   0.0312500
        k(   14) = (  -0.5000000   0.1239559   0.0000000), wk =   0.0625000
        k(   15) = (  -0.5000000  -0.2479118   0.0000000), wk =   0.0312500

     Dense  grid:   941385 G-vectors     FFT dimensions: (  48, 100, 400)

     Smooth grid:   332621 G-vectors     FFT dimensions: (  36,  72, 288)

     Estimated max dynamical RAM per process >      92.78 MB

     Estimated total dynamical RAM >      10.25 GB
     Generating pointlists ...
     new r_m :   0.1283 (alat units)  0.7645 (a.u.) for type    1
     new r_m :   0.2533 (alat units)  1.5100 (a.u.) for type    2
     new r_m :   0.1283 (alat units)  0.7645 (a.u.) for type    3

     Initial potential from superposition of free atoms

     starting charge     165.9998, renormalised to     169.0000

     negative rho (up, down):  1.446E+00 7.772E-01
     Starting wfcs are  125 randomized atomic wfcs
     Checking if some PAW data can be deallocated... 

     total cpu time spent up to now is        4.1 secs

     per-process dynamical memory:   113.9 Mb

     Self-consistent Calculation

     iteration #  1     ecut=    80.00 Ry     beta= 0.30
     Davidson diagonalization with overlap
     ethr =  1.00E-02,  avg # of iterations =  3.8

     negative rho (up, down):  1.307E+00 7.488E-01

     total cpu time spent up to now is       11.1 secs

     total energy              =   -1633.07672906 Ry
     estimated scf accuracy    <      31.77635206 Ry

     total magnetization       =     9.14 Bohr mag/cell
     absolute magnetization    =    10.82 Bohr mag/cell

     iteration #  2     ecut=    80.00 Ry     beta= 0.30
     Davidson diagonalization with overlap
     ethr =  1.00E-02,  avg # of iterations =  1.0

     negative rho (up, down):  1.102E+00 7.414E-01

     total cpu time spent up to now is       15.4 secs

     total energy              =   -1631.28515947 Ry
     estimated scf accuracy    <      11.59114694 Ry

     total magnetization       =     8.95 Bohr mag/cell
     absolute magnetization    =    10.31 Bohr mag/cell

     iteration #  3     ecut=    80.00 Ry     beta= 0.30
     Davidson diagonalization with overlap
     ethr =  6.86E-03,  avg # of iterations =  2.1

     negative rho (up, down):  1.110E+00 7.754E-01

     total cpu time spent up to now is       19.8 secs

     total energy              =   -1632.52827939 Ry
     estimated scf accuracy    <       1.72380742 Ry

     total magnetization       =     4.60 Bohr mag/cell
     absolute magnetization    =     5.73 Bohr mag/cell

     iteration #  4     ecut=    80.00 Ry     beta= 0.30
     Davidson diagonalization with overlap
     ethr =  1.02E-03,  avg # of iterations =  4.2

     negative rho (up, down):  1.043E+00 8.527E-01

     total cpu time spent up to now is       25.7 secs

     total energy              =   -1632.53488000 Ry
     estimated scf accuracy    <       0.52362581 Ry

     total magnetization       =     5.12 Bohr mag/cell
     absolute magnetization    =     6.02 Bohr mag/cell

     iteration #  5     ecut=    80.00 Ry     beta= 0.30
     Davidson diagonalization with overlap
     ethr =  3.10E-04,  avg # of iterations =  6.1

     negative rho (up, down):  1.032E+00 8.599E-01

     total cpu time spent up to now is       31.1 secs

     total energy              =   -1632.61949175 Ry
     estimated scf accuracy    <       0.39793642 Ry

     total magnetization       =     3.00 Bohr mag/cell
     absolute magnetization    =     3.55 Bohr mag/cell

     iteration #  6     ecut=    80.00 Ry     beta= 0.30
     Davidson diagonalization with overlap
     ethr =  2.35E-04,  avg # of iterations =  1.2

     negative rho (up, down):  1.006E+00 9.141E-01

     total cpu time spent up to now is       36.1 secs

     total energy              =   -1632.63754971 Ry
     estimated scf accuracy    <       0.08047842 Ry

     total magnetization       =     2.74 Bohr mag/cell
     absolute magnetization    =     3.24 Bohr mag/cell

     iteration #  7     ecut=    80.00 Ry     beta= 0.30
     Davidson diagonalization with overlap
     ethr =  4.76E-05,  avg # of iterations =  5.6

     negative rho (up, down):  1.003E+00 9.259E-01

     total cpu time spent up to now is       41.8 secs

     total energy              =   -1632.64760544 Ry
     estimated scf accuracy    <       0.02664019 Ry

     total magnetization       =     2.10 Bohr mag/cell
     absolute magnetization    =     2.39 Bohr mag/cell

     iteration #  8     ecut=    80.00 Ry     beta= 0.30
     Davidson diagonalization with overlap
     ethr =  1.58E-05,  avg # of iterations =  3.1

     negative rho (up, down):  9.902E-01 9.555E-01

     total cpu time spent up to now is       46.5 secs

     total energy              =   -1632.64759392 Ry
     estimated scf accuracy    <       0.01716121 Ry

     total magnetization       =     1.94 Bohr mag/cell
     absolute magnetization    =     2.18 Bohr mag/cell

     iteration #  9     ecut=    80.00 Ry     beta= 0.30
     Davidson diagonalization with overlap
     ethr =  1.02E-05,  avg # of iterations =  5.7

     negative rho (up, down):  9.874E-01 9.603E-01

     total cpu time spent up to now is       51.3 secs

     total energy              =   -1632.65007587 Ry
     estimated scf accuracy    <       0.00524531 Ry

     total magnetization       =     1.37 Bohr mag/cell
     absolute magnetization    =     1.51 Bohr mag/cell

     iteration # 10     ecut=    80.00 Ry     beta= 0.30
     Davidson diagonalization with overlap
     ethr =  3.10E-06,  avg # of iterations =  5.2

     negative rho (up, down):  9.811E-01 9.655E-01

     total cpu time spent up to now is       56.5 secs

     total energy              =   -1632.64949019 Ry
     estimated scf accuracy    <       0.00338082 Ry

     total magnetization       =     1.21 Bohr mag/cell
     absolute magnetization    =     1.33 Bohr mag/cell

     iteration # 11     ecut=    80.00 Ry     beta= 0.30
     Davidson diagonalization with overlap
     ethr =  2.00E-06,  avg # of iterations =  7.0

     negative rho (up, down):  9.748E-01 9.634E-01

     total cpu time spent up to now is       62.6 secs

     total energy              =   -1632.64944771 Ry
     estimated scf accuracy    <       0.00176708 Ry

     total magnetization       =     0.95 Bohr mag/cell
     absolute magnetization    =     1.08 Bohr mag/cell

     iteration # 12     ecut=    80.00 Ry     beta= 0.30
     Davidson diagonalization with overlap
     ethr =  1.05E-06,  avg # of iterations =  7.4

     negative rho (up, down):  9.726E-01 9.589E-01

     total cpu time spent up to now is       67.7 secs

     total energy              =   -1632.64943322 Ry
     estimated scf accuracy    <       0.00134429 Ry

     total magnetization       =     0.78 Bohr mag/cell
     absolute magnetization    =     0.92 Bohr mag/cell

     iteration # 13     ecut=    80.00 Ry     beta= 0.30
     Davidson diagonalization with overlap
     ethr =  7.95E-07,  avg # of iterations =  5.5

     negative rho (up, down):  9.667E-01 9.557E-01

     total cpu time spent up to now is       72.3 secs

     total energy              =   -1632.64901647 Ry
     estimated scf accuracy    <       0.00078084 Ry

     total magnetization       =     0.76 Bohr mag/cell
     absolute magnetization    =     0.90 Bohr mag/cell

     iteration # 14     ecut=    80.00 Ry     beta= 0.30
     Davidson diagonalization with overlap
     ethr =  4.62E-07,  avg # of iterations = 10.7

     negative rho (up, down):  9.649E-01 9.527E-01

     total cpu time spent up to now is       78.7 secs

     total energy              =   -1632.64886783 Ry
     estimated scf accuracy    <       0.00059853 Ry

     total magnetization       =     0.62 Bohr mag/cell
     absolute magnetization    =     0.80 Bohr mag/cell

     iteration # 15     ecut=    80.00 Ry     beta= 0.30
     Davidson diagonalization with overlap
     ethr =  3.54E-07,  avg # of iterations = 11.3

     negative rho (up, down):  9.629E-01 9.523E-01

     total cpu time spent up to now is       84.5 secs

     total energy              =   -1632.64865983 Ry
     estimated scf accuracy    <       0.00031591 Ry

     total magnetization       =     0.61 Bohr mag/cell
     absolute magnetization    =     0.75 Bohr mag/cell

     iteration # 16     ecut=    80.00 Ry     beta= 0.30
     Davidson diagonalization with overlap
     ethr =  1.87E-07,  avg # of iterations = 11.5

     negative rho (up, down):  9.627E-01 9.513E-01

     total cpu time spent up to now is       90.2 secs

     total energy              =   -1632.64864597 Ry
     estimated scf accuracy    <       0.00014168 Ry

     total magnetization       =     0.55 Bohr mag/cell
     absolute magnetization    =     0.66 Bohr mag/cell

     iteration # 17     ecut=    80.00 Ry     beta= 0.30
     Davidson diagonalization with overlap
     ethr =  8.38E-08,  avg # of iterations =  6.1

     negative rho (up, down):  9.612E-01 9.500E-01

     total cpu time spent up to now is       95.1 secs

     total energy              =   -1632.64861697 Ry
     estimated scf accuracy    <       0.00007047 Ry

     total magnetization       =     0.57 Bohr mag/cell
     absolute magnetization    =     0.65 Bohr mag/cell

     iteration # 18     ecut=    80.00 Ry     beta= 0.30
     Davidson diagonalization with overlap
     c_bands:  1 eigenvalues not converged
     c_bands:  1 eigenvalues not converged
     ethr =  4.17E-08,  avg # of iterations =  9.4

     negative rho (up, down):  9.604E-01 9.492E-01

     total cpu time spent up to now is      101.0 secs

     total energy              =   -1632.64860278 Ry
     estimated scf accuracy    <       0.00002446 Ry

     total magnetization       =     0.56 Bohr mag/cell
     absolute magnetization    =     0.64 Bohr mag/cell

     iteration # 19     ecut=    80.00 Ry     beta= 0.30
     Davidson diagonalization with overlap
     c_bands:  1 eigenvalues not converged
     ethr =  1.45E-08,  avg # of iterations =  7.6

     negative rho (up, down):  9.600E-01 9.486E-01

     total cpu time spent up to now is      106.8 secs

     total energy              =   -1632.64860093 Ry
     estimated scf accuracy    <       0.00000758 Ry

     total magnetization       =     0.57 Bohr mag/cell
     absolute magnetization    =     0.64 Bohr mag/cell

     iteration # 20     ecut=    80.00 Ry     beta= 0.30
     Davidson diagonalization with overlap
     ethr =  4.49E-09,  avg # of iterations =  5.3

     negative rho (up, down):  9.598E-01 9.483E-01

     total cpu time spent up to now is      112.5 secs

     total energy              =   -1632.64860154 Ry
     estimated scf accuracy    <       0.00000288 Ry

     total magnetization       =     0.57 Bohr mag/cell
     absolute magnetization    =     0.64 Bohr mag/cell

     iteration # 21     ecut=    80.00 Ry     beta= 0.30
     Davidson diagonalization with overlap
     ethr =  1.70E-09,  avg # of iterations =  2.8

     negative rho (up, down):  9.598E-01 9.481E-01

     total cpu time spent up to now is      117.7 secs

     total energy              =   -1632.64860113 Ry
     estimated scf accuracy    <       0.00000121 Ry

     total magnetization       =     0.57 Bohr mag/cell
     absolute magnetization    =     0.64 Bohr mag/cell

     iteration # 22     ecut=    80.00 Ry     beta= 0.30
     Davidson diagonalization with overlap
     ethr =  7.15E-10,  avg # of iterations =  3.0

     negative rho (up, down):  9.597E-01 9.481E-01

     Magnetic moment per site  (integrated on atomic sphere of radius R)
     atom   1 (R=0.253)  charge=  9.4892  magn= -0.0034
     atom   2 (R=0.253)  charge=  9.4057  magn=  0.0328
     atom   3 (R=0.253)  charge=  9.4342  magn=  0.0125
     atom   4 (R=0.253)  charge=  9.4417  magn=  0.0140
     atom   5 (R=0.253)  charge=  9.4188  magn=  0.1097
     atom   6 (R=0.253)  charge=  9.4000  magn=  0.0422
     atom   7 (R=0.128)  charge=  1.9385  magn=  0.0045
     atom   8 (R=0.128)  charge=  1.9154  magn=  0.0105
     atom   9 (R=0.128)  charge=  1.9360  magn=  0.0002
     atom  10 (R=0.128)  charge=  1.9360  magn=  0.0002
     atom  11 (R=0.128)  charge=  1.9333  magn=  0.0209
     atom  12 (R=0.128)  charge=  1.9340  magn= -0.0016
     atom  13 (R=0.128)  charge=  1.9388  magn=  0.0013
     atom  14 (R=0.128)  charge=  1.9388  magn=  0.0013
     atom  15 (R=0.128)  charge=  1.9215  magn=  0.0249
     atom  16 (R=0.128)  charge=  1.9370  magn=  0.0031
     atom  17 (R=0.128)  charge=  1.9369  magn=  0.0026
     atom  18 (R=0.128)  charge=  1.9369  magn=  0.0026
     atom  19 (R=0.128)  charge=  1.9434  magn=  0.0347
     atom  20 (R=0.128)  charge=  0.3965  magn= -0.0003

     total cpu time spent up to now is      122.5 secs

     End of self-consistent calculation

 ------ SPIN UP ------------


          k = 0.0000 0.0000 0.0000 ( 41611 PWs)   bands (ev):

   -48.9262 -48.8180 -48.8124 -48.7790 -48.7031 -48.6780 -48.6455 -48.6268
   -48.6088 -48.6035 -48.5932 -48.4756 -48.4333 -48.4232 -48.3975 -48.3137
   -48.3042 -48.0965 -19.4121 -19.0805 -18.9481 -18.6397 -18.0560 -17.8718
   -17.7452 -17.4465 -17.4465 -17.3810 -17.3356 -16.2765 -15.9954  -8.1229
    -8.0789  -8.0622  -7.5610  -6.7825  -6.4563  -6.3863  -6.3109  -6.1995
    -5.9351  -5.7251  -5.6991  -5.5285  -5.3000  -5.1836  -4.1590  -4.0723
    -3.5423  -3.5058  -3.3838  -3.0816  -3.0789  -2.9193  -2.8055  -2.7117
    -2.6481  -2.6315  -2.4401  -2.3290  -2.1905  -2.1715  -1.8193  -1.7214
    -1.4938  -1.3900  -1.1336  -1.0443  -0.8828  -0.8369  -0.8120  -0.7894
    -0.7570  -0.6707  -0.6474  -0.4867  -0.4345  -0.3129   0.1357   0.2148
     0.3058   0.7464   0.8764   1.1029   1.6374   1.8925   1.9667   2.3746
     2.7255   3.2206   3.8700   4.3280   5.1658   5.1807   5.7752   5.8181
     5.8289   5.8705   6.1018   6.1632   6.5462   6.8999

          k = 0.0000 0.1240 0.0000 ( 41688 PWs)   bands (ev):

   -48.9254 -48.8176 -48.8124 -48.7781 -48.7031 -48.6779 -48.6454 -48.6269
   -48.6088 -48.6044 -48.5933 -48.4766 -48.4332 -48.4232 -48.3975 -48.3138
   -48.3042 -48.0970 -19.2857 -18.9346 -18.8197 -18.6695 -18.1013 -17.9826
   -17.7376 -17.5835 -17.5508 -17.4790 -17.4347 -16.2742 -15.9920  -7.6258
    -7.5749  -7.5456  -7.5022  -6.7816  -6.3754  -6.3128  -6.3064  -6.1090
    -5.8338  -5.7233  -5.5984  -5.5273  -5.3112  -4.9942  -4.3874  -4.1805
    -4.1180  -3.9588  -3.8966  -3.6818  -3.6118  -3.3738  -3.2408  -3.2116
    -2.9995  -2.8093  -2.4049  -2.3371  -2.2201  -2.1624  -2.0241  -1.7359
    -1.6392  -1.2755  -1.2215  -0.9900  -0.9017  -0.5358  -0.4735  -0.3710
    -0.2882  -0.2474  -0.2012  -0.1557  -0.1244  -0.0261   0.1542   0.3194
     0.3253   0.7437   0.8658   1.1660   1.6313   1.7017   1.9899   2.1398
     2.5282   3.7369   4.4485   4.7544   5.1721   5.2934   5.4890   5.5204
     5.5445   5.8769   6.1648   6.1737   6.7016   6.7957

          k = 0.0000-0.2479 0.0000 ( 41774 PWs)   bands (ev):

   -48.9246 -48.8173 -48.8124 -48.7772 -48.7031 -48.6778 -48.6452 -48.6271
   -48.6088 -48.6053 -48.5935 -48.4776 -48.4332 -48.4232 -48.3975 -48.3138
   -48.3043 -48.0974 -19.0735 -18.8643 -18.6944 -18.4775 -18.2546 -18.2335
   -17.7798 -17.7054 -17.6905 -17.5750 -17.4373 -16.2729 -15.9893  -7.5702
    -6.7931  -6.7651  -6.7038  -6.5885  -6.3094  -6.2822  -6.2242  -6.0055
    -5.7957  -5.7203  -5.5250  -5.3203  -5.2375  -5.1582  -5.1166  -5.0770
    -4.9709  -4.5421  -4.3219  -4.0129  -3.6989  -3.6403  -3.5938  -3.4659
    -3.3975  -3.1181  -2.4067  -2.3789  -2.0367  -2.0011  -1.9270  -1.6825
    -1.6674  -1.3998  -1.0420  -1.0329  -0.8960  -0.5168  -0.4912  -0.3342
     0.0006   0.0022   0.1006   0.1665   0.2392   0.3191   0.4172   0.5255
     0.6964   0.8041   0.9675   0.9710   1.4165   1.5999   1.8994   1.9812
     2.3951   4.3038   4.5508   5.1741   5.1787   5.1910   5.2377   5.4819
     5.6633   5.8777   6.0275   6.1674   6.5913   7.3970

          k = 0.1250 0.0000 0.0000 ( 41611 PWs)   bands (ev):

   -48.9249 -48.8169 -48.8114 -48.7777 -48.7021 -48.6941 -48.6619 -48.6434
   -48.6094 -48.6064 -48.6014 -48.4735 -48.4490 -48.4209 -48.3965 -48.3301
   -48.3020 -48.0942 -19.2710 -18.9558 -18.8283 -18.5367 -17.9872 -17.8000
   -17.7761 -17.5266 -17.4607 -17.4319 -17.4205 -16.3313 -16.0378  -7.9375
    -7.8977  -7.8840  -7.3786  -6.7474  -6.4338  -6.3583  -6.3262  -6.1652
    -5.8198  -5.7240  -5.3042  -5.2345  -5.2107  -4.9912  -4.3407  -4.0313
    -3.9271  -3.5517  -3.4683  -3.4005  -3.3852  -3.3169  -3.2560  -3.0000
    -2.8482  -2.6412  -2.5327  -2.4304  -2.3915  -2.2053  -2.1973  -2.0444
    -2.0026  -1.6215  -1.5698  -1.0561  -0.9329  -0.6766  -0.5953  -0.5047
    -0.3849  -0.3793  -0.3491  -0.3145   0.0196   0.1132   0.2330   0.3973
     0.5276   1.0542   1.0742   1.2841   1.4892   1.8030   2.0443   2.2210
     2.5640   3.4465   4.0935   4.5128   4.7517   5.1855   5.3952   5.4311
     5.4542   5.4804   5.6911   6.2497   6.8297   6.9320

          k = 0.1250 0.1240 0.0000 ( 41692 PWs)   bands (ev):

   -48.9243 -48.8166 -48.8114 -48.7771 -48.7021 -48.6940 -48.6617 -48.6434
   -48.6102 -48.6064 -48.6014 -48.4743 -48.4489 -48.4209 -48.3965 -48.3301
   -48.3020 -48.0945 -19.1504 -18.8153 -18.7002 -18.5661 -18.0289 -17.9166
   -17.7773 -17.6498 -17.6136 -17.5353 -17.4250 -16.3297 -16.0350  -7.4562
    -7.4096  -7.3896  -7.3497  -6.7480  -6.3617  -6.3381  -6.2341  -6.0685
    -5.9026  -5.4803  -5.2850  -5.2436  -5.2211  -4.8868  -4.3221  -4.2479
    -4.1722  -4.0633  -3.9430  -3.8557  -3.7988  -3.6973  -3.6228  -3.5231
    -3.2670  -3.0959  -2.7682  -2.5511  -2.2712  -2.1848  -2.0808  -2.0041
    -1.7227  -1.4870  -1.2435  -1.0842  -0.9277  -0.5805  -0.4355  -0.3082
    -0.2144  -0.0726  -0.0147   0.1361   0.1855   0.1985   0.3527   0.4859
     0.6150   1.0319   1.1384   1.2668   1.5270   1.5867   1.9387   2.1281
     2.4249   3.8707   4.5286   4.7216   4.7490   4.9843   5.0796   5.2353
     5.3786   5.5600   5.6953   6.2841   6.7449   7.1890

          k = 0.1250-0.2479 0.0000 ( 41706 PWs)   bands (ev):

   -48.9237 -48.8164 -48.8114 -48.7765 -48.7021 -48.6939 -48.6615 -48.6434
   -48.6111 -48.6064 -48.6014 -48.4751 -48.4489 -48.4209 -48.3965 -48.3301
   -48.3020 -48.0949 -18.9494 -18.7351 -18.5743 -18.3645 -18.1925 -18.1870
   -17.8520 -17.7501 -17.7325 -17.5935 -17.4242 -16.3288 -16.0327  -7.3850
    -6.7490  -6.5508  -6.4776  -6.3953  -6.3693  -6.3345  -6.3322  -6.2158
    -5.9199  -5.3351  -5.2689  -5.2332  -4.9772  -4.9463  -4.8206  -4.7895
    -4.6638  -4.6606  -4.6128  -4.3928  -4.3080  -3.9228  -3.8918  -3.6313
    -3.4802  -3.3888  -2.8576  -2.5815  -2.1469  -2.1152  -1.8315  -1.7761
    -1.6321  -1.3856  -1.1642  -1.0030  -0.9649  -0.5597  -0.4026  -0.1452
    -0.1065  -0.0910   0.0031   0.1854   0.4684   0.6247   0.6973   0.8497
     0.8667   1.0609   1.0753   1.3210   1.3446   1.5376   1.7894   1.8888
     2.4160   4.3994   4.4272   4.5854   4.6365   4.6772   4.9685   5.3916
     5.6107   5.7222   5.7256   6.0931   6.7742   7.7174

          k = 0.2500 0.0000 0.0000 ( 41623 PWs)   bands (ev):

   -48.9219 -48.8142 -48.8091 -48.7745 -48.7325 -48.7012 -48.6999 -48.6834
   -48.6481 -48.6005 -48.5961 -48.4866 -48.4682 -48.4153 -48.3941 -48.3696
   -48.2965 -48.0885 -18.9036 -18.6441 -18.5287 -18.3017 -17.9349 -17.8534
   -17.7155 -17.6467 -17.6182 -17.5885 -17.3732 -16.4154 -16.0899  -7.4522
    -7.4133  -7.4069  -6.9035  -6.5559  -6.3588  -6.3373  -6.1457  -5.9517
    -5.7659  -5.5732  -5.2096  -5.2051  -4.8956  -4.6829  -4.5602  -4.5071
    -4.4923  -4.4439  -3.9907  -3.7722  -3.7113  -3.3974  -3.2999  -3.1734
    -3.1315  -3.0304  -2.9481  -2.8812  -2.7775  -2.5500  -2.2650  -2.0574
    -1.8641  -1.5904  -1.5438  -1.2603  -1.1241  -0.8529  -0.4371  -0.2112
    -0.1891  -0.1284  -0.0308   0.0631   0.4495   0.6807   0.7474   0.8324
     1.0506   1.1476   1.1925   1.3245   1.4224   1.5997   1.8617   2.1258
     2.1927   3.8219   4.1377   4.3663   4.6095   4.6713   4.6972   4.7727
     4.9061   4.9729   5.5571   6.0093   7.1458   7.9028

          k = 0.2500 0.1240 0.0000 ( 41653 PWs)   bands (ev):

   -48.9218 -48.8142 -48.8091 -48.7749 -48.7325 -48.7007 -48.6999 -48.6827
   -48.6486 -48.6005 -48.5962 -48.4866 -48.4686 -48.4153 -48.3941 -48.3694
   -48.2965 -48.0887 -18.8061 -18.5319 -18.4148 -18.3303 -17.9846 -17.8964
   -17.7914 -17.7807 -17.7459 -17.5589 -17.3695 -16.4157 -16.0891  -7.0689
    -7.0377  -7.0277  -6.9011  -6.5552  -6.3585  -6.1820  -5.9923  -5.8432
    -5.8135  -5.6379  -5.3326  -5.0824  -5.0312  -5.0085  -4.8828  -4.7845
    -4.6366  -4.2131  -4.0667  -3.8636  -3.6717  -3.5563  -3.5105  -3.4430
    -3.4180  -3.2976  -3.1762  -2.8990  -2.6329  -2.3640  -2.3137  -2.0728
    -1.8457  -1.7253  -1.3850  -1.1843  -1.0686  -1.0104  -0.5019  -0.1044
    -0.0385   0.1537   0.2482   0.2786   0.4633   0.4872   0.8422   0.8994
     1.0743   1.1436   1.2431   1.3381   1.4534   1.5602   1.7433   1.9337
     2.3494   3.9181   4.0278   4.0819   4.1512   4.1961   4.8110   4.9261
     5.1796   5.3819   5.7287   6.1274   7.2064   8.1188

          k = 0.2500-0.2479 0.0000 ( 41680 PWs)   bands (ev):

   -48.9217 -48.8141 -48.8091 -48.7752 -48.7325 -48.7003 -48.6999 -48.6819
   -48.6490 -48.6005 -48.5963 -48.4866 -48.4690 -48.4153 -48.3941 -48.3693
   -48.2965 -48.0888 -18.6468 -18.4269 -18.2973 -18.1831 -18.1111 -18.1035
   -17.9990 -17.8476 -17.7736 -17.5546 -17.3670 -16.4161 -16.0884  -6.9049
    -6.5615  -6.4166  -6.3916  -6.3694  -6.3617  -5.9232  -5.8823  -5.8508
    -5.7760  -5.7609  -5.6550  -5.6254  -5.5332  -5.1721  -4.9226  -4.6558
    -4.4195  -4.3774  -4.1987  -4.1142  -4.0772  -3.8542  -3.7566  -3.7565
    -3.5889  -3.4500  -3.3894  -2.9385  -2.3370  -2.2077  -1.9609  -1.9232
    -1.7910  -1.7566  -1.4827  -1.2971  -1.0530  -0.8049  -0.3614  -0.3528
    -0.0603   0.0959   0.1377   0.5715   0.6188   0.6592   0.9327   1.0511
     1.1448   1.1488   1.2940   1.4243   1.4677   1.6077   1.7080   1.7305
     2.4345   3.5945   3.5990   3.7083   4.0726   4.1875   4.9289   5.1451
     5.2257   5.7955   5.8912   6.1596   7.3124   8.5243

          k = 0.3750 0.0000 0.0000 ( 41645 PWs)   bands (ev):

   -48.9188 -48.8115 -48.8076 -48.7714 -48.7701 -48.7399 -48.7234 -48.6998
   -48.6842 -48.5947 -48.5909 -48.5239 -48.4628 -48.4096 -48.4087 -48.3918
   -48.2910 -48.0828 -18.4703 -18.3236 -18.2117 -18.1673 -17.9700 -17.8982
   -17.8252 -17.8203 -17.8055 -17.4771 -17.3020 -16.3941 -16.0559  -6.8877
    -6.8640  -6.8228  -6.5171  -6.3333  -6.2771  -6.1820  -6.1730  -5.9779
    -5.8716  -5.6301  -5.6105  -5.4844  -5.3980  -5.2378  -4.8480  -4.5370
    -4.4700  -4.3394  -3.9973  -3.8716  -3.7837  -3.6440  -3.5308  -3.2142
    -3.1747  -3.0288  -2.8748  -2.7168  -2.5960  -2.5117  -2.4778  -1.8832
    -1.7858  -1.6026  -1.4639  -1.3254  -1.2409  -0.8813  -0.3068  -0.2421
    -0.1480  -0.0824   0.1325   0.1476   0.5686   0.6744   0.6759   0.7522
     0.9482   1.0630   1.1108   1.4158   1.4647   1.6231   1.9342   2.0264
     2.1237   3.5431   3.7376   4.1137   4.1494   4.2668   4.4783   4.5319
     4.8547   5.0813   5.5574   5.6989   7.9339   9.0986

          k = 0.3750 0.1240 0.0000 ( 41549 PWs)   bands (ev):

   -48.9194 -48.8117 -48.8075 -48.7738 -48.7702 -48.7392 -48.7210 -48.6999
   -48.6845 -48.5947 -48.5907 -48.5240 -48.4629 -48.4096 -48.4084 -48.3918
   -48.2910 -48.0828 -18.4400 -18.3026 -18.2427 -18.1920 -18.0164 -17.9428
   -17.8098 -17.7976 -17.7639 -17.4790 -17.3000 -16.3957 -16.0559  -6.7730
    -6.7283  -6.6979  -6.5324  -6.3661  -6.3120  -6.2398  -6.1708  -6.1045
    -6.0285  -5.9427  -5.4727  -5.2666  -5.2096  -5.0097  -4.9218  -4.6163
    -4.5654  -4.0906  -3.9177  -3.8220  -3.7105  -3.5791  -3.3700  -3.3049
    -3.1392  -3.0184  -2.9755  -2.9590  -2.6873  -2.3214  -2.2576  -2.1220
    -1.8171  -1.6491  -1.5700  -1.4183  -1.2364  -1.0354  -0.4574  -0.1932
    -0.1426  -0.0723   0.0229   0.0340   0.2654   0.3129   0.5814   0.6668
     0.7228   1.0347   1.5745   1.6409   1.6884   1.8102   1.8577   2.0153
     2.1987   3.3551   3.4112   3.5617   3.6212   3.7686   4.4927   5.2083
     5.4960   5.6593   5.8578   5.8933   8.0326   9.2733

          k = 0.3750-0.2479 0.0000 ( 41514 PWs)   bands (ev):

   -48.9199 -48.8120 -48.8075 -48.7759 -48.7703 -48.7385 -48.7187 -48.6999
   -48.6848 -48.5947 -48.5904 -48.5241 -48.4629 -48.4096 -48.4081 -48.3918
   -48.2910 -48.0828 -18.3906 -18.3015 -18.2536 -18.2348 -18.0492 -17.9810
   -17.7929 -17.7766 -17.7433 -17.4810 -17.2981 -16.3973 -16.0560  -6.6637
    -6.5729  -6.5264  -6.4582  -6.3684  -6.3348  -6.3285  -6.2266  -6.2203
    -6.1529  -6.1259  -5.5336  -5.2579  -5.0085  -4.8062  -4.7144  -4.6280
    -4.4712  -4.0566  -3.9094  -3.8128  -3.7029  -3.4283  -3.4236  -3.3651
    -3.1729  -3.1672  -3.1001  -2.9669  -2.5907  -2.2629  -2.2444  -1.9799
    -1.9110  -1.6726  -1.4967  -1.4056  -1.3624  -1.1290  -0.8029  -0.6386
    -0.3607  -0.1135  -0.0383   0.1680   0.1746   0.4325   0.5795   0.6255
     0.7064   0.9264   1.5816   1.6007   1.8223   1.9705   2.0529   2.0552
     2.3328   2.9417   2.9504   3.1167   3.6261   3.7844   4.4935   5.5186
     5.6662   5.9242   6.1753   6.3179   8.1340   9.5867

          k =-0.5000 0.0000 0.0000 ( 41440 PWs)   bands (ev):

   -48.9176 -48.8104 -48.8079 -48.7848 -48.7701 -48.7557 -48.7398 -48.7074
   -48.6916 -48.5923 -48.5887 -48.5393 -48.4606 -48.4248 -48.4073 -48.3908
   -48.2887 -48.0804 -18.2995 -18.1718 -18.1089 -18.0653 -17.9916 -17.9721
   -17.8977 -17.8799 -17.8253 -17.4638 -17.2707 -16.3460 -16.0139  -6.8289
    -6.5168  -6.5035  -6.4709  -6.3560  -6.2995  -6.2570  -6.0781  -6.0335
    -5.9654  -5.7040  -5.6868  -5.5961  -5.3950  -5.3588  -5.2134  -4.6088
    -4.1508  -4.1268  -4.1122  -3.8518  -3.8275  -3.7212  -3.5695  -3.3264
    -3.3046  -2.9393  -2.7788  -2.6143  -2.5576  -2.3536  -1.9948  -1.8500
    -1.6523  -1.6137  -1.5769  -1.3741  -1.2253  -0.8470  -0.2366  -0.2323
    -0.2193  -0.1926   0.0072   0.0970   0.1830   0.4657   0.4779   0.7039
     0.8699   0.8900   1.1286   1.3143   1.7060   1.7649   1.8254   2.1445
     2.3360   3.3251   3.6730   3.9203   3.9605   4.0958   4.3968   4.5426
     4.9093   5.0740   5.4949   5.7588   8.5366   9.8422

          k =-0.5000 0.1240 0.0000 ( 41518 PWs)   bands (ev):

   -48.9184 -48.8107 -48.8078 -48.7849 -48.7743 -48.7548 -48.7355 -48.7076
   -48.6917 -48.5923 -48.5884 -48.5394 -48.4605 -48.4244 -48.4073 -48.3908
   -48.2887 -48.0803 -18.2972 -18.2791 -18.2516 -18.2178 -17.9813 -17.8361
   -17.8147 -17.7584 -17.7542 -17.4657 -17.2702 -16.3470 -16.0133  -6.7983
    -6.7753  -6.6254  -6.5462  -6.4517  -6.4022  -6.3868  -6.3186  -6.1155
    -5.9995  -5.8544  -5.5482  -5.3035  -4.9627  -4.8187  -4.7472  -4.3648
    -4.2037  -4.1652  -4.0923  -4.0679  -3.8446  -3.7488  -3.1589  -3.1033
    -2.9880  -2.9311  -2.8635  -2.7917  -2.6102  -2.2098  -2.1690  -1.8188
    -1.7186  -1.6500  -1.5302  -1.5152  -1.4566  -0.9540  -0.4196  -0.3204
    -0.2443  -0.1865  -0.1589  -0.1330   0.0085   0.1352   0.1508   0.2125
     0.3927   0.8684   1.7214   1.8287   1.8522   1.9290   1.9977   2.1147
     2.2641   3.1448   3.1752   3.3578   3.3717   3.7001   4.3992   5.4837
     5.5916   5.7537   5.8223   5.9162   8.6919   9.8335

          k =-0.5000-0.2479 0.0000 ( 41524 PWs)   bands (ev):

   -48.9193 -48.8111 -48.8078 -48.7850 -48.7778 -48.7540 -48.7320 -48.7079
   -48.6918 -48.5923 -48.5880 -48.5395 -48.4604 -48.4240 -48.4073 -48.3908
   -48.2887 -48.0802 -18.3478 -18.3376 -18.2980 -18.2948 -17.9690 -17.8486
   -17.7313 -17.6719 -17.6697 -17.4675 -17.2696 -16.3481 -16.0126  -6.9942
    -6.8634  -6.7857  -6.7488  -6.3938  -6.3264  -6.2843  -6.2653  -6.2382
    -6.0328  -5.8622  -5.6093  -5.4219  -4.9253  -4.2857  -4.2018  -4.1646
    -4.1343  -4.0747  -3.8733  -3.8621  -3.6585  -3.5111  -3.4558  -3.3202
    -2.9914  -2.8795  -2.8367  -2.8175  -2.4893  -2.1337  -1.9978  -1.9329
    -1.8539  -1.7873  -1.5702  -1.5385  -1.5204  -1.0706  -1.0019  -0.6685
    -0.6246  -0.3566  -0.2266  -0.1614  -0.1486   0.0084   0.1565   0.1892
     0.3034   0.8668   1.7295   1.7844   1.9182   2.2031   2.2247   2.2315
     2.3167   2.7456   2.7564   2.9484   3.4072   3.7246   4.4013   5.6829
     5.8790   6.0079   6.2698   6.4476   8.8495   9.8125

 ------ SPIN DOWN ----------


          k = 0.0000 0.0000 0.0000 ( 41611 PWs)   bands (ev):

   -48.8648 -48.7715 -48.7584 -48.6853 -48.6630 -48.6600 -48.6189 -48.5980
   -48.5798 -48.5544 -48.4585 -48.4576 -48.4015 -48.3991 -48.3789 -48.3132
   -48.2723 -48.1024 -19.3994 -19.0701 -18.9424 -18.6219 -18.0388 -17.8501
   -17.6886 -17.4418 -17.3765 -17.3361 -17.3265 -16.1939 -15.9560  -8.1183
    -8.0645  -8.0556  -7.5469  -6.7700  -6.4492  -6.3531  -6.2995  -6.1971
    -5.9027  -5.7054  -5.6826  -5.5136  -5.2609  -5.1275  -4.1129  -4.0430
    -3.5272  -3.4761  -3.3372  -3.0731  -3.0505  -2.9109  -2.7923  -2.7057
    -2.6209  -2.6139  -2.4156  -2.3028  -2.1777  -2.0979  -1.7699  -1.6783
    -1.4797  -1.3159  -1.0614  -1.0249  -0.8702  -0.7792  -0.7693  -0.7256
    -0.6974  -0.6661  -0.5998  -0.4682  -0.2980  -0.2916   0.1491   0.2928
     0.3746   0.7667   0.9156   1.1975   1.7842   1.9045   2.0084   2.4690
     2.7889   3.2468   3.9035   4.3446   5.1865   5.2055   5.8215   5.8336
     5.8399   5.8986   6.1332   6.1971   6.5662   7.2216

          k = 0.0000 0.1240 0.0000 ( 41688 PWs)   bands (ev):

   -48.8642 -48.7711 -48.7575 -48.6853 -48.6630 -48.6598 -48.6191 -48.5980
   -48.5795 -48.5547 -48.4595 -48.4583 -48.4014 -48.3991 -48.3789 -48.3133
   -48.2723 -48.1029 -19.2717 -18.9237 -18.8141 -18.6528 -18.0845 -17.9631
   -17.6883 -17.5739 -17.5408 -17.4660 -17.3291 -16.1915 -15.9528  -7.6182
    -7.5657  -7.5312  -7.4936  -6.7691  -6.3693  -6.2990  -6.2748  -6.1076
    -5.8103  -5.7035  -5.5725  -5.5125  -5.2720  -4.9408  -4.3528  -4.1610
    -4.0875  -3.9412  -3.8630  -3.6584  -3.5980  -3.3393  -3.2280  -3.2027
    -2.9809  -2.7698  -2.3806  -2.3197  -2.2071  -2.0887  -1.9729  -1.6849
    -1.6223  -1.2195  -1.1499  -0.9111  -0.8688  -0.5105  -0.3496  -0.3161
    -0.2367  -0.2167  -0.1710  -0.1230  -0.1135   0.0138   0.1721   0.3840
     0.3913   0.7654   0.9059   1.2547   1.6716   1.8345   2.0156   2.2290
     2.5935   3.7636   4.4857   4.7758   5.1902   5.3195   5.5213   5.5499
     5.5536   5.9050   6.1963   6.2030   6.7238   6.8189

          k = 0.0000-0.2479 0.0000 ( 41774 PWs)   bands (ev):

   -48.8635 -48.7707 -48.7566 -48.6853 -48.6630 -48.6596 -48.6193 -48.5980
   -48.5792 -48.5550 -48.4605 -48.4591 -48.4013 -48.3991 -48.3789 -48.3134
   -48.2723 -48.1033 -19.0535 -18.8566 -18.6833 -18.4689 -18.2378 -18.2202
   -17.7753 -17.6817 -17.6480 -17.5612 -17.3281 -16.1901 -15.9502  -7.5562
    -6.7836  -6.7564  -6.6855  -6.5864  -6.2984  -6.2774  -6.1889  -6.0055
    -5.7782  -5.7003  -5.5102  -5.2805  -5.2238  -5.1373  -5.1103  -5.0502
    -4.9431  -4.5062  -4.2495  -3.9842  -3.6834  -3.6311  -3.5764  -3.4276
    -3.3537  -3.0949  -2.3824  -2.3616  -1.9780  -1.9571  -1.8649  -1.6657
    -1.6244  -1.3665  -1.0154  -0.9784  -0.8051  -0.4635  -0.3242  -0.3168
     0.0113   0.0780   0.1143   0.1688   0.2976   0.3434   0.4749   0.5675
     0.7235   0.8341   1.0067   1.0174   1.5008   1.6760   2.0385   2.0422
     2.4323   4.3236   4.5947   5.1888   5.1920   5.2413   5.2459   5.5088
     5.7027   5.9057   6.0459   6.2016   6.6019   7.4251

          k = 0.1250 0.0000 0.0000 ( 41611 PWs)   bands (ev):

   -48.8636 -48.7704 -48.7571 -48.6843 -48.6765 -48.6615 -48.6356 -48.5976
   -48.5942 -48.5707 -48.4563 -48.4554 -48.4172 -48.3981 -48.3766 -48.3296
   -48.2700 -48.1000 -19.2586 -18.9454 -18.8224 -18.5204 -17.9713 -17.7606
   -17.7410 -17.5217 -17.4563 -17.4113 -17.3164 -16.2457 -15.9984  -7.9330
    -7.8833  -7.8776  -7.3641  -6.7358  -6.4227  -6.3447  -6.2973  -6.1586
    -5.8055  -5.6915  -5.2764  -5.2149  -5.1839  -4.9362  -4.3229  -3.9862
    -3.9020  -3.5401  -3.4601  -3.3972  -3.3566  -3.3035  -3.2017  -2.9807
    -2.8184  -2.6172  -2.5099  -2.4124  -2.3699  -2.1822  -2.1608  -2.0210
    -1.9144  -1.5240  -1.5189  -0.9941  -0.9128  -0.6231  -0.5834  -0.4503
    -0.3717  -0.3128  -0.3045  -0.2317   0.0425   0.1351   0.2992   0.4542
     0.5911   1.0996   1.1381   1.3154   1.6531   1.8456   2.0563   2.3171
     2.6279   3.4726   4.1265   4.5290   4.7736   5.2097   5.4412   5.4566
     5.4592   5.5085   5.7236   6.2840   6.8465   6.9534

          k = 0.1250 0.1240 0.0000 ( 41692 PWs)   bands (ev):

   -48.8631 -48.7701 -48.7565 -48.6843 -48.6764 -48.6615 -48.6356 -48.5974
   -48.5940 -48.5710 -48.4571 -48.4559 -48.4171 -48.3981 -48.3766 -48.3297
   -48.2700 -48.1004 -19.1367 -18.8044 -18.6943 -18.5507 -18.0141 -17.8956
   -17.7352 -17.6387 -17.6061 -17.5218 -17.3113 -16.2441 -15.9957  -7.4501
    -7.3976  -7.3785  -7.3386  -6.7364  -6.3480  -6.3279  -6.2051  -6.0639
    -5.8862  -5.4479  -5.2591  -5.2170  -5.2015  -4.8387  -4.2881  -4.2291
    -4.1529  -4.0271  -3.9217  -3.8389  -3.7878  -3.6804  -3.6068  -3.4993
    -3.2409  -3.0544  -2.7413  -2.5297  -2.2382  -2.1340  -2.0462  -1.9756
    -1.6536  -1.4340  -1.1510  -1.0500  -0.9022  -0.4657  -0.4139  -0.2286
    -0.1798  -0.0484   0.0351   0.1573   0.2134   0.2444   0.3989   0.5418
     0.6655   1.0819   1.1991   1.2992   1.5886   1.7093   2.0039   2.1892
     2.4789   3.8971   4.5654   4.7443   4.7659   5.0001   5.1214   5.2585
     5.4018   5.5842   5.7281   6.3150   6.7592   7.2121

          k = 0.1250-0.2479 0.0000 ( 41706 PWs)   bands (ev):

   -48.8627 -48.7698 -48.7559 -48.6843 -48.6763 -48.6614 -48.6355 -48.5973
   -48.5939 -48.5713 -48.4580 -48.4565 -48.4170 -48.3981 -48.3766 -48.3297
   -48.2701 -48.1008 -18.9304 -18.7273 -18.5620 -18.3566 -18.1840 -18.1700
   -17.8481 -17.7222 -17.6970 -17.5788 -17.3092 -16.2431 -15.9935  -7.3707
    -6.7374  -6.5448  -6.4599  -6.3900  -6.3610  -6.3271  -6.3011  -6.2127
    -5.9046  -5.2957  -5.2488  -5.2172  -4.9482  -4.9227  -4.8016  -4.7829
    -4.6503  -4.6358  -4.5782  -4.3722  -4.2841  -3.8937  -3.8291  -3.6016
    -3.4545  -3.3572  -2.8300  -2.5605  -2.1001  -2.0879  -1.7829  -1.7279
    -1.5922  -1.3466  -1.1010  -0.9417  -0.9367  -0.3826  -0.3803  -0.1138
    -0.0828  -0.0294   0.0364   0.2289   0.5349   0.6393   0.7490   0.8803
     0.8933   1.1044   1.1125   1.3445   1.4344   1.6148   1.9378   1.9508
     2.4412   4.4211   4.4524   4.6241   4.6561   4.6996   4.9942   5.4197
     5.6399   5.7531   5.7612   6.1120   6.7847   7.7444

          k = 0.2500 0.0000 0.0000 ( 41623 PWs)   bands (ev):

   -48.8607 -48.7677 -48.7540 -48.7152 -48.6822 -48.6754 -48.6600 -48.6341
   -48.6097 -48.5901 -48.4549 -48.4510 -48.4500 -48.3958 -48.3710 -48.3691
   -48.2645 -48.0944 -18.8926 -18.6333 -18.5223 -18.2938 -17.8851 -17.8305
   -17.7102 -17.6422 -17.6088 -17.5713 -17.2529 -16.3225 -16.0498  -7.4473
    -7.4018  -7.3986  -6.8878  -6.5461  -6.3425  -6.3210  -6.1206  -5.9375
    -5.7514  -5.5528  -5.1813  -5.1748  -4.8827  -4.6717  -4.5434  -4.4879
    -4.4536  -4.4342  -3.9625  -3.7473  -3.6671  -3.3805  -3.2725  -3.1552
    -3.0926  -2.9940  -2.9187  -2.8563  -2.7560  -2.5363  -2.2363  -1.9787
    -1.8354  -1.5414  -1.4148  -1.2015  -1.1036  -0.7754  -0.3909  -0.2001
    -0.1484  -0.0893   0.0666   0.0820   0.4678   0.7041   0.7972   0.8786
     1.1149   1.1755   1.2240   1.4508   1.5082   1.6832   1.9638   2.1942
     2.2054   3.8472   4.1597   4.3952   4.6369   4.7074   4.7401   4.7754
     4.9336   4.9936   5.5885   6.0450   7.1542   7.9197

          k = 0.2500 0.1240 0.0000 ( 41653 PWs)   bands (ev):

   -48.8607 -48.7677 -48.7544 -48.7151 -48.6822 -48.6746 -48.6600 -48.6336
   -48.6100 -48.5901 -48.4549 -48.4514 -48.4502 -48.3958 -48.3710 -48.3689
   -48.2645 -48.0946 -18.7944 -18.5205 -18.4083 -18.3209 -17.9577 -17.8714
   -17.7748 -17.7711 -17.7331 -17.5432 -17.2494 -16.3228 -16.0490  -7.0638
    -7.0221  -7.0208  -6.8856  -6.5453  -6.3418  -6.1659  -5.9684  -5.8287
    -5.8020  -5.6144  -5.3103  -5.0677  -5.0170  -4.9923  -4.8657  -4.7558
    -4.6182  -4.1645  -4.0381  -3.8361  -3.6487  -3.5439  -3.4719  -3.4238
    -3.4077  -3.2769  -3.1398  -2.8745  -2.6014  -2.3314  -2.2711  -1.9957
    -1.8147  -1.6619  -1.3038  -1.1503  -1.0128  -0.9388  -0.4336  -0.0830
     0.0441   0.1851   0.2638   0.3430   0.4651   0.5338   0.8994   0.9280
     1.1502   1.1784   1.2727   1.4967   1.5145   1.6158   1.8172   2.0153
     2.3700   3.9377   4.0762   4.1092   4.1686   4.2113   4.8441   4.9566
     5.2121   5.4029   5.7526   6.1593   7.2152   8.1375

          k = 0.2500-0.2479 0.0000 ( 41680 PWs)   bands (ev):

   -48.8607 -48.7676 -48.7549 -48.7151 -48.6821 -48.6738 -48.6599 -48.6332
   -48.6102 -48.5901 -48.4549 -48.4519 -48.4504 -48.3958 -48.3710 -48.3688
   -48.2645 -48.0947 -18.6328 -18.4186 -18.2770 -18.1765 -18.1013 -18.0975
   -17.9964 -17.7978 -17.7609 -17.5392 -17.2468 -16.3233 -16.0483  -6.8889
    -6.5513  -6.4104  -6.3702  -6.3583  -6.3453  -5.9131  -5.8721  -5.8353
    -5.7688  -5.7480  -5.6339  -5.6023  -5.5130  -5.1459  -4.9088  -4.6347
    -4.3921  -4.3455  -4.1901  -4.1045  -4.0624  -3.8233  -3.7293  -3.7124
    -3.5262  -3.4349  -3.3606  -2.9090  -2.2967  -2.1727  -1.8850  -1.8811
    -1.7544  -1.7228  -1.4447  -1.2319  -1.0174  -0.6810  -0.3130  -0.3074
    -0.0415   0.1652   0.1917   0.6329   0.6466   0.6741   1.0066   1.0688
     1.1846   1.2152   1.3160   1.5198   1.5953   1.6483   1.7823   1.8035
     2.4532   3.6050   3.6636   3.7134   4.0977   4.2133   4.9591   5.1854
     5.2484   5.8270   5.9181   6.1769   7.3224   8.5482

          k = 0.3750 0.0000 0.0000 ( 41645 PWs)   bands (ev):

   -48.8577 -48.7650 -48.7536 -48.7508 -48.7157 -48.6801 -48.6782 -48.6520
   -48.6477 -48.5846 -48.4923 -48.4457 -48.4445 -48.4083 -48.3935 -48.3654
   -48.2590 -48.0887 -18.4661 -18.3083 -18.2057 -18.1665 -17.9035 -17.8926
   -17.8197 -17.8061 -17.7968 -17.4617 -17.1793 -16.2965 -16.0148  -6.8794
    -6.8585  -6.8123  -6.4927  -6.3241  -6.2647  -6.1717  -6.1503  -5.9652
    -5.8436  -5.6140  -5.5878  -5.4756  -5.3921  -5.2149  -4.8367  -4.5209
    -4.4341  -4.3188  -3.9687  -3.8353  -3.7725  -3.6136  -3.5097  -3.1971
    -3.1433  -3.0084  -2.8507  -2.6844  -2.5169  -2.4891  -2.4428  -1.8378
    -1.7392  -1.5661  -1.3273  -1.2470  -1.2203  -0.8046  -0.2629  -0.2277
    -0.0875  -0.0603   0.1493   0.1948   0.6004   0.7009   0.7568   0.8339
     0.9625   1.1273   1.1528   1.4430   1.5193   1.7842   2.0236   2.0400
     2.2118   3.5704   3.7632   4.1541   4.1925   4.2672   4.5061   4.5517
     4.8846   5.1003   5.6110   5.7150   7.9411   9.1132

          k = 0.3750 0.1240 0.0000 ( 41549 PWs)   bands (ev):

   -48.8583 -48.7652 -48.7542 -48.7534 -48.7124 -48.6801 -48.6775 -48.6519
   -48.6479 -48.5846 -48.4923 -48.4457 -48.4445 -48.4079 -48.3934 -48.3653
   -48.2590 -48.0887 -18.4366 -18.2888 -18.2383 -18.1878 -17.9618 -17.9304
   -17.8077 -17.7766 -17.7528 -17.4641 -17.1774 -16.2981 -16.0149  -6.7638
    -6.7184  -6.6819  -6.5099  -6.3541  -6.2953  -6.2281  -6.1558  -6.0887
    -6.0150  -5.9295  -5.4471  -5.2496  -5.1973  -4.9996  -4.9095  -4.5994
    -4.5403  -4.0649  -3.8943  -3.7965  -3.6830  -3.5648  -3.3383  -3.2838
    -3.1140  -2.9892  -2.9541  -2.9084  -2.6533  -2.2848  -2.2072  -2.0883
    -1.7683  -1.5902  -1.5044  -1.3000  -1.2095  -0.9718  -0.4166  -0.1532
    -0.1239  -0.0140   0.0409   0.1025   0.2938   0.3334   0.6132   0.7159
     0.8067   1.1224   1.6598   1.7267   1.7518   1.8560   1.9312   2.0948
     2.2223   3.3811   3.4628   3.5719   3.6487   3.7938   4.5245   5.2348
     5.5323   5.6827   5.8844   5.9157   8.0407   9.2896

          k = 0.3750-0.2479 0.0000 ( 41514 PWs)   bands (ev):

   -48.8589 -48.7655 -48.7567 -48.7537 -48.7096 -48.6801 -48.6769 -48.6518
   -48.6481 -48.5846 -48.4924 -48.4458 -48.4444 -48.4075 -48.3934 -48.3653
   -48.2590 -48.0887 -18.3886 -18.2986 -18.2411 -18.2258 -17.9936 -17.9719
   -17.7914 -17.7526 -17.7326 -17.4665 -17.1754 -16.2998 -16.0150  -6.6499
    -6.5503  -6.5002  -6.4450  -6.3617  -6.3272  -6.3041  -6.2109  -6.2010
    -6.1444  -6.1229  -5.5044  -5.2511  -4.9917  -4.8010  -4.7016  -4.6157
    -4.4486  -4.0341  -3.8888  -3.7982  -3.6882  -3.4134  -3.3984  -3.3177
    -3.1428  -3.0972  -3.0856  -2.9416  -2.5457  -2.2138  -2.2022  -1.9303
    -1.8818  -1.6031  -1.4339  -1.3673  -1.3217  -1.0380  -0.7512  -0.6209
    -0.2934  -0.0988   0.0370   0.1783   0.2478   0.4326   0.6112   0.7004
     0.7338   1.0454   1.6780   1.7676   1.8461   2.0383   2.0682   2.1231
     2.3532   2.9630   3.0151   3.1229   3.6548   3.8095   4.5253   5.5689
     5.6843   5.9447   6.2064   6.3317   8.1432   9.6074

          k =-0.5000 0.0000 0.0000 ( 41440 PWs)   bands (ev):

   -48.8565 -48.7694 -48.7638 -48.7495 -48.7321 -48.6933 -48.6808 -48.6621
   -48.6518 -48.5824 -48.5076 -48.4435 -48.4423 -48.4244 -48.3925 -48.3630
   -48.2567 -48.0864 -18.2966 -18.1672 -18.1043 -18.0563 -17.9664 -17.9291
   -17.8912 -17.8720 -17.8015 -17.4480 -17.1472 -16.2481 -15.9727  -6.8168
    -6.5044  -6.4869  -6.4613  -6.3480  -6.2902  -6.2486  -6.0511  -6.0188
    -5.9525  -5.6807  -5.6715  -5.5866  -5.3643  -5.3342  -5.2024  -4.5835
    -4.1285  -4.1208  -4.1076  -3.8427  -3.8120  -3.7033  -3.5464  -3.2735
    -3.2410  -2.9129  -2.7583  -2.5867  -2.4750  -2.3320  -1.9308  -1.8116
    -1.6128  -1.5934  -1.5419  -1.2735  -1.1298  -0.7568  -0.2242  -0.2139
    -0.1842  -0.1233   0.0396   0.0959   0.2083   0.4993   0.5493   0.7594
     0.9069   1.0655   1.1452   1.3518   1.7342   1.8370   1.8990   2.2302
     2.4264   3.3525   3.6999   3.9638   4.0018   4.0947   4.4292   4.5571
     4.9359   5.0931   5.5494   5.7781   8.5433   9.8483

          k =-0.5000 0.1240 0.0000 ( 41518 PWs)   bands (ev):

   -48.8574 -48.7695 -48.7642 -48.7557 -48.7258 -48.6925 -48.6808 -48.6623
   -48.6517 -48.5824 -48.5078 -48.4434 -48.4421 -48.4239 -48.3925 -48.3630
   -48.2567 -48.0863 -18.2941 -18.2744 -18.2487 -18.2054 -17.9161 -17.8151
   -17.8093 -17.7559 -17.7442 -17.4502 -17.1463 -16.2491 -15.9720  -6.7833
    -6.7622  -6.6014  -6.5355  -6.4370  -6.3807  -6.3800  -6.3104  -6.0938
    -5.9899  -5.8497  -5.5186  -5.2931  -4.9452  -4.7958  -4.7243  -4.3433
    -4.1985  -4.1603  -4.0777  -4.0532  -3.8325  -3.7218  -3.0835  -3.0678
    -2.9612  -2.9134  -2.8559  -2.7206  -2.5914  -2.1657  -2.1237  -1.7770
    -1.6378  -1.6118  -1.4963  -1.4516  -1.3908  -0.8556  -0.3939  -0.2754
    -0.2299  -0.1557  -0.0994  -0.0865   0.0410   0.1351   0.1806   0.2401
     0.4698   1.0435   1.8450   1.8536   1.8883   1.9699   2.0862   2.1447
     2.3477   3.1641   3.2412   3.3628   3.3998   3.7268   4.4316   5.4960
     5.6477   5.7862   5.8408   5.9306   8.6999   9.8394

          k =-0.5000-0.2479 0.0000 ( 41524 PWs)   bands (ev):

   -48.8582 -48.7696 -48.7647 -48.7600 -48.7215 -48.6916 -48.6808 -48.6624
   -48.6517 -48.5824 -48.5079 -48.4433 -48.4419 -48.4235 -48.3925 -48.3630
   -48.2567 -48.0862 -18.3422 -18.3357 -18.2916 -18.2848 -17.8979 -17.8334
   -17.7260 -17.6692 -17.6609 -17.4523 -17.1455 -16.2502 -15.9713  -6.9812
    -6.8371  -6.7741  -6.7302  -6.3856  -6.3193  -6.2626  -6.2406  -6.2231
    -6.0250  -5.8592  -5.5793  -5.4123  -4.9021  -4.2814  -4.1945  -4.1574
    -4.1220  -4.0668  -3.8510  -3.8408  -3.6428  -3.4866  -3.4223  -3.2875
    -2.9674  -2.8201  -2.7820  -2.7752  -2.4753  -2.0857  -1.9569  -1.9170
    -1.8020  -1.6723  -1.5416  -1.5052  -1.4616  -0.9953  -0.9553  -0.6107
    -0.6098  -0.2901  -0.2142  -0.1376  -0.0799   0.0409   0.1565   0.2145
     0.3781   1.0391   1.8578   1.8724   1.9648   2.2464   2.2733   2.2794
     2.3502   2.7703   2.8236   2.9543   3.4356   3.7510   4.4337   5.7421
     5.8956   6.0186   6.3019   6.4622   8.8588   9.8178

     the Fermi energy is     1.6395 ev

!    total energy              =   -1632.64860223 Ry
     estimated scf accuracy    <       0.00000050 Ry
     smearing contrib. (-TS)   =      -0.00149490 Ry
     internal energy E=F+TS    =   -1632.64710733 Ry

     The total energy is F=E-TS. E is the sum of the following terms:
     one-electron contribution =  -15350.98648300 Ry
     hartree contribution      =    7720.41230396 Ry
     xc contribution           =    -398.55822679 Ry
     ewald contribution        =    6520.21152001 Ry
     one-center paw contrib.   =    -123.72622152 Ry

     total magnetization       =     0.58 Bohr mag/cell
     absolute magnetization    =     0.65 Bohr mag/cell

     convergence has been achieved in  22 iterations

     negative rho (up, down):  9.597E-01 9.481E-01

     Forces acting on atoms (cartesian axes, Ry/au):

     atom    1 type  2   force =    -0.00003214    0.00000000    0.03734258
     atom    2 type  2   force =    -0.00006213    0.00000000   -0.03996561
     atom    3 type  2   force =    -0.00057124    0.00000000    0.00048311
     atom    4 type  2   force =     0.00052632    0.00000000   -0.00104543
     atom    5 type  2   force =    -0.00101171    0.00000000   -0.00121748
     atom    6 type  2   force =     0.00073225    0.00000000   -0.00143611
     atom    7 type  3   force =     0.00011570    0.00000000    0.00019861
     atom    8 type  3   force =     0.00002034    0.00000000    0.03412974
     atom    9 type  3   force =    -0.00000423    0.02137393   -0.02456729
     atom   10 type  3   force =    -0.00000423   -0.02137393   -0.02456729
     atom   11 type  3   force =     0.00108794    0.00000000    0.00063113
     atom   12 type  3   force =    -0.00190916    0.00000000    0.01675428
     atom   13 type  3   force =    -0.00043742   -0.00183288    0.00109556
     atom   14 type  3   force =    -0.00043742    0.00183288    0.00109556
     atom   15 type  3   force =     0.00106478    0.00000000   -0.00074113
     atom   16 type  3   force =     0.00045957    0.00000000   -0.00070674
     atom   17 type  3   force =    -0.00042175   -0.00069228    0.00120438
     atom   18 type  3   force =    -0.00042175    0.00069228    0.00120438
     atom   19 type  3   force =     0.00022173    0.00000000    0.00017616
     atom   20 type  1   force =     0.00108454    0.00000000   -0.00006842

     Total force =     0.005098     Total SCF correction =     0.002742
     SCF correction compared to forces is large: reduce conv_thr to get better values

     Writing all to output data dir ./tmp_s0_OH__u000__sp2m030/s0_OH__u000__sp2m030.save/ :
     XML data file, charge density, pseudopotentials, collected wavefunctions

     init_run     :      3.55s CPU      3.68s WALL (       1 calls)
     electrons    :    116.65s CPU    118.49s WALL (       1 calls)
     forces       :      0.97s CPU      0.98s WALL (       1 calls)

     Called by init_run:
     wfcinit      :      1.57s CPU      1.62s WALL (       1 calls)
     potinit      :      0.58s CPU      0.61s WALL (       1 calls)
     hinit0       :      0.64s CPU      0.68s WALL (       1 calls)

     Called by electrons:
     c_bands      :     90.75s CPU     92.17s WALL (      22 calls)
     sum_band     :     16.54s CPU     16.81s WALL (      22 calls)
     v_of_rho     :      3.04s CPU      3.09s WALL (      23 calls)
     newd         :      2.01s CPU      2.05s WALL (      23 calls)
     PAW_pot      :      1.42s CPU      1.43s WALL (      23 calls)
     mix_rho      :      2.64s CPU      2.68s WALL (      22 calls)

     Called by c_bands:
     init_us_2    :      1.51s CPU      1.53s WALL (     368 calls)
     cegterg      :     78.63s CPU     79.82s WALL (     176 calls)

     Called by *egterg:
     cdiaghg      :     11.80s CPU     11.92s WALL (    1233 calls)
     h_psi        :     48.27s CPU     49.16s WALL (    1241 calls)
     s_psi        :      3.09s CPU      3.15s WALL (    1241 calls)
     g_psi        :      0.21s CPU      0.21s WALL (    1057 calls)

     Called by h_psi:
     h_psi:calbec :      5.48s CPU      5.58s WALL (    1241 calls)
     vloc_psi     :     39.23s CPU     39.96s WALL (    1241 calls)
                                        0.00s GPU  (    1241 calls)
     add_vuspsi   :      3.25s CPU      3.30s WALL (    1241 calls)

     General routines
     calbec       :      7.81s CPU      7.93s WALL (    1449 calls)
     fft          :      2.94s CPU      3.00s WALL (     588 calls)
     ffts         :      1.98s CPU      2.00s WALL (    2673 calls)
     fftw         :     45.47s CPU     46.24s WALL (   97506 calls)
     interpolate  :      0.64s CPU      0.65s WALL (      46 calls)

     Parallel routines

     PWSCF        :   2m 1.93s CPU   2m 4.29s WALL


   This run was terminated on:  21:46:44  31Aug2026            

=------------------------------------------------------------------------------=
   JOB DONE.
=------------------------------------------------------------------------------=
Note: The following floating-point exceptions are signalling: IEEE_DENORMAL
Note: The following floating-point exceptions are signalling: IEEE_DENORMAL
Note: The following floating-point exceptions are signalling: IEEE_DENORMAL
Note: The following floating-point exceptions are signalling: IEEE_DENORMAL
Note: The following floating-point exceptions are signalling: IEEE_DENORMAL
Note: The following floating-point exceptions are signalling: IEEE_DENORMAL
Note: The following floating-point exceptions are signalling: IEEE_DENORMAL
Note: The following floating-point exceptions are signalling: IEEE_DENORMAL
Note: The following floating-point exceptions are signalling: IEEE_DENORMAL
Note: The following floating-point exceptions are signalling: IEEE_DENORMAL
Note: The following floating-point exceptions are signalling: IEEE_DENORMAL
Note: The following floating-point exceptions are signalling: IEEE_DENORMAL
Note: The following floating-point exceptions are signalling: IEEE_DENORMAL
Note: The following floating-point exceptions are signalling: IEEE_DENORMAL
Note: The following floating-point exceptions are signalling: IEEE_DENORMAL
Note: The following floating-point exceptions are signalling: IEEE_DENORMAL
Note: The following floating-point exceptions are signalling: IEEE_DENORMAL
Note: The following floating-point exceptions are signalling: IEEE_DENORMAL
Note: The following floating-point exceptions are signalling: IEEE_DENORMAL
Note: The following floating-point exceptions are signalling: IEEE_DENORMAL
Note: The following floating-point exceptions are signalling: IEEE_DENORMAL
Note: The following floating-point exceptions are signalling: IEEE_DENORMAL
Note: The following floating-point exceptions are signalling: IEEE_DENORMAL
Note: The following floating-point exceptions are signalling: IEEE_DENORMAL
Note: The following floating-point exceptions are signalling: IEEE_DENORMAL
