
     Program PWSCF v.7.5 starts on 31Aug2026 at 21:40:34 

     This program is part of the open-source Quantum ESPRESSO suite
     for quantum simulation of materials; please cite
         "P. Giannozzi et al., J. Phys.:Condens. Matter 21 395502 (2009);
         "P. Giannozzi et al., J. Phys.:Condens. Matter 29 465901 (2017);
         "P. Giannozzi et al., J. Chem. Phys. 152 154105 (2020);
          URL http://www.quantum-espresso.org", 
     in publications or presentations arising from this work. More details at
     http://www.quantum-espresso.org/quote

     Parallel version (MPI & OpenMP), running on     128 processor cores
     Number of MPI processes:               128
     Threads/MPI process:                     1

     MPI processes distributed on     1 nodes
     229277 MiB available memory on the printing compute node when the environment starts

     Reading input from s0_OH__u000__sp2m010.run.in

     Current dimensions of program PWSCF are:
     Max number of different atomic species (ntypx) = 10
     Max number of k-points (npk) =  40000
     Max angular momentum in pseudopotentials (lmaxx) =  4
     file O.pbe-n-kjpaw_psl.0.1.UPF: wavefunction(s)  2P renormalized
     Message from routine setup:
     using ibrav=0 with symmetry is DISCOURAGED, use correct ibrav instead

     K-points division:     npool     =       4
     R & G space division:  proc/nbgrp/npool/nimage =      32
     Subspace diagonalization in iterative solution of the eigenvalue problem:
     a serial algorithm will be used


     Parallelization info
     --------------------
     sticks:   dense  smooth     PW     G-vecs:    dense   smooth      PW
     Min         113      57     16                29407    10389    1566
     Max         114      58     17                29434    10403    1581
     Sum        3639    1825    519               941385   332621   50331

     Using Slab Decomposition



     bravais-lattice index     =            0
     lattice parameter (alat)  =       5.9602  a.u.
     unit-cell volume          =    3444.9838 (a.u.)^3
     number of atoms/cell      =           20
     number of atomic types    =            3
     number of electrons       =       169.00
     number of Kohn-Sham states=          102
     kinetic-energy cutoff     =      80.0000  Ry
     charge density cutoff     =     640.0000  Ry
     scf convergence threshold =      1.0E-06
     mixing beta               =       0.3000
     number of iterations used =            8  local-TF  mixing
     Exchange-correlation= SLA  PW   PBX  PBC
                           (   1   4   3   4   0   0   0)

     celldm(1)=   5.960196  celldm(2)=   0.000000  celldm(3)=   0.000000
     celldm(4)=   0.000000  celldm(5)=   0.000000  celldm(6)=   0.000000

     crystal axes: (cart. coord. in units of alat)
               a(1) = (   1.000000   0.000000   0.000000 )  
               a(2) = (   0.000000   2.016846   0.000000 )  
               a(3) = (   0.000000   0.000000   8.067384 )  

     reciprocal axes: (cart. coord. in units 2 pi/alat)
               b(1) = (  1.000000  0.000000  0.000000 )  
               b(2) = (  0.000000  0.495824  0.000000 )  
               b(3) = (  0.000000  0.000000  0.123956 )  


     PseudoPot. # 1 for H  read from file:
     /anvil/projects/x-che260157/pseudo/H.pbe-rrkjus_psl.1.0.0.UPF
     MD5 check sum: f52b6d4d1c606e5624b1dc7b2218f220
     Pseudo is Ultrasoft, Zval =  1.0
     Generated using "atomic" code by A. Dal Corso  v.5.1
     Using radial grid of  929 points,  2 beta functions with: 
                l(1) =   0
                l(2) =   0
     Q(r) pseudized with 0 coefficients 


     PseudoPot. # 2 for Ir read from file:
     /anvil/projects/x-che260157/pseudo/Ir_pbe_v1.2.uspp.F.UPF
     MD5 check sum: 8836f839c3459d2b385c504ce6d91f2c
     Pseudo is Ultrasoft + core correction, Zval = 15.0
     Generated by new atomic code, or converted to UPF format
     Using radial grid of  983 points,  7 beta functions with: 
                l(1) =   0
                l(2) =   0
                l(3) =   1
                l(4) =   1
                l(5) =   1
                l(6) =   2
                l(7) =   2
     Q(r) pseudized with  8 coefficients,  rinner =    1.400   1.400   1.400
                                                       1.400   1.400

     PseudoPot. # 3 for O  read from file:
     /anvil/projects/x-che260157/pseudo/O.pbe-n-kjpaw_psl.0.1.UPF
     MD5 check sum: 0234752ac141de4415c5fc33072bef88
     Pseudo is Projector augmented-wave + core cor, Zval =  6.0
     Generated using "atomic" code by A. Dal Corso  v.5.0.99 svn rev. 10869
     Shape of augmentation charge: BESSEL
     Using radial grid of 1095 points,  4 beta functions with: 
                l(1) =   0
                l(2) =   0
                l(3) =   1
                l(4) =   1
     Q(r) pseudized with 0 coefficients 


     atomic species   valence    mass     pseudopotential
     H                 1.00     1.00800     H ( 1.00)
     Ir               15.00   192.21700     Ir( 1.00)
     O                 6.00    15.99900     O ( 1.00)

     Starting magnetic structure 
     atomic species   magnetization
     H               0.000
     Ir              0.100
     O               0.000

      2 Sym. Ops. (no inversion) found ( 1 have fractional translation)



   Cartesian axes

     site n.     atom                  positions (alat units)
         1        Ir     tau(   1) = (   0.0000000   1.5126346   3.0252692  )
         2        Ir     tau(   2) = (   0.5000000   0.5042115   3.0252692  )
         3        Ir     tau(   3) = (  -0.0008242   0.5042115   4.0440689  )
         4        Ir     tau(   4) = (   0.4992639   1.5126346   4.0342031  )
         5        Ir     tau(   5) = (  -0.0026497   1.5126346   5.0620142  )
         6        Ir     tau(   6) = (   0.4951993   0.5042115   5.0709699  )
         7        O      tau(   7) = (   0.0000000   0.5042115   3.4185541  )
         8        O      tau(   8) = (   0.0000000   0.5042115   2.6319842  )
         9        O      tau(   9) = (   0.5000000   1.1193496   3.0252692  )
        10        O      tau(  10) = (   0.5000000   1.9059196   3.0252692  )
        11        O      tau(  11) = (  -0.0015798   1.5126346   4.4293404  )
        12        O      tau(  12) = (   0.0000000   1.5126346   3.6404072  )
        13        O      tau(  13) = (   0.4992996   0.1182431   4.0371691  )
        14        O      tau(  14) = (   0.4992996   0.8901799   4.0371691  )
        15        O      tau(  15) = (  -0.0050805   0.5042115   5.4448748  )
        16        O      tau(  16) = (  -0.0040464   0.5042115   4.6729430  )
        17        O      tau(  17) = (   0.4959964   1.1251299   5.0554257  )
        18        O      tau(  18) = (   0.4959964   1.9001393   5.0554257  )
        19        O      tau(  19) = (  -0.0349756   1.5126346   5.6753284  )
        20        H      tau(  20) = (   0.2502274   1.5126346   5.7991802  )

     number of k points=    15  Marzari-Vanderbilt smearing, width (Ry)=  0.0100
                       cart. coord. in units 2pi/alat
        k(    1) = (   0.0000000   0.0000000   0.0000000), wk =   0.0312500
        k(    2) = (   0.0000000   0.1239559   0.0000000), wk =   0.0625000
        k(    3) = (   0.0000000  -0.2479118   0.0000000), wk =   0.0312500
        k(    4) = (   0.1250000   0.0000000   0.0000000), wk =   0.0625000
        k(    5) = (   0.1250000   0.1239559   0.0000000), wk =   0.1250000
        k(    6) = (   0.1250000  -0.2479118   0.0000000), wk =   0.0625000
        k(    7) = (   0.2500000   0.0000000   0.0000000), wk =   0.0625000
        k(    8) = (   0.2500000   0.1239559   0.0000000), wk =   0.1250000
        k(    9) = (   0.2500000  -0.2479118   0.0000000), wk =   0.0625000
        k(   10) = (   0.3750000   0.0000000   0.0000000), wk =   0.0625000
        k(   11) = (   0.3750000   0.1239559   0.0000000), wk =   0.1250000
        k(   12) = (   0.3750000  -0.2479118   0.0000000), wk =   0.0625000
        k(   13) = (  -0.5000000   0.0000000   0.0000000), wk =   0.0312500
        k(   14) = (  -0.5000000   0.1239559   0.0000000), wk =   0.0625000
        k(   15) = (  -0.5000000  -0.2479118   0.0000000), wk =   0.0312500

     Dense  grid:   941385 G-vectors     FFT dimensions: (  48, 100, 400)

     Smooth grid:   332621 G-vectors     FFT dimensions: (  36,  72, 288)

     Estimated max dynamical RAM per process >      92.78 MB

     Estimated total dynamical RAM >      10.25 GB
     Generating pointlists ...
     new r_m :   0.1283 (alat units)  0.7645 (a.u.) for type    1
     new r_m :   0.2533 (alat units)  1.5100 (a.u.) for type    2
     new r_m :   0.1283 (alat units)  0.7645 (a.u.) for type    3

     Initial potential from superposition of free atoms

     starting charge     165.9998, renormalised to     169.0000

     negative rho (up, down):  1.223E+00 1.000E+00
     Starting wfcs are  125 randomized atomic wfcs
     Checking if some PAW data can be deallocated... 

     total cpu time spent up to now is        8.2 secs

     per-process dynamical memory:   113.9 Mb

     Self-consistent Calculation

     iteration #  1     ecut=    80.00 Ry     beta= 0.30
     Davidson diagonalization with overlap
     ethr =  1.00E-02,  avg # of iterations =  3.5

     negative rho (up, down):  1.121E+00 9.348E-01

     total cpu time spent up to now is       15.1 secs

     total energy              =   -1633.01622933 Ry
     estimated scf accuracy    <      49.46049864 Ry

     total magnetization       =     3.06 Bohr mag/cell
     absolute magnetization    =     3.85 Bohr mag/cell

     iteration #  2     ecut=    80.00 Ry     beta= 0.30
     Davidson diagonalization with overlap
     ethr =  1.00E-02,  avg # of iterations =  1.0

     negative rho (up, down):  1.057E+00 9.017E-01

     total cpu time spent up to now is       21.6 secs

     total energy              =   -1632.85650033 Ry
     estimated scf accuracy    <       5.95500215 Ry

     total magnetization       =     2.78 Bohr mag/cell
     absolute magnetization    =     3.26 Bohr mag/cell

     iteration #  3     ecut=    80.00 Ry     beta= 0.30
     Davidson diagonalization with overlap
     ethr =  3.52E-03,  avg # of iterations =  1.3

     negative rho (up, down):  9.792E-01 8.756E-01

     total cpu time spent up to now is       26.0 secs

     total energy              =   -1632.35561861 Ry
     estimated scf accuracy    <       2.24958328 Ry

     total magnetization       =     2.49 Bohr mag/cell
     absolute magnetization    =     2.91 Bohr mag/cell

     iteration #  4     ecut=    80.00 Ry     beta= 0.30
     Davidson diagonalization with overlap
     ethr =  1.33E-03,  avg # of iterations =  5.3

     negative rho (up, down):  9.876E-01 8.986E-01

     total cpu time spent up to now is       31.6 secs

     total energy              =   -1632.66430566 Ry
     estimated scf accuracy    <       0.50446130 Ry

     total magnetization       =     1.81 Bohr mag/cell
     absolute magnetization    =     2.08 Bohr mag/cell

     iteration #  5     ecut=    80.00 Ry     beta= 0.30
     Davidson diagonalization with overlap
     ethr =  2.98E-04,  avg # of iterations =  4.2

     negative rho (up, down):  9.823E-01 9.250E-01

     total cpu time spent up to now is       37.1 secs

     total energy              =   -1632.64169587 Ry
     estimated scf accuracy    <       0.19444905 Ry

     total magnetization       =     1.76 Bohr mag/cell
     absolute magnetization    =     2.00 Bohr mag/cell

     iteration #  6     ecut=    80.00 Ry     beta= 0.30
     Davidson diagonalization with overlap
     ethr =  1.15E-04,  avg # of iterations =  3.7

     negative rho (up, down):  9.810E-01 9.410E-01

     total cpu time spent up to now is       41.9 secs

     total energy              =   -1632.65028342 Ry
     estimated scf accuracy    <       0.06393609 Ry

     total magnetization       =     1.47 Bohr mag/cell
     absolute magnetization    =     1.64 Bohr mag/cell

     iteration #  7     ecut=    80.00 Ry     beta= 0.30
     Davidson diagonalization with overlap
     ethr =  3.78E-05,  avg # of iterations =  4.8

     negative rho (up, down):  9.851E-01 9.589E-01

     total cpu time spent up to now is       46.5 secs

     total energy              =   -1632.65099114 Ry
     estimated scf accuracy    <       0.03308601 Ry

     total magnetization       =     1.28 Bohr mag/cell
     absolute magnetization    =     1.41 Bohr mag/cell

     iteration #  8     ecut=    80.00 Ry     beta= 0.30
     Davidson diagonalization with overlap
     ethr =  1.96E-05,  avg # of iterations =  4.2

     negative rho (up, down):  9.860E-01 9.653E-01

     total cpu time spent up to now is       52.1 secs

     total energy              =   -1632.65078791 Ry
     estimated scf accuracy    <       0.01052885 Ry

     total magnetization       =     1.09 Bohr mag/cell
     absolute magnetization    =     1.19 Bohr mag/cell

     iteration #  9     ecut=    80.00 Ry     beta= 0.30
     Davidson diagonalization with overlap
     ethr =  6.23E-06,  avg # of iterations =  5.3

     negative rho (up, down):  9.830E-01 9.644E-01

     total cpu time spent up to now is       87.9 secs

     total energy              =   -1632.65037608 Ry
     estimated scf accuracy    <       0.00445014 Ry

     total magnetization       =     0.98 Bohr mag/cell
     absolute magnetization    =     1.08 Bohr mag/cell

     iteration # 10     ecut=    80.00 Ry     beta= 0.30
     Davidson diagonalization with overlap
     ethr =  2.63E-06,  avg # of iterations =  6.3

     negative rho (up, down):  9.783E-01 9.619E-01

     total cpu time spent up to now is       92.6 secs

     total energy              =   -1632.64982003 Ry
     estimated scf accuracy    <       0.00221692 Ry

     total magnetization       =     0.90 Bohr mag/cell
     absolute magnetization    =     1.00 Bohr mag/cell

     iteration # 11     ecut=    80.00 Ry     beta= 0.30
     Davidson diagonalization with overlap
     ethr =  1.31E-06,  avg # of iterations =  7.3

     negative rho (up, down):  9.715E-01 9.562E-01

     total cpu time spent up to now is       97.6 secs

     total energy              =   -1632.64941387 Ry
     estimated scf accuracy    <       0.00139728 Ry

     total magnetization       =     0.81 Bohr mag/cell
     absolute magnetization    =     0.92 Bohr mag/cell

     iteration # 12     ecut=    80.00 Ry     beta= 0.30
     Davidson diagonalization with overlap
     ethr =  8.27E-07,  avg # of iterations =  8.8

     negative rho (up, down):  9.669E-01 9.530E-01

     total cpu time spent up to now is      103.5 secs

     total energy              =   -1632.64906060 Ry
     estimated scf accuracy    <       0.00079636 Ry

     total magnetization       =     0.73 Bohr mag/cell
     absolute magnetization    =     0.85 Bohr mag/cell

     iteration # 13     ecut=    80.00 Ry     beta= 0.30
     Davidson diagonalization with overlap
     ethr =  4.71E-07,  avg # of iterations = 11.2

     negative rho (up, down):  9.652E-01 9.525E-01

     total cpu time spent up to now is      111.0 secs

     total energy              =   -1632.64893130 Ry
     estimated scf accuracy    <       0.00035289 Ry

     total magnetization       =     0.67 Bohr mag/cell
     absolute magnetization    =     0.78 Bohr mag/cell

     iteration # 14     ecut=    80.00 Ry     beta= 0.30
     Davidson diagonalization with overlap
     ethr =  2.09E-07,  avg # of iterations = 10.2

     negative rho (up, down):  9.640E-01 9.516E-01

     total cpu time spent up to now is      116.2 secs

     total energy              =   -1632.64872919 Ry
     estimated scf accuracy    <       0.00036473 Ry

     total magnetization       =     0.63 Bohr mag/cell
     absolute magnetization    =     0.75 Bohr mag/cell

     iteration # 15     ecut=    80.00 Ry     beta= 0.30
     Davidson diagonalization with overlap
     ethr =  2.09E-07,  avg # of iterations = 11.2

     negative rho (up, down):  9.635E-01 9.518E-01

     total cpu time spent up to now is      121.3 secs

     total energy              =   -1632.64868213 Ry
     estimated scf accuracy    <       0.00012238 Ry

     total magnetization       =     0.62 Bohr mag/cell
     absolute magnetization    =     0.72 Bohr mag/cell

     iteration # 16     ecut=    80.00 Ry     beta= 0.30
     Davidson diagonalization with overlap
     ethr =  7.24E-08,  avg # of iterations =  7.5

     negative rho (up, down):  9.624E-01 9.507E-01

     total cpu time spent up to now is      128.3 secs

     total energy              =   -1632.64864350 Ry
     estimated scf accuracy    <       0.00008176 Ry

     total magnetization       =     0.60 Bohr mag/cell
     absolute magnetization    =     0.69 Bohr mag/cell

     iteration # 17     ecut=    80.00 Ry     beta= 0.30
     Davidson diagonalization with overlap
     ethr =  4.84E-08,  avg # of iterations =  7.4

     negative rho (up, down):  9.607E-01 9.486E-01

     total cpu time spent up to now is      135.3 secs

     total energy              =   -1632.64859154 Ry
     estimated scf accuracy    <       0.00004694 Ry

     total magnetization       =     0.60 Bohr mag/cell
     absolute magnetization    =     0.69 Bohr mag/cell

     iteration # 18     ecut=    80.00 Ry     beta= 0.30
     Davidson diagonalization with overlap
     c_bands:  1 eigenvalues not converged
     c_bands:  1 eigenvalues not converged
     c_bands:  1 eigenvalues not converged
     ethr =  2.78E-08,  avg # of iterations =  9.9

     negative rho (up, down):  9.604E-01 9.483E-01

     total cpu time spent up to now is      151.3 secs

     total energy              =   -1632.64859771 Ry
     estimated scf accuracy    <       0.00000561 Ry

     total magnetization       =     0.61 Bohr mag/cell
     absolute magnetization    =     0.69 Bohr mag/cell

     iteration # 19     ecut=    80.00 Ry     beta= 0.30
     Davidson diagonalization with overlap
     ethr =  3.32E-09,  avg # of iterations =  3.0

     negative rho (up, down):  9.600E-01 9.480E-01

     total cpu time spent up to now is      177.5 secs

     total energy              =   -1632.64859862 Ry
     estimated scf accuracy    <       0.00000260 Ry

     total magnetization       =     0.61 Bohr mag/cell
     absolute magnetization    =     0.68 Bohr mag/cell

     iteration # 20     ecut=    80.00 Ry     beta= 0.30
     Davidson diagonalization with overlap
     ethr =  1.54E-09,  avg # of iterations =  4.7

     negative rho (up, down):  9.600E-01 9.479E-01

     Magnetic moment per site  (integrated on atomic sphere of radius R)
     atom   1 (R=0.253)  charge=  9.4893  magn= -0.0042
     atom   2 (R=0.253)  charge=  9.4056  magn=  0.0351
     atom   3 (R=0.253)  charge=  9.4342  magn=  0.0116
     atom   4 (R=0.253)  charge=  9.4418  magn=  0.0143
     atom   5 (R=0.253)  charge=  9.4191  magn=  0.1126
     atom   6 (R=0.253)  charge=  9.4001  magn=  0.0470
     atom   7 (R=0.128)  charge=  1.9385  magn=  0.0047
     atom   8 (R=0.128)  charge=  1.9154  magn=  0.0115
     atom   9 (R=0.128)  charge=  1.9360  magn=  0.0001
     atom  10 (R=0.128)  charge=  1.9360  magn=  0.0001
     atom  11 (R=0.128)  charge=  1.9333  magn=  0.0216
     atom  12 (R=0.128)  charge=  1.9340  magn= -0.0017
     atom  13 (R=0.128)  charge=  1.9388  magn=  0.0012
     atom  14 (R=0.128)  charge=  1.9388  magn=  0.0012
     atom  15 (R=0.128)  charge=  1.9215  magn=  0.0275
     atom  16 (R=0.128)  charge=  1.9370  magn=  0.0031
     atom  17 (R=0.128)  charge=  1.9369  magn=  0.0027
     atom  18 (R=0.128)  charge=  1.9369  magn=  0.0027
     atom  19 (R=0.128)  charge=  1.9434  magn=  0.0358
     atom  20 (R=0.128)  charge=  0.3965  magn= -0.0004

     total cpu time spent up to now is      186.6 secs

     End of self-consistent calculation

 ------ SPIN UP ------------


          k = 0.0000 0.0000 0.0000 ( 41611 PWs)   bands (ev):

   -48.9292 -48.8196 -48.8152 -48.7784 -48.7027 -48.6775 -48.6471 -48.6267
   -48.6084 -48.6061 -48.5948 -48.4752 -48.4338 -48.4255 -48.3971 -48.3136
   -48.3053 -48.0960 -19.4116 -19.0807 -18.9478 -18.6393 -18.0561 -17.8719
   -17.7462 -17.4504 -17.4458 -17.3806 -17.3355 -16.2819 -15.9964  -8.1225
    -8.0795  -8.0621  -7.5608  -6.7826  -6.4559  -6.3871  -6.3103  -6.1993
    -5.9350  -5.7262  -5.6995  -5.5284  -5.3021  -5.1847  -4.1598  -4.0733
    -3.5420  -3.5058  -3.3841  -3.0810  -3.0797  -2.9197  -2.8056  -2.7114
    -2.6493  -2.6312  -2.4412  -2.3297  -2.1909  -2.1735  -1.8200  -1.7231
    -1.4942  -1.3925  -1.1347  -1.0448  -0.8825  -0.8382  -0.8121  -0.7916
    -0.7592  -0.6704  -0.6485  -0.4866  -0.4389  -0.3131   0.1358   0.2129
     0.3041   0.7461   0.8741   1.0997   1.6344   1.8931   1.9664   2.3717
     2.7245   3.2201   3.8693   4.3280   5.1659   5.1807   5.7739   5.8184
     5.8294   5.8696   6.1008   6.1615   6.5449   6.8993

          k = 0.0000 0.1240 0.0000 ( 41688 PWs)   bands (ev):

   -48.9284 -48.8192 -48.8152 -48.7775 -48.7027 -48.6773 -48.6469 -48.6268
   -48.6084 -48.6070 -48.5950 -48.4761 -48.4338 -48.4255 -48.3970 -48.3137
   -48.3054 -48.0964 -19.2853 -18.9347 -18.8193 -18.6691 -18.1015 -17.9826
   -17.7385 -17.5829 -17.5507 -17.4792 -17.4382 -16.2796 -15.9931  -7.6255
    -7.5749  -7.5459  -7.5021  -6.7817  -6.3750  -6.3129  -6.3065  -6.1087
    -5.8338  -5.7245  -5.5987  -5.5272  -5.3133  -4.9953  -4.3877  -4.1806
    -4.1185  -3.9592  -3.8974  -3.6821  -3.6116  -3.3747  -3.2411  -3.2114
    -2.9995  -2.8099  -2.4060  -2.3377  -2.2195  -2.1639  -2.0256  -1.7374
    -1.6397  -1.2767  -1.2247  -0.9927  -0.9024  -0.5360  -0.4783  -0.3714
    -0.2895  -0.2470  -0.2012  -0.1571  -0.1239  -0.0270   0.1541   0.3178
     0.3239   0.7432   0.8635   1.1631   1.6313   1.6990   1.9896   2.1376
     2.5270   3.7364   4.4476   4.7542   5.1726   5.2930   5.4877   5.5207
     5.5450   5.8760   6.1632   6.1730   6.7012   6.7945

          k = 0.0000-0.2479 0.0000 ( 41774 PWs)   bands (ev):

   -48.9276 -48.8188 -48.8152 -48.7766 -48.7027 -48.6772 -48.6468 -48.6270
   -48.6084 -48.6079 -48.5951 -48.4771 -48.4337 -48.4255 -48.3970 -48.3137
   -48.3054 -48.0969 -19.0731 -18.8637 -18.6946 -18.4772 -18.2550 -18.2333
   -17.7790 -17.7065 -17.6901 -17.5751 -17.4411 -16.2783 -15.9904  -7.5699
    -6.7929  -6.7649  -6.7044  -6.5883  -6.3089  -6.2818  -6.2250  -6.0052
    -5.7959  -5.7214  -5.5249  -5.3224  -5.2375  -5.1588  -5.1161  -5.0770
    -4.9711  -4.5433  -4.3228  -4.0135  -3.6991  -3.6397  -3.5943  -3.4670
    -3.3978  -3.1184  -2.4078  -2.3796  -2.0371  -2.0025  -1.9298  -1.6830
    -1.6674  -1.4000  -1.0425  -1.0353  -0.9004  -0.5221  -0.4916  -0.3345
     0.0007   0.0011   0.1007   0.1669   0.2374   0.3197   0.4149   0.5245
     0.6961   0.8026   0.9666   0.9703   1.4150   1.5965   1.8978   1.9796
     2.3945   4.3034   4.5501   5.1745   5.1776   5.1913   5.2381   5.4809
     5.6627   5.8767   6.0272   6.1656   6.5917   7.3952

          k = 0.1250 0.0000 0.0000 ( 41611 PWs)   bands (ev):

   -48.9279 -48.8185 -48.8142 -48.7771 -48.7017 -48.6935 -48.6634 -48.6434
   -48.6110 -48.6059 -48.6039 -48.4730 -48.4495 -48.4232 -48.3961 -48.3300
   -48.3031 -48.0936 -19.2706 -18.9560 -18.8279 -18.5362 -17.9871 -17.8007
   -17.7761 -17.5259 -17.4604 -17.4362 -17.4205 -16.3370 -16.0389  -7.9371
    -7.8984  -7.8839  -7.3783  -6.7474  -6.4336  -6.3578  -6.3269  -6.1650
    -5.8200  -5.7240  -5.3058  -5.2351  -5.2118  -4.9923  -4.3407  -4.0321
    -3.9277  -3.5519  -3.4682  -3.4002  -3.3851  -3.3169  -3.2565  -3.0004
    -2.8491  -2.6420  -2.5335  -2.4309  -2.3915  -2.2063  -2.1971  -2.0456
    -2.0060  -1.6240  -1.5720  -1.0573  -0.9336  -0.6776  -0.5949  -0.5058
    -0.3847  -0.3835  -0.3498  -0.3143   0.0194   0.1131   0.2308   0.3961
     0.5255   1.0512   1.0732   1.2825   1.4857   1.8026   2.0449   2.2181
     2.5631   3.4460   4.0927   4.5129   4.7519   5.1849   5.3938   5.4316
     5.4545   5.4799   5.6895   6.2489   6.8290   6.9312

          k = 0.1250 0.1240 0.0000 ( 41692 PWs)   bands (ev):

   -48.9273 -48.8182 -48.8142 -48.7765 -48.7017 -48.6934 -48.6632 -48.6433
   -48.6120 -48.6059 -48.6039 -48.4738 -48.4495 -48.4232 -48.3961 -48.3300
   -48.3031 -48.0940 -19.1500 -18.8154 -18.6997 -18.5657 -18.0288 -17.9166
   -17.7777 -17.6492 -17.6133 -17.5354 -17.4292 -16.3354 -16.0361  -7.4558
    -7.4100  -7.3896  -7.3495  -6.7480  -6.3613  -6.3378  -6.2348  -6.0682
    -5.9027  -5.4808  -5.2863  -5.2448  -5.2215  -4.8877  -4.3224  -4.2477
    -4.1722  -4.0643  -3.9434  -3.8557  -3.7987  -3.6976  -3.6229  -3.5233
    -3.2676  -3.0968  -2.7687  -2.5517  -2.2716  -2.1860  -2.0811  -2.0053
    -1.7256  -1.4884  -1.2464  -1.0851  -0.9284  -0.5841  -0.4355  -0.3099
    -0.2143  -0.0727  -0.0157   0.1360   0.1849   0.1975   0.3516   0.4845
     0.6136   1.0299   1.1367   1.2653   1.5261   1.5842   1.9366   2.1275
     2.4241   3.8702   4.5277   4.7216   4.7491   4.9843   5.0789   5.2353
     5.3779   5.5597   5.6937   6.2835   6.7447   7.1878

          k = 0.1250-0.2479 0.0000 ( 41706 PWs)   bands (ev):

   -48.9267 -48.8179 -48.8142 -48.7759 -48.7017 -48.6933 -48.6630 -48.6433
   -48.6128 -48.6060 -48.6039 -48.4746 -48.4494 -48.4232 -48.3960 -48.3300
   -48.3031 -48.0944 -18.9491 -18.7345 -18.5745 -18.3642 -18.1920 -18.1874
   -17.8512 -17.7508 -17.7322 -17.5935 -17.4284 -16.3344 -16.0338  -7.3848
    -6.7490  -6.5504  -6.4781  -6.3949  -6.3689  -6.3341  -6.3330  -6.2155
    -5.9200  -5.3373  -5.2699  -5.2333  -4.9772  -4.9462  -4.8207  -4.7891
    -4.6645  -4.6607  -4.6130  -4.3935  -4.3087  -3.9233  -3.8927  -3.6318
    -3.4803  -3.3895  -2.8584  -2.5820  -2.1487  -2.1162  -1.8322  -1.7779
    -1.6319  -1.3865  -1.1672  -1.0054  -0.9658  -0.5646  -0.4029  -0.1453
    -0.1060  -0.0927   0.0025   0.1839   0.4665   0.6252   0.6957   0.8497
     0.8664   1.0596   1.0742   1.3197   1.3432   1.5341   1.7876   1.8870
     2.4159   4.3989   4.4271   4.5844   4.6367   4.6773   4.9685   5.3906
     5.6096   5.7207   5.7252   6.0928   6.7747   7.7158

          k = 0.2500 0.0000 0.0000 ( 41623 PWs)   bands (ev):

   -48.9249 -48.8158 -48.8119 -48.7739 -48.7320 -48.7027 -48.6995 -48.6833
   -48.6497 -48.6001 -48.5987 -48.4871 -48.4677 -48.4176 -48.3937 -48.3695
   -48.2976 -48.0879 -18.9031 -18.6441 -18.5284 -18.3011 -17.9352 -17.8531
   -17.7149 -17.6464 -17.6181 -17.5884 -17.3779 -16.4218 -16.0911  -7.4519
    -7.4139  -7.4068  -6.9034  -6.5558  -6.3587  -6.3371  -6.1463  -5.9518
    -5.7660  -5.5735  -5.2098  -5.2060  -4.8957  -4.6829  -4.5608  -4.5083
    -4.4921  -4.4439  -3.9914  -3.7737  -3.7121  -3.3979  -3.3000  -3.1735
    -3.1317  -3.0313  -2.9485  -2.8817  -2.7773  -2.5496  -2.2658  -2.0599
    -1.8657  -1.5930  -1.5468  -1.2621  -1.1248  -0.8550  -0.4382  -0.2108
    -0.1901  -0.1285  -0.0337   0.0634   0.4497   0.6804   0.7468   0.8314
     1.0491   1.1464   1.1925   1.3187   1.4212   1.5966   1.8588   2.1250
     2.1933   3.8216   4.1376   4.3656   4.6090   4.6698   4.6976   4.7730
     4.9050   4.9726   5.5564   6.0084   7.1459   7.9007

          k = 0.2500 0.1240 0.0000 ( 41653 PWs)   bands (ev):

   -48.9248 -48.8157 -48.8119 -48.7743 -48.7320 -48.7023 -48.6995 -48.6826
   -48.6502 -48.6001 -48.5988 -48.4872 -48.4681 -48.4176 -48.3937 -48.3693
   -48.2976 -48.0881 -18.8056 -18.5319 -18.4145 -18.3297 -17.9847 -17.8962
   -17.7914 -17.7801 -17.7457 -17.5587 -17.3741 -16.4220 -16.0903  -7.0685
    -7.0383  -7.0275  -6.9010  -6.5551  -6.3584  -6.1817  -5.9929  -5.8431
    -5.8134  -5.6386  -5.3333  -5.0824  -5.0314  -5.0085  -4.8831  -4.7849
    -4.6370  -4.2142  -4.0674  -3.8649  -3.6721  -3.5564  -3.5106  -3.4434
    -3.4178  -3.2979  -3.1769  -2.8991  -2.6332  -2.3648  -2.3143  -2.0758
    -1.8473  -1.7272  -1.3879  -1.1852  -1.0705  -1.0118  -0.5037  -0.1044
    -0.0401   0.1536   0.2483   0.2776   0.4636   0.4865   0.8402   0.8989
     1.0713   1.1424   1.2424   1.3338   1.4523   1.5585   1.7410   1.9328
     2.3497   3.9182   4.0265   4.0820   4.1508   4.1961   4.8104   4.9249
     5.1789   5.3816   5.7283   6.1267   7.2067   8.1167

          k = 0.2500-0.2479 0.0000 ( 41680 PWs)   bands (ev):

   -48.9247 -48.8157 -48.8119 -48.7747 -48.7320 -48.7019 -48.6995 -48.6818
   -48.6506 -48.6001 -48.5988 -48.4872 -48.4685 -48.4176 -48.3937 -48.3692
   -48.2976 -48.0883 -18.6462 -18.4264 -18.2976 -18.1828 -18.1110 -18.1031
   -17.9982 -17.8479 -17.7732 -17.5544 -17.3717 -16.4224 -16.0896  -6.9048
    -6.5614  -6.4161  -6.3923  -6.3693  -6.3616  -5.9228  -5.8820  -5.8514
    -5.7759  -5.7604  -5.6557  -5.6261  -5.5335  -5.1728  -4.9227  -4.6562
    -4.4202  -4.3775  -4.1985  -4.1145  -4.0776  -3.8548  -3.7581  -3.7570
    -3.5899  -3.4502  -3.3898  -2.9387  -2.3383  -2.2079  -1.9648  -1.9234
    -1.7927  -1.7572  -1.4838  -1.3000  -1.0540  -0.8080  -0.3619  -0.3536
    -0.0603   0.0953   0.1363   0.5692   0.6192   0.6590   0.9294   1.0512
     1.1421   1.1477   1.2933   1.4209   1.4662   1.6069   1.7054   1.7303
     2.4348   3.5951   3.5975   3.7086   4.0726   4.1867   4.9277   5.1444
     5.2251   5.7952   5.8902   6.1593   7.3130   8.5231

          k = 0.3750 0.0000 0.0000 ( 41645 PWs)   bands (ev):

   -48.9219 -48.8131 -48.8103 -48.7708 -48.7697 -48.7415 -48.7234 -48.6999
   -48.6854 -48.5943 -48.5935 -48.5245 -48.4624 -48.4120 -48.4086 -48.3913
   -48.2921 -48.0823 -18.4696 -18.3236 -18.2114 -18.1667 -17.9706 -17.8975
   -17.8251 -17.8198 -17.8053 -17.4767 -17.3067 -16.4008 -16.0570  -6.8878
    -6.8636  -6.8232  -6.5178  -6.3331  -6.2768  -6.1818  -6.1728  -5.9779
    -5.8725  -5.6305  -5.6109  -5.4844  -5.3979  -5.2382  -4.8481  -4.5374
    -4.4702  -4.3399  -3.9975  -3.8729  -3.7836  -3.6445  -3.5315  -3.2147
    -3.1749  -3.0294  -2.8756  -2.7168  -2.5971  -2.5122  -2.4775  -1.8844
    -1.7886  -1.6046  -1.4668  -1.3292  -1.2414  -0.8840  -0.3073  -0.2419
    -0.1493  -0.0820   0.1309   0.1480   0.5670   0.6712   0.6755   0.7519
     0.9484   1.0611   1.1102   1.4159   1.4630   1.6200   1.9310   2.0270
     2.1208   3.5423   3.7376   4.1123   4.1497   4.2671   4.4772   4.5318
     4.8536   5.0810   5.5560   5.6987   7.9345   9.0966

          k = 0.3750 0.1240 0.0000 ( 41549 PWs)   bands (ev):

   -48.9224 -48.8133 -48.8102 -48.7732 -48.7697 -48.7408 -48.7208 -48.7000
   -48.6857 -48.5943 -48.5932 -48.5245 -48.4624 -48.4120 -48.4083 -48.3913
   -48.2921 -48.0822 -18.4393 -18.3026 -18.2423 -18.1915 -18.0169 -17.9422
   -17.8092 -17.7978 -17.7634 -17.4786 -17.3048 -16.4024 -16.0571  -6.7727
    -6.7283  -6.6985  -6.5329  -6.3660  -6.3120  -6.2397  -6.1709  -6.1047
    -6.0284  -5.9426  -5.4734  -5.2668  -5.2096  -5.0096  -4.9220  -4.6166
    -4.5659  -4.0907  -3.9179  -3.8229  -3.7113  -3.5792  -3.3710  -3.3050
    -3.1394  -3.0188  -2.9762  -2.9592  -2.6880  -2.3219  -2.2588  -2.1230
    -1.8196  -1.6515  -1.5729  -1.4211  -1.2370  -1.0379  -0.4578  -0.1942
    -0.1424  -0.0732   0.0222   0.0335   0.2644   0.3129   0.5798   0.6650
     0.7212   1.0326   1.5712   1.6409   1.6867   1.8087   1.8567   2.0126
     2.1990   3.3546   3.4106   3.5617   3.6205   3.7687   4.4915   5.2079
     5.4953   5.6589   5.8571   5.8929   8.0332   9.2715

          k = 0.3750-0.2479 0.0000 ( 41514 PWs)   bands (ev):

   -48.9229 -48.8135 -48.8102 -48.7753 -48.7698 -48.7401 -48.7185 -48.7000
   -48.6859 -48.5943 -48.5930 -48.5246 -48.4624 -48.4120 -48.4080 -48.3913
   -48.2921 -48.0822 -18.3897 -18.3010 -18.2539 -18.2342 -18.0498 -17.9804
   -17.7924 -17.7769 -17.7427 -17.4806 -17.3029 -16.4041 -16.0572  -6.6632
    -6.5734  -6.5275  -6.4581  -6.3683  -6.3344  -6.3293  -6.2272  -6.2201
    -6.1525  -6.1253  -5.5344  -5.2577  -5.0090  -4.8060  -4.7147  -4.6279
    -4.4720  -4.0567  -3.9099  -3.8130  -3.7029  -3.4285  -3.4234  -3.3660
    -3.1735  -3.1688  -3.1001  -2.9672  -2.5924  -2.2647  -2.2451  -1.9821
    -1.9117  -1.6750  -1.4994  -1.4063  -1.3631  -1.1307  -0.8045  -0.6386
    -0.3632  -0.1131  -0.0395   0.1684   0.1732   0.4328   0.5780   0.6229
     0.7057   0.9239   1.5770   1.5985   1.8222   1.9684   2.0531   2.0537
     2.3329   2.9400   2.9509   3.1169   3.6251   3.7845   4.4922   5.5175
     5.6658   5.9244   6.1741   6.3177   8.1347   9.5853

          k =-0.5000 0.0000 0.0000 ( 41440 PWs)   bands (ev):

   -48.9206 -48.8119 -48.8104 -48.7845 -48.7695 -48.7573 -48.7397 -48.7086
   -48.6917 -48.5918 -48.5913 -48.5398 -48.4601 -48.4248 -48.4097 -48.3904
   -48.2898 -48.0799 -18.2987 -18.1712 -18.1085 -18.0653 -17.9921 -17.9714
   -17.8977 -17.8796 -17.8250 -17.4635 -17.2755 -16.3527 -16.0151  -6.8287
    -6.5173  -6.5038  -6.4709  -6.3558  -6.2994  -6.2568  -6.0780  -6.0339
    -5.9657  -5.7051  -5.6865  -5.5959  -5.3957  -5.3590  -5.2136  -4.6095
    -4.1514  -4.1263  -4.1119  -3.8516  -3.8279  -3.7209  -3.5701  -3.3277
    -3.3056  -2.9396  -2.7790  -2.6148  -2.5576  -2.3547  -1.9959  -1.8520
    -1.6554  -1.6140  -1.5784  -1.3763  -1.2302  -0.8494  -0.2361  -0.2324
    -0.2201  -0.1934   0.0057   0.0974   0.1828   0.4642   0.4775   0.7016
     0.8687   0.8864   1.1290   1.3138   1.7061   1.7624   1.8262   2.1413
     2.3328   3.3243   3.6730   3.9189   3.9608   4.0962   4.3955   4.5429
     4.9081   5.0736   5.4936   5.7585   8.5374   9.8424

          k =-0.5000 0.1240 0.0000 ( 41518 PWs)   bands (ev):

   -48.9215 -48.8123 -48.8103 -48.7847 -48.7738 -48.7564 -48.7354 -48.7088
   -48.6918 -48.5918 -48.5909 -48.5399 -48.4600 -48.4244 -48.4097 -48.3904
   -48.2898 -48.0798 -18.2964 -18.2784 -18.2510 -18.2181 -17.9819 -17.8357
   -17.8140 -17.7582 -17.7542 -17.4653 -17.2749 -16.3537 -16.0145  -6.7981
    -6.7750  -6.6264  -6.5460  -6.4519  -6.4033  -6.3864  -6.3184  -6.1161
    -5.9993  -5.8538  -5.5486  -5.3037  -4.9626  -4.8194  -4.7477  -4.3651
    -4.2036  -4.1649  -4.0927  -4.0680  -3.8445  -3.7497  -3.1605  -3.1036
    -2.9888  -2.9308  -2.8628  -2.7921  -2.6104  -2.2114  -2.1702  -1.8208
    -1.7217  -1.6516  -1.5317  -1.5166  -1.4596  -0.9569  -0.4198  -0.3212
    -0.2440  -0.1876  -0.1590  -0.1344   0.0070   0.1356   0.1504   0.2121
     0.3907   0.8642   1.7189   1.8287   1.8525   1.9282   1.9943   2.1146
     2.2612   3.1445   3.1743   3.3580   3.3709   3.7002   4.3979   5.4840
     5.5902   5.7525   5.8220   5.9160   8.6927   9.8340

          k =-0.5000-0.2479 0.0000 ( 41524 PWs)   bands (ev):

   -48.9223 -48.8127 -48.8103 -48.7848 -48.7773 -48.7556 -48.7319 -48.7091
   -48.6918 -48.5918 -48.5906 -48.5400 -48.4599 -48.4240 -48.4097 -48.3904
   -48.2898 -48.0797 -18.3470 -18.3370 -18.2984 -18.2940 -17.9697 -17.8481
   -17.7305 -17.6720 -17.6694 -17.4671 -17.2743 -16.3548 -16.0138  -6.9937
    -6.8645  -6.7856  -6.7489  -6.3934  -6.3264  -6.2853  -6.2662  -6.2381
    -6.0325  -5.8616  -5.6096  -5.4221  -4.9260  -4.2855  -4.2019  -4.1644
    -4.1341  -4.0751  -3.8731  -3.8627  -3.6586  -3.5112  -3.4561  -3.3206
    -2.9917  -2.8808  -2.8374  -2.8190  -2.4893  -2.1358  -1.9986  -1.9329
    -1.8560  -1.7908  -1.5718  -1.5402  -1.5207  -1.0737  -1.0036  -0.6706
    -0.6243  -0.3575  -0.2260  -0.1630  -0.1481   0.0069   0.1568   0.1890
     0.3009   0.8628   1.7278   1.7807   1.9174   2.2006   2.2233   2.2323
     2.3164   2.7438   2.7569   2.9485   3.4063   3.7247   4.4000   5.6814
     5.8788   6.0084   6.2686   6.4474   8.8503   9.8132

 ------ SPIN DOWN ----------


          k = 0.0000 0.0000 0.0000 ( 41611 PWs)   bands (ev):

   -48.8614 -48.7700 -48.7579 -48.6869 -48.6616 -48.6594 -48.6200 -48.5979
   -48.5797 -48.5524 -48.4597 -48.4562 -48.4008 -48.4000 -48.3767 -48.3142
   -48.2715 -48.1035 -19.3988 -19.0698 -18.9423 -18.6209 -18.0380 -17.8490
   -17.6872 -17.4417 -17.3763 -17.3361 -17.3263 -16.1904 -15.9533  -8.1180
    -8.0642  -8.0554  -7.5462  -6.7694  -6.4492  -6.3528  -6.2987  -6.1971
    -5.9020  -5.7048  -5.6817  -5.5125  -5.2618  -5.1261  -4.1120  -4.0430
    -3.5265  -3.4752  -3.3356  -3.0732  -3.0493  -2.9108  -2.7921  -2.7056
    -2.6207  -2.6130  -2.4151  -2.3025  -2.1776  -2.0961  -1.7688  -1.6786
    -1.4789  -1.3135  -1.0601  -1.0240  -0.8703  -0.7783  -0.7687  -0.7225
    -0.6947  -0.6662  -0.5977  -0.4681  -0.2987  -0.2887   0.1487   0.2946
     0.3746   0.7677   0.9168   1.1995   1.7875   1.9040   2.0088   2.4716
     2.7905   3.2470   3.9040   4.3452   5.1871   5.2060   5.8211   5.8338
     5.8399   5.8999   6.1336   6.1985   6.5663   7.2073

          k = 0.0000 0.1240 0.0000 ( 41688 PWs)   bands (ev):

   -48.8607 -48.7696 -48.7570 -48.6869 -48.6616 -48.6593 -48.6202 -48.5979
   -48.5795 -48.5527 -48.4607 -48.4569 -48.4008 -48.3999 -48.3767 -48.3143
   -48.2715 -48.1039 -19.2710 -18.9234 -18.8140 -18.6518 -18.0838 -17.9621
   -17.6871 -17.5737 -17.5406 -17.4656 -17.3291 -16.1880 -15.9500  -7.6179
    -7.5654  -7.5309  -7.4933  -6.7685  -6.3693  -6.2982  -6.2746  -6.1076
    -5.8095  -5.7029  -5.5717  -5.5114  -5.2728  -4.9395  -4.3519  -4.1604
    -4.0868  -3.9408  -3.8624  -3.6583  -3.5973  -3.3387  -3.2275  -3.2022
    -2.9804  -2.7691  -2.3799  -2.3195  -2.2066  -2.0869  -1.9726  -1.6842
    -1.6213  -1.2179  -1.1476  -0.9083  -0.8672  -0.5100  -0.3500  -0.3139
    -0.2366  -0.2162  -0.1702  -0.1231  -0.1118   0.0153   0.1720   0.3848
     0.3916   0.7665   0.9071   1.2564   1.6718   1.8376   2.0156   2.2314
     2.5952   3.7638   4.4861   4.7766   5.1908   5.3200   5.5209   5.5504
     5.5531   5.9064   6.1972   6.2040   6.7241   6.8189

          k = 0.0000-0.2479 0.0000 ( 41774 PWs)   bands (ev):

   -48.8601 -48.7692 -48.7561 -48.6869 -48.6616 -48.6591 -48.6204 -48.5979
   -48.5792 -48.5530 -48.4617 -48.4577 -48.4008 -48.3998 -48.3767 -48.3144
   -48.2715 -48.1044 -19.0525 -18.8563 -18.6831 -18.4686 -18.2372 -18.2194
   -17.7751 -17.6811 -17.6468 -17.5607 -17.3281 -16.1866 -15.9474  -7.5556
    -6.7833  -6.7558  -6.6855  -6.5863  -6.2977  -6.2774  -6.1887  -6.0056
    -5.7773  -5.6997  -5.5092  -5.2814  -5.2233  -5.1366  -5.1099  -5.0494
    -4.9423  -4.5048  -4.2484  -3.9842  -3.6826  -3.6306  -3.5757  -3.4268
    -3.3533  -3.0941  -2.3816  -2.3614  -1.9766  -1.9567  -1.8638  -1.6648
    -1.6232  -1.3656  -1.0144  -0.9760  -0.8011  -0.4629  -0.3223  -0.3173
     0.0110   0.0787   0.1140   0.1687   0.2986   0.3440   0.4764   0.5692
     0.7246   0.8349   1.0073   1.0180   1.5012   1.6792   2.0404   2.0444
     2.4332   4.3239   4.5950   5.1883   5.1926   5.2418   5.2454   5.5101
     5.7031   5.9070   6.0464   6.2029   6.6023   7.4248

          k = 0.1250 0.0000 0.0000 ( 41611 PWs)   bands (ev):

   -48.8602 -48.7689 -48.7566 -48.6859 -48.6760 -48.6601 -48.6367 -48.5975
   -48.5941 -48.5687 -48.4575 -48.4540 -48.4157 -48.3998 -48.3744 -48.3306
   -48.2692 -48.1011 -19.2580 -18.9451 -18.8223 -18.5195 -17.9705 -17.7594
   -17.7395 -17.5216 -17.4562 -17.4111 -17.3166 -16.2421 -15.9956  -7.9328
    -7.8831  -7.8773  -7.3635  -6.7353  -6.4225  -6.3441  -6.2969  -6.1584
    -5.8049  -5.6908  -5.2762  -5.2141  -5.1839  -4.9348  -4.3223  -3.9853
    -3.9018  -3.5398  -3.4600  -3.3970  -3.3557  -3.3035  -3.2000  -2.9807
    -2.8172  -2.6168  -2.5093  -2.4119  -2.3691  -2.1818  -2.1598  -2.0202
    -1.9113  -1.5245  -1.5163  -0.9930  -0.9120  -0.6215  -0.5836  -0.4498
    -0.3720  -0.3114  -0.3046  -0.2292   0.0422   0.1347   0.3020   0.4542
     0.5937   1.1008   1.1399   1.3164   1.6568   1.8461   2.0558   2.3197
     2.6295   3.4728   4.1271   4.5296   4.7742   5.2105   5.4408   5.4565
     5.4597   5.5094   5.7249   6.2845   6.8462   6.9537

          k = 0.1250 0.1240 0.0000 ( 41692 PWs)   bands (ev):

   -48.8597 -48.7686 -48.7560 -48.6859 -48.6759 -48.6601 -48.6367 -48.5973
   -48.5939 -48.5690 -48.4583 -48.4545 -48.4156 -48.3998 -48.3744 -48.3307
   -48.2692 -48.1015 -19.1361 -18.8041 -18.6942 -18.5498 -18.0134 -17.8947
   -17.7340 -17.6384 -17.6058 -17.5213 -17.3114 -16.2405 -15.9929  -7.4499
    -7.3973  -7.3782  -7.3382  -6.7359  -6.3474  -6.3278  -6.2048  -6.0638
    -5.8855  -5.4474  -5.2587  -5.2168  -5.2009  -4.8375  -4.2874  -4.2285
    -4.1522  -4.0262  -3.9212  -3.8385  -3.7874  -3.6800  -3.6065  -3.4992
    -3.2406  -3.0533  -2.7409  -2.5288  -2.2372  -2.1333  -2.0452  -1.9746
    -1.6520  -1.4325  -1.1492  -1.0486  -0.9012  -0.4641  -0.4137  -0.2275
    -0.1789  -0.0485   0.0361   0.1574   0.2137   0.2453   0.3997   0.5428
     0.6674   1.0832   1.2004   1.3002   1.5888   1.7128   2.0051   2.1905
     2.4802   3.8974   4.5658   4.7449   4.7663   5.0001   5.1217   5.2587
     5.4028   5.5848   5.7294   6.3156   6.7593   7.2120

          k = 0.1250-0.2479 0.0000 ( 41706 PWs)   bands (ev):

   -48.8592 -48.7683 -48.7554 -48.6859 -48.6757 -48.6601 -48.6367 -48.5972
   -48.5938 -48.5693 -48.4592 -48.4551 -48.4156 -48.3998 -48.3744 -48.3307
   -48.2692 -48.1019 -18.9294 -18.7270 -18.5617 -18.3563 -18.1834 -18.1695
   -17.8478 -17.7216 -17.6956 -17.5782 -17.3094 -16.2395 -15.9907  -7.3701
    -6.7368  -6.5446  -6.4598  -6.3898  -6.3608  -6.3268  -6.3008  -6.2126
    -5.9039  -5.2964  -5.2480  -5.2162  -4.9474  -4.9221  -4.8010  -4.7826
    -4.6499  -4.6349  -4.5773  -4.3714  -4.2830  -3.8935  -3.8283  -3.6003
    -3.4543  -3.3569  -2.8295  -2.5596  -2.1002  -2.0870  -1.7818  -1.7265
    -1.5911  -1.3457  -1.0988  -0.9392  -0.9357  -0.3808  -0.3800  -0.1139
    -0.0823  -0.0282   0.0372   0.2299   0.5359   0.6394   0.7501   0.8805
     0.8941   1.1055   1.1139   1.3450   1.4352   1.6180   1.9402   1.9529
     2.4415   4.4214   4.4525   4.6241   4.6564   4.6996   4.9945   5.4210
     5.6410   5.7544   5.7616   6.1125   6.7852   7.7441

          k = 0.2500 0.0000 0.0000 ( 41623 PWs)   bands (ev):

   -48.8572 -48.7662 -48.7534 -48.7146 -48.6838 -48.6765 -48.6588 -48.6339
   -48.6077 -48.5900 -48.4534 -48.4522 -48.4486 -48.3974 -48.3701 -48.3688
   -48.2637 -48.0955 -18.8921 -18.6330 -18.5222 -18.2930 -17.8836 -17.8294
   -17.7101 -17.6421 -17.6086 -17.5704 -17.2531 -16.3186 -16.0469  -7.4470
    -7.4015  -7.3983  -6.8873  -6.5456  -6.3421  -6.3205  -6.1200  -5.9370
    -5.7512  -5.5525  -5.1816  -5.1741  -4.8820  -4.6713  -4.5433  -4.4876
    -4.4523  -4.4337  -3.9624  -3.7467  -3.6662  -3.3797  -3.2714  -3.1550
    -3.0915  -2.9928  -2.9180  -2.8561  -2.7552  -2.5362  -2.2351  -1.9766
    -1.8346  -1.5422  -1.4126  -1.1996  -1.1026  -0.7735  -0.3896  -0.2005
    -0.1482  -0.0889   0.0664   0.0841   0.4673   0.7037   0.7974   0.8800
     1.1173   1.1767   1.2249   1.4518   1.5119   1.6870   1.9663   2.1957
     2.2048   3.8475   4.1602   4.3962   4.6376   4.7070   4.7409   4.7750
     4.9347   4.9944   5.5889   6.0455   7.1543   7.9189

          k = 0.2500 0.1240 0.0000 ( 41653 PWs)   bands (ev):

   -48.8572 -48.7662 -48.7539 -48.7146 -48.6838 -48.6757 -48.6587 -48.6335
   -48.6080 -48.5900 -48.4534 -48.4526 -48.4488 -48.3974 -48.3700 -48.3688
   -48.2637 -48.0956 -18.7938 -18.5202 -18.4081 -18.3202 -17.9569 -17.8706
   -17.7745 -17.7706 -17.7325 -17.5425 -17.2496 -16.3189 -16.0461  -7.0635
    -7.0218  -7.0205  -6.8850  -6.5449  -6.3413  -6.1653  -5.9679  -5.8283
    -5.8016  -5.6143  -5.3104  -5.0674  -5.0167  -4.9917  -4.8651  -4.7552
    -4.6175  -4.1632  -4.0378  -3.8354  -3.6480  -3.5434  -3.4715  -3.4230
    -3.4073  -3.2766  -3.1390  -2.8740  -2.6006  -2.3305  -2.2697  -1.9935
    -1.8138  -1.6611  -1.3025  -1.1490  -1.0114  -0.9374  -0.4323  -0.0828
     0.0454   0.1852   0.2635   0.3435   0.4647   0.5346   0.9008   0.9286
     1.1533   1.1796   1.2736   1.4980   1.5174   1.6184   1.8188   2.0170
     2.3698   3.9379   4.0767   4.1096   4.1689   4.2116   4.8446   4.9579
     5.2125   5.4035   5.7531   6.1598   7.2155   8.1368

          k = 0.2500-0.2479 0.0000 ( 41680 PWs)   bands (ev):

   -48.8572 -48.7661 -48.7544 -48.7146 -48.6837 -48.6749 -48.6587 -48.6330
   -48.6083 -48.5900 -48.4534 -48.4530 -48.4490 -48.3974 -48.3698 -48.3688
   -48.2637 -48.0958 -18.6319 -18.4182 -18.2765 -18.1762 -18.1011 -18.0973
   -17.9962 -17.7962 -17.7602 -17.5384 -17.2470 -16.3194 -16.0454  -6.8884
    -6.5509  -6.4103  -6.3699  -6.3580  -6.3449  -5.9128  -5.8717  -5.8353
    -5.7686  -5.7474  -5.6336  -5.6015  -5.5124  -5.1457  -4.9080  -4.6339
    -4.3918  -4.3446  -4.1897  -4.1042  -4.0620  -3.8223  -3.7289  -3.7119
    -3.5251  -3.4341  -3.3603  -2.9085  -2.2962  -2.1718  -1.8827  -1.8801
    -1.7534  -1.7218  -1.4431  -1.2308  -1.0163  -0.6797  -0.3126  -0.3066
    -0.0411   0.1662   0.1931   0.6326   0.6476   0.6745   1.0088   1.0686
     1.1858   1.2186   1.3167   1.5217   1.5970   1.6489   1.7852   1.8050
     2.4530   3.6047   3.6644   3.7132   4.0981   4.2141   4.9604   5.1857
     5.2490   5.8274   5.9190   6.1774   7.3229   8.8874

          k = 0.3750 0.0000 0.0000 ( 41645 PWs)   bands (ev):

   -48.8543 -48.7634 -48.7531 -48.7503 -48.7168 -48.6816 -48.6780 -48.6507
   -48.6459 -48.5846 -48.4908 -48.4469 -48.4431 -48.4093 -48.3951 -48.3631
   -48.2582 -48.0898 -18.4656 -18.3078 -18.2055 -18.1660 -17.9015 -17.8925
   -17.8196 -17.8053 -17.7966 -17.4610 -17.1795 -16.2924 -16.0119  -6.8790
    -6.8581  -6.8120  -6.4925  -6.3238  -6.2644  -6.1713  -6.1493  -5.9650
    -5.8425  -5.6140  -5.5869  -5.4755  -5.3919  -5.2147  -4.8362  -4.5203
    -4.4333  -4.3186  -3.9681  -3.8343  -3.7721  -3.6128  -3.5096  -3.1969
    -3.1426  -3.0079  -2.8499  -2.6839  -2.5155  -2.4884  -2.4417  -1.8367
    -1.7395  -1.5657  -1.3252  -1.2439  -1.2193  -0.8013  -0.2626  -0.2279
    -0.0874  -0.0600   0.1489   0.1966   0.6016   0.7020   0.7581   0.8352
     0.9619   1.1293   1.1528   1.4427   1.5209   1.7874   2.0274   2.0393
     2.2154   3.5712   3.7635   4.1536   4.1931   4.2667   4.5072   4.5525
     4.8856   5.1010   5.6114   5.7152   7.9413   9.1117

          k = 0.3750 0.1240 0.0000 ( 41549 PWs)   bands (ev):

   -48.8549 -48.7637 -48.7538 -48.7529 -48.7134 -48.6816 -48.6774 -48.6507
   -48.6461 -48.5846 -48.4909 -48.4469 -48.4431 -48.4089 -48.3951 -48.3631
   -48.2582 -48.0898 -18.4361 -18.2884 -18.2381 -18.1874 -17.9604 -17.9299
   -17.8075 -17.7758 -17.7523 -17.4634 -17.1776 -16.2940 -16.0120  -6.7633
    -6.7180  -6.6815  -6.5096  -6.3537  -6.2950  -6.2277  -6.1553  -6.0882
    -6.0146  -5.9289  -5.4470  -5.2493  -5.1970  -4.9993  -4.9090  -4.5988
    -4.5401  -4.0645  -3.8937  -3.7960  -3.6821  -3.5644  -3.3378  -3.2834
    -3.1133  -2.9887  -2.9532  -2.9072  -2.6524  -2.2842  -2.2061  -2.0869
    -1.7684  -1.5890  -1.5022  -1.2984  -1.2084  -0.9688  -0.4162  -0.1526
    -0.1235  -0.0127   0.0405   0.1030   0.2938   0.3342   0.6145   0.7172
     0.8084   1.1237   1.6599   1.7294   1.7532   1.8573   1.9336   2.0980
     2.2224   3.3810   3.4635   3.5718   3.6494   3.7941   4.5259   5.2351
     5.5327   5.6832   5.8849   5.9162   8.0410   9.2884

          k = 0.3750-0.2479 0.0000 ( 41514 PWs)   bands (ev):

   -48.8554 -48.7640 -48.7563 -48.7532 -48.7105 -48.6816 -48.6767 -48.6506
   -48.6463 -48.5846 -48.4909 -48.4470 -48.4430 -48.4085 -48.3951 -48.3631
   -48.2582 -48.0898 -18.3881 -18.2984 -18.2408 -18.2252 -17.9922 -17.9715
   -17.7913 -17.7518 -17.7320 -17.4658 -17.1756 -16.2956 -16.0121  -6.6492
    -6.5499  -6.4996  -6.4444  -6.3614  -6.3269  -6.3036  -6.2106  -6.2008
    -6.1442  -6.1225  -5.5043  -5.2507  -4.9916  -4.8008  -4.7011  -4.6149
    -4.4486  -4.0334  -3.8884  -3.7978  -3.6878  -3.4130  -3.3981  -3.3171
    -3.1417  -3.0958  -3.0848  -2.9409  -2.5440  -2.2121  -2.2014  -1.9302
    -1.8808  -1.6018  -1.4320  -1.3664  -1.3204  -1.0365  -0.7502  -0.6207
    -0.2909  -0.0984   0.0378   0.1778   0.2483   0.4321   0.6124   0.7028
     0.7351   1.0464   1.6826   1.7703   1.8461   2.0411   2.0676   2.1250
     2.3530   2.9626   3.0160   3.1226   3.6557   3.8098   4.5267   5.5693
     5.6846   5.9450   6.2073   6.3322   8.1437   9.6072

          k =-0.5000 0.0000 0.0000 ( 41440 PWs)   bands (ev):

   -48.8531 -48.7689 -48.7623 -48.7490 -48.7332 -48.6932 -48.6819 -48.6606
   -48.6504 -48.5823 -48.5062 -48.4447 -48.4409 -48.4254 -48.3941 -48.3608
   -48.2559 -48.0874 -18.2957 -18.1671 -18.1042 -18.0561 -17.9663 -17.9273
   -17.8911 -17.8718 -17.8004 -17.4472 -17.1473 -16.2439 -15.9698  -6.8162
    -6.5040  -6.4870  -6.4610  -6.3478  -6.2900  -6.2482  -6.0499  -6.0188
    -5.9525  -5.6807  -5.6700  -5.5863  -5.3629  -5.3337  -5.2019  -4.5835
    -4.1284  -4.1207  -4.1075  -3.8421  -3.8118  -3.7029  -3.5463  -3.2723
    -3.2396  -2.9121  -2.7578  -2.5863  -2.4735  -2.3315  -1.9297  -1.8119
    -1.6118  -1.5918  -1.5418  -1.2713  -1.1264  -0.7537  -0.2237  -0.2145
    -0.1835  -0.1230   0.0409   0.0953   0.2096   0.4999   0.5508   0.7619
     0.9079   1.0678   1.1445   1.3518   1.7339   1.8362   1.9019   2.2339
     2.4304   3.3533   3.7002   3.9633   4.0023   4.0941   4.4307   4.5576
     4.9371   5.0939   5.5497   5.7783   8.5434   9.8486

          k =-0.5000 0.1240 0.0000 ( 41518 PWs)   bands (ev):

   -48.8540 -48.7690 -48.7627 -48.7555 -48.7266 -48.6924 -48.6819 -48.6608
   -48.6504 -48.5823 -48.5063 -48.4446 -48.4407 -48.4249 -48.3941 -48.3608
   -48.2559 -48.0873 -18.2932 -18.2743 -18.2486 -18.2052 -17.9142 -17.8140
   -17.8092 -17.7558 -17.7439 -17.4494 -17.1465 -16.2450 -15.9691  -6.7828
    -6.7616  -6.6009  -6.5348  -6.4369  -6.3804  -6.3800  -6.3102  -6.0937
    -5.9896  -5.8493  -5.5181  -5.2926  -4.9447  -4.7951  -4.7241  -4.3425
    -4.1984  -4.1602  -4.0776  -4.0529  -3.8318  -3.7215  -3.0830  -3.0664
    -2.9600  -2.9131  -2.8555  -2.7191  -2.5909  -2.1651  -2.1227  -1.7772
    -1.6363  -1.6103  -1.4958  -1.4499  -1.3881  -0.8523  -0.3935  -0.2748
    -0.2293  -0.1561  -0.0988  -0.0854   0.0423   0.1345   0.1817   0.2411
     0.4717   1.0455   1.8464   1.8534   1.8892   1.9705   2.0901   2.1448
     2.3514   3.1637   3.2420   3.3625   3.4006   3.7271   4.4331   5.4962
     5.6480   5.7871   5.8410   5.9311   8.7000   9.8399

          k =-0.5000-0.2479 0.0000 ( 41524 PWs)   bands (ev):

   -48.8548 -48.7691 -48.7632 -48.7599 -48.7222 -48.6915 -48.6819 -48.6609
   -48.6504 -48.5823 -48.5064 -48.4445 -48.4405 -48.4245 -48.3941 -48.3608
   -48.2559 -48.0872 -18.3421 -18.3356 -18.2907 -18.2845 -17.8958 -17.8325
   -17.7259 -17.6691 -17.6606 -17.4516 -17.1457 -16.2461 -15.9684  -6.9806
    -6.8364  -6.7734  -6.7297  -6.3854  -6.3190  -6.2627  -6.2401  -6.2232
    -6.0247  -5.8589  -5.5787  -5.4118  -4.9021  -4.2813  -4.1943  -4.1569
    -4.1216  -4.0668  -3.8503  -3.8404  -3.6424  -3.4859  -3.4215  -3.2868
    -2.9664  -2.8196  -2.7803  -2.7733  -2.4748  -2.0853  -1.9558  -1.9167
    -1.8015  -1.6708  -1.5401  -1.5047  -1.4602  -0.9919  -0.9540  -0.6105
    -0.6081  -0.2896  -0.2137  -0.1382  -0.0795   0.0422   0.1560   0.2157
     0.3804   1.0408   1.8601   1.8749   1.9670   2.2457   2.2740   2.2827
     2.3508   2.7698   2.8246   2.9540   3.4365   3.7513   4.4352   5.7425
     5.8958   6.0188   6.3029   6.4626   8.8590   9.8186

     the Fermi energy is     1.6393 ev

!    total energy              =   -1632.64860214 Ry
     estimated scf accuracy    <       0.00000079 Ry
     smearing contrib. (-TS)   =      -0.00147477 Ry
     internal energy E=F+TS    =   -1632.64712737 Ry

     The total energy is F=E-TS. E is the sum of the following terms:
     one-electron contribution =  -15350.97356549 Ry
     hartree contribution      =    7720.40028441 Ry
     xc contribution           =    -398.55916998 Ry
     ewald contribution        =    6520.21152001 Ry
     one-center paw contrib.   =    -123.72619632 Ry

     total magnetization       =     0.60 Bohr mag/cell
     absolute magnetization    =     0.68 Bohr mag/cell

     convergence has been achieved in  20 iterations

     negative rho (up, down):  9.600E-01 9.479E-01

     Forces acting on atoms (cartesian axes, Ry/au):

     atom    1 type  2   force =    -0.00001931    0.00000000    0.03736407
     atom    2 type  2   force =    -0.00004935    0.00000000   -0.03999489
     atom    3 type  2   force =    -0.00055806    0.00000000    0.00035045
     atom    4 type  2   force =     0.00053686    0.00000000   -0.00115296
     atom    5 type  2   force =    -0.00102115    0.00000000   -0.00132903
     atom    6 type  2   force =     0.00073839    0.00000000   -0.00145038
     atom    7 type  3   force =     0.00012863    0.00000000    0.00022352
     atom    8 type  3   force =     0.00003190    0.00000000    0.03426389
     atom    9 type  3   force =     0.00000796    0.02134718   -0.02453952
     atom   10 type  3   force =     0.00000796   -0.02134718   -0.02453952
     atom   11 type  3   force =     0.00110330    0.00000000    0.00063208
     atom   12 type  3   force =    -0.00189457    0.00000000    0.01672386
     atom   13 type  3   force =    -0.00042496   -0.00185023    0.00101954
     atom   14 type  3   force =    -0.00042496    0.00185023    0.00101954
     atom   15 type  3   force =     0.00107581    0.00000000   -0.00044844
     atom   16 type  3   force =     0.00047403    0.00000000   -0.00081424
     atom   17 type  3   force =    -0.00039930   -0.00069741    0.00118281
     atom   18 type  3   force =    -0.00039930    0.00069741    0.00118281
     atom   19 type  3   force =    -0.00002405    0.00000000    0.00035452
     atom   20 type  1   force =     0.00111015    0.00000000   -0.00004810

     Total force =     0.005110     Total SCF correction =     0.003013
     SCF correction compared to forces is large: reduce conv_thr to get better values

     Writing all to output data dir ./tmp_s0_OH__u000__sp2m010/s0_OH__u000__sp2m010.save/ :
     XML data file, charge density, pseudopotentials, collected wavefunctions

     init_run     :      6.04s CPU      6.22s WALL (       1 calls)
     electrons    :    176.36s CPU    178.53s WALL (       1 calls)
     forces       :      1.38s CPU      1.51s WALL (       1 calls)

     Called by init_run:
     wfcinit      :      1.11s CPU      1.16s WALL (       1 calls)
     potinit      :      1.37s CPU      1.40s WALL (       1 calls)
     hinit0       :      0.47s CPU      0.50s WALL (       1 calls)

     Called by electrons:
     c_bands      :    131.72s CPU    133.39s WALL (      20 calls)
     sum_band     :     25.03s CPU     25.31s WALL (      20 calls)
     v_of_rho     :      3.45s CPU      3.50s WALL (      21 calls)
     newd         :      2.43s CPU      2.45s WALL (      21 calls)
     PAW_pot      :      2.93s CPU      2.95s WALL (      21 calls)
     mix_rho      :     10.08s CPU     10.16s WALL (      20 calls)

     Called by c_bands:
     init_us_2    :      1.33s CPU      1.36s WALL (     336 calls)
     cegterg      :     98.85s CPU    100.29s WALL (     160 calls)

     Called by *egterg:
     cdiaghg      :     11.48s CPU     11.64s WALL (    1226 calls)
     h_psi        :     65.21s CPU     66.25s WALL (    1234 calls)
     s_psi        :      2.90s CPU      2.94s WALL (    1234 calls)
     g_psi        :      0.19s CPU      0.20s WALL (    1066 calls)

     Called by h_psi:
     h_psi:calbec :      6.01s CPU      6.08s WALL (    1234 calls)
     vloc_psi     :     55.78s CPU     56.70s WALL (    1234 calls)
                                        0.00s GPU  (    1234 calls)
     add_vuspsi   :      3.12s CPU      3.16s WALL (    1234 calls)

     General routines
     calbec       :      8.34s CPU      8.43s WALL (    1426 calls)
     fft          :      3.42s CPU      3.51s WALL (     538 calls)
     ffts         :      3.80s CPU      3.83s WALL (    2419 calls)
     fftw         :     62.03s CPU     62.98s WALL (   88858 calls)
     interpolate  :      0.86s CPU      0.87s WALL (      42 calls)

     Parallel routines

     PWSCF        :   3m 6.65s CPU   3m 9.58s WALL


   This run was terminated on:  21:43:43  31Aug2026            

=------------------------------------------------------------------------------=
   JOB DONE.
=------------------------------------------------------------------------------=
Note: The following floating-point exceptions are signalling: IEEE_DENORMAL
Note: The following floating-point exceptions are signalling: IEEE_DENORMAL
Note: The following floating-point exceptions are signalling: IEEE_DENORMAL
Note: The following floating-point exceptions are signalling: IEEE_DENORMAL
Note: The following floating-point exceptions are signalling: IEEE_DENORMAL
Note: The following floating-point exceptions are signalling: IEEE_DENORMAL
Note: The following floating-point exceptions are signalling: IEEE_DENORMAL
Note: The following floating-point exceptions are signalling: IEEE_DENORMAL
Note: The following floating-point exceptions are signalling: IEEE_DENORMAL
Note: The following floating-point exceptions are signalling: IEEE_DENORMAL
Note: The following floating-point exceptions are signalling: IEEE_DENORMAL
Note: The following floating-point exceptions are signalling: IEEE_DENORMAL
Note: The following floating-point exceptions are signalling: IEEE_DENORMAL
Note: The following floating-point exceptions are signalling: IEEE_DENORMAL
Note: The following floating-point exceptions are signalling: IEEE_DENORMAL
Note: The following floating-point exceptions are signalling: IEEE_DENORMAL
Note: The following floating-point exceptions are signalling: IEEE_DENORMAL
Note: The following floating-point exceptions are signalling: IEEE_DENORMAL
Note: The following floating-point exceptions are signalling: IEEE_DENORMAL
Note: The following floating-point exceptions are signalling: IEEE_DENORMAL
Note: The following floating-point exceptions are signalling: IEEE_DENORMAL
Note: The following floating-point exceptions are signalling: IEEE_DENORMAL
Note: The following floating-point exceptions are signalling: IEEE_DENORMAL
Note: The following floating-point exceptions are signalling: IEEE_DENORMAL
Note: The following floating-point exceptions are signalling: IEEE_DENORMAL
Note: The following floating-point exceptions are signalling: IEEE_DENORMAL
Note: The following floating-point exceptions are signalling: IEEE_DENORMAL
Note: The following floating-point exceptions are signalling: IEEE_DENORMAL
Note: The following floating-point exceptions are signalling: IEEE_DENORMAL
Note: The following floating-point exceptions are signalling: IEEE_DENORMAL
Note: The following floating-point exceptions are signalling: IEEE_DENORMAL
Note: The following floating-point exceptions are signalling: IEEE_DENORMAL
Note: The following floating-point exceptions are signalling: IEEE_DENORMAL
Note: The following floating-point exceptions are signalling: IEEE_DENORMAL
Note: The following floating-point exceptions are signalling: IEEE_DENORMAL
Note: The following floating-point exceptions are signalling: IEEE_DENORMAL
Note: The following floating-point exceptions are signalling: IEEE_DENORMAL
