
     Program PWSCF v.7.5 starts on  1Sep2026 at  1:31:17 

     This program is part of the open-source Quantum ESPRESSO suite
     for quantum simulation of materials; please cite
         "P. Giannozzi et al., J. Phys.:Condens. Matter 21 395502 (2009);
         "P. Giannozzi et al., J. Phys.:Condens. Matter 29 465901 (2017);
         "P. Giannozzi et al., J. Chem. Phys. 152 154105 (2020);
          URL http://www.quantum-espresso.org", 
     in publications or presentations arising from this work. More details at
     http://www.quantum-espresso.org/quote

     Parallel version (MPI & OpenMP), running on     128 processor cores
     Number of MPI processes:               128
     Threads/MPI process:                     1

     MPI processes distributed on     1 nodes
     224539 MiB available memory on the printing compute node when the environment starts

     Reading input from s0_O__u000__sp2m010.run.in

     Current dimensions of program PWSCF are:
     Max number of different atomic species (ntypx) = 10
     Max number of k-points (npk) =  40000
     Max angular momentum in pseudopotentials (lmaxx) =  4
     file O.pbe-n-kjpaw_psl.0.1.UPF: wavefunction(s)  2P renormalized
     Message from routine setup:
     using ibrav=0 with symmetry is DISCOURAGED, use correct ibrav instead

     K-points division:     npool     =       4
     R & G space division:  proc/nbgrp/npool/nimage =      32
     Subspace diagonalization in iterative solution of the eigenvalue problem:
     a serial algorithm will be used


     Parallelization info
     --------------------
     sticks:   dense  smooth     PW     G-vecs:    dense   smooth      PW
     Min         113      57     16                29407    10389    1566
     Max         114      58     17                29434    10403    1581
     Sum        3639    1825    519               941385   332621   50331

     Using Slab Decomposition



     bravais-lattice index     =            0
     lattice parameter (alat)  =       5.9602  a.u.
     unit-cell volume          =    3444.9838 (a.u.)^3
     number of atoms/cell      =           19
     number of atomic types    =            2
     number of electrons       =       168.00
     number of Kohn-Sham states=          101
     kinetic-energy cutoff     =      80.0000  Ry
     charge density cutoff     =     640.0000  Ry
     scf convergence threshold =      1.0E-06
     mixing beta               =       0.3000
     number of iterations used =            8  local-TF  mixing
     Exchange-correlation= SLA  PW   PBX  PBC
                           (   1   4   3   4   0   0   0)

     celldm(1)=   5.960196  celldm(2)=   0.000000  celldm(3)=   0.000000
     celldm(4)=   0.000000  celldm(5)=   0.000000  celldm(6)=   0.000000

     crystal axes: (cart. coord. in units of alat)
               a(1) = (   1.000000   0.000000   0.000000 )  
               a(2) = (   0.000000   2.016846   0.000000 )  
               a(3) = (   0.000000   0.000000   8.067384 )  

     reciprocal axes: (cart. coord. in units 2 pi/alat)
               b(1) = (  1.000000  0.000000  0.000000 )  
               b(2) = (  0.000000  0.495824  0.000000 )  
               b(3) = (  0.000000  0.000000  0.123956 )  


     PseudoPot. # 1 for Ir read from file:
     /anvil/projects/x-che260157/pseudo/Ir_pbe_v1.2.uspp.F.UPF
     MD5 check sum: 8836f839c3459d2b385c504ce6d91f2c
     Pseudo is Ultrasoft + core correction, Zval = 15.0
     Generated by new atomic code, or converted to UPF format
     Using radial grid of  983 points,  7 beta functions with: 
                l(1) =   0
                l(2) =   0
                l(3) =   1
                l(4) =   1
                l(5) =   1
                l(6) =   2
                l(7) =   2
     Q(r) pseudized with  8 coefficients,  rinner =    1.400   1.400   1.400
                                                       1.400   1.400

     PseudoPot. # 2 for O  read from file:
     /anvil/projects/x-che260157/pseudo/O.pbe-n-kjpaw_psl.0.1.UPF
     MD5 check sum: 0234752ac141de4415c5fc33072bef88
     Pseudo is Projector augmented-wave + core cor, Zval =  6.0
     Generated using "atomic" code by A. Dal Corso  v.5.0.99 svn rev. 10869
     Shape of augmentation charge: BESSEL
     Using radial grid of 1095 points,  4 beta functions with: 
                l(1) =   0
                l(2) =   0
                l(3) =   1
                l(4) =   1
     Q(r) pseudized with 0 coefficients 


     atomic species   valence    mass     pseudopotential
     Ir               15.00   192.21700     Ir( 1.00)
     O                 6.00    15.99900     O ( 1.00)

     Starting magnetic structure 
     atomic species   magnetization
     Ir              0.100
     O               0.000

      4 Sym. Ops. (no inversion) found ( 2 have fractional translation)



   Cartesian axes

     site n.     atom                  positions (alat units)
         1        Ir     tau(   1) = (   0.0000000   1.5126346   3.0252692  )
         2        Ir     tau(   2) = (   0.5000000   0.5042115   3.0252692  )
         3        Ir     tau(   3) = (   0.0000000   0.5042115   4.0428594  )
         4        Ir     tau(   4) = (   0.5000000   1.5126346   4.0366227  )
         5        Ir     tau(   5) = (   0.0000000   1.5126346   5.0840887  )
         6        Ir     tau(   6) = (   0.5000000   0.5042115   5.0650004  )
         7        O      tau(   7) = (   0.0000000   0.5042115   3.4185541  )
         8        O      tau(   8) = (   0.0000000   0.5042115   2.6319842  )
         9        O      tau(   9) = (   0.5000000   1.1193496   3.0252692  )
        10        O      tau(  10) = (   0.5000000   1.9059196   3.0252692  )
        11        O      tau(  11) = (   0.0000000   1.5126346   4.4373140  )
        12        O      tau(  12) = (   0.0000000   1.5126346   3.6404072  )
        13        O      tau(  13) = (   0.5000000   0.1175415   4.0363811  )
        14        O      tau(  14) = (   0.5000000   0.8908815   4.0363811  )
        15        O      tau(  15) = (   0.0000000   0.5042115   5.4382077  )
        16        O      tau(  16) = (   0.0000000   0.5042115   4.6686519  )
        17        O      tau(  17) = (   0.5000000   1.1266233   5.0418396  )
        18        O      tau(  18) = (   0.5000000   1.8986459   5.0418396  )
        19        O      tau(  19) = (   0.0000000   1.5126346   5.6443569  )

     number of k points=    15  Marzari-Vanderbilt smearing, width (Ry)=  0.0100
                       cart. coord. in units 2pi/alat
        k(    1) = (   0.0000000   0.0000000   0.0000000), wk =   0.0312500
        k(    2) = (   0.0000000   0.1239559   0.0000000), wk =   0.0625000
        k(    3) = (   0.0000000  -0.2479118   0.0000000), wk =   0.0312500
        k(    4) = (   0.1250000   0.0000000   0.0000000), wk =   0.0625000
        k(    5) = (   0.1250000   0.1239559   0.0000000), wk =   0.1250000
        k(    6) = (   0.1250000  -0.2479118   0.0000000), wk =   0.0625000
        k(    7) = (   0.2500000   0.0000000   0.0000000), wk =   0.0625000
        k(    8) = (   0.2500000   0.1239559   0.0000000), wk =   0.1250000
        k(    9) = (   0.2500000  -0.2479118   0.0000000), wk =   0.0625000
        k(   10) = (   0.3750000   0.0000000   0.0000000), wk =   0.0625000
        k(   11) = (   0.3750000   0.1239559   0.0000000), wk =   0.1250000
        k(   12) = (   0.3750000  -0.2479118   0.0000000), wk =   0.0625000
        k(   13) = (  -0.5000000   0.0000000   0.0000000), wk =   0.0312500
        k(   14) = (  -0.5000000   0.1239559   0.0000000), wk =   0.0625000
        k(   15) = (  -0.5000000  -0.2479118   0.0000000), wk =   0.0312500

     Dense  grid:   941385 G-vectors     FFT dimensions: (  48, 100, 400)

     Smooth grid:   332621 G-vectors     FFT dimensions: (  36,  72, 288)

     Estimated max dynamical RAM per process >      88.96 MB

     Estimated total dynamical RAM >       9.77 GB
     Generating pointlists ...
     new r_m :   0.2311 (alat units)  1.3775 (a.u.) for type    1
     new r_m :   0.2311 (alat units)  1.3775 (a.u.) for type    2

     Initial potential from superposition of free atoms

     starting charge     164.9998, renormalised to     168.0000

     negative rho (up, down):  1.224E+00 1.001E+00
     Starting wfcs are  124 randomized atomic wfcs
     Checking if some PAW data can be deallocated... 

     total cpu time spent up to now is        4.5 secs

     per-process dynamical memory:   108.4 Mb

     Self-consistent Calculation

     iteration #  1     ecut=    80.00 Ry     beta= 0.30
     Davidson diagonalization with overlap
     ethr =  1.00E-02,  avg # of iterations =  2.9

     negative rho (up, down):  1.124E+00 9.345E-01

     total cpu time spent up to now is       11.9 secs

     total energy              =   -1631.80490910 Ry
     estimated scf accuracy    <      43.73975032 Ry

     total magnetization       =     3.56 Bohr mag/cell
     absolute magnetization    =     4.21 Bohr mag/cell

     iteration #  2     ecut=    80.00 Ry     beta= 0.30
     Davidson diagonalization with overlap
     ethr =  1.00E-02,  avg # of iterations =  1.0

     negative rho (up, down):  1.053E+00 8.932E-01

     total cpu time spent up to now is       17.5 secs

     total energy              =   -1631.54971611 Ry
     estimated scf accuracy    <       6.42029351 Ry

     total magnetization       =     3.19 Bohr mag/cell
     absolute magnetization    =     3.66 Bohr mag/cell

     iteration #  3     ecut=    80.00 Ry     beta= 0.30
     Davidson diagonalization with overlap
     ethr =  3.82E-03,  avg # of iterations =  1.2

     negative rho (up, down):  9.800E-01 8.707E-01

     total cpu time spent up to now is       22.7 secs

     total energy              =   -1631.08088020 Ry
     estimated scf accuracy    <       2.42047217 Ry

     total magnetization       =     2.68 Bohr mag/cell
     absolute magnetization    =     3.10 Bohr mag/cell

     iteration #  4     ecut=    80.00 Ry     beta= 0.30
     Davidson diagonalization with overlap
     ethr =  1.44E-03,  avg # of iterations =  4.6

     negative rho (up, down):  9.914E-01 9.005E-01

     total cpu time spent up to now is       28.2 secs

     total energy              =   -1631.36093604 Ry
     estimated scf accuracy    <       0.41662471 Ry

     total magnetization       =     2.20 Bohr mag/cell
     absolute magnetization    =     2.48 Bohr mag/cell

     iteration #  5     ecut=    80.00 Ry     beta= 0.30
     Davidson diagonalization with overlap
     ethr =  2.48E-04,  avg # of iterations =  6.0

     negative rho (up, down):  9.897E-01 9.242E-01

     total cpu time spent up to now is       35.1 secs

     total energy              =   -1631.34733922 Ry
     estimated scf accuracy    <       0.15802304 Ry

     total magnetization       =     2.11 Bohr mag/cell
     absolute magnetization    =     2.36 Bohr mag/cell

     iteration #  6     ecut=    80.00 Ry     beta= 0.30
     Davidson diagonalization with overlap
     ethr =  9.41E-05,  avg # of iterations =  3.1

     negative rho (up, down):  9.975E-01 9.544E-01

     total cpu time spent up to now is       41.3 secs

     total energy              =   -1631.35061531 Ry
     estimated scf accuracy    <       0.06494244 Ry

     total magnetization       =     1.92 Bohr mag/cell
     absolute magnetization    =     2.15 Bohr mag/cell

     iteration #  7     ecut=    80.00 Ry     beta= 0.30
     Davidson diagonalization with overlap
     ethr =  3.87E-05,  avg # of iterations =  4.5

     negative rho (up, down):  9.995E-01 9.649E-01

     total cpu time spent up to now is       46.8 secs

     total energy              =   -1631.35521987 Ry
     estimated scf accuracy    <       0.02269437 Ry

     total magnetization       =     1.73 Bohr mag/cell
     absolute magnetization    =     1.99 Bohr mag/cell

     iteration #  8     ecut=    80.00 Ry     beta= 0.30
     Davidson diagonalization with overlap
     ethr =  1.35E-05,  avg # of iterations =  4.4

     negative rho (up, down):  1.004E+00 9.776E-01

     total cpu time spent up to now is       52.7 secs

     total energy              =   -1631.35447778 Ry
     estimated scf accuracy    <       0.01150409 Ry

     total magnetization       =     1.63 Bohr mag/cell
     absolute magnetization    =     1.96 Bohr mag/cell

     iteration #  9     ecut=    80.00 Ry     beta= 0.30
     Davidson diagonalization with overlap
     ethr =  6.85E-06,  avg # of iterations =  6.7

     negative rho (up, down):  1.000E+00 9.798E-01

     total cpu time spent up to now is       59.0 secs

     total energy              =   -1631.35524201 Ry
     estimated scf accuracy    <       0.00681051 Ry

     total magnetization       =     1.44 Bohr mag/cell
     absolute magnetization    =     1.98 Bohr mag/cell

     iteration # 10     ecut=    80.00 Ry     beta= 0.30
     Davidson diagonalization with overlap
     ethr =  4.05E-06,  avg # of iterations =  6.8

     negative rho (up, down):  9.932E-01 9.760E-01

     total cpu time spent up to now is       65.1 secs

     total energy              =   -1631.35480762 Ry
     estimated scf accuracy    <       0.00480444 Ry

     total magnetization       =     1.29 Bohr mag/cell
     absolute magnetization    =     2.01 Bohr mag/cell

     iteration # 11     ecut=    80.00 Ry     beta= 0.30
     Davidson diagonalization with overlap
     ethr =  2.86E-06,  avg # of iterations =  6.8

     negative rho (up, down):  9.735E-01 9.630E-01

     total cpu time spent up to now is       71.6 secs

     total energy              =   -1631.35289134 Ry
     estimated scf accuracy    <       0.00350291 Ry

     total magnetization       =     1.18 Bohr mag/cell
     absolute magnetization    =     2.03 Bohr mag/cell

     iteration # 12     ecut=    80.00 Ry     beta= 0.30
     Davidson diagonalization with overlap
     ethr =  2.09E-06,  avg # of iterations =  9.9

     negative rho (up, down):  9.662E-01 9.600E-01

     total cpu time spent up to now is       79.4 secs

     total energy              =   -1631.35278655 Ry
     estimated scf accuracy    <       0.00234752 Ry

     total magnetization       =     0.90 Bohr mag/cell
     absolute magnetization    =     2.19 Bohr mag/cell

     iteration # 13     ecut=    80.00 Ry     beta= 0.30
     Davidson diagonalization with overlap
     c_bands:  1 eigenvalues not converged
     ethr =  1.40E-06,  avg # of iterations =  8.6

     negative rho (up, down):  9.611E-01 9.577E-01

     total cpu time spent up to now is       85.9 secs

     total energy              =   -1631.35231169 Ry
     estimated scf accuracy    <       0.00136531 Ry

     total magnetization       =     0.74 Bohr mag/cell
     absolute magnetization    =     2.35 Bohr mag/cell

     iteration # 14     ecut=    80.00 Ry     beta= 0.30
     Davidson diagonalization with overlap
     c_bands:  1 eigenvalues not converged
     ethr =  8.13E-07,  avg # of iterations =  7.0

     negative rho (up, down):  9.587E-01 9.571E-01

     total cpu time spent up to now is       93.0 secs

     total energy              =   -1631.35187633 Ry
     estimated scf accuracy    <       0.00062451 Ry

     total magnetization       =     0.62 Bohr mag/cell
     absolute magnetization    =     2.47 Bohr mag/cell

     iteration # 15     ecut=    80.00 Ry     beta= 0.30
     Davidson diagonalization with overlap
     ethr =  3.72E-07,  avg # of iterations =  4.7

     negative rho (up, down):  9.576E-01 9.557E-01

     total cpu time spent up to now is      102.3 secs

     total energy              =   -1631.35201626 Ry
     estimated scf accuracy    <       0.00017849 Ry

     total magnetization       =     0.56 Bohr mag/cell
     absolute magnetization    =     2.53 Bohr mag/cell

     iteration # 16     ecut=    80.00 Ry     beta= 0.30
     Davidson diagonalization with overlap
     ethr =  1.06E-07,  avg # of iterations =  2.0

     negative rho (up, down):  9.565E-01 9.522E-01

     total cpu time spent up to now is      108.3 secs

     total energy              =   -1631.35199326 Ry
     estimated scf accuracy    <       0.00010491 Ry

     total magnetization       =     0.56 Bohr mag/cell
     absolute magnetization    =     2.53 Bohr mag/cell

     iteration # 17     ecut=    80.00 Ry     beta= 0.30
     Davidson diagonalization with overlap
     ethr =  6.24E-08,  avg # of iterations =  3.8

     negative rho (up, down):  9.551E-01 9.499E-01

     total cpu time spent up to now is      114.3 secs

     total energy              =   -1631.35200377 Ry
     estimated scf accuracy    <       0.00003618 Ry

     total magnetization       =     0.61 Bohr mag/cell
     absolute magnetization    =     2.49 Bohr mag/cell

     iteration # 18     ecut=    80.00 Ry     beta= 0.30
     Davidson diagonalization with overlap
     ethr =  2.15E-08,  avg # of iterations =  2.2

     negative rho (up, down):  9.551E-01 9.496E-01

     total cpu time spent up to now is      118.5 secs

     total energy              =   -1631.35199937 Ry
     estimated scf accuracy    <       0.00001572 Ry

     total magnetization       =     0.62 Bohr mag/cell
     absolute magnetization    =     2.48 Bohr mag/cell

     iteration # 19     ecut=    80.00 Ry     beta= 0.30
     Davidson diagonalization with overlap
     ethr =  9.36E-09,  avg # of iterations =  1.7

     negative rho (up, down):  9.551E-01 9.493E-01

     total cpu time spent up to now is      131.7 secs

     total energy              =   -1631.35200109 Ry
     estimated scf accuracy    <       0.00000662 Ry

     total magnetization       =     0.63 Bohr mag/cell
     absolute magnetization    =     2.48 Bohr mag/cell

     iteration # 20     ecut=    80.00 Ry     beta= 0.30
     Davidson diagonalization with overlap
     ethr =  3.94E-09,  avg # of iterations =  2.0

     negative rho (up, down):  9.551E-01 9.490E-01

     total cpu time spent up to now is      166.6 secs

     total energy              =   -1631.35200150 Ry
     estimated scf accuracy    <       0.00000280 Ry

     total magnetization       =     0.65 Bohr mag/cell
     absolute magnetization    =     2.47 Bohr mag/cell

     iteration # 21     ecut=    80.00 Ry     beta= 0.30
     Davidson diagonalization with overlap
     ethr =  1.67E-09,  avg # of iterations =  2.3

     negative rho (up, down):  9.550E-01 9.489E-01

     Magnetic moment per site  (integrated on atomic sphere of radius R)
     atom   1 (R=0.231)  charge=  8.4546  magn= -0.0165
     atom   2 (R=0.231)  charge=  8.3853  magn= -0.0480
     atom   3 (R=0.231)  charge=  8.4082  magn=  0.0371
     atom   4 (R=0.231)  charge=  8.4134  magn= -0.1002
     atom   5 (R=0.231)  charge=  8.3759  magn=  0.3520
     atom   6 (R=0.231)  charge=  8.3851  magn= -0.1350
     atom   7 (R=0.231)  charge=  4.9036  magn=  0.0027
     atom   8 (R=0.231)  charge=  4.7825  magn= -0.0430
     atom   9 (R=0.231)  charge=  4.8993  magn= -0.0036
     atom  10 (R=0.231)  charge=  4.8993  magn= -0.0036
     atom  11 (R=0.231)  charge=  4.8790  magn= -0.0225
     atom  12 (R=0.231)  charge=  4.8869  magn= -0.0444
     atom  13 (R=0.231)  charge=  4.9058  magn= -0.0021
     atom  14 (R=0.231)  charge=  4.9058  magn= -0.0021
     atom  15 (R=0.231)  charge=  4.7977  magn= -0.0899
     atom  16 (R=0.231)  charge=  4.8981  magn=  0.0152
     atom  17 (R=0.231)  charge=  4.9091  magn= -0.0169
     atom  18 (R=0.231)  charge=  4.9091  magn= -0.0169
     atom  19 (R=0.231)  charge=  4.7549  magn=  0.6414

     total cpu time spent up to now is      172.4 secs

     End of self-consistent calculation

 ------ SPIN UP ------------


          k = 0.0000 0.0000 0.0000 ( 41611 PWs)   bands (ev):

   -50.1596 -49.8216 -49.5965 -49.1230 -49.1005 -49.0579 -48.9932 -48.9904
   -48.8802 -48.8629 -48.8546 -48.8310 -48.7674 -48.7396 -48.6606 -48.6214
   -48.5718 -48.4444 -19.7126 -19.4292 -19.2884 -18.8497 -18.4288 -18.2370
   -17.8947 -17.7898 -17.7246 -17.6653 -17.3178 -16.5209 -16.3019  -8.5054
    -8.4487  -8.4095  -7.7126  -7.1642  -6.9554  -6.7811  -6.5473  -6.4575
    -6.2671  -6.0603  -6.0419  -5.8766  -5.6189  -5.1578  -4.6241  -4.1144
    -3.8519  -3.6637  -3.4447  -3.4212  -3.3455  -3.3391  -3.2452  -3.0963
    -2.9285  -2.9127  -2.7541  -2.7288  -2.7282  -2.5682  -2.3832  -2.1736
    -1.8455  -1.8326  -1.5476  -1.5173  -1.3505  -1.2127  -1.0629  -1.0178
    -1.0131  -0.9900  -0.9560  -0.8151  -0.6932  -0.5576  -0.2095  -0.0496
     0.4191   0.6474   0.6754   0.8317   1.3066   1.5973   1.7069   2.0832
     2.4232   2.9778   3.5987   3.9997   4.8389   4.9175   5.0123   5.4610
     5.4749   5.5598   5.9255   5.9637   6.3957

          k = 0.0000 0.1240 0.0000 ( 41688 PWs)   bands (ev):

   -50.1596 -49.8216 -49.5961 -49.1226 -49.1005 -49.0584 -48.9931 -48.9882
   -48.8802 -48.8652 -48.8546 -48.8310 -48.7673 -48.7396 -48.6607 -48.6214
   -48.5718 -48.4449 -19.5761 -19.2843 -19.1592 -18.9017 -18.4656 -18.3371
   -17.9396 -17.9105 -17.8698 -17.7952 -17.3132 -16.5194 -16.2987  -8.0072
    -7.9357  -7.8726  -7.7095  -7.1637  -6.8864  -6.7056  -6.4600  -6.4532
    -6.1568  -6.0593  -5.9491  -5.8755  -5.4439  -5.1809  -4.7418  -4.5184
    -4.3821  -4.2669  -4.1623  -4.0259  -3.8029  -3.6428  -3.5547  -3.4560
    -3.3197  -2.9641  -2.8513  -2.7197  -2.6946  -2.5494  -2.4224  -2.1356
    -1.9823  -1.8143  -1.5318  -1.3415  -1.1709  -0.9537  -0.9277  -0.7498
    -0.6327  -0.5915  -0.4830  -0.4633  -0.3962  -0.3262  -0.1859   0.0457
     0.4171   0.6242   0.7195   0.8831   1.2497   1.4532   1.7216   1.8522
     2.2383   3.5035   4.2285   4.4412   4.7210   4.8395   5.0316   5.1721
     5.1739   5.5639   5.9280   5.9452   6.3572

          k = 0.0000-0.2479 0.0000 ( 41774 PWs)   bands (ev):

   -50.1596 -49.8216 -49.5957 -49.1222 -49.1005 -49.0590 -48.9930 -48.9859
   -48.8803 -48.8676 -48.8546 -48.8310 -48.7673 -48.7396 -48.6608 -48.6215
   -48.5718 -48.4454 -19.2991 -19.2130 -19.0451 -18.7712 -18.6101 -18.5860
   -18.1039 -18.0407 -17.9161 -17.8623 -17.3099 -16.5189 -16.2961  -7.7219
    -7.2337  -7.1665  -7.1000  -6.9400  -6.8100  -6.6215  -6.4530  -6.3553
    -6.1237  -6.0573  -5.8732  -5.6213  -5.5460  -5.4468  -5.4125  -5.2496
    -5.1509  -4.8842  -4.7156  -4.2360  -3.9395  -3.9392  -3.9213  -3.8454
    -3.6387  -2.9731  -2.8955  -2.7378  -2.7176  -2.3254  -2.3058  -2.0261
    -1.9473  -1.7490  -1.3673  -1.2980  -1.2923  -1.1234  -0.6780  -0.6530
    -0.5941  -0.3625  -0.2412  -0.1732  -0.0742   0.1190   0.2019   0.3808
     0.5782   0.6369   0.6665   0.8132   1.0394   1.3667   1.5819   1.7340
     2.1233   4.0001   4.3961   4.4667   4.8388   4.8408   4.8581   5.1845
     5.4421   5.5649   5.7051   5.9296   6.2858

          k = 0.1250 0.0000 0.0000 ( 41611 PWs)   bands (ev):

   -50.1586 -49.8373 -49.5941 -49.1219 -49.0994 -49.0570 -49.0097 -48.9887
   -48.8961 -48.8611 -48.8521 -48.8474 -48.7831 -48.7387 -48.6770 -48.6191
   -48.5694 -48.4421 -19.5731 -19.3031 -19.1685 -18.7541 -18.3629 -18.1497
   -17.9382 -17.8694 -17.8050 -17.7525 -17.3129 -16.5695 -16.3434  -8.3187
    -8.2644  -8.2310  -7.5278  -7.1322  -6.8975  -6.7304  -6.5441  -6.5116
    -6.1607  -6.0497  -5.6074  -5.5664  -5.4335  -4.9786  -4.7449  -4.4996
    -3.9678  -3.9392  -3.7924  -3.7353  -3.7225  -3.6274  -3.5349  -3.1934
    -3.0637  -2.9358  -2.8152  -2.7594  -2.7344  -2.6814  -2.5581  -2.4106
    -2.3697  -2.0645  -2.0606  -1.4365  -1.3226  -1.1497  -0.9351  -0.9014
    -0.7875  -0.6887  -0.6544  -0.5762  -0.3015  -0.1025  -0.0114   0.2636
     0.6020   0.7731   0.7897   1.0319   1.1648   1.5447   1.7450   1.9266
     2.2612   3.2139   3.8320   4.1835   4.4602   4.6597   4.8918   5.0706
     5.1092   5.1984   5.4611   6.0724   6.5334

          k = 0.1250 0.1240 0.0000 ( 41692 PWs)   bands (ev):

   -50.1586 -49.8373 -49.5937 -49.1216 -49.0994 -49.0574 -49.0106 -48.9859
   -48.8963 -48.8629 -48.8521 -48.8474 -48.7831 -48.7387 -48.6771 -48.6192
   -48.5694 -48.4425 -19.4421 -19.1630 -19.0400 -18.8065 -18.3936 -18.2626
   -18.0050 -17.9642 -17.9316 -17.8537 -17.3092 -16.5688 -16.3407  -7.8439
    -7.7766  -7.7231  -7.5267  -7.1338  -6.8114  -6.6408  -6.5475  -6.4164
    -6.2422  -5.7849  -5.6071  -5.5718  -5.3369  -4.9869  -4.7976  -4.6217
    -4.5055  -4.4102  -4.2394  -4.1753  -4.0989  -4.0390  -3.8820  -3.7488
    -3.4392  -3.2922  -3.0193  -2.8844  -2.8267  -2.5418  -2.3607  -2.3452
    -2.1538  -1.8263  -1.7487  -1.3699  -1.2369  -1.0144  -0.7979  -0.6823
    -0.5448  -0.4187  -0.3616  -0.1978  -0.1404  -0.0576   0.1251   0.3194
     0.6691   0.7259   0.8409   1.0202   1.1325   1.3692   1.6604   1.8288
     2.1299   3.6422   4.1722   4.4076   4.4307   4.5074   4.6842   4.8638
     5.0639   5.2690   5.4603   6.0435   6.4271

          k = 0.1250-0.2479 0.0000 ( 41706 PWs)   bands (ev):

   -50.1586 -49.8373 -49.5934 -49.1213 -49.0994 -49.0579 -49.0113 -48.9832
   -48.8966 -48.8647 -48.8521 -48.8474 -48.7830 -48.7386 -48.6771 -48.6192
   -48.5694 -48.4429 -19.1758 -19.0856 -18.9229 -18.6677 -18.5433 -18.5373
   -18.1743 -18.0854 -17.9463 -17.9021 -17.3062 -16.5688 -16.3385  -7.5369
    -7.1369  -7.0010  -6.8852  -6.8403  -6.7283  -6.6944  -6.5641  -6.5462
    -6.2613  -5.6100  -5.5905  -5.4280  -5.3218  -5.1831  -5.1440  -5.1062
    -4.9738  -4.9119  -4.8791  -4.7569  -4.6422  -4.4865  -4.0367  -3.8579
    -3.8032  -3.2342  -3.2017  -2.9209  -2.8328  -2.4051  -2.1639  -2.1390
    -1.9186  -1.7598  -1.3998  -1.3774  -1.2292  -1.1749  -0.6672  -0.5885
    -0.4639  -0.3782  -0.3254  -0.0220   0.2036   0.3376   0.5280   0.5623
     0.6798   0.7639   0.8365   0.9479   1.0629   1.3039   1.4817   1.6422
     2.1242   3.8662   4.1138   4.1653   4.2901   4.4191   4.7308   5.0813
     5.2846   5.4670   5.5021   5.7603   6.4702

          k = 0.2500 0.0000 0.0000 ( 41623 PWs)   bands (ev):

   -50.1562 -49.8750 -49.5883 -49.1191 -49.0969 -49.0549 -49.0495 -48.9846
   -48.9344 -48.8869 -48.8568 -48.8460 -48.8208 -48.7364 -48.7165 -48.6136
   -48.5637 -48.4364 -19.2108 -18.9856 -18.8689 -18.5482 -18.2495 -18.0572
   -18.0315 -17.9922 -17.9680 -17.9550 -17.2848 -16.6386 -16.3925  -7.8252
    -7.7764  -7.7514  -7.0434  -6.9488  -6.7190  -6.5979  -6.5596  -6.2927
    -6.0625  -5.8810  -5.5243  -5.2723  -5.0919  -5.0101  -4.9777  -4.9097
    -4.8438  -4.7810  -4.1796  -4.1670  -3.8824  -3.7202  -3.5765  -3.4786
    -3.4615  -3.4079  -3.3037  -3.1493  -2.9216  -2.6963  -2.6920  -2.5186
    -2.1792  -2.0676  -1.7132  -1.5142  -1.4538  -1.2018  -0.9419  -0.7056
    -0.5511  -0.4005  -0.3494  -0.2725   0.1391   0.3961   0.5466   0.6457
     0.8133   0.8516   0.9260   1.0369   1.1471   1.3756   1.5653   1.8178
     1.8865   3.5983   3.8530   3.9610   4.1060   4.3370   4.3390   4.4282
     4.6244   4.6633   5.3151   5.8164   6.8435

          k = 0.2500 0.1240 0.0000 ( 41653 PWs)   bands (ev):

   -50.1562 -49.8751 -49.5881 -49.1191 -49.0969 -49.0551 -49.0505 -48.9824
   -48.9347 -48.8869 -48.8577 -48.8461 -48.8209 -48.7364 -48.7163 -48.6136
   -48.5637 -48.4366 -19.1037 -18.8712 -18.7553 -18.5988 -18.2981 -18.1876
   -18.1259 -18.1036 -17.9988 -17.9273 -17.2825 -16.6399 -16.3917  -7.4529
    -7.3958  -7.3731  -7.0421  -6.9482  -6.5979  -6.5620  -6.4020  -6.1726
    -6.1636  -5.9388  -5.4846  -5.4218  -5.3721  -5.3348  -5.1903  -5.0364
    -4.8616  -4.6647  -4.2163  -4.1263  -4.0709  -3.9178  -3.8146  -3.7937
    -3.7559  -3.6370  -3.2959  -3.0587  -2.9487  -2.7264  -2.6139  -2.4751
    -2.1745  -2.0927  -1.6788  -1.4986  -1.3820  -1.3135  -0.8232  -0.5776
    -0.3297  -0.2113  -0.1231  -0.0906   0.1183   0.3479   0.6020   0.6407
     0.8304   0.8635   0.9843   1.0180   1.1634   1.3052   1.4472   1.6307
     2.0400   3.4151   3.6431   3.7768   3.8437   3.9003   4.5213   4.6622
     4.9118   5.0619   5.4424   5.8760   6.9033

          k = 0.2500-0.2479 0.0000 ( 41680 PWs)   bands (ev):

   -50.1562 -49.8752 -49.5878 -49.1191 -49.0969 -49.0552 -49.0516 -48.9802
   -48.9350 -48.8868 -48.8586 -48.8461 -48.8209 -48.7364 -48.7162 -48.6136
   -48.5637 -48.4368 -18.8856 -18.7830 -18.6225 -18.5289 -18.4416 -18.4399
   -18.3090 -18.1454 -17.9838 -17.9317 -17.2802 -16.6413 -16.3910  -7.0529
    -6.9619  -6.8208  -6.7378  -6.7182  -6.6009  -6.3402  -6.2414  -6.2386
    -6.1460  -6.0535  -6.0430  -5.9292  -5.7179  -5.2959  -5.1971  -5.0933
    -4.8380  -4.5395  -4.4862  -4.3888  -4.3782  -4.2819  -4.0671  -4.0308
    -3.9734  -3.7813  -3.3244  -3.1764  -2.8657  -2.4522  -2.3098  -2.2417
    -2.1152  -2.0830  -1.7700  -1.6376  -1.2933  -1.2812  -0.6698  -0.6228
    -0.3632  -0.2711  -0.1591   0.2692   0.3265   0.3690   0.7268   0.7363
     0.8328   0.8698   1.0334   1.0605   1.1770   1.3093   1.4413   1.4458
     2.1238   2.9479   3.2482   3.3634   3.8493   3.9042   4.6551   4.9194
     4.9846   5.5282   5.6000   5.8163   7.0099

          k = 0.3750 0.0000 0.0000 ( 41645 PWs)   bands (ev):

   -50.1538 -49.9125 -49.5824 -49.1164 -49.0945 -49.0890 -49.0527 -48.9805
   -48.9724 -48.9260 -48.8583 -48.8525 -48.8401 -48.7556 -48.7343 -48.6081
   -48.5579 -48.4308 -18.7851 -18.6405 -18.5515 -18.4493 -18.2391 -18.2109
   -18.1713 -18.1470 -18.0605 -17.8620 -17.2385 -16.6089 -16.3564  -7.2768
    -7.1898  -7.1819  -6.7617  -6.6387  -6.5570  -6.4819  -6.4810  -6.2570
    -6.2207  -5.9264  -5.9207  -5.7689  -5.7385  -5.4645  -5.1930  -4.8416
    -4.8096  -4.4652  -4.3046  -4.2638  -4.1278  -4.0390  -3.6703  -3.6104
    -3.5045  -3.2769  -3.1663  -2.9941  -2.9688  -2.8087  -2.6152  -2.3386
    -1.9953  -1.9742  -1.6359  -1.5832  -1.4775  -1.1713  -1.0023  -0.5959
    -0.5563  -0.3450  -0.1736  -0.1583   0.2947   0.3738   0.3776   0.4813
     0.6136   0.7909   0.7926   1.0863   1.1807   1.3607   1.6947   1.7153
     1.8892   3.2691   3.3848   3.5181   3.7825   3.9207   4.2089   4.2528
     4.5817   4.7537   5.3919   5.4524   7.6286

          k = 0.3750 0.1240 0.0000 ( 41549 PWs)   bands (ev):

   -50.1538 -49.9126 -49.5823 -49.1167 -49.0945 -49.0901 -49.0527 -48.9790
   -48.9727 -48.9259 -48.8584 -48.8526 -48.8401 -48.7552 -48.7343 -48.6081
   -48.5579 -48.4307 -18.7530 -18.6253 -18.5749 -18.4760 -18.3078 -18.2212
   -18.1599 -18.1289 -18.0223 -17.8653 -17.2371 -16.6112 -16.3565  -7.1292
    -7.0695  -7.0464  -6.8334  -6.6713  -6.6226  -6.5746  -6.4333  -6.4124
    -6.2870  -6.1837  -5.7510  -5.6349  -5.5136  -5.3557  -5.2693  -4.9438
    -4.6174  -4.4479  -4.2741  -4.1775  -3.9660  -3.9410  -3.6781  -3.6423
    -3.5091  -3.2936  -3.2750  -3.0827  -2.9014  -2.7639  -2.5332  -2.4426
    -2.1259  -2.0309  -1.8478  -1.6676  -1.4958  -1.2930  -0.8663  -0.7422
    -0.3902  -0.3804  -0.3330  -0.2623  -0.0370   0.0987   0.3040   0.3688
     0.4266   0.7275   1.3089   1.3252   1.3690   1.5388   1.5517   1.7644
     1.8821   2.7513   3.0421   3.2233   3.3320   3.5497   4.2152   4.9301
     5.2241   5.3730   5.5566   5.6226   7.7275

          k = 0.3750-0.2479 0.0000 ( 41514 PWs)   bands (ev):

   -50.1538 -49.9128 -49.5823 -49.1170 -49.0945 -49.0912 -49.0526 -48.9775
   -48.9729 -48.9259 -48.8584 -48.8526 -48.8400 -48.7549 -48.7343 -48.6081
   -48.5579 -48.4307 -18.6904 -18.6514 -18.5839 -18.5026 -18.3425 -18.2684
   -18.1367 -18.1080 -17.9994 -17.8689 -17.2357 -16.6135 -16.3565  -6.9899
    -6.9453  -6.8120  -6.7165  -6.7095  -6.6868  -6.6597  -6.6090  -6.5249
    -6.4204  -6.3394  -5.6378  -5.6094  -5.3727  -5.1552  -5.0584  -4.9670
    -4.6254  -4.5114  -4.2310  -4.1210  -3.9307  -3.8593  -3.7562  -3.6430
    -3.5477  -3.3879  -3.2947  -3.0362  -2.8698  -2.6336  -2.5691  -2.3902
    -2.2387  -2.1597  -1.7466  -1.6659  -1.6383  -1.5712  -0.9247  -0.9217
    -0.7555  -0.3309  -0.3204  -0.1930  -0.1596   0.0896   0.2988   0.3738
     0.4131   0.5932   1.3151   1.3570   1.5360   1.6703   1.7174   1.7383
     2.0100   2.2764   2.6053   2.7736   3.3489   3.5704   4.2162   5.3535
     5.3838   5.6954   5.7756   5.9785   7.8285

          k =-0.5000 0.0000 0.0000 ( 41440 PWs)   bands (ev):

   -50.1528 -49.9280 -49.5799 -49.1153 -49.1052 -49.0935 -49.0518 -48.9880
   -48.9788 -48.9421 -48.8737 -48.8507 -48.8376 -48.7716 -48.7334 -48.6058
   -48.5555 -48.4284 -18.5323 -18.5151 -18.4549 -18.4038 -18.3126 -18.2540
   -18.2439 -18.2232 -18.0427 -17.8475 -17.2140 -16.5611 -16.3143  -7.1833
    -6.8907  -6.8220  -6.7655  -6.6943  -6.6259  -6.4763  -6.4329  -6.3509
    -6.0658  -6.0525  -5.9670  -5.9500  -5.6653  -5.6284  -5.5554  -4.6901
    -4.5606  -4.4798  -4.4655  -4.2196  -4.1528  -4.1355  -3.9964  -3.5195
    -3.3251  -3.2303  -3.1324  -2.8905  -2.7656  -2.7401  -2.4267  -2.1049
    -1.9410  -1.8773  -1.8481  -1.4837  -1.4395  -1.1701  -1.1350  -0.5800
    -0.4868  -0.4200  -0.2489  -0.2304  -0.1498   0.1465   0.2197   0.4632
     0.5583   0.6054   0.7694   0.9600   1.3434   1.5249   1.5254   1.9072
     2.1149   3.0464   3.1647   3.4616   3.5872   3.7485   4.1147   4.2727
     4.6322   4.7438   5.3705   5.4809   8.2192

          k =-0.5000 0.1240 0.0000 ( 41518 PWs)   bands (ev):

   -50.1528 -49.9281 -49.5800 -49.1157 -49.1064 -49.0935 -49.0517 -48.9883
   -48.9776 -48.9420 -48.8738 -48.8504 -48.8376 -48.7712 -48.7334 -48.6058
   -48.5555 -48.4283 -18.6214 -18.5975 -18.5491 -18.5286 -18.2495 -18.1517
   -18.1109 -18.1046 -18.0471 -17.8511 -17.2128 -16.5627 -16.3137  -7.0966
    -7.0916  -7.0460  -6.8923  -6.8141  -6.7258  -6.6938  -6.5465  -6.3966
    -6.1356  -6.0713  -5.8703  -5.6521  -5.3120  -5.1701  -4.8102  -4.6656
    -4.5972  -4.5056  -4.4518  -4.3746  -4.2259  -4.0749  -3.4556  -3.3850
    -3.3267  -3.1679  -3.1673  -2.9432  -2.8285  -2.6068  -2.5958  -2.1643
    -2.0085  -1.9376  -1.8597  -1.7380  -1.5933  -1.3096  -1.0992  -0.6486
    -0.6055  -0.5030  -0.4301  -0.2960  -0.2250  -0.2099  -0.1445   0.0063
     0.0757   0.5477   1.4685   1.4710   1.5580   1.5811   1.7687   1.7717
     2.0278   2.4926   2.8114   3.0148   3.0950   3.4866   4.1166   5.1708
     5.3670   5.4724   5.5543   5.5766   8.3759

          k =-0.5000-0.2479 0.0000 ( 41524 PWs)   bands (ev):

   -50.1528 -49.9283 -49.5800 -49.1161 -49.1075 -49.0935 -49.0515 -48.9886
   -48.9765 -48.9420 -48.8739 -48.8501 -48.8376 -48.7707 -48.7334 -48.6058
   -48.5555 -48.4282 -18.6873 -18.6863 -18.6248 -18.5247 -18.2449 -18.0672
   -18.0516 -18.0319 -18.0192 -17.8549 -17.2117 -16.5643 -16.3130  -7.2962
    -7.2732  -7.1296  -6.9775  -6.7609  -6.6738  -6.6259  -6.5854  -6.4338
    -6.2159  -6.1459  -5.8688  -5.7783  -4.9063  -4.6559  -4.6014  -4.5277
    -4.4445  -4.4314  -4.3506  -4.1144  -3.9961  -3.8750  -3.7331  -3.4763
    -3.3909  -3.1561  -3.1465  -2.7922  -2.7420  -2.5796  -2.3965  -2.2617
    -2.2465  -2.2110  -1.8859  -1.8603  -1.8499  -1.3570  -1.1974  -1.0793
    -0.8944  -0.6663  -0.5017  -0.4327  -0.3203  -0.2301  -0.1888  -0.1435
     0.0084   0.5437   1.4638   1.5354   1.6629   1.8260   1.9066   1.9554
     1.9786   2.0561   2.4095   2.6062   3.1318   3.5092   4.1182   5.5743
     5.6162   5.6951   5.8548   6.1036   8.5346

 ------ SPIN DOWN ----------


          k = 0.0000 0.0000 0.0000 ( 41611 PWs)   bands (ev):

   -49.5982 -49.4086 -49.2844 -49.2048 -49.1728 -49.1509 -49.0411 -48.9875
   -48.9703 -48.9702 -48.9562 -48.8116 -48.8016 -48.7682 -48.7620 -48.6887
   -48.6762 -48.4641 -19.7261 -19.4394 -19.2961 -18.8913 -18.4335 -18.2420
   -17.8451 -17.7969 -17.7364 -17.6853 -16.6629 -16.3741 -16.2706  -8.4785
    -8.4594  -8.4199  -7.7106  -7.1752  -6.8346  -6.7743  -6.5570  -6.4841
    -6.2671  -6.1109  -6.0712  -5.9000  -5.5361  -4.9963  -4.5437  -3.9157
    -3.8927  -3.6971  -3.4387  -3.4319  -3.3005  -3.2182  -3.1056  -2.9843
    -2.9393  -2.8840  -2.7629  -2.5970  -2.5829  -2.3598  -2.2540  -2.1377
    -1.8611  -1.8467  -1.4258  -1.4001  -1.3194  -1.2079  -1.1954  -1.1463
    -1.1091  -1.0293  -1.0227  -0.6968  -0.6499  -0.5541  -0.2006  -0.0537
     0.3799   0.5582   0.8921   1.5486   1.5622   1.7114   1.9991   2.1488
     2.4437   2.9803   3.6159   3.9648   4.7952   4.9426   5.2053   5.4570
     5.4714   5.5075   5.8364   5.9965   6.3881

          k = 0.0000 0.1240 0.0000 ( 41688 PWs)   bands (ev):

   -49.5982 -49.4086 -49.2820 -49.2044 -49.1753 -49.1501 -49.0410 -48.9870
   -48.9706 -48.9703 -48.9562 -48.8115 -48.8025 -48.7681 -48.7620 -48.6887
   -48.6762 -48.4645 -19.5909 -19.2937 -19.1659 -18.9378 -18.4748 -18.3430
   -17.9464 -17.9126 -17.8538 -17.7896 -16.6568 -16.3700 -16.2740  -7.9710
    -7.9436  -7.8816  -7.7087  -7.1746  -6.7566  -6.6976  -6.4825  -6.4658
    -6.1812  -6.1095  -5.9512  -5.8991  -5.3506  -5.0341  -4.6892  -4.5315
    -4.4024  -4.2744  -4.0186  -4.0017  -3.7638  -3.6530  -3.5726  -3.2679
    -3.2404  -2.7693  -2.7455  -2.7145  -2.5846  -2.4002  -2.3020  -2.1670
    -2.0042  -1.6659  -1.5891  -1.3472  -1.2514  -0.8120  -0.7314  -0.6841
    -0.6448  -0.5765  -0.5642  -0.4990  -0.4773  -0.3852  -0.1862   0.0351
     0.3783   0.5511   0.9368   1.2766   1.5585   1.6874   1.9905   2.0136
     2.2830   3.5007   4.2690   4.3960   4.7951   4.9285   5.0533   5.1589
     5.1866   5.5128   5.8393   5.9649   6.3613

          k = 0.0000-0.2479 0.0000 ( 41774 PWs)   bands (ev):

   -49.5982 -49.4086 -49.2795 -49.2041 -49.1778 -49.1494 -49.0410 -48.9866
   -48.9711 -48.9704 -48.9562 -48.8115 -48.8033 -48.7681 -48.7620 -48.6888
   -48.6763 -48.4649 -19.3272 -19.2158 -19.0539 -18.7924 -18.6230 -18.5940
   -18.1202 -18.0485 -17.9308 -17.8101 -16.6511 -16.3665 -16.2780  -7.7196
    -7.1755  -7.1698  -7.0991  -6.9443  -6.6684  -6.6127  -6.4788  -6.3628
    -6.1571  -6.1067  -5.8969  -5.5987  -5.5345  -5.4742  -5.4274  -5.2673
    -5.0395  -4.7424  -4.6837  -4.1557  -3.9864  -3.9606  -3.9263  -3.7919
    -3.3956  -2.7612  -2.7532  -2.7513  -2.3473  -2.3164  -2.2996  -2.0465
    -1.9324  -1.7544  -1.4104  -1.3722  -1.2833  -0.7807  -0.7167  -0.5790
    -0.4193  -0.3348  -0.2353  -0.1927  -0.1123  -0.0165   0.1480   0.3441
     0.4748   0.6034   0.6608   1.1948   1.2374   1.6424   2.0366   2.0501
     2.0765   3.9880   4.5209   4.6247   4.7959   4.8292   4.8789   5.1165
     5.5137   5.5713   5.6761   5.8408   6.2592

          k = 0.1250 0.0000 0.0000 ( 41611 PWs)   bands (ev):

   -49.5972 -49.4247 -49.2826 -49.2037 -49.1712 -49.1497 -49.0400 -49.0032
   -48.9869 -48.9724 -48.9679 -48.8272 -48.7994 -48.7672 -48.7596 -48.6926
   -48.6865 -48.4617 -19.5868 -19.3136 -19.1764 -18.7975 -18.3642 -18.1515
   -17.8987 -17.8762 -17.8164 -17.7706 -16.7174 -16.4161 -16.2543  -8.2940
    -8.2772  -8.2416  -7.5245  -7.1420  -6.8095  -6.7222  -6.5468  -6.5190
    -6.1852  -6.0432  -5.6446  -5.5937  -5.3414  -4.8553  -4.5471  -4.4235
    -3.9607  -3.8497  -3.7819  -3.7743  -3.6967  -3.5724  -3.5259  -3.2027
    -3.0213  -2.8366  -2.7840  -2.7426  -2.6151  -2.5322  -2.5022  -2.4536
    -2.3972  -2.0059  -1.7293  -1.4260  -1.2900  -1.0122  -1.0026  -0.9055
    -0.6946  -0.6921  -0.6602  -0.5799  -0.2902  -0.1261  -0.1109   0.1728
     0.7141   0.8050   0.9483   1.3988   1.5718   1.6306   1.9367   2.0170
     2.3145   3.2218   3.8545   4.1475   4.4389   4.8559   4.8596   5.0784
     5.0925   5.1973   5.3856   6.1202   6.5374

          k = 0.1250 0.1240 0.0000 ( 41692 PWs)   bands (ev):

   -49.5972 -49.4248 -49.2804 -49.2034 -49.1733 -49.1491 -49.0400 -49.0028
   -48.9871 -48.9724 -48.9679 -48.8272 -48.8001 -48.7671 -48.7596 -48.6926
   -48.6865 -48.4621 -19.4574 -19.1730 -19.0468 -18.8430 -18.4007 -18.2668
   -18.0138 -17.9710 -17.9187 -17.8452 -16.7124 -16.4130 -16.2568  -7.8102
    -7.7858  -7.7328  -7.5244  -7.1429  -6.7157  -6.6291  -6.5497  -6.4237
    -6.2666  -5.7799  -5.6423  -5.5953  -5.2568  -4.8499  -4.6222  -4.5898
    -4.5130  -4.4332  -4.2480  -4.1680  -4.0877  -4.0094  -3.8545  -3.6913
    -3.4145  -3.1615  -2.9152  -2.6883  -2.6208  -2.5828  -2.3655  -2.3637
    -2.1516  -1.7437  -1.4599  -1.4432  -1.2458  -0.9025  -0.7327  -0.6000
    -0.5452  -0.3930  -0.3658  -0.2312  -0.1728  -0.1004   0.0716   0.2537
     0.7133   0.8449   0.9277   1.1977   1.4131   1.6623   1.8844   1.9987
     2.2029   3.6406   4.2590   4.3845   4.4255   4.5946   4.7204   4.8611
     5.0197   5.2754   5.3884   6.0838   6.4203

          k = 0.1250-0.2479 0.0000 ( 41706 PWs)   bands (ev):

   -49.5972 -49.4249 -49.2782 -49.2031 -49.1755 -49.1486 -49.0400 -49.0024
   -48.9874 -48.9724 -48.9680 -48.8272 -48.8008 -48.7671 -48.7596 -48.6926
   -48.6865 -48.4624 -19.2066 -19.0879 -18.9311 -18.6870 -18.5537 -18.5467
   -18.1922 -18.0921 -17.9546 -17.8622 -16.7076 -16.4105 -16.2597  -7.5330
    -7.1442  -6.9399  -6.8761  -6.7404  -6.7312  -6.6957  -6.5746  -6.5485
    -6.2886  -5.6476  -5.6071  -5.3607  -5.3218  -5.2016  -5.1400  -5.1056
    -5.0110  -4.8718  -4.7895  -4.6976  -4.6693  -4.2916  -3.8969  -3.8562
    -3.8499  -3.2231  -2.9398  -2.7062  -2.6096  -2.4498  -2.1805  -2.1215
    -1.8991  -1.7720  -1.4368  -1.3039  -1.1192  -0.8910  -0.6959  -0.4616
    -0.4335  -0.4251  -0.3506  -0.0510   0.2100   0.2906   0.5044   0.5306
     0.6715   0.7261   0.9761   1.0769   1.1565   1.5476   1.8918   2.0121
     2.1437   4.0401   4.1403   4.1703   4.2774   4.4143   4.7730   5.0328
     5.2357   5.3873   5.6286   5.7338   6.4433

          k = 0.2500 0.0000 0.0000 ( 41623 PWs)   bands (ev):

   -49.5947 -49.4634 -49.2784 -49.2010 -49.1672 -49.1466 -49.0409 -49.0383
   -49.0269 -49.0109 -48.9621 -48.8648 -48.7940 -48.7648 -48.7540 -48.7320
   -48.6810 -48.4560 -19.2257 -18.9975 -18.8778 -18.5997 -18.2427 -18.0633
   -18.0028 -18.0025 -17.9689 -17.9561 -16.8023 -16.4688 -16.2091  -7.8129
    -7.7887  -7.7632  -7.0409  -6.9528  -6.6957  -6.5592  -6.5521  -6.2994
    -6.0625  -5.8053  -5.5110  -5.2777  -5.0782  -4.9497  -4.8636  -4.8530
    -4.8061  -4.6754  -4.1703  -4.1249  -3.7653  -3.7067  -3.6377  -3.4844
    -3.4418  -3.3819  -3.3415  -3.1533  -2.9091  -2.6334  -2.4499  -2.3544
    -2.2102  -1.9910  -1.5988  -1.4853  -1.2078  -1.1559  -0.7825  -0.7298
    -0.5297  -0.4363  -0.2916  -0.2240   0.1468   0.3854   0.4922   0.6931
     0.7914   0.8206   1.0733   1.2091   1.2930   1.5698   1.6706   1.9574
     2.0788   3.5933   3.8286   4.0790   4.1831   4.3225   4.3504   4.4109
     4.5680   4.6175   5.3471   5.9280   6.8231

          k = 0.2500 0.1240 0.0000 ( 41653 PWs)   bands (ev):

   -49.5947 -49.4638 -49.2768 -49.2010 -49.1686 -49.1469 -49.0407 -49.0382
   -49.0266 -49.0108 -48.9621 -48.8648 -48.7943 -48.7648 -48.7540 -48.7319
   -48.6810 -48.4562 -19.1210 -18.8833 -18.7635 -18.6374 -18.3060 -18.1919
   -18.1291 -18.1106 -17.9788 -17.9192 -16.7993 -16.4679 -16.2112  -7.4278
    -7.4076  -7.3846  -7.0397  -6.9523  -6.5567  -6.5387  -6.3938  -6.1827
    -6.1641  -5.8828  -5.4768  -5.3951  -5.3631  -5.2992  -5.1915  -5.0182
    -4.6766  -4.5427  -4.2303  -4.1161  -4.0000  -3.9136  -3.8210  -3.7788
    -3.6861  -3.6026  -3.3064  -2.9837  -2.7807  -2.7453  -2.5684  -2.3321
    -2.1917  -2.0416  -1.5449  -1.4483  -1.3635  -1.1333  -0.7827  -0.3787
    -0.3356  -0.1406  -0.1171  -0.0656   0.1051   0.3639   0.5361   0.6479
     0.7975   0.8776   1.0178   1.1330   1.2183   1.4952   1.7261   1.9611
     2.1206   3.6057   3.6343   3.7642   3.8188   3.8772   4.5342   4.5931
     4.9288   5.0533   5.4652   5.9595   6.8808

          k = 0.2500-0.2479 0.0000 ( 41680 PWs)   bands (ev):

   -49.5947 -49.4641 -49.2752 -49.2009 -49.1699 -49.1471 -49.0405 -49.0382
   -49.0263 -49.0107 -48.9622 -48.8649 -48.7947 -48.7648 -48.7540 -48.7317
   -48.6810 -48.4564 -18.9248 -18.7844 -18.6285 -18.5385 -18.4538 -18.4499
   -18.3366 -18.1422 -17.9586 -17.9253 -16.7964 -16.4672 -16.2133  -7.0484
    -6.9576  -6.7622  -6.7473  -6.7309  -6.5579  -6.2881  -6.2549  -6.2399
    -6.1327  -6.0767  -6.0596  -5.9380  -5.6661  -5.3043  -5.0841  -5.0485
    -4.7885  -4.5515  -4.4980  -4.4257  -4.2791  -4.0757  -4.0507  -3.9577
    -3.9305  -3.8073  -3.3283  -2.8887  -2.7405  -2.5054  -2.2543  -2.2044
    -2.1394  -2.0780  -1.8447  -1.4150  -1.2374  -1.0923  -0.6887  -0.4808
    -0.3359  -0.1382  -0.1258   0.2935   0.2948   0.4138   0.7100   0.7479
     0.8072   0.8391   0.9302   1.1227   1.3168   1.3229   1.8518   1.9064
     2.1781   3.1870   3.2544   3.3446   3.8297   3.8641   4.5887   4.8895
     5.0395   5.4902   5.7374   5.7951   6.9831

          k = 0.3750 0.0000 0.0000 ( 41645 PWs)   bands (ev):

   -49.5922 -49.5019 -49.2742 -49.1983 -49.1632 -49.1436 -49.0782 -49.0669
   -49.0533 -49.0323 -48.9563 -48.9021 -48.7886 -48.7711 -48.7624 -48.7483
   -48.6755 -48.4503 -18.8069 -18.6575 -18.5634 -18.5009 -18.2443 -18.2002
   -18.1816 -18.1570 -18.0198 -17.8457 -16.7828 -16.4352 -16.1588  -7.2669
    -7.2045  -7.1936  -6.7370  -6.6315  -6.5446  -6.5093  -6.4502  -6.2710
    -6.1671  -5.9479  -5.9050  -5.7670  -5.6652  -5.2705  -5.2067  -4.8383
    -4.7783  -4.4060  -4.2707  -4.1635  -4.1454  -3.9538  -3.5915  -3.5606
    -3.4662  -3.2975  -3.1493  -2.9698  -2.9380  -2.7950  -2.3880  -2.2034
    -2.0207  -1.8936  -1.6907  -1.6042  -1.2556  -0.8727  -0.7177  -0.6148
    -0.5463  -0.3850  -0.2106  -0.2010   0.2128   0.3115   0.3268   0.5572
     0.6190   0.7908   0.9776   1.0897   1.5413   1.5520   1.6762   1.8470
     2.0972   3.2225   3.5033   3.6297   3.8033   3.9052   4.1325   4.2174
     4.5409   4.7226   5.3810   5.6601   7.6057

          k = 0.3750 0.1240 0.0000 ( 41549 PWs)   bands (ev):

   -49.5922 -49.5023 -49.2733 -49.1985 -49.1639 -49.1451 -49.0782 -49.0654
   -49.0530 -49.0322 -48.9563 -48.9021 -48.7886 -48.7708 -48.7624 -48.7483
   -48.6755 -48.4503 -18.7757 -18.6380 -18.5918 -18.5233 -18.3052 -18.2213
   -18.1667 -18.1269 -17.9969 -17.8501 -16.7807 -16.4353 -16.1614  -7.1243
    -7.0744  -7.0610  -6.7926  -6.6786  -6.6197  -6.5745  -6.4456  -6.4240
    -6.2944  -6.0761  -5.7076  -5.5909  -5.3895  -5.3424  -5.2803  -4.9604
    -4.5175  -4.3653  -4.2436  -4.1047  -3.9460  -3.8363  -3.6598  -3.5690
    -3.4737  -3.3338  -3.3239  -3.0802  -2.6894  -2.6624  -2.5064  -2.3496
    -2.0371  -2.0056  -1.9301  -1.6063  -1.4307  -1.1152  -0.7899  -0.5831
    -0.4236  -0.4126  -0.3114  -0.2250  -0.0519   0.2128   0.2726   0.3305
     0.5459   0.8696   1.2726   1.3707   1.4596   1.6207   1.7580   1.9589
     2.0741   2.9698   3.0463   3.2028   3.2920   3.5322   4.1406   4.9272
     5.2129   5.3830   5.5430   5.7799   7.7029

          k = 0.3750-0.2479 0.0000 ( 41514 PWs)   bands (ev):

   -49.5922 -49.5028 -49.2724 -49.1987 -49.1645 -49.1465 -49.0782 -49.0639
   -49.0528 -49.0322 -48.9563 -48.9022 -48.7886 -48.7705 -48.7624 -48.7483
   -48.6755 -48.4503 -18.7193 -18.6586 -18.5988 -18.5487 -18.3401 -18.2629
   -18.1469 -18.1044 -17.9800 -17.8548 -16.7787 -16.4354 -16.1639  -6.9768
    -6.9736  -6.8261  -6.7293  -6.6758  -6.6731  -6.6506  -6.6091  -6.5315
    -6.4417  -6.1940  -5.6166  -5.4924  -5.3138  -5.1613  -5.0710  -4.9773
    -4.5030  -4.4525  -4.2277  -4.1046  -3.8088  -3.7858  -3.6263  -3.5685
    -3.5037  -3.4332  -3.3194  -3.0551  -2.7829  -2.6183  -2.3771  -2.2846
    -2.2458  -2.0870  -1.7853  -1.7005  -1.5894  -1.5463  -0.9905  -0.8756
    -0.4818  -0.3864  -0.2760  -0.1648   0.0701   0.1538   0.2206   0.3378
     0.4771   0.8530   1.2021   1.4804   1.6214   1.6939   1.9247   1.9319
     2.1695   2.5438   2.6180   2.7523   3.2976   3.5493   4.1414   5.3376
     5.4403   5.7494   5.8388   5.9545   7.8017

          k =-0.5000 0.0000 0.0000 ( 41440 PWs)   bands (ev):

   -49.5912 -49.5177 -49.2725 -49.1972 -49.1615 -49.1423 -49.0935 -49.0834
   -49.0685 -49.0321 -48.9540 -48.9174 -48.7872 -48.7864 -48.7614 -48.7460
   -48.6733 -48.4480 -18.6029 -18.5235 -18.4679 -18.4220 -18.3175 -18.2541
   -18.2400 -18.2318 -17.9961 -17.8313 -16.7354 -16.3933 -16.1365  -7.1478
    -6.8903  -6.8403  -6.7394  -6.7013  -6.6239  -6.4819  -6.4067  -6.4011
    -6.0935  -6.0625  -5.9587  -5.7341  -5.7223  -5.5739  -5.5031  -4.6324
    -4.4755  -4.4669  -4.4381  -4.2266  -4.1574  -4.0510  -3.6581  -3.5930
    -3.2380  -3.1807  -3.1726  -2.9334  -2.7381  -2.4231  -2.3122  -2.0573
    -1.9794  -1.9622  -1.7750  -1.5818  -1.2191  -0.8229  -0.7764  -0.5496
    -0.5483  -0.4860  -0.3556  -0.2635  -0.1931   0.0747   0.1717   0.2831
     0.4891   0.8108   0.9808   1.1933   1.4793   1.7576   1.8328   1.8403
     2.2012   2.9992   3.4167   3.4524   3.6144   3.7346   4.0378   4.2268
     4.5657   4.7093   5.4064   5.6619   8.1927

          k =-0.5000 0.1240 0.0000 ( 41518 PWs)   bands (ev):

   -49.5912 -49.5182 -49.2719 -49.1975 -49.1620 -49.1447 -49.0936 -49.0810
   -49.0681 -49.0321 -48.9539 -48.9175 -48.7869 -48.7862 -48.7614 -48.7460
   -48.6733 -48.4479 -18.6279 -18.6043 -18.5996 -18.5665 -18.2362 -18.1568
   -18.1315 -18.1123 -17.9983 -17.8363 -16.7325 -16.3927 -16.1395  -7.1052
    -7.0565  -7.0449  -6.9054  -6.8082  -6.7411  -6.7026  -6.5470  -6.3954
    -6.1707  -5.8753  -5.7266  -5.6681  -5.3032  -5.1793  -4.7370  -4.6898
    -4.5885  -4.5063  -4.4056  -4.4015  -4.2188  -3.5243  -3.4379  -3.4024
    -3.2983  -3.2321  -3.2118  -2.9767  -2.5802  -2.5759  -2.3727  -2.1185
    -1.9933  -1.9528  -1.9201  -1.8214  -1.3424  -1.2894  -0.7943  -0.6866
    -0.6186  -0.5188  -0.4972  -0.3614  -0.2792  -0.2260  -0.1771   0.0744
     0.2510   0.9582   1.4887   1.4956   1.6254   1.6758   1.8383   2.0639
     2.1191   2.7208   2.8198   2.9933   3.0423   3.4738   4.0400   5.1450
     5.3402   5.4857   5.5504   5.7577   8.3476

          k =-0.5000-0.2479 0.0000 ( 41524 PWs)   bands (ev):

   -49.5912 -49.5188 -49.2713 -49.1979 -49.1624 -49.1469 -49.0937 -49.0787
   -49.0677 -49.0321 -48.9539 -48.9176 -48.7865 -48.7861 -48.7614 -48.7460
   -48.6733 -48.4478 -18.6941 -18.6921 -18.6403 -18.5964 -18.2323 -18.0718
   -18.0573 -18.0262 -18.0006 -17.8416 -16.7296 -16.3920 -16.1425  -7.3017
    -7.2909  -7.1451  -6.9299  -6.7676  -6.6882  -6.6019  -6.5977  -6.4298
    -6.1782  -6.0330  -5.7921  -5.7033  -4.8356  -4.6622  -4.5709  -4.5403
    -4.4701  -4.4049  -4.2645  -4.0969  -3.9492  -3.8608  -3.5842  -3.3350
    -3.2035  -3.1845  -3.1747  -2.8371  -2.5133  -2.4588  -2.3165  -2.2751
    -2.2120  -2.0805  -1.9434  -1.9182  -1.8896  -1.4429  -1.2477  -0.9741
    -0.7769  -0.6361  -0.5117  -0.4799  -0.3570  -0.2050  -0.1869  -0.0337
     0.2812   0.9719   1.4030   1.5782   1.8537   1.8758   1.9208   2.0365
     2.2335   2.2831   2.4379   2.5824   3.0757   3.4937   4.0419   5.5609
     5.6653   5.8313   5.8472   6.0788   8.5043

     the Fermi energy is     1.2835 ev

!    total energy              =   -1631.35200542 Ry
     estimated scf accuracy    <       0.00000094 Ry
     smearing contrib. (-TS)   =      -0.00034680 Ry
     internal energy E=F+TS    =   -1631.35165862 Ry

     The total energy is F=E-TS. E is the sum of the following terms:
     one-electron contribution =  -15339.83759342 Ry
     hartree contribution      =    7712.21303189 Ry
     xc contribution           =    -397.72133926 Ry
     ewald contribution        =    6517.74619190 Ry
     one-center paw contrib.   =    -123.75194973 Ry

     total magnetization       =     0.66 Bohr mag/cell
     absolute magnetization    =     2.45 Bohr mag/cell

     convergence has been achieved in  21 iterations

     negative rho (up, down):  9.550E-01 9.489E-01

     Forces acting on atoms (cartesian axes, Ry/au):

     atom    1 type  1   force =     0.00000000    0.00000000    0.03864424
     atom    2 type  1   force =     0.00000000    0.00000000   -0.04148076
     atom    3 type  1   force =     0.00000000    0.00000000    0.00073467
     atom    4 type  1   force =     0.00000000    0.00000000   -0.00052594
     atom    5 type  1   force =     0.00000000    0.00000000   -0.00378415
     atom    6 type  1   force =     0.00000000    0.00000000   -0.00183112
     atom    7 type  2   force =     0.00000000    0.00000000   -0.00210569
     atom    8 type  2   force =     0.00000000    0.00000000    0.03519101
     atom    9 type  2   force =     0.00000000    0.02122738   -0.02427439
     atom   10 type  2   force =     0.00000000   -0.02122738   -0.02427439
     atom   11 type  2   force =     0.00000000    0.00000000   -0.01419258
     atom   12 type  2   force =     0.00000000    0.00000000    0.01970498
     atom   13 type  2   force =     0.00000000   -0.00264075    0.00154044
     atom   14 type  2   force =     0.00000000    0.00264075    0.00154044
     atom   15 type  2   force =     0.00000000    0.00000000   -0.00099492
     atom   16 type  2   force =     0.00000000    0.00000000   -0.00196164
     atom   17 type  2   force =     0.00000000   -0.00084347    0.00224817
     atom   18 type  2   force =     0.00000000    0.00084347    0.00224817
     atom   19 type  2   force =     0.00000000    0.00000000    0.01357345

     Total force =     0.020958     Total SCF correction =     0.002052

     Writing all to output data dir ./tmp_s0_O__u000__sp2m010/s0_O__u000__sp2m010.save/ :
     XML data file, charge density, pseudopotentials, collected wavefunctions

     init_run     :      4.04s CPU      4.21s WALL (       1 calls)
     electrons    :    163.28s CPU    167.96s WALL (       1 calls)
     forces       :      1.07s CPU      1.08s WALL (       1 calls)

     Called by init_run:
     wfcinit      :      1.69s CPU      1.75s WALL (       1 calls)
     potinit      :      1.16s CPU      1.22s WALL (       1 calls)
     hinit0       :      0.78s CPU      0.80s WALL (       1 calls)

     Called by electrons:
     c_bands      :    120.69s CPU    124.04s WALL (      21 calls)
     sum_band     :     28.48s CPU     29.26s WALL (      21 calls)
     v_of_rho     :      2.77s CPU      2.89s WALL (      22 calls)
     newd         :      2.28s CPU      2.36s WALL (      22 calls)
     PAW_pot      :      4.98s CPU      5.10s WALL (      22 calls)
     mix_rho      :      2.73s CPU      2.90s WALL (      21 calls)

     Called by c_bands:
     init_us_2    :      1.29s CPU      1.36s WALL (     352 calls)
     cegterg      :     66.09s CPU     68.77s WALL (     168 calls)

     Called by *egterg:
     cdiaghg      :     10.21s CPU     10.53s WALL (    1071 calls)
     h_psi        :     38.97s CPU     40.82s WALL (    1079 calls)
     s_psi        :      2.86s CPU      3.02s WALL (    1079 calls)
     g_psi        :      0.20s CPU      0.23s WALL (     903 calls)

     Called by h_psi:
     h_psi:calbec :      5.00s CPU      5.19s WALL (    1079 calls)
     vloc_psi     :     30.77s CPU     32.28s WALL (    1079 calls)
                                        0.00s GPU  (    1079 calls)
     add_vuspsi   :      2.97s CPU      3.11s WALL (    1079 calls)

     General routines
     calbec       :      7.05s CPU      7.31s WALL (    1279 calls)
     fft          :      2.69s CPU      2.83s WALL (     563 calls)
     ffts         :      2.23s CPU      2.36s WALL (    2546 calls)
     fftw         :     35.83s CPU     37.58s WALL (   92612 calls)
     interpolate  :      0.79s CPU      0.84s WALL (      44 calls)

     Parallel routines

     PWSCF        :   2m49.09s CPU   2m54.37s WALL


   This run was terminated on:   1:34:12   1Sep2026            

=------------------------------------------------------------------------------=
   JOB DONE.
=------------------------------------------------------------------------------=
Note: The following floating-point exceptions are signalling: IEEE_DENORMAL
Note: The following floating-point exceptions are signalling: IEEE_DENORMAL
Note: The following floating-point exceptions are signalling: IEEE_DENORMAL
Note: The following floating-point exceptions are signalling: IEEE_DENORMAL
Note: The following floating-point exceptions are signalling: IEEE_DENORMAL
Note: The following floating-point exceptions are signalling: IEEE_DENORMAL
Note: The following floating-point exceptions are signalling: IEEE_DENORMAL
Note: The following floating-point exceptions are signalling: IEEE_DENORMAL
Note: The following floating-point exceptions are signalling: IEEE_DENORMAL
Note: The following floating-point exceptions are signalling: IEEE_DENORMAL
Note: The following floating-point exceptions are signalling: IEEE_DENORMAL
Note: The following floating-point exceptions are signalling: IEEE_DENORMAL
Note: The following floating-point exceptions are signalling: IEEE_DENORMAL
Note: The following floating-point exceptions are signalling: IEEE_DENORMAL
Note: The following floating-point exceptions are signalling: IEEE_DENORMAL
Note: The following floating-point exceptions are signalling: IEEE_DENORMAL
Note: The following floating-point exceptions are signalling: IEEE_DENORMAL
Note: The following floating-point exceptions are signalling: IEEE_DENORMAL
Note: The following floating-point exceptions are signalling: IEEE_DENORMAL
Note: The following floating-point exceptions are signalling: IEEE_DENORMAL
Note: The following floating-point exceptions are signalling: IEEE_DENORMAL
Note: The following floating-point exceptions are signalling: IEEE_DENORMAL
Note: The following floating-point exceptions are signalling: IEEE_DENORMAL
Note: The following floating-point exceptions are signalling: IEEE_DENORMAL
Note: The following floating-point exceptions are signalling: IEEE_DENORMAL
Note: The following floating-point exceptions are signalling: IEEE_DENORMAL
Note: The following floating-point exceptions are signalling: IEEE_DENORMAL
Note: The following floating-point exceptions are signalling: IEEE_DENORMAL
Note: The following floating-point exceptions are signalling: IEEE_DENORMAL
Note: The following floating-point exceptions are signalling: IEEE_DENORMAL
Note: The following floating-point exceptions are signalling: IEEE_DENORMAL
Note: The following floating-point exceptions are signalling: IEEE_DENORMAL
Note: The following floating-point exceptions are signalling: IEEE_DENORMAL
Note: The following floating-point exceptions are signalling: IEEE_DENORMAL
Note: The following floating-point exceptions are signalling: IEEE_DENORMAL
Note: The following floating-point exceptions are signalling: IEEE_DENORMAL
Note: The following floating-point exceptions are signalling: IEEE_DENORMAL
Note: The following floating-point exceptions are signalling: IEEE_DENORMAL
Note: The following floating-point exceptions are signalling: IEEE_DENORMAL
Note: The following floating-point exceptions are signalling: IEEE_DENORMAL
Note: The following floating-point exceptions are signalling: IEEE_DENORMAL
Note: The following floating-point exceptions are signalling: IEEE_DENORMAL
Note: The following floating-point exceptions are signalling: IEEE_DENORMAL
Note: The following floating-point exceptions are signalling: IEEE_DENORMAL
Note: The following floating-point exceptions are signalling: IEEE_DENORMAL
Note: The following floating-point exceptions are signalling: IEEE_DENORMAL
Note: The following floating-point exceptions are signalling: IEEE_DENORMAL
