
     Program PWSCF v.7.5 starts on  7Aug2026 at 11:45: 3 

     This program is part of the open-source Quantum ESPRESSO suite
     for quantum simulation of materials; please cite
         "P. Giannozzi et al., J. Phys.:Condens. Matter 21 395502 (2009);
         "P. Giannozzi et al., J. Phys.:Condens. Matter 29 465901 (2017);
         "P. Giannozzi et al., J. Chem. Phys. 152 154105 (2020);
          URL http://www.quantum-espresso.org", 
     in publications or presentations arising from this work. More details at
     http://www.quantum-espresso.org/quote

     Parallel version (MPI & OpenMP), running on       4 processor cores
     Number of MPI processes:                 4
     Threads/MPI process:                     1

     MPI processes distributed on     1 nodes
     28806 MiB available memory on the printing compute node when the environment starts

     Reading input from s0_O__u1.35.run.in

     Current dimensions of program PWSCF are:
     Max number of different atomic species (ntypx) = 10
     Max number of k-points (npk) =  40000
     Max angular momentum in pseudopotentials (lmaxx) =  4
     file O.pbe-n-kjpaw_psl.0.1.UPF: wavefunction(s)  2P renormalized
     Message from routine setup:
     using ibrav=0 with symmetry is DISCOURAGED, use correct ibrav instead

     K-points division:     npool     =       4
     Subspace diagonalization in iterative solution of the eigenvalue problem:
     a serial algorithm will be used


     G-vector sticks info
     --------------------
     sticks:   dense  smooth     PW     G-vecs:    dense   smooth      PW
     Sum        3323    1653    471               841263   297421   44917

     Using Slab Decomposition



     bravais-lattice index     =            0
     lattice parameter (alat)  =       5.5104  a.u.
     unit-cell volume          =    3076.9124 (a.u.)^3
     number of atoms/cell      =           19
     number of atomic types    =            2
     number of electrons       =       162.00
     number of Kohn-Sham states=           97
     kinetic-energy cutoff     =      80.0000  Ry
     charge density cutoff     =     640.0000  Ry
     scf convergence threshold =      1.0E-06
     mixing beta               =       0.3000
     number of iterations used =            8  local-TF  mixing
     Exchange-correlation= SLA  PW   PBX  PBC
                           (   1   4   3   4   0   0   0)
     Hubbard projectors: atomic
     Hubbard parameters of DFT+U (Dudarev formulation) in eV:
     U(Cr-3d) =  4.9950

     Internal variables: lda_plus_u =T, lda_plus_u_kind = 0

     Internal variables: orbital_resolved =F, hub_pot_fix =F, apply_U = F

     celldm(1)=   5.510441  celldm(2)=   0.000000  celldm(3)=   0.000000
     celldm(4)=   0.000000  celldm(5)=   0.000000  celldm(6)=   0.000000

     crystal axes: (cart. coord. in units of alat)
               a(1) = (   1.000000   0.000000   0.000000 )  
               a(2) = (   0.000000   2.144115   0.000000 )  
               a(3) = (   0.000000   0.000000   8.576458 )  

     reciprocal axes: (cart. coord. in units 2 pi/alat)
               b(1) = (  1.000000  0.000000  0.000000 )  
               b(2) = (  0.000000  0.466393  0.000000 )  
               b(3) = (  0.000000  0.000000  0.116598 )  


     PseudoPot. # 1 for Cr read from file:
     /usr/share/espresso/pseudo/cr_pbe_v1.5.uspp.F.UPF
     MD5 check sum: 0d52af634a40206e4dee301ad30da4bf
     Pseudo is Ultrasoft + core correction, Zval = 14.0
     Generated by new atomic code, or converted to UPF format
     Using radial grid of  857 points,  6 beta functions with: 
                l(1) =   0
                l(2) =   0
                l(3) =   1
                l(4) =   1
                l(5) =   2
                l(6) =   2
     Q(r) pseudized with  8 coefficients,  rinner =    0.950   0.950   0.950
                                                       0.950   0.950

     PseudoPot. # 2 for O  read from file:
     /usr/share/espresso/pseudo/O.pbe-n-kjpaw_psl.0.1.UPF
     MD5 check sum: 0234752ac141de4415c5fc33072bef88
     Pseudo is Projector augmented-wave + core cor, Zval =  6.0
     Generated using "atomic" code by A. Dal Corso  v.5.0.99 svn rev. 10869
     Shape of augmentation charge: BESSEL
     Using radial grid of 1095 points,  4 beta functions with: 
                l(1) =   0
                l(2) =   0
                l(3) =   1
                l(4) =   1
     Q(r) pseudized with 0 coefficients 


     atomic species   valence    mass     pseudopotential
     Cr               14.00    51.99600     Cr( 1.00)
     O                 6.00    15.99900     O ( 1.00)

     Starting magnetic structure 
     atomic species   magnetization
     Cr              0.600
     O               0.000

      4 Sym. Ops. (no inversion) found ( 2 have fractional translation)



   Cartesian axes

     site n.     atom                  positions (alat units)
         1        Cr     tau(   1) = (   0.0000000   0.5360286   3.2161719  )
         2        Cr     tau(   2) = (   0.5000000   1.6080859   3.2161719  )
         3        Cr     tau(   3) = (   0.0000000   1.6080859   4.3022421  )
         4        Cr     tau(   4) = (   0.5000000   0.5360286   4.3080043  )
         5        Cr     tau(   5) = (   0.0000000   0.5360286   5.5110498  )
         6        Cr     tau(   6) = (   0.5000000   1.6080859   5.4126362  )
         7        O      tau(   7) = (   0.0000000   1.6080859   3.6342742  )
         8        O      tau(   8) = (   0.0000000   1.6080859   2.7980695  )
         9        O      tau(   9) = (   0.5000000   0.1179263   3.2161719  )
        10        O      tau(  10) = (   0.5000000   0.9541310   3.2161719  )
        11        O      tau(  11) = (   0.0000000   0.5360286   4.7174134  )
        12        O      tau(  12) = (   0.0000000   0.5360286   3.8701268  )
        13        O      tau(  13) = (   0.5000000   1.1863983   4.2957045  )
        14        O      tau(  14) = (   0.5000000   2.0297736   4.2957045  )
        15        O      tau(  15) = (   0.0000000   1.6080859   5.7884957  )
        16        O      tau(  16) = (   0.0000000   1.6080859   4.9568390  )
        17        O      tau(  17) = (   0.5000000   0.1288223   5.3923177  )
        18        O      tau(  18) = (   0.5000000   0.9432350   5.3923177  )
        19        O      tau(  19) = (   0.0000000   0.5360286   6.0500055  )

     number of k points=    15  Marzari-Vanderbilt smearing, width (Ry)=  0.0100
                       cart. coord. in units 2pi/alat
        k(    1) = (   0.0000000   0.0000000   0.0000000), wk =   0.0277778
        k(    2) = (   0.0000000   0.1165982   0.0000000), wk =   0.0555556
        k(    3) = (   0.0000000  -0.2331965   0.0000000), wk =   0.0277778
        k(    4) = (   0.1111111   0.0000000   0.0000000), wk =   0.0555556
        k(    5) = (   0.1111111   0.1165982   0.0000000), wk =   0.1111111
        k(    6) = (   0.1111111  -0.2331965   0.0000000), wk =   0.0555556
        k(    7) = (   0.2222222   0.0000000   0.0000000), wk =   0.0555556
        k(    8) = (   0.2222222   0.1165982   0.0000000), wk =   0.1111111
        k(    9) = (   0.2222222  -0.2331965   0.0000000), wk =   0.0555556
        k(   10) = (   0.3333333   0.0000000   0.0000000), wk =   0.0555556
        k(   11) = (   0.3333333   0.1165982   0.0000000), wk =   0.1111111
        k(   12) = (   0.3333333  -0.2331965   0.0000000), wk =   0.0555556
        k(   13) = (   0.4444444   0.0000000   0.0000000), wk =   0.0555556
        k(   14) = (   0.4444444   0.1165982   0.0000000), wk =   0.1111111
        k(   15) = (   0.4444444  -0.2331965   0.0000000), wk =   0.0555556

     Dense  grid:   841263 G-vectors     FFT dimensions: (  45,  96, 384)

     Smooth grid:   297421 G-vectors     FFT dimensions: (  32,  72, 270)

     Estimated max dynamical RAM per process >       2.25 GB

     Estimated total dynamical RAM >       7.81 GB

     Check: negative core charge=   -0.000001
     Generating pointlists ...
     new r_m :   0.2223 (alat units)  1.2251 (a.u.) for type    1
     new r_m :   0.2223 (alat units)  1.2251 (a.u.) for type    2

     Initial potential from superposition of free atoms

     starting charge     155.9999, renormalised to     162.0000

     negative rho (up, down):  4.305E-03 1.055E-03

     STARTING HUBBARD OCCUPATIONS:

     =================== HUBBARD OCCUPATIONS ===================
     ------------------------ ATOM    1 ------------------------
     Tr[ns(  1)] (up, down, total) =   3.40000  0.00000  3.40000
     Atomic magnetic moment for atom   1 =   3.40000
     SPIN  1
     eigenvalues:
       0.680  0.680  0.680  0.680  0.680
     eigenvectors (columns):
       1.000  0.000  0.000  0.000  0.000
       0.000  1.000  0.000  0.000  0.000
       0.000  0.000  1.000  0.000  0.000
       0.000  0.000  0.000  1.000  0.000
       0.000  0.000  0.000  0.000  1.000
     occupation matrix ns (before diag.):
       0.680  0.000  0.000  0.000  0.000
       0.000  0.680  0.000  0.000  0.000
       0.000  0.000  0.680  0.000  0.000
       0.000  0.000  0.000  0.680  0.000
       0.000  0.000  0.000  0.000  0.680
     SPIN  2
     eigenvalues:
       0.000  0.000  0.000  0.000  0.000
     eigenvectors (columns):
       1.000  0.000  0.000  0.000  0.000
       0.000  1.000  0.000  0.000  0.000
       0.000  0.000  1.000  0.000  0.000
       0.000  0.000  0.000  1.000  0.000
       0.000  0.000  0.000  0.000  1.000
     occupation matrix ns (before diag.):
       0.000  0.000  0.000  0.000  0.000
       0.000  0.000  0.000  0.000  0.000
       0.000  0.000  0.000  0.000  0.000
       0.000  0.000  0.000  0.000  0.000
       0.000  0.000  0.000  0.000  0.000
     ------------------------ ATOM    2 ------------------------
     Tr[ns(  2)] (up, down, total) =   3.40000  0.00000  3.40000
     Atomic magnetic moment for atom   2 =   3.40000
     SPIN  1
     eigenvalues:
       0.680  0.680  0.680  0.680  0.680
     eigenvectors (columns):
       1.000  0.000  0.000  0.000  0.000
       0.000  1.000  0.000  0.000  0.000
       0.000  0.000  1.000  0.000  0.000
       0.000  0.000  0.000  1.000  0.000
       0.000  0.000  0.000  0.000  1.000
     occupation matrix ns (before diag.):
       0.680  0.000  0.000  0.000  0.000
       0.000  0.680  0.000  0.000  0.000
       0.000  0.000  0.680  0.000  0.000
       0.000  0.000  0.000  0.680  0.000
       0.000  0.000  0.000  0.000  0.680
     SPIN  2
     eigenvalues:
       0.000  0.000  0.000  0.000  0.000
     eigenvectors (columns):
       1.000  0.000  0.000  0.000  0.000
       0.000  1.000  0.000  0.000  0.000
       0.000  0.000  1.000  0.000  0.000
       0.000  0.000  0.000  1.000  0.000
       0.000  0.000  0.000  0.000  1.000
     occupation matrix ns (before diag.):
       0.000  0.000  0.000  0.000  0.000
       0.000  0.000  0.000  0.000  0.000
       0.000  0.000  0.000  0.000  0.000
       0.000  0.000  0.000  0.000  0.000
       0.000  0.000  0.000  0.000  0.000
     ------------------------ ATOM    3 ------------------------
     Tr[ns(  3)] (up, down, total) =   3.40000  0.00000  3.40000
     Atomic magnetic moment for atom   3 =   3.40000
     SPIN  1
     eigenvalues:
       0.680  0.680  0.680  0.680  0.680
     eigenvectors (columns):
       1.000  0.000  0.000  0.000  0.000
       0.000  1.000  0.000  0.000  0.000
       0.000  0.000  1.000  0.000  0.000
       0.000  0.000  0.000  1.000  0.000
       0.000  0.000  0.000  0.000  1.000
     occupation matrix ns (before diag.):
       0.680  0.000  0.000  0.000  0.000
       0.000  0.680  0.000  0.000  0.000
       0.000  0.000  0.680  0.000  0.000
       0.000  0.000  0.000  0.680  0.000
       0.000  0.000  0.000  0.000  0.680
     SPIN  2
     eigenvalues:
       0.000  0.000  0.000  0.000  0.000
     eigenvectors (columns):
       1.000  0.000  0.000  0.000  0.000
       0.000  1.000  0.000  0.000  0.000
       0.000  0.000  1.000  0.000  0.000
       0.000  0.000  0.000  1.000  0.000
       0.000  0.000  0.000  0.000  1.000
     occupation matrix ns (before diag.):
       0.000  0.000  0.000  0.000  0.000
       0.000  0.000  0.000  0.000  0.000
       0.000  0.000  0.000  0.000  0.000
       0.000  0.000  0.000  0.000  0.000
       0.000  0.000  0.000  0.000  0.000
     ------------------------ ATOM    4 ------------------------
     Tr[ns(  4)] (up, down, total) =   3.40000  0.00000  3.40000
     Atomic magnetic moment for atom   4 =   3.40000
     SPIN  1
     eigenvalues:
       0.680  0.680  0.680  0.680  0.680
     eigenvectors (columns):
       1.000  0.000  0.000  0.000  0.000
       0.000  1.000  0.000  0.000  0.000
       0.000  0.000  1.000  0.000  0.000
       0.000  0.000  0.000  1.000  0.000
       0.000  0.000  0.000  0.000  1.000
     occupation matrix ns (before diag.):
       0.680  0.000  0.000  0.000  0.000
       0.000  0.680  0.000  0.000  0.000
       0.000  0.000  0.680  0.000  0.000
       0.000  0.000  0.000  0.680  0.000
       0.000  0.000  0.000  0.000  0.680
     SPIN  2
     eigenvalues:
       0.000  0.000  0.000  0.000  0.000
     eigenvectors (columns):
       1.000  0.000  0.000  0.000  0.000
       0.000  1.000  0.000  0.000  0.000
       0.000  0.000  1.000  0.000  0.000
       0.000  0.000  0.000  1.000  0.000
       0.000  0.000  0.000  0.000  1.000
     occupation matrix ns (before diag.):
       0.000  0.000  0.000  0.000  0.000
       0.000  0.000  0.000  0.000  0.000
       0.000  0.000  0.000  0.000  0.000
       0.000  0.000  0.000  0.000  0.000
       0.000  0.000  0.000  0.000  0.000
     ------------------------ ATOM    5 ------------------------
     Tr[ns(  5)] (up, down, total) =   3.40000  0.00000  3.40000
     Atomic magnetic moment for atom   5 =   3.40000
     SPIN  1
     eigenvalues:
       0.680  0.680  0.680  0.680  0.680
     eigenvectors (columns):
       1.000  0.000  0.000  0.000  0.000
       0.000  1.000  0.000  0.000  0.000
       0.000  0.000  1.000  0.000  0.000
       0.000  0.000  0.000  1.000  0.000
       0.000  0.000  0.000  0.000  1.000
     occupation matrix ns (before diag.):
       0.680  0.000  0.000  0.000  0.000
       0.000  0.680  0.000  0.000  0.000
       0.000  0.000  0.680  0.000  0.000
       0.000  0.000  0.000  0.680  0.000
       0.000  0.000  0.000  0.000  0.680
     SPIN  2
     eigenvalues:
       0.000  0.000  0.000  0.000  0.000
     eigenvectors (columns):
       1.000  0.000  0.000  0.000  0.000
       0.000  1.000  0.000  0.000  0.000
       0.000  0.000  1.000  0.000  0.000
       0.000  0.000  0.000  1.000  0.000
       0.000  0.000  0.000  0.000  1.000
     occupation matrix ns (before diag.):
       0.000  0.000  0.000  0.000  0.000
       0.000  0.000  0.000  0.000  0.000
       0.000  0.000  0.000  0.000  0.000
       0.000  0.000  0.000  0.000  0.000
       0.000  0.000  0.000  0.000  0.000
     ------------------------ ATOM    6 ------------------------
     Tr[ns(  6)] (up, down, total) =   3.40000  0.00000  3.40000
     Atomic magnetic moment for atom   6 =   3.40000
     SPIN  1
     eigenvalues:
       0.680  0.680  0.680  0.680  0.680
     eigenvectors (columns):
       1.000  0.000  0.000  0.000  0.000
       0.000  1.000  0.000  0.000  0.000
       0.000  0.000  1.000  0.000  0.000
       0.000  0.000  0.000  1.000  0.000
       0.000  0.000  0.000  0.000  1.000
     occupation matrix ns (before diag.):
       0.680  0.000  0.000  0.000  0.000
       0.000  0.680  0.000  0.000  0.000
       0.000  0.000  0.680  0.000  0.000
       0.000  0.000  0.000  0.680  0.000
       0.000  0.000  0.000  0.000  0.680
     SPIN  2
     eigenvalues:
       0.000  0.000  0.000  0.000  0.000
     eigenvectors (columns):
       1.000  0.000  0.000  0.000  0.000
       0.000  1.000  0.000  0.000  0.000
       0.000  0.000  1.000  0.000  0.000
       0.000  0.000  0.000  1.000  0.000
       0.000  0.000  0.000  0.000  1.000
     occupation matrix ns (before diag.):
       0.000  0.000  0.000  0.000  0.000
       0.000  0.000  0.000  0.000  0.000
       0.000  0.000  0.000  0.000  0.000
       0.000  0.000  0.000  0.000  0.000
       0.000  0.000  0.000  0.000  0.000

     Number of occupied Hubbard levels =   20.4000

     Atomic wfc used for Hubbard projectors are NOT orthogonalized

     Starting wfcs are  112 randomized atomic wfcs
     Checking if some PAW data can be deallocated... 

     total cpu time spent up to now is       58.7 secs

     per-process dynamical memory:  1237.3 Mb

     Self-consistent Calculation

     iteration #  1     ecut=    80.00 Ry     beta= 0.30
     Davidson diagonalization with overlap
     ethr =  1.00E-02,  avg # of iterations =  5.4

     =================== HUBBARD OCCUPATIONS ===================
     ------------------------ ATOM    1 ------------------------
     Tr[ns(  1)] (up, down, total) =   4.35633  0.45701  4.81334
     Atomic magnetic moment for atom   1 =   3.89932
     SPIN  1
     eigenvalues:
       0.451  0.943  0.981  0.990  0.991
     eigenvectors (columns):
      -0.000  0.933 -0.361 -0.000 -0.000
      -0.000  0.000  0.000  0.000 -1.000
      -0.000  0.000  0.000  1.000  0.000
       0.000 -0.361 -0.933  0.000 -0.000
       1.000  0.000  0.000  0.000 -0.000
     occupation matrix ns (before diag.):
       0.948 -0.000 -0.000  0.013  0.000
      -0.000  0.991 -0.000  0.000  0.000
      -0.000 -0.000  0.990  0.000  0.000
       0.013  0.000  0.000  0.976 -0.000
       0.000  0.000  0.000 -0.000  0.451
     SPIN  2
     eigenvalues:
       0.044  0.054  0.057  0.123  0.179
     eigenvectors (columns):
      -0.000 -0.000  0.221 -0.975  0.000
      -0.000  1.000  0.000  0.000  0.000
      -1.000 -0.000  0.000  0.000  0.000
       0.000 -0.000  0.975  0.221 -0.000
       0.000 -0.000  0.000  0.000  1.000
     occupation matrix ns (before diag.):
       0.120 -0.000 -0.000 -0.014  0.000
      -0.000  0.054 -0.000  0.000  0.000
      -0.000 -0.000  0.044  0.000  0.000
      -0.014  0.000  0.000  0.060 -0.000
       0.000  0.000  0.000 -0.000  0.179
     ------------------------ ATOM    2 ------------------------
     Tr[ns(  2)] (up, down, total) =   3.85840  0.55116  4.40957
     Atomic magnetic moment for atom   2 =   3.30724
     SPIN  1
     eigenvalues:
       0.456  0.469  0.968  0.975  0.990
     eigenvectors (columns):
      -0.000  0.448  0.000 -0.894  0.000
       1.000  0.000 -0.000  0.000  0.000
       0.000 -0.000  0.000 -0.000 -1.000
      -0.000  0.894 -0.000  0.448 -0.000
      -0.000  0.000 -1.000 -0.000 -0.000
     occupation matrix ns (before diag.):
       0.874 -0.000 -0.000 -0.203  0.000
      -0.000  0.456 -0.000  0.000  0.000
      -0.000 -0.000  0.990  0.000  0.000
      -0.203  0.000  0.000  0.570 -0.000
       0.000  0.000  0.000 -0.000  0.968
     SPIN  2
     eigenvalues:
       0.056  0.064  0.067  0.179  0.185
     eigenvectors (columns):
       0.000  0.928  0.000  0.373 -0.000
       0.000  0.000 -0.000 -0.000 -1.000
       1.000 -0.000  0.000  0.000  0.000
      -0.000 -0.373 -0.000  0.928 -0.000
      -0.000 -0.000  1.000 -0.000 -0.000
     occupation matrix ns (before diag.):
       0.080 -0.000 -0.000  0.040  0.000
      -0.000  0.185 -0.000  0.000  0.000
      -0.000 -0.000  0.056  0.000  0.000
       0.040  0.000  0.000  0.163 -0.000
       0.000  0.000  0.000 -0.000  0.067
     ------------------------ ATOM    3 ------------------------
     Tr[ns(  3)] (up, down, total) =   3.58271  0.52450  4.10721
     Atomic magnetic moment for atom   3 =   3.05821
     SPIN  1
     eigenvalues:
       0.423  0.449  0.856  0.887  0.969
     eigenvectors (columns):
      -0.000  0.999 -0.000  0.000 -0.037
      -0.000  0.000  1.000  0.000 -0.000
      -0.000  0.000  0.000 -1.000 -0.000
       0.000 -0.037 -0.000  0.000 -0.999
       1.000  0.000  0.000 -0.000  0.000
     occupation matrix ns (before diag.):
       0.449 -0.000 -0.000  0.019  0.000
      -0.000  0.856 -0.000  0.000  0.000
      -0.000 -0.000  0.887  0.000  0.000
       0.019  0.000  0.000  0.968 -0.000
       0.000  0.000  0.000 -0.000  0.423
     SPIN  2
     eigenvalues:
       0.056  0.056  0.063  0.174  0.175
     eigenvectors (columns):
      -0.000 -0.122 -0.000  0.000 -0.993
       0.000  0.000 -1.000 -0.000  0.000
       1.000 -0.000  0.000 -0.000  0.000
      -0.000 -0.993 -0.000 -0.000  0.122
      -0.000 -0.000  0.000 -1.000 -0.000
     occupation matrix ns (before diag.):
       0.173 -0.000 -0.000 -0.014  0.000
      -0.000  0.063 -0.000  0.000  0.000
      -0.000 -0.000  0.056  0.000  0.000
      -0.014  0.000  0.000  0.058 -0.000
       0.000  0.000  0.000 -0.000  0.174
     ------------------------ ATOM    4 ------------------------
     Tr[ns(  4)] (up, down, total) =   3.41410  0.54152  3.95562
     Atomic magnetic moment for atom   4 =   2.87258
     SPIN  1
     eigenvalues:
       0.460  0.461  0.665  0.866  0.963
     eigenvectors (columns):
       0.432  0.000 -0.000  0.000 -0.902
      -0.000  1.000  0.000 -0.000  0.000
      -0.000  0.000 -1.000 -0.000  0.000
       0.902  0.000  0.000 -0.000  0.432
       0.000 -0.000  0.000 -1.000 -0.000
     occupation matrix ns (before diag.):
       0.869 -0.000 -0.000 -0.196  0.000
      -0.000  0.461 -0.000  0.000  0.000
      -0.000 -0.000  0.665  0.000  0.000
      -0.196  0.000  0.000  0.554 -0.000
       0.000  0.000  0.000 -0.000  0.866
     SPIN  2
     eigenvalues:
       0.058  0.061  0.067  0.177  0.180
     eigenvectors (columns):
       0.000  0.922  0.000 -0.000  0.386
       0.000  0.000 -0.000  1.000  0.000
       1.000 -0.000  0.000 -0.000  0.000
      -0.000 -0.386 -0.000 -0.000  0.922
      -0.000 -0.000  1.000  0.000 -0.000
     occupation matrix ns (before diag.):
       0.078 -0.000 -0.000  0.042  0.000
      -0.000  0.177 -0.000  0.000  0.000
      -0.000 -0.000  0.058  0.000  0.000
       0.042  0.000  0.000  0.162 -0.000
       0.000  0.000  0.000 -0.000  0.067
     ------------------------ ATOM    5 ------------------------
     Tr[ns(  5)] (up, down, total) =   1.96470  0.52390  2.48860
     Atomic magnetic moment for atom   5 =   1.44080
     SPIN  1
     eigenvalues:
       0.163  0.376  0.450  0.463  0.513
     eigenvectors (columns):
       0.036 -0.000 -0.000  0.000 -0.999
      -0.000 -0.000 -0.000  1.000  0.000
      -0.000 -0.000 -1.000 -0.000  0.000
       0.999 -0.000 -0.000  0.000  0.036
       0.000  1.000 -0.000  0.000 -0.000
     occupation matrix ns (before diag.):
       0.513 -0.000 -0.000 -0.013  0.000
      -0.000  0.463 -0.000  0.000  0.000
      -0.000 -0.000  0.450  0.000  0.000
      -0.013  0.000  0.000  0.163 -0.000
       0.000  0.000  0.000 -0.000  0.376
     SPIN  2
     eigenvalues:
       0.051  0.057  0.083  0.159  0.174
     eigenvectors (columns):
       0.123  0.000  0.000  0.000 -0.992
      -0.000  0.000  1.000 -0.000  0.000
      -0.000  1.000 -0.000 -0.000  0.000
       0.992  0.000  0.000  0.000  0.123
       0.000 -0.000 -0.000 -1.000 -0.000
     occupation matrix ns (before diag.):
       0.172 -0.000 -0.000 -0.015  0.000
      -0.000  0.083 -0.000  0.000  0.000
      -0.000 -0.000  0.057  0.000  0.000
      -0.015  0.000  0.000  0.053 -0.000
       0.000  0.000  0.000 -0.000  0.159
     ------------------------ ATOM    6 ------------------------
     Tr[ns(  6)] (up, down, total) =   1.64373  0.53372  2.17746
     Atomic magnetic moment for atom   6 =   1.11001
     SPIN  1
     eigenvalues:
       0.264  0.274  0.278  0.401  0.427
     eigenvectors (columns):
       0.000  0.968  0.000  0.250 -0.000
       0.000  0.000 -0.000 -0.000 -1.000
       1.000 -0.000  0.000  0.000  0.000
      -0.000 -0.250 -0.000  0.968 -0.000
      -0.000 -0.000  1.000 -0.000 -0.000
     occupation matrix ns (before diag.):
       0.282 -0.000 -0.000  0.031  0.000
      -0.000  0.427 -0.000  0.000  0.000
      -0.000 -0.000  0.264  0.000  0.000
       0.031  0.000  0.000  0.393 -0.000
       0.000  0.000  0.000 -0.000  0.278
     SPIN  2
     eigenvalues:
       0.051  0.064  0.067  0.172  0.180
     eigenvectors (columns):
       0.000 -0.000  0.945  0.327 -0.000
       0.000 -0.000  0.000 -0.000 -1.000
       1.000  0.000 -0.000  0.000  0.000
      -0.000  0.000 -0.327  0.945 -0.000
      -0.000  1.000  0.000 -0.000 -0.000
     occupation matrix ns (before diag.):
       0.078 -0.000 -0.000  0.032  0.000
      -0.000  0.180 -0.000  0.000  0.000
      -0.000 -0.000  0.051  0.000  0.000
       0.032  0.000  0.000  0.160 -0.000
       0.000  0.000  0.000 -0.000  0.064

     Number of occupied Hubbard levels =   21.9518

     negative rho (up, down):  3.746E-03 5.824E-03

     total cpu time spent up to now is      210.6 secs

     total energy              =   -1591.71077058 Ry
     estimated scf accuracy    <      41.55835198 Ry

     total magnetization       =    13.98 Bohr mag/cell
     absolute magnetization    =    19.12 Bohr mag/cell

     iteration #  2     ecut=    80.00 Ry     beta= 0.30
     Davidson diagonalization with overlap
     ethr =  1.00E-02,  avg # of iterations =  1.0

     negative rho (up, down):  6.505E-03 1.959E-02

     total cpu time spent up to now is      315.1 secs

     total energy              =   -1591.22626273 Ry
     estimated scf accuracy    <      27.42118542 Ry

     total magnetization       =    11.90 Bohr mag/cell
     absolute magnetization    =    18.33 Bohr mag/cell

     iteration #  3     ecut=    80.00 Ry     beta= 0.30
     Davidson diagonalization with overlap
     ethr =  1.00E-02,  avg # of iterations =  3.1

     negative rho (up, down):  7.688E-03 2.593E-02

     total cpu time spent up to now is      431.6 secs

     total energy              =   -1592.92277123 Ry
     estimated scf accuracy    <       4.23772125 Ry

     total magnetization       =    11.03 Bohr mag/cell
     absolute magnetization    =    20.99 Bohr mag/cell

     iteration #  4     ecut=    80.00 Ry     beta= 0.30
     Davidson diagonalization with overlap
     ethr =  2.62E-03,  avg # of iterations =  3.8

     negative rho (up, down):  6.572E-03 2.556E-02

     total cpu time spent up to now is      543.2 secs

     total energy              =   -1592.93900872 Ry
     estimated scf accuracy    <       2.56749831 Ry

     total magnetization       =     9.99 Bohr mag/cell
     absolute magnetization    =    22.30 Bohr mag/cell

     iteration #  5     ecut=    80.00 Ry     beta= 0.30
     Davidson diagonalization with overlap
     ethr =  1.58E-03,  avg # of iterations =  1.6

     negative rho (up, down):  7.434E-03 2.995E-02

     total cpu time spent up to now is      646.5 secs

     total energy              =   -1593.12881638 Ry
     estimated scf accuracy    <       1.16223546 Ry

     total magnetization       =     9.99 Bohr mag/cell
     absolute magnetization    =    22.09 Bohr mag/cell

     iteration #  6     ecut=    80.00 Ry     beta= 0.30
     Davidson diagonalization with overlap
     ethr =  7.17E-04,  avg # of iterations =  4.7

     negative rho (up, down):  7.700E-03 3.270E-02

     total cpu time spent up to now is      759.2 secs

     total energy              =   -1593.19674043 Ry
     estimated scf accuracy    <       0.41151929 Ry

     total magnetization       =    10.00 Bohr mag/cell
     absolute magnetization    =    21.69 Bohr mag/cell

     iteration #  7     ecut=    80.00 Ry     beta= 0.30
     Davidson diagonalization with overlap
     ethr =  2.54E-04,  avg # of iterations =  7.8

     negative rho (up, down):  7.133E-03 3.218E-02

     total cpu time spent up to now is      902.7 secs

     total energy              =   -1593.21889674 Ry
     estimated scf accuracy    <       0.10436410 Ry

     total magnetization       =    10.00 Bohr mag/cell
     absolute magnetization    =    21.45 Bohr mag/cell

     iteration #  8     ecut=    80.00 Ry     beta= 0.30
     Davidson diagonalization with overlap
     ethr =  6.44E-05,  avg # of iterations =  5.5

     negative rho (up, down):  6.168E-03 3.164E-02

     total cpu time spent up to now is     1026.4 secs

     total energy              =   -1593.22360374 Ry
     estimated scf accuracy    <       0.08570582 Ry

     total magnetization       =    10.00 Bohr mag/cell
     absolute magnetization    =    21.28 Bohr mag/cell

     iteration #  9     ecut=    80.00 Ry     beta= 0.30
     Davidson diagonalization with overlap
     ethr =  5.29E-05,  avg # of iterations =  3.0

     negative rho (up, down):  5.389E-03 3.060E-02

     total cpu time spent up to now is     1139.3 secs

     total energy              =   -1593.22620148 Ry
     estimated scf accuracy    <       0.06209174 Ry

     total magnetization       =    10.00 Bohr mag/cell
     absolute magnetization    =    21.18 Bohr mag/cell

     iteration # 10     ecut=    80.00 Ry     beta= 0.30
     Davidson diagonalization with overlap
     ethr =  3.83E-05,  avg # of iterations =  1.3

     negative rho (up, down):  3.764E-03 2.817E-02

     total cpu time spent up to now is     1242.5 secs

     total energy              =   -1593.22697010 Ry
     estimated scf accuracy    <       0.01816938 Ry

     total magnetization       =    10.00 Bohr mag/cell
     absolute magnetization    =    21.08 Bohr mag/cell

     iteration # 11     ecut=    80.00 Ry     beta= 0.30
     Davidson diagonalization with overlap
     ethr =  1.12E-05,  avg # of iterations =  8.0

     negative rho (up, down):  2.789E-03 2.677E-02

     total cpu time spent up to now is     1373.8 secs

     total energy              =   -1593.22833646 Ry
     estimated scf accuracy    <       0.00684784 Ry

     total magnetization       =    10.00 Bohr mag/cell
     absolute magnetization    =    20.81 Bohr mag/cell

     iteration # 12     ecut=    80.00 Ry     beta= 0.30
     Davidson diagonalization with overlap
     ethr =  4.23E-06,  avg # of iterations =  4.8

     negative rho (up, down):  1.907E-03 2.544E-02

     total cpu time spent up to now is     1496.0 secs

     total energy              =   -1593.22865222 Ry
     estimated scf accuracy    <       0.00422453 Ry

     total magnetization       =    10.00 Bohr mag/cell
     absolute magnetization    =    20.69 Bohr mag/cell

     iteration # 13     ecut=    80.00 Ry     beta= 0.30
     Davidson diagonalization with overlap
     ethr =  2.61E-06,  avg # of iterations =  3.0

     negative rho (up, down):  1.002E-03 2.433E-02

     total cpu time spent up to now is     1607.0 secs

     total energy              =   -1593.22843780 Ry
     estimated scf accuracy    <       0.00203596 Ry

     total magnetization       =    10.00 Bohr mag/cell
     absolute magnetization    =    20.62 Bohr mag/cell

     iteration # 14     ecut=    80.00 Ry     beta= 0.30
     Davidson diagonalization with overlap
     ethr =  1.26E-06,  avg # of iterations =  4.8

     negative rho (up, down):  6.397E-04 2.422E-02

     total cpu time spent up to now is     1725.1 secs

     total energy              =   -1593.22864204 Ry
     estimated scf accuracy    <       0.00107824 Ry

     total magnetization       =    10.00 Bohr mag/cell
     absolute magnetization    =    20.53 Bohr mag/cell

     iteration # 15     ecut=    80.00 Ry     beta= 0.30
     Davidson diagonalization with overlap
     ethr =  6.66E-07,  avg # of iterations =  2.8

     negative rho (up, down):  6.592E-04 2.427E-02

     total cpu time spent up to now is     1832.7 secs

     total energy              =   -1593.22870759 Ry
     estimated scf accuracy    <       0.00059321 Ry

     total magnetization       =    10.00 Bohr mag/cell
     absolute magnetization    =    20.47 Bohr mag/cell

     iteration # 16     ecut=    80.00 Ry     beta= 0.30
     Davidson diagonalization with overlap
     ethr =  3.66E-07,  avg # of iterations =  2.3

     negative rho (up, down):  1.019E-03 2.454E-02

     total cpu time spent up to now is     1935.0 secs

     total energy              =   -1593.22875541 Ry
     estimated scf accuracy    <       0.00033816 Ry

     total magnetization       =    10.00 Bohr mag/cell
     absolute magnetization    =    20.44 Bohr mag/cell

     iteration # 17     ecut=    80.00 Ry     beta= 0.30
     Davidson diagonalization with overlap
     ethr =  2.09E-07,  avg # of iterations =  2.0

     negative rho (up, down):  1.415E-03 2.473E-02

     total cpu time spent up to now is     2037.2 secs

     total energy              =   -1593.22880803 Ry
     estimated scf accuracy    <       0.00023483 Ry

     total magnetization       =    10.00 Bohr mag/cell
     absolute magnetization    =    20.43 Bohr mag/cell

     iteration # 18     ecut=    80.00 Ry     beta= 0.30
     Davidson diagonalization with overlap
     ethr =  1.45E-07,  avg # of iterations =  1.6

     negative rho (up, down):  1.717E-03 2.487E-02

     total cpu time spent up to now is     2138.0 secs

     total energy              =   -1593.22883793 Ry
     estimated scf accuracy    <       0.00014729 Ry

     total magnetization       =    10.00 Bohr mag/cell
     absolute magnetization    =    20.42 Bohr mag/cell

     iteration # 19     ecut=    80.00 Ry     beta= 0.30
     Davidson diagonalization with overlap
     ethr =  9.09E-08,  avg # of iterations =  1.3

     negative rho (up, down):  2.191E-03 2.508E-02

     total cpu time spent up to now is     2240.7 secs

     total energy              =   -1593.22887185 Ry
     estimated scf accuracy    <       0.00010141 Ry

     total magnetization       =    10.00 Bohr mag/cell
     absolute magnetization    =    20.42 Bohr mag/cell

     iteration # 20     ecut=    80.00 Ry     beta= 0.30
     Davidson diagonalization with overlap
     ethr =  6.26E-08,  avg # of iterations =  1.6

     negative rho (up, down):  2.436E-03 2.510E-02

     total cpu time spent up to now is     2340.0 secs

     total energy              =   -1593.22889579 Ry
     estimated scf accuracy    <       0.00004974 Ry

     total magnetization       =    10.00 Bohr mag/cell
     absolute magnetization    =    20.43 Bohr mag/cell

     iteration # 21     ecut=    80.00 Ry     beta= 0.30
     Davidson diagonalization with overlap
     ethr =  3.07E-08,  avg # of iterations =  1.7

     negative rho (up, down):  2.536E-03 2.486E-02

     total cpu time spent up to now is     2442.0 secs

     total energy              =   -1593.22890729 Ry
     estimated scf accuracy    <       0.00003020 Ry

     total magnetization       =    10.00 Bohr mag/cell
     absolute magnetization    =    20.44 Bohr mag/cell

     iteration # 22     ecut=    80.00 Ry     beta= 0.30
     Davidson diagonalization with overlap
     ethr =  1.86E-08,  avg # of iterations =  2.1

     negative rho (up, down):  2.627E-03 2.489E-02

     total cpu time spent up to now is     2547.4 secs

     total energy              =   -1593.22891197 Ry
     estimated scf accuracy    <       0.00000565 Ry

     total magnetization       =    10.00 Bohr mag/cell
     absolute magnetization    =    20.43 Bohr mag/cell

     iteration # 23     ecut=    80.00 Ry     beta= 0.30
     Davidson diagonalization with overlap
     ethr =  3.49E-09,  avg # of iterations =  3.7

     negative rho (up, down):  2.623E-03 2.485E-02

     total cpu time spent up to now is     2668.1 secs

     total energy              =   -1593.22891382 Ry
     estimated scf accuracy    <       0.00000202 Ry

     total magnetization       =    10.00 Bohr mag/cell
     absolute magnetization    =    20.43 Bohr mag/cell

     iteration # 24     ecut=    80.00 Ry     beta= 0.30
     Davidson diagonalization with overlap
     ethr =  1.25E-09,  avg # of iterations =  1.8

     negative rho (up, down):  2.633E-03 2.482E-02

     total cpu time spent up to now is     2772.3 secs

     total energy              =   -1593.22891493 Ry
     estimated scf accuracy    <       0.00000107 Ry

     total magnetization       =    10.00 Bohr mag/cell
     absolute magnetization    =    20.43 Bohr mag/cell

     iteration # 25     ecut=    80.00 Ry     beta= 0.30
     Davidson diagonalization with overlap
     ethr =  6.60E-10,  avg # of iterations =  2.3

     negative rho (up, down):  2.616E-03 2.478E-02

     Magnetic moment per site  (integrated on atomic sphere of radius R)
     atom   1 (R=0.222)  charge=  9.4285  magn=  2.0002
     atom   2 (R=0.222)  charge=  9.3771  magn=  1.7777
     atom   3 (R=0.222)  charge=  9.3827  magn=  1.8383
     atom   4 (R=0.222)  charge=  9.3774  magn=  1.7903
     atom   5 (R=0.222)  charge=  9.3615  magn=  1.2091
     atom   6 (R=0.222)  charge=  9.3773  magn=  1.7701
     atom   7 (R=0.222)  charge=  4.3132  magn= -0.2727
     atom   8 (R=0.222)  charge=  4.2221  magn= -0.4766
     atom   9 (R=0.222)  charge=  4.3201  magn= -0.2592
     atom  10 (R=0.222)  charge=  4.3201  magn= -0.2592
     atom  11 (R=0.222)  charge=  4.2616  magn= -0.3944
     atom  12 (R=0.222)  charge=  4.3015  magn= -0.2827
     atom  13 (R=0.222)  charge=  4.3146  magn= -0.2960
     atom  14 (R=0.222)  charge=  4.3146  magn= -0.2960
     atom  15 (R=0.222)  charge=  4.2466  magn= -0.5000
     atom  16 (R=0.222)  charge=  4.2867  magn= -0.3220
     atom  17 (R=0.222)  charge=  4.3103  magn= -0.1625
     atom  18 (R=0.222)  charge=  4.3103  magn= -0.1625
     atom  19 (R=0.222)  charge=  4.2376  magn= -0.3749

     total cpu time spent up to now is     2871.3 secs

     End of self-consistent calculation

     =================== HUBBARD OCCUPATIONS ===================
     ------------------------ ATOM    1 ------------------------
     Tr[ns(  1)] (up, down, total) =   3.80277  0.86778  4.67055
     Atomic magnetic moment for atom   1 =   2.93499
     SPIN  1
     eigenvalues:
       0.491  0.496  0.905  0.923  0.987
     eigenvectors (columns):
       0.999  0.000 -0.000  0.000 -0.043
       0.000 -0.000  0.000 -1.000 -0.000
       0.000 -0.000  1.000  0.000 -0.000
      -0.043 -0.000 -0.000  0.000 -0.999
      -0.000  1.000  0.000 -0.000  0.000
     occupation matrix ns (before diag.):
       0.492 -0.000 -0.000  0.021  0.000
      -0.000  0.923 -0.000  0.000  0.000
      -0.000 -0.000  0.905  0.000  0.000
       0.021  0.000  0.000  0.986 -0.000
       0.000  0.000  0.000 -0.000  0.496
     SPIN  2
     eigenvalues:
       0.085  0.089  0.099  0.240  0.354
     eigenvectors (columns):
       0.000  0.133  0.000 -0.991  0.000
      -0.000 -0.000  1.000  0.000  0.000
      -1.000  0.000 -0.000  0.000  0.000
       0.000  0.991  0.000  0.133 -0.000
       0.000  0.000 -0.000  0.000  1.000
     occupation matrix ns (before diag.):
       0.238 -0.000 -0.000 -0.020  0.000
      -0.000  0.099 -0.000  0.000  0.000
      -0.000 -0.000  0.085  0.000  0.000
      -0.020  0.000  0.000  0.092 -0.000
       0.000  0.000  0.000 -0.000  0.354
     ------------------------ ATOM    2 ------------------------
     Tr[ns(  2)] (up, down, total) =   3.68328  1.07154  4.75482
     Atomic magnetic moment for atom   2 =   2.61174
     SPIN  1
     eigenvalues:
       0.543  0.545  0.733  0.871  0.992
     eigenvectors (columns):
      -0.000  0.408 -0.000  0.000 -0.913
       1.000  0.000  0.000 -0.000  0.000
       0.000 -0.000 -1.000 -0.000  0.000
      -0.000  0.913 -0.000 -0.000  0.408
      -0.000  0.000  0.000 -1.000 -0.000
     occupation matrix ns (before diag.):
       0.918 -0.000 -0.000 -0.167  0.000
      -0.000  0.543 -0.000  0.000  0.000
      -0.000 -0.000  0.733  0.000  0.000
      -0.167  0.000  0.000  0.619 -0.000
       0.000  0.000  0.000 -0.000  0.871
     SPIN  2
     eigenvalues:
       0.106  0.106  0.115  0.361  0.383
     eigenvectors (columns):
      -0.000 -0.916 -0.000  0.400 -0.000
      -0.000 -0.000  0.000 -0.000 -1.000
      -1.000  0.000 -0.000  0.000  0.000
       0.000  0.400  0.000  0.916 -0.000
       0.000  0.000 -1.000 -0.000 -0.000
     occupation matrix ns (before diag.):
       0.147 -0.000 -0.000  0.093  0.000
      -0.000  0.383 -0.000  0.000  0.000
      -0.000 -0.000  0.106  0.000  0.000
       0.093  0.000  0.000  0.320 -0.000
       0.000  0.000  0.000 -0.000  0.115
     ------------------------ ATOM    3 ------------------------
     Tr[ns(  3)] (up, down, total) =   3.71325  1.01284  4.72609
     Atomic magnetic moment for atom   3 =   2.70041
     SPIN  1
     eigenvalues:
       0.501  0.532  0.809  0.883  0.988
     eigenvectors (columns):
      -0.000  0.999 -0.000  0.000 -0.050
      -0.000  0.000  0.000 -1.000 -0.000
      -0.000  0.000  1.000  0.000 -0.000
       0.000 -0.050 -0.000  0.000 -0.999
       1.000  0.000  0.000 -0.000  0.000
     occupation matrix ns (before diag.):
       0.534 -0.000 -0.000  0.023  0.000
      -0.000  0.883 -0.000  0.000  0.000
      -0.000 -0.000  0.809  0.000  0.000
       0.023  0.000  0.000  0.987 -0.000
       0.000  0.000  0.000 -0.000  0.501
     SPIN  2
     eigenvalues:
       0.088  0.106  0.110  0.352  0.356
     eigenvectors (columns):
       0.080 -0.000 -0.000 -0.997  0.000
      -0.000 -0.000 -1.000  0.000  0.000
      -0.000 -1.000  0.000  0.000  0.000
       0.997 -0.000 -0.000  0.080 -0.000
       0.000  0.000  0.000  0.000  1.000
     occupation matrix ns (before diag.):
       0.350 -0.000 -0.000 -0.021  0.000
      -0.000  0.110 -0.000  0.000  0.000
      -0.000 -0.000  0.106  0.000  0.000
      -0.021  0.000  0.000  0.090 -0.000
       0.000  0.000  0.000 -0.000  0.356
     ------------------------ ATOM    4 ------------------------
     Tr[ns(  4)] (up, down, total) =   3.69081  1.05919  4.74999
     Atomic magnetic moment for atom   4 =   2.63162
     SPIN  1
     eigenvalues:
       0.521  0.544  0.767  0.881  0.977
     eigenvectors (columns):
      -0.000  0.442 -0.000  0.000 -0.897
       1.000  0.000  0.000 -0.000  0.000
       0.000 -0.000 -1.000 -0.000  0.000
      -0.000  0.897  0.000 -0.000  0.442
      -0.000  0.000  0.000 -1.000 -0.000
     occupation matrix ns (before diag.):
       0.893 -0.000 -0.000 -0.172  0.000
      -0.000  0.521 -0.000  0.000  0.000
      -0.000 -0.000  0.767  0.000  0.000
      -0.172  0.000  0.000  0.628 -0.000
       0.000  0.000  0.000 -0.000  0.881
     SPIN  2
     eigenvalues:
       0.098  0.113  0.117  0.363  0.368
     eigenvectors (columns):
       0.907 -0.000  0.000 -0.420 -0.000
       0.000  0.000 -0.000  0.000 -1.000
       0.000  1.000  0.000 -0.000  0.000
      -0.420  0.000 -0.000 -0.907 -0.000
      -0.000 -0.000  1.000  0.000 -0.000
     occupation matrix ns (before diag.):
       0.145 -0.000 -0.000  0.101  0.000
      -0.000  0.368 -0.000  0.000  0.000
      -0.000 -0.000  0.113  0.000  0.000
       0.101  0.000  0.000  0.316 -0.000
       0.000  0.000  0.000 -0.000  0.117
     ------------------------ ATOM    5 ------------------------
     Tr[ns(  5)] (up, down, total) =   3.34110  1.58597  4.92707
     Atomic magnetic moment for atom   5 =   1.75513
     SPIN  1
     eigenvalues:
       0.528  0.596  0.611  0.618  0.988
     eigenvectors (columns):
      -0.000  0.000  0.000 -0.998 -0.063
      -0.000  0.000  1.000  0.000 -0.000
      -0.000  1.000 -0.000  0.000 -0.000
       0.000 -0.000 -0.000  0.063 -0.998
       1.000  0.000  0.000 -0.000  0.000
     occupation matrix ns (before diag.):
       0.620 -0.000 -0.000  0.023  0.000
      -0.000  0.611 -0.000  0.000  0.000
      -0.000 -0.000  0.596  0.000  0.000
       0.023  0.000  0.000  0.986 -0.000
       0.000  0.000  0.000 -0.000  0.528
     SPIN  2
     eigenvalues:
       0.095  0.283  0.309  0.406  0.493
     eigenvectors (columns):
       0.065 -0.000  0.000 -0.000 -0.998
      -0.000 -0.000  1.000  0.000  0.000
      -0.000 -1.000 -0.000  0.000  0.000
       0.998 -0.000  0.000 -0.000  0.065
       0.000  0.000 -0.000  1.000 -0.000
     occupation matrix ns (before diag.):
       0.491 -0.000 -0.000 -0.026  0.000
      -0.000  0.309 -0.000  0.000  0.000
      -0.000 -0.000  0.283  0.000  0.000
      -0.026  0.000  0.000  0.097 -0.000
       0.000  0.000  0.000 -0.000  0.406
     ------------------------ ATOM    6 ------------------------
     Tr[ns(  6)] (up, down, total) =   3.68631  1.07738  4.76369
     Atomic magnetic moment for atom   6 =   2.60892
     SPIN  1
     eigenvalues:
       0.540  0.549  0.848  0.858  0.891
     eigenvectors (columns):
      -0.000 -0.454  0.000  0.000 -0.891
       1.000 -0.000 -0.000 -0.000  0.000
       0.000  0.000  1.000 -0.000  0.000
      -0.000 -0.891 -0.000 -0.000  0.454
      -0.000 -0.000 -0.000 -1.000 -0.000
     occupation matrix ns (before diag.):
       0.820 -0.000 -0.000 -0.138  0.000
      -0.000  0.540 -0.000  0.000  0.000
      -0.000 -0.000  0.848  0.000  0.000
      -0.138  0.000  0.000  0.619 -0.000
       0.000  0.000  0.000 -0.000  0.858
     SPIN  2
     eigenvalues:
       0.110  0.116  0.118  0.359  0.374
     eigenvectors (columns):
       0.000  0.929  0.000 -0.371  0.000
       0.000  0.000 -0.000  0.000  1.000
       1.000 -0.000  0.000 -0.000 -0.000
      -0.000 -0.371 -0.000 -0.929  0.000
      -0.000 -0.000  1.000  0.000  0.000
     occupation matrix ns (before diag.):
       0.150 -0.000 -0.000  0.084  0.000
      -0.000  0.374 -0.000  0.000  0.000
      -0.000 -0.000  0.110  0.000  0.000
       0.084  0.000  0.000  0.326 -0.000
       0.000  0.000  0.000 -0.000  0.118

     Number of occupied Hubbard levels =   28.5922

 ------ SPIN UP ------------


          k = 0.0000 0.0000 0.0000 ( 37133 PWs)   bands (ev):

   -73.5909 -73.4266 -73.4008 -73.3679 -73.3456 -73.2213 -45.1546 -44.9003
   -44.8252 -44.7531 -44.7443 -44.7215 -44.7045 -44.7030 -44.6871 -44.6588
   -44.6575 -44.6502 -44.6264 -44.6258 -44.5799 -44.5245 -44.4768 -44.3673
   -19.1927 -18.8705 -18.6038 -18.0785 -17.8301 -17.6402 -17.5105 -17.3462
   -17.3300 -17.0545 -16.9945 -16.8940 -16.4702  -8.0940  -7.9208  -7.6632
    -7.1112  -6.8631  -6.5989  -6.5446  -5.7860  -5.5093  -5.3886  -5.2578
    -5.1011  -5.0980  -4.9936  -4.8981  -4.6765  -4.0701  -3.8919  -3.7148
    -3.6520  -3.5291  -3.4097  -3.4073  -3.3467  -3.2200  -3.1825  -3.1062
    -3.0358  -2.9773  -2.8922  -2.7310  -2.7281  -2.7086  -2.5818  -2.5527
    -2.5449  -2.4923  -2.3765  -2.0949  -1.6017  -1.5281  -1.4498  -1.1450
    -1.0819  -1.0019  -0.9510  -0.8237  -0.5876  -0.4529  -0.3908   0.0464
     0.1780   0.4896   0.6847   0.7646   1.1011   1.2440   1.4670   2.1278
     2.6616

          k = 0.0000 0.1166 0.0000 ( 37130 PWs)   bands (ev):

   -73.5909 -73.4266 -73.4006 -73.3679 -73.3455 -73.2211 -45.1547 -44.9003
   -44.8231 -44.7496 -44.7442 -44.7215 -44.7054 -44.6972 -44.6870 -44.6613
   -44.6589 -44.6577 -44.6264 -44.6259 -44.5798 -44.5246 -44.4768 -44.3673
   -19.0665 -18.7544 -18.4969 -18.2565 -18.0103 -17.7913 -17.4459 -17.3535
   -17.3228 -17.0724 -16.9748 -16.8949 -16.4645  -7.8394  -7.6885  -7.4641
    -7.1310  -6.8805  -6.6291  -6.2933  -5.6190  -5.3847  -5.2620  -5.2477
    -4.9918  -4.9852  -4.9766  -4.8991  -4.8198  -4.5743  -4.3204  -4.0277
    -3.9046  -3.8077  -3.7880  -3.6008  -3.5329  -3.5156  -3.4529  -3.3633
    -3.3062  -3.2958  -3.0194  -2.6241  -2.5926  -2.4892  -2.3125  -2.2295
    -2.1759  -1.9903  -1.6265  -1.5951  -1.5734  -1.4749  -1.4016  -1.1535
    -1.0918  -1.0388  -1.0160  -0.8448  -0.7473  -0.6121  -0.4495  -0.1499
     0.0711   0.3391   0.5361   0.6862   1.1095   1.3330   1.4958   2.4524
     3.0841

          k = 0.0000-0.2332 0.0000 ( 37126 PWs)   bands (ev):

   -73.5908 -73.4265 -73.4005 -73.3678 -73.3454 -73.2210 -45.1547 -44.9003
   -44.8209 -44.7457 -44.7442 -44.7215 -44.7078 -44.6870 -44.6838 -44.6714
   -44.6653 -44.6589 -44.6264 -44.6259 -44.5797 -44.5247 -44.4768 -44.3674
   -18.7701 -18.7305 -18.4303 -18.3205 -18.1329 -18.1280 -17.4126 -17.3498
   -17.3154 -17.0846 -16.9507 -16.9078 -16.4593  -7.5198  -7.3943  -7.2424
    -7.1597  -6.9208  -6.6634  -5.7182  -5.6772  -5.2622  -5.2117  -5.1620
    -5.0576  -4.9758  -4.9177  -4.9145  -4.7991  -4.6610  -4.4950  -4.4736
    -4.4569  -4.2477  -3.9821  -3.9421  -3.8886  -3.8866  -3.5892  -3.4395
    -3.3307  -3.3139  -3.2151  -2.4004  -2.3183  -2.1937  -2.1306  -2.0009
    -1.7989  -1.6906  -1.6273  -1.6136  -1.4666  -1.2393  -1.1605  -1.1260
    -1.0979  -1.0176  -1.0129  -0.9394  -0.7948  -0.6800  -0.5015  -0.2996
    -0.2002   0.2284   0.3808   0.6381   1.0073   1.4957   1.5306   2.7026
     3.4038

          k = 0.1111 0.0000 0.0000 ( 37175 PWs)   bands (ev):

   -73.5889 -73.4245 -73.3987 -73.3659 -73.3436 -73.2192 -45.1531 -44.8989
   -44.8219 -44.7635 -44.7508 -44.7198 -44.7021 -44.7009 -44.6870 -44.6770
   -44.6552 -44.6491 -44.6470 -44.6227 -44.5999 -44.5442 -44.4736 -44.3875
   -19.0759 -18.7628 -18.5040 -17.9887 -17.7519 -17.5904 -17.5380 -17.3732
   -17.3062 -17.0766 -17.0241 -16.9217 -16.4936  -7.8903  -7.7286  -7.4734
    -6.9347  -6.7025  -6.4554  -6.4389  -5.8497  -5.6998  -5.4500  -5.3706
    -5.3430  -5.1927  -4.9496  -4.9411  -4.5889  -4.1704  -3.9928  -3.8652
    -3.8133  -3.8040  -3.6147  -3.5793  -3.4691  -3.4165  -3.2195  -3.1547
    -3.0445  -2.9428  -2.8979  -2.7949  -2.7511  -2.6718  -2.6549  -2.4463
    -2.4368  -2.3588  -2.1832  -2.1245  -1.8947  -1.5420  -1.5057  -1.2840
    -1.1168  -0.8472  -0.6798  -0.5899  -0.4522  -0.3089  -0.2322  -0.0596
     0.0843   0.4028   0.6011   0.6674   1.1621   1.2116   1.3161   2.2444
     2.7650

          k = 0.1111 0.1166 0.0000 ( 37124 PWs)   bands (ev):

   -73.5889 -73.4245 -73.3986 -73.3658 -73.3435 -73.2191 -45.1531 -44.8989
   -44.8200 -44.7637 -44.7478 -44.7198 -44.7040 -44.6944 -44.6869 -44.6770
   -44.6587 -44.6566 -44.6462 -44.6227 -44.5996 -44.5443 -44.4736 -44.3875
   -18.9540 -18.6504 -18.4002 -18.1717 -17.9338 -17.7354 -17.4602 -17.3743
   -17.3000 -17.0938 -17.0066 -16.9217 -16.4880  -7.6397  -7.4989  -7.2766
    -6.9537  -6.7211  -6.4927  -6.2043  -5.6908  -5.5817  -5.4429  -5.3444
    -5.2302  -5.1683  -4.9409  -4.8356  -4.6020  -4.5212  -4.3015  -4.1032
    -3.9785  -3.9246  -3.8486  -3.7610  -3.7160  -3.6871  -3.5443  -3.4900
    -3.4505  -3.2663  -3.0842  -2.7152  -2.6827  -2.5817  -2.4833  -2.2718
    -2.1554  -2.0116  -1.8134  -1.6677  -1.4446  -1.3729  -1.3173  -1.2199
    -1.0476  -0.9250  -0.8009  -0.6124  -0.5548  -0.4450  -0.2602  -0.2186
    -0.0165   0.2583   0.4524   0.5837   1.0562   1.3406   1.4318   2.5126
     3.0126

          k = 0.1111-0.2332 0.0000 ( 37144 PWs)   bands (ev):

   -73.5889 -73.4245 -73.3985 -73.3658 -73.3434 -73.2190 -45.1532 -44.8989
   -44.8180 -44.7639 -44.7445 -44.7198 -44.7059 -44.6869 -44.6834 -44.6771
   -44.6681 -44.6622 -44.6460 -44.6227 -44.5994 -44.5443 -44.4737 -44.3874
   -18.6670 -18.6268 -18.3362 -18.2351 -18.0597 -18.0562 -17.4252 -17.3663
   -17.2929 -17.1055 -16.9870 -16.9309 -16.4828  -7.3243  -7.2108  -7.0624
    -6.9801  -6.7671  -6.5311  -5.7760  -5.6509  -5.3897  -5.3007  -5.2606
    -5.1993  -5.0463  -4.9832  -4.9189  -4.7949  -4.5555  -4.4463  -4.4447
    -4.3524  -4.2749  -4.1906  -4.1784  -4.0472  -3.8205  -3.6482  -3.5928
    -3.5693  -3.5474  -3.0882  -2.5664  -2.5491  -2.4695  -2.3450  -2.1405
    -2.0756  -1.6487  -1.5332  -1.4291  -1.4252  -1.1614  -1.1084  -0.9913
    -0.9591  -0.9166  -0.8969  -0.7838  -0.5999  -0.5062  -0.3923  -0.2552
    -0.1712   0.1368   0.2737   0.5297   0.9669   1.4465   1.5261   2.7567
     3.0450

          k = 0.2222 0.0000 0.0000 ( 37192 PWs)   bands (ev):

   -73.5844 -73.4198 -73.3940 -73.3613 -73.3390 -73.2146 -45.1493 -44.8953
   -44.8133 -44.8110 -44.7450 -44.7329 -44.7149 -44.6997 -44.6979 -44.6917
   -44.6761 -44.6495 -44.6491 -44.6465 -44.6150 -44.5930 -44.4655 -44.4373
   -18.7618 -18.4787 -18.2422 -17.7647 -17.6079 -17.5604 -17.4920 -17.4412
   -17.2523 -17.1324 -17.1032 -16.9760 -16.5354  -7.3346  -7.2056  -6.9602
    -6.5051  -6.3552  -6.3360  -6.2269  -6.1335  -5.9021  -5.6516  -5.6146
    -5.2101  -5.1569  -5.1359  -4.9098  -4.6354  -4.5273  -4.4854  -4.3905
    -4.2783  -4.2396  -3.9470  -3.8243  -3.8094  -3.6494  -3.4854  -3.3360
    -3.2607  -3.1718  -3.0278  -2.8668  -2.7200  -2.6160  -2.5301  -2.3162
    -2.1276  -2.0844  -2.0401  -1.9037  -1.8240  -1.7083  -1.4517  -1.0207
    -0.9576  -0.7642  -0.5670  -0.5475  -0.4830  -0.2134  -0.2121  -0.0449
     0.0560   0.1962   0.3742   0.4114   1.0228   1.2043   1.2468   2.3812
     2.8177

          k = 0.2222 0.1166 0.0000 ( 37137 PWs)   bands (ev):

   -73.5844 -73.4198 -73.3939 -73.3613 -73.3389 -73.2146 -45.1493 -44.8953
   -44.8127 -44.8108 -44.7436 -44.7328 -44.7149 -44.7015 -44.7007 -44.6831
   -44.6761 -44.6523 -44.6514 -44.6480 -44.6150 -44.5927 -44.4656 -44.4372
   -18.6541 -18.3782 -18.1476 -17.9750 -17.7635 -17.6099 -17.4722 -17.4228
   -17.2451 -17.1469 -17.0909 -16.9758 -16.5310  -7.1097  -7.0028  -6.7968
    -6.5169  -6.3672  -6.2518  -6.1844  -5.9957  -5.8782  -5.7718  -5.4682
    -5.3034  -5.1043  -4.9739  -4.8096  -4.6501  -4.5749  -4.5223  -4.4256
    -4.3264  -4.2711  -3.9988  -3.9682  -3.9375  -3.8446  -3.7862  -3.6889
    -3.5461  -3.4144  -3.1081  -2.9161  -2.7643  -2.7136  -2.5636  -2.4720
    -2.3854  -1.8264  -1.7023  -1.5200  -1.4458  -1.3759  -1.2749  -1.0638
    -0.9190  -0.8013  -0.5881  -0.5352  -0.4028  -0.2807  -0.2395  -0.1252
    -0.1012   0.0935   0.2534   0.3113   0.9724   1.2739   1.3654   2.4694
     2.6563

          k = 0.2222-0.2332 0.0000 ( 37166 PWs)   bands (ev):

   -73.5844 -73.4199 -73.3939 -73.3613 -73.3389 -73.2145 -45.1493 -44.8953
   -44.8118 -44.8108 -44.7421 -44.7325 -44.7149 -44.7032 -44.7018 -44.6761
   -44.6735 -44.6596 -44.6544 -44.6475 -44.6150 -44.5925 -44.4656 -44.4371
   -18.3960 -18.3581 -18.0975 -18.0455 -17.8825 -17.8706 -17.4412 -17.4062
   -17.2344 -17.1580 -17.0800 -16.9798 -16.5270  -6.8592  -6.7887  -6.6616
    -6.5494  -6.4390  -6.2926  -5.9354  -5.6589  -5.5560  -5.4328  -5.4260
    -5.3179  -5.3074  -5.1369  -4.9504  -4.9360  -4.7596  -4.7518  -4.5368
    -4.3168  -4.3140  -4.2461  -4.0843  -3.9864  -3.8974  -3.8613  -3.7668
    -3.7109  -3.3307  -3.1204  -3.0631  -3.0485  -2.7200  -2.7116  -2.5201
    -2.4381  -1.7334  -1.4502  -1.2908  -1.2595  -1.0372  -1.0079  -0.9914
    -0.8969  -0.8259  -0.5727  -0.5107  -0.4551  -0.3052  -0.2941  -0.2413
    -0.1576  -0.0286   0.1253   0.2355   0.9370   1.3479   1.4509   2.4632
     2.4668

          k = 0.3333 0.0000 0.0000 ( 37184 PWs)   bands (ev):

   -73.5803 -73.4154 -73.3895 -73.3570 -73.3347 -73.2103 -45.1448 -44.8911
   -44.8631 -44.8034 -44.7896 -44.7537 -44.7383 -44.7100 -44.7035 -44.6971
   -44.6805 -44.6677 -44.6471 -44.6441 -44.6428 -44.6057 -44.4921 -44.4563
   -18.3531 -18.1267 -17.9144 -17.6877 -17.5382 -17.5183 -17.4682 -17.3486
   -17.2206 -17.1966 -17.1961 -16.9878 -16.5369  -6.7269  -6.6048  -6.5601
    -6.4916  -6.3850  -6.3509  -6.2736  -6.0885  -5.9098  -5.6741  -5.4423
    -5.3992  -5.2018  -5.1445  -4.9493  -4.9282  -4.7679  -4.6212  -4.5416
    -4.4749  -4.3111  -4.2152  -3.9224  -3.7622  -3.7287  -3.6489  -3.5104
    -3.4429  -3.2684  -3.1025  -2.9785  -2.8711  -2.7186  -2.3579  -2.2692
    -2.2350  -2.1451  -2.1002  -2.0003  -1.9987  -1.5567  -1.1711  -1.0073
    -0.9948  -0.8681  -0.7594  -0.6968  -0.6484  -0.3909  -0.1812  -0.0732
    -0.0516   0.0929   0.3918   0.4339   0.9142   1.1093   1.2793   2.1437
     2.7234

          k = 0.3333 0.1166 0.0000 ( 37206 PWs)   bands (ev):

   -73.5804 -73.4155 -73.3894 -73.3570 -73.3347 -73.2103 -45.1448 -44.8911
   -44.8636 -44.8043 -44.7879 -44.7552 -44.7406 -44.7100 -44.7003 -44.6972
   -44.6764 -44.6677 -44.6512 -44.6467 -44.6395 -44.6057 -44.4918 -44.4563
   -18.2756 -18.0541 -17.8414 -17.8243 -17.6590 -17.4595 -17.4558 -17.4309
   -17.2291 -17.1945 -17.1794 -16.9919 -16.5355  -6.7938  -6.7290  -6.5936
    -6.5369  -6.4012  -6.1925  -6.1784  -5.9494  -5.8319  -5.6559  -5.4181
    -5.2249  -5.0842  -4.8986  -4.8246  -4.7038  -4.6066  -4.5891  -4.5008
    -4.4605  -4.3116  -4.2153  -4.0652  -3.9788  -3.9471  -3.8814  -3.6549
    -3.5633  -3.4624  -3.1204  -2.9459  -2.8473  -2.7348  -2.6640  -2.4885
    -2.3763  -2.0776  -1.9587  -1.8648  -1.7760  -1.5054  -1.2740  -1.1515
    -0.9850  -0.9283  -0.7992  -0.7399  -0.6115  -0.4664  -0.2178  -0.0429
     0.0188   0.2225   0.2932   0.3930   1.0148   1.1934   1.2599   2.1448
     2.2507

          k = 0.3333-0.2332 0.0000 ( 37216 PWs)   bands (ev):

   -73.5804 -73.4156 -73.3894 -73.3571 -73.3347 -73.2103 -45.1448 -44.8911
   -44.8641 -44.8052 -44.7862 -44.7567 -44.7426 -44.7100 -44.6973 -44.6973
   -44.6716 -44.6677 -44.6538 -44.6501 -44.6377 -44.6057 -44.4915 -44.4563
   -18.0771 -18.0672 -17.8699 -17.8655 -17.6604 -17.6335 -17.4379 -17.4372
   -17.2141 -17.1896 -17.1849 -16.9969 -16.5342  -6.8620  -6.8532  -6.7217
    -6.5686  -6.5122  -5.9366  -5.8189  -5.6020  -5.5836  -5.3309  -5.3054
    -5.2450  -5.2403  -5.1403  -4.8971  -4.7506  -4.6337  -4.5892  -4.4804
    -4.4458  -4.3208  -4.2783  -3.9488  -3.9192  -3.8725  -3.7355  -3.6772
    -3.4828  -3.3785  -3.3580  -3.2546  -3.2070  -2.8502  -2.8303  -2.7689
    -2.6477  -2.1187  -1.7492  -1.6305  -1.4997  -1.4759  -1.4294  -1.2568
    -1.0586  -0.9287  -0.8128  -0.6847  -0.5645  -0.5363  -0.2437   0.0133
     0.0476   0.1478   0.3662   0.3682   1.0564   1.2547   1.2949   1.9739
     2.0115

          k = 0.4444 0.0000 0.0000 ( 37180 PWs)   bands (ev):

   -73.5782 -73.4131 -73.3869 -73.3547 -73.3325 -73.2080 -45.1418 -44.8960
   -44.8883 -44.8259 -44.7967 -44.7891 -44.7377 -44.7339 -44.7067 -44.6954
   -44.6810 -44.6726 -44.6624 -44.6430 -44.6385 -44.5999 -44.5267 -44.4503
   -18.0201 -17.8529 -17.7399 -17.6414 -17.5684 -17.5549 -17.4462 -17.2906
   -17.2523 -17.2378 -17.1764 -16.9552 -16.5025  -6.9392  -6.7630  -6.6614
    -6.4775  -6.2091  -6.1509  -6.1159  -6.0484  -5.9611  -5.8513  -5.7571
    -5.2978  -5.2114  -5.1255  -4.8031  -4.7146  -4.5998  -4.5136  -4.4934
    -4.2520  -3.9707  -3.9553  -3.9317  -3.8903  -3.6916  -3.5349  -3.4023
    -3.3810  -3.1721  -3.1644  -3.0196  -2.8167  -2.6911  -2.4964  -2.4345
    -2.4062  -2.3908  -2.3380  -2.2372  -2.0154  -1.9983  -1.8232  -1.6658
    -1.0723  -1.0434  -0.9303  -0.6452  -0.5506  -0.3885  -0.3288  -0.2879
     0.0847   0.2256   0.6089   0.7015   0.9391   0.9411   1.3476   1.9163
     2.7473

          k = 0.4444 0.1166 0.0000 ( 37248 PWs)   bands (ev):

   -73.5783 -73.4132 -73.3869 -73.3548 -73.3325 -73.2080 -45.1418 -44.8966
   -44.8883 -44.8269 -44.7954 -44.7904 -44.7485 -44.7229 -44.7067 -44.6948
   -44.6819 -44.6708 -44.6624 -44.6435 -44.6375 -44.5999 -44.5263 -44.4503
   -18.0111 -17.8626 -17.7374 -17.6205 -17.5803 -17.5137 -17.4529 -17.3101
   -17.2780 -17.2431 -17.1810 -16.9611 -16.5015  -7.1077  -6.9662  -6.8965
    -6.7952  -6.6965  -5.9232  -5.8818  -5.7526  -5.6007  -5.3776  -5.2513
    -5.2291  -5.1654  -4.8824  -4.8260  -4.7089  -4.6023  -4.4392  -4.2554
    -4.1845  -4.1501  -4.0852  -3.9686  -3.8898  -3.7332  -3.4723  -3.4414
    -3.3456  -3.2268  -3.1197  -3.0365  -2.8658  -2.7991  -2.6965  -2.5939
    -2.5615  -2.3877  -2.3205  -2.2355  -2.2006  -1.9654  -1.8206  -1.7212
    -1.1794  -1.1271  -1.0257  -1.0064  -0.7903  -0.6978  -0.5210   0.2299
     0.2506   0.4188   0.5455   0.6819   1.0264   1.1177   1.3064   1.9479
     2.0716

          k = 0.4444-0.2332 0.0000 ( 37264 PWs)   bands (ev):

   -73.5784 -73.4133 -73.3869 -73.3549 -73.3325 -73.2080 -45.1418 -44.8971
   -44.8883 -44.8278 -44.7942 -44.7917 -44.7536 -44.7177 -44.7067 -44.6943
   -44.6826 -44.6690 -44.6624 -44.6440 -44.6365 -44.5999 -44.5258 -44.4503
   -18.0008 -17.8744 -17.7333 -17.6346 -17.4862 -17.4773 -17.4734 -17.4276
   -17.2668 -17.2197 -17.2059 -16.9672 -16.5006  -7.2519  -7.2395  -7.0313
    -6.8613  -6.7998  -5.8454  -5.5940  -5.4948  -5.4605  -5.4089  -5.0707
    -5.0358  -4.9542  -4.7068  -4.6299  -4.4990  -4.4879  -4.3420  -4.3050
    -4.2376  -4.0502  -4.0229  -4.0139  -3.6613  -3.6397  -3.6049  -3.4659
    -3.3821  -3.3085  -3.2516  -3.2279  -3.1646  -2.9766  -2.7946  -2.7466
    -2.6447  -2.4810  -2.3010  -2.1925  -2.1693  -1.9666  -1.9008  -1.7947
    -1.4414  -1.3012  -1.1967  -1.0987  -0.9377  -0.6307  -0.5719   0.3178
     0.4283   0.4507   0.6043   0.6681   1.1013   1.2434   1.3020   1.7619
     1.7781

 ------ SPIN DOWN ----------


          k = 0.0000 0.0000 0.0000 ( 37133 PWs)   bands (ev):

   -71.6909 -70.5924 -70.5122 -70.4617 -70.4066 -70.2749 -43.7739 -42.6875
   -42.6768 -42.1016 -42.0837 -41.9879 -41.9658 -41.9450 -41.8809 -41.8204
   -41.7904 -41.7672 -41.6560 -41.6470 -41.6454 -41.5592 -41.5545 -41.5160
   -19.5755 -19.2265 -18.9501 -18.4943 -18.2621 -17.9927 -17.9754 -17.8753
   -17.8708 -17.6442 -17.5562 -17.3203 -17.3199  -6.4764  -6.3353  -6.0473
    -5.6665  -5.3890  -5.1975  -5.1571  -4.7724  -4.5854  -4.5849  -4.4632
    -4.3606  -4.3348  -4.2968  -4.2409  -4.1408  -4.0090  -3.7153  -3.6182
    -3.3774  -3.3213  -3.1949  -3.1552  -2.8657  -2.8627  -2.7422  -2.5779
    -2.5412  -2.3227  -2.2131  -2.0238  -1.9544  -1.9180  -1.6727  -1.6368
    -1.5827  -1.5614  -1.3382  -1.0402   2.8638   2.9961   3.0097   3.0848
     3.2221   3.2627   3.3162   3.5446   3.6363   3.6909   3.8595   3.8903
     3.9262   3.9401   3.9833   4.2332   4.2723   4.5422   4.6819   4.7640
     5.0381

          k = 0.0000 0.1166 0.0000 ( 37130 PWs)   bands (ev):

   -71.6910 -70.5925 -70.5122 -70.4618 -70.4067 -70.2750 -43.7739 -42.6875
   -42.6761 -42.0998 -42.0824 -41.9879 -41.9664 -41.9450 -41.8809 -41.8203
   -41.7904 -41.7689 -41.6546 -41.6483 -41.6454 -41.5604 -41.5542 -41.5163
   -19.4566 -19.1267 -18.8581 -18.7026 -18.4331 -18.2045 -17.8670 -17.8518
   -17.7885 -17.6545 -17.5432 -17.3236 -17.3116  -6.2208  -6.1074  -5.8586
    -5.6809  -5.4105  -5.2531  -4.9723  -4.5993  -4.5917  -4.5751  -4.4554
    -4.4243  -4.2845  -4.2368  -4.1750  -4.1414  -3.9871  -3.9311  -3.7549
    -3.5829  -3.3478  -3.1959  -3.0810  -2.8340  -2.7543  -2.7480  -2.6979
    -2.5178  -2.4550  -2.2733  -2.2258  -2.0501  -2.0227  -1.9403  -1.7955
    -1.7406  -1.5802  -1.4909  -1.1652   2.9314   2.9376   3.0993   3.1685
     3.5251   3.5912   3.6276   3.7158   3.7992   3.8762   3.8890   3.9179
     3.9448   3.9841   4.0222   4.1715   4.3938   4.4881   4.6970   4.8556
     4.8561

          k = 0.0000-0.2332 0.0000 ( 37126 PWs)   bands (ev):

   -71.6910 -70.5926 -70.5123 -70.4619 -70.4068 -70.2751 -43.7739 -42.6874
   -42.6755 -42.0979 -42.0811 -41.9879 -41.9669 -41.9450 -41.8808 -41.8203
   -41.7904 -41.7707 -41.6517 -41.6512 -41.6454 -41.5615 -41.5539 -41.5166
   -19.1644 -19.1340 -18.8641 -18.7665 -18.5847 -18.4429 -17.8557 -17.7777
   -17.7611 -17.6656 -17.5334 -17.3197 -17.3102  -5.9065  -5.8172  -5.6991
    -5.6007  -5.4748  -5.3125  -4.7755  -4.5980  -4.5648  -4.4477  -4.4399
    -4.2728  -4.2582  -4.2327  -4.1420  -4.0514  -4.0484  -4.0415  -4.0255
    -3.5661  -3.4491  -3.4286  -3.0249  -2.9369  -2.8339  -2.8168  -2.8035
    -2.7348  -2.4996  -2.4979  -2.3045  -2.1235  -2.0679  -1.9739  -1.9606
    -1.7966  -1.4914  -1.4697  -1.4301   2.8994   2.9406   3.0778   3.3600
     3.6775   3.8115   3.8509   3.9269   3.9791   4.0074   4.0127   4.0788
     4.1055   4.1556   4.1988   4.2421   4.3397   4.4028   4.6537   4.6686
     4.7498

          k = 0.1111 0.0000 0.0000 ( 37175 PWs)   bands (ev):

   -71.6897 -70.5910 -70.5108 -70.4604 -70.4052 -70.2736 -43.7722 -42.7077
   -42.6729 -42.0995 -42.0817 -41.9864 -41.9689 -41.9642 -41.8761 -41.8163
   -41.7887 -41.7632 -41.6778 -41.6697 -41.6410 -41.5776 -41.5548 -41.5388
   -19.4674 -19.1297 -18.8668 -18.4211 -18.2037 -17.9864 -17.9531 -17.8832
   -17.8554 -17.6524 -17.5710 -17.3378 -17.3307  -6.3811  -6.2635  -5.9674
    -5.5921  -5.3451  -5.1859  -5.1394  -4.9950  -4.8111  -4.7191  -4.7163
    -4.5462  -4.3979  -4.2163  -4.0232  -3.8988  -3.6057  -3.5137  -3.4922
    -3.4061  -3.3669  -3.2511  -3.1671  -3.1058  -2.9012  -2.8169  -2.7630
    -2.5452  -2.4824  -2.2884  -2.2276  -2.1436  -2.0565  -1.7893  -1.7756
    -1.6172  -1.5182  -1.4815  -1.1190   2.7928   2.9470   3.0946   3.1500
     3.2780   3.3717   3.4636   3.5723   3.6689   3.7808   3.8558   3.9541
     3.9938   4.0250   4.1237   4.2139   4.3758   4.4781   4.6875   4.7725
     4.9621

          k = 0.1111 0.1166 0.0000 ( 37124 PWs)   bands (ev):

   -71.6898 -70.5911 -70.5109 -70.4604 -70.4053 -70.2737 -43.7722 -42.7077
   -42.6724 -42.0980 -42.0806 -41.9863 -41.9689 -41.9646 -41.8761 -41.8162
   -41.7886 -41.7648 -41.6765 -41.6707 -41.6410 -41.5773 -41.5563 -41.5386
   -19.3526 -19.0338 -18.7799 -18.6261 -18.3703 -18.1631 -17.8592 -17.8422
   -17.7966 -17.6661 -17.5573 -17.3404 -17.3275  -6.1233  -6.0222  -5.7655
    -5.6057  -5.3624  -5.2196  -5.0371  -4.8804  -4.8087  -4.6845  -4.5721
    -4.4970  -4.3284  -4.2156  -4.0356  -3.9250  -3.8115  -3.6737  -3.5988
    -3.5746  -3.3786  -3.2850  -3.2127  -3.1271  -2.9858  -2.7828  -2.7328
    -2.6274  -2.5195  -2.4409  -2.3505  -2.2260  -2.1330  -1.9394  -1.8660
    -1.7071  -1.5807  -1.5039  -1.2078   2.8060   2.8902   3.1453   3.3763
     3.5274   3.6789   3.7012   3.7671   3.8178   3.8591   3.8783   3.9726
     3.9801   4.0951   4.1414   4.2741   4.3719   4.4917   4.6688   4.7535
     4.8356

          k = 0.1111-0.2332 0.0000 ( 37144 PWs)   bands (ev):

   -71.6898 -70.5911 -70.5110 -70.4605 -70.4054 -70.2737 -43.7722 -42.7078
   -42.6718 -42.0964 -42.0796 -41.9863 -41.9689 -41.9651 -41.8761 -41.8162
   -41.7886 -41.7664 -41.6740 -41.6731 -41.6410 -41.5770 -41.5577 -41.5384
   -19.0691 -19.0426 -18.7844 -18.6893 -18.5246 -18.3782 -17.8287 -17.7868
   -17.7716 -17.6822 -17.5468 -17.3385 -17.3280  -5.8009  -5.7284  -5.6053
    -5.4849  -5.4243  -5.2922  -4.9215  -4.7859  -4.6843  -4.6672  -4.3907
    -4.3148  -4.3061  -4.1460  -4.0565  -4.0158  -3.9564  -3.8669  -3.8205
    -3.6986  -3.5474  -3.3920  -3.3113  -3.2705  -3.1260  -2.9799  -2.7388
    -2.7289  -2.5884  -2.4777  -2.4518  -2.2345  -2.1260  -2.0318  -1.8555
    -1.7732  -1.5066  -1.4572  -1.4236   2.8097   2.8772   3.1303   3.5415
     3.7298   3.8259   3.8349   3.9067   4.0087   4.0844   4.1081   4.1741
     4.1891   4.2008   4.2391   4.2445   4.3187   4.3881   4.6060   4.6161
     4.7645

          k = 0.2222 0.0000 0.0000 ( 37192 PWs)   bands (ev):

   -71.6863 -70.5870 -70.5070 -70.4566 -70.4014 -70.2698 -43.7680 -42.7593
   -42.6631 -42.0942 -42.0767 -42.0308 -41.9808 -41.9602 -41.8650 -41.8063
   -41.7843 -41.7530 -41.7333 -41.7271 -41.6370 -41.6299 -41.5969 -41.5436
   -19.1704 -18.8698 -18.6469 -18.2335 -18.0621 -18.0160 -17.9156 -17.8725
   -17.8124 -17.6678 -17.6046 -17.3768 -17.3594  -6.1265  -6.0898  -5.7700
    -5.4493  -5.4005  -5.2614  -5.2249  -5.1898  -4.9427  -4.8221  -4.6060
    -4.4816  -4.3870  -4.1815  -4.1306  -3.9988  -3.8989  -3.7736  -3.5958
    -3.5313  -3.5171  -3.2893  -3.0581  -3.0179  -2.9149  -2.8399  -2.8308
    -2.7899  -2.6666  -2.5310  -2.4833  -2.2619  -2.1791  -2.1344  -1.9434
    -1.7277  -1.6851  -1.5826  -1.3202   2.7436   2.8758   3.2148   3.3201
     3.3205   3.6025   3.6304   3.7407   3.7791   3.8939   3.9272   4.0567
     4.0918   4.1063   4.1874   4.3432   4.4467   4.4867   4.6414   4.7463
     4.8263

          k = 0.2222 0.1166 0.0000 ( 37137 PWs)   bands (ev):

   -71.6863 -70.5870 -70.5071 -70.4566 -70.4014 -70.2698 -43.7679 -42.7595
   -42.6629 -42.0935 -42.0763 -42.0308 -41.9807 -41.9604 -41.8650 -41.8063
   -41.7843 -41.7550 -41.7320 -41.7270 -41.6365 -41.6299 -41.5976 -41.5438
   -19.0686 -18.7857 -18.5762 -18.4309 -18.2193 -18.0749 -17.8659 -17.8133
   -17.7945 -17.6860 -17.5909 -17.3816 -17.3679  -5.8738  -5.8184  -5.5452
    -5.4547  -5.2639  -5.2448  -5.1854  -5.1055  -4.9806  -4.8773  -4.5310
    -4.4342  -4.3850  -4.2033  -4.1000  -4.0361  -3.9209  -3.8796  -3.7474
    -3.6405  -3.5051  -3.3748  -3.3194  -3.2157  -3.1229  -3.0462  -2.9889
    -2.7593  -2.6940  -2.5460  -2.4289  -2.2977  -2.1343  -2.0427  -1.9908
    -1.7373  -1.7044  -1.5605  -1.3666   2.7523   2.8157   3.2408   3.4300
     3.5621   3.6508   3.7133   3.8067   3.8478   3.9371   3.9876   4.0807
     4.1289   4.1987   4.2902   4.4033   4.4699   4.4827   4.5583   4.6925
     4.7650

          k = 0.2222-0.2332 0.0000 ( 37166 PWs)   bands (ev):

   -71.6862 -70.5871 -70.5071 -70.4566 -70.4015 -70.2698 -43.7679 -42.7596
   -42.6626 -42.0929 -42.0760 -42.0308 -41.9807 -41.9606 -41.8650 -41.8062
   -41.7843 -41.7569 -41.7305 -41.7273 -41.6361 -41.6299 -41.5983 -41.5440
   -18.8130 -18.7982 -18.5794 -18.4918 -18.3795 -18.2138 -17.8051 -17.7979
   -17.7607 -17.7233 -17.5797 -17.3918 -17.3692  -5.5584  -5.5471  -5.3623
    -5.2788  -5.2283  -5.1976  -5.0645  -4.9875  -4.8701  -4.7644  -4.6031
    -4.4283  -4.4180  -4.2727  -4.2345  -4.0815  -4.0013  -3.9505  -3.8573
    -3.8025  -3.7028  -3.6244  -3.5189  -3.4029  -3.1338  -3.1112  -3.0640
    -3.0405  -2.6697  -2.6322  -2.3298  -2.2168  -2.1536  -2.0900  -1.8243
    -1.8164  -1.6878  -1.4732  -1.4534   2.7596   2.7799   3.2416   3.5835
     3.6521   3.7620   3.8320   3.8619   3.9036   4.0191   4.0668   4.1138
     4.3280   4.3301   4.3937   4.4227   4.4901   4.5022   4.5275   4.5444
     4.5608

          k = 0.3333 0.0000 0.0000 ( 37184 PWs)   bands (ev):

   -71.6816 -70.5817 -70.5019 -70.4514 -70.3962 -70.2644 -43.7632 -42.8188
   -42.6520 -42.1005 -42.0883 -42.0712 -41.9757 -41.9557 -41.8529 -41.8036
   -41.7969 -41.7894 -41.7749 -41.7414 -41.7054 -41.6636 -41.6173 -41.5308
   -18.7671 -18.5388 -18.3753 -18.0528 -18.0230 -17.9538 -17.9272 -17.8445
   -17.7822 -17.6650 -17.6371 -17.4012 -17.3942  -5.9447  -5.8030  -5.5769
    -5.5126  -5.4629  -5.3681  -5.2450  -5.1210  -4.9219  -4.9146  -4.7535
    -4.6336  -4.4561  -4.3815  -4.1788  -4.1597  -4.0702  -3.9251  -3.8255
    -3.8037  -3.5942  -3.5169  -3.2351  -3.1741  -3.0381  -2.8915  -2.8752
    -2.7693  -2.6923  -2.6201  -2.4122  -2.2834  -2.2371  -2.2075  -2.0333
    -1.9664  -1.8711  -1.6062  -1.5894   2.7984   2.8650   3.3234   3.4082
     3.5185   3.6218   3.7398   3.7894   3.9647   4.0010   4.0835   4.1055
     4.1690   4.2549   4.2571   4.2979   4.3807   4.4600   4.4897   4.6664
     4.7199

          k = 0.3333 0.1166 0.0000 ( 37206 PWs)   bands (ev):

   -71.6815 -70.5817 -70.5019 -70.4514 -70.3962 -70.2643 -43.7632 -42.8190
   -42.6521 -42.1004 -42.0888 -42.0717 -41.9757 -41.9557 -41.8529 -41.8040
   -41.7961 -41.7898 -41.7751 -41.7411 -41.7047 -41.6641 -41.6173 -41.5309
   -18.6894 -18.4743 -18.3359 -18.2240 -18.0827 -17.9922 -17.8579 -17.8348
   -17.7744 -17.6701 -17.6278 -17.4328 -17.3993  -5.6833  -5.5967  -5.5299
    -5.3783  -5.3570  -5.2991  -5.1897  -5.1631  -5.0092  -4.8584  -4.7398
    -4.6501  -4.5781  -4.4348  -4.2776  -4.1191  -4.0565  -3.9300  -3.8778
    -3.7468  -3.6712  -3.4920  -3.4182  -3.3184  -3.0840  -3.0465  -2.9687
    -2.8412  -2.7017  -2.6067  -2.4085  -2.3483  -2.2944  -2.1158  -2.1054
    -1.9754  -1.8172  -1.6374  -1.5612   2.7779   2.8500   3.3472   3.4067
     3.5004   3.5957   3.6691   3.8297   3.8736   3.9060   3.9674   4.1386
     4.2114   4.2693   4.3616   4.3786   4.4481   4.4992   4.5393   4.6007
     4.7448

          k = 0.3333-0.2332 0.0000 ( 37216 PWs)   bands (ev):

   -71.6815 -70.5817 -70.5018 -70.4513 -70.3962 -70.2643 -43.7631 -42.8192
   -42.6521 -42.1004 -42.0892 -42.0721 -41.9757 -41.9557 -41.8529 -41.8044
   -41.7952 -41.7903 -41.7752 -41.7407 -41.7040 -41.6646 -41.6173 -41.5309
   -18.4871 -18.4869 -18.3457 -18.2748 -18.2290 -18.0207 -17.8297 -17.8234
   -17.7593 -17.6895 -17.6088 -17.4756 -17.3983  -5.4773  -5.4548  -5.2764
    -5.2629  -5.2311  -5.1851  -5.1459  -5.0536  -4.9424  -4.9284  -4.7503
    -4.6862  -4.5970  -4.4874  -4.4451  -4.1140  -4.1004  -4.0557  -3.9974
    -3.9772  -3.6328  -3.5425  -3.4641  -3.3509  -3.3191  -3.0770  -2.9864
    -2.9535  -2.7826  -2.5789  -2.4317  -2.3101  -2.2508  -2.2281  -2.0852
    -1.9570  -1.7890  -1.6050  -1.5751   2.7834   2.8115   3.3362   3.4171
     3.4821   3.6450   3.7075   3.7244   3.8267   3.9520   3.9701   4.0566
     4.1491   4.1748   4.3390   4.4164   4.5153   4.5443   4.5612   4.6472
     4.6678

          k = 0.4444 0.0000 0.0000 ( 37180 PWs)   bands (ev):

   -71.6781 -70.5777 -70.4980 -70.4476 -70.3924 -70.2604 -43.7600 -42.8580
   -42.6448 -42.1463 -42.0846 -42.0677 -41.9725 -41.9529 -41.8469 -41.8406
   -41.8382 -41.7873 -41.7729 -41.7500 -41.7338 -41.7075 -41.6091 -41.5225
   -18.4090 -18.2841 -18.1792 -18.0786 -17.9796 -17.9462 -17.8858 -17.8470
   -17.7501 -17.7208 -17.6221 -17.4182 -17.3961  -5.9136  -5.6953  -5.6493
    -5.4787  -5.4749  -5.3527  -5.2391  -5.1930  -5.1306  -5.0162  -4.8032
    -4.7321  -4.6518  -4.3914  -4.2578  -4.2031  -4.0621  -3.8146  -3.7161
    -3.6926  -3.6167  -3.5785  -3.4323  -3.3506  -3.2893  -3.0002  -2.8062
    -2.7940  -2.7911  -2.6766  -2.4407  -2.3630  -2.3416  -2.2326  -2.0768
    -2.0437  -1.8967  -1.8105  -1.5099   2.8667   2.8894   3.4262   3.5488
     3.6730   3.6818   3.7197   3.8164   3.8913   3.9979   4.0360   4.1375
     4.1981   4.2565   4.2974   4.3560   4.4040   4.4583   4.5272   4.5970
     4.6857

          k = 0.4444 0.1166 0.0000 ( 37248 PWs)   bands (ev):

   -71.6780 -70.5777 -70.4980 -70.4474 -70.3923 -70.2602 -43.7600 -42.8582
   -42.6451 -42.1462 -42.0859 -42.0688 -41.9725 -41.9527 -41.8466 -41.8412
   -41.8374 -41.7873 -41.7728 -41.7491 -41.7335 -41.7080 -41.6091 -41.5224
   -18.3687 -18.2540 -18.1724 -18.1216 -18.0270 -17.9263 -17.8722 -17.8549
   -17.7415 -17.6964 -17.6341 -17.4721 -17.3960  -5.8326  -5.7084  -5.6052
    -5.4967  -5.4065  -5.3106  -5.2262  -5.1785  -5.0731  -4.8941  -4.7567
    -4.7299  -4.4840  -4.2587  -4.2247  -4.1887  -4.1059  -3.9268  -3.8775
    -3.7884  -3.6868  -3.5873  -3.5549  -3.4306  -3.1080  -2.9780  -2.9517
    -2.8765  -2.6369  -2.5543  -2.4890  -2.4166  -2.3655  -2.3243  -2.1574
    -2.0266  -1.9947  -1.8783  -1.5574   2.8038   2.9011   3.4226   3.4591
     3.5193   3.5484   3.6671   3.7336   3.7853   3.9266   4.0213   4.0539
     4.1425   4.1844   4.2603   4.4388   4.4801   4.5126   4.5676   4.6144
     4.6942

          k = 0.4444-0.2332 0.0000 ( 37264 PWs)   bands (ev):

   -71.6779 -70.5777 -70.4979 -70.4473 -70.3923 -70.2601 -43.7600 -42.8585
   -42.6453 -42.1462 -42.0872 -42.0698 -41.9725 -41.9525 -41.8464 -41.8418
   -41.8364 -41.7873 -41.7728 -41.7482 -41.7332 -41.7084 -41.6091 -41.5223
   -18.2889 -18.2499 -18.1701 -18.1475 -18.0958 -17.8914 -17.8863 -17.8550
   -17.7374 -17.6492 -17.6191 -17.5710 -17.3960  -5.8163  -5.7712  -5.6048
    -5.4395  -5.4129  -5.1649  -5.0503  -5.0290  -5.0111  -4.7729  -4.6330
    -4.4728  -4.4626  -4.4386  -4.4224  -4.2179  -4.2142  -4.0485  -3.9653
    -3.7572  -3.7528  -3.6227  -3.5024  -3.4252  -3.2202  -3.0668  -2.9699
    -2.7214  -2.6340  -2.5420  -2.5282  -2.5151  -2.3953  -2.2317  -2.1980
    -2.1716  -2.0641  -1.7815  -1.7255   2.8173   2.9089   3.2984   3.3200
     3.4318   3.4804   3.5942   3.6136   3.8037   3.9337   3.9458   3.9862
     4.0506   4.1095   4.2108   4.4622   4.4626   4.5755   4.6673   4.6722
     4.7063

     the Fermi energy is    -0.3762 ev

!    total energy              =   -1593.22891557 Ry
     estimated scf accuracy    <       0.00000049 Ry
     smearing contrib. (-TS)   =       0.00106077 Ry
     internal energy E=F+TS    =   -1593.22997634 Ry

     The total energy is F=E-TS. E is the sum of the following terms:
     one-electron contribution =  -15388.30952363 Ry
     hartree contribution      =    7717.80508376 Ry
     xc contribution           =    -230.93289916 Ry
     ewald contribution        =    6430.23021551 Ry
     Hubbard energy            =       1.75136634 Ry
     one-center paw contrib.   =    -123.77421916 Ry

     total magnetization       =    10.00 Bohr mag/cell
     absolute magnetization    =    20.43 Bohr mag/cell

     convergence has been achieved in  25 iterations

     negative rho (up, down):  2.616E-03 2.478E-02
     force_hub    :     30.60s CPU     30.72s WALL (       1 calls)
     dndtau       :     25.98s CPU     26.03s WALL (     456 calls)
     dprojdtau    :      2.15s CPU      2.16s WALL (    2736 calls)
     matel_dSdtau :     23.79s CPU     23.84s WALL (     456 calls)

     Forces acting on atoms (cartesian axes, Ry/au):

     atom    1 type  1   force =     0.00000000    0.00000000    0.07111781
     atom    2 type  1   force =     0.00000000    0.00000000   -0.03906459
     atom    3 type  1   force =     0.00000000    0.00000000   -0.00395257
     atom    4 type  1   force =     0.00000000    0.00000000   -0.00899073
     atom    5 type  1   force =     0.00000000    0.00000000   -0.02217644
     atom    6 type  1   force =     0.00000000    0.00000000   -0.01401614
     atom    7 type  2   force =     0.00000000    0.00000000    0.03896923
     atom    8 type  2   force =     0.00000000    0.00000000   -0.00450996
     atom    9 type  2   force =     0.00000000   -0.00330686   -0.03864596
     atom   10 type  2   force =     0.00000000    0.00330686   -0.03864596
     atom   11 type  2   force =     0.00000000    0.00000000    0.01665182
     atom   12 type  2   force =     0.00000000    0.00000000   -0.00977476
     atom   13 type  2   force =     0.00000000   -0.00301001    0.00178487
     atom   14 type  2   force =    -0.00000000    0.00301001    0.00178487
     atom   15 type  2   force =     0.00000000    0.00000000    0.02023354
     atom   16 type  2   force =     0.00000000    0.00000000    0.00369232
     atom   17 type  2   force =     0.00000000    0.00141715    0.00170406
     atom   18 type  2   force =     0.00000000   -0.00141715    0.00170406
     atom   19 type  2   force =     0.00000000    0.00000000    0.02213456

     Total force =     0.044825     Total SCF correction =     0.001229

     Writing all to output data dir ./tmp_s0_O__u1.35/s0_O__u1.35.save/ :
     XML data file, charge density, pseudopotentials, collected wavefunctions

     init_run     :     56.06s CPU     58.49s WALL (       1 calls)
     electrons    :   2750.60s CPU   2812.69s WALL (       1 calls)
     forces       :     46.66s CPU     47.88s WALL (       1 calls)

     Called by init_run:
     wfcinit      :     45.79s CPU     47.01s WALL (       1 calls)
     potinit      :      4.48s CPU      4.98s WALL (       1 calls)
     hinit0       :      3.63s CPU      3.74s WALL (       1 calls)

     Called by electrons:
     c_bands      :   2030.60s CPU   2062.56s WALL (      25 calls)
     sum_band     :    465.37s CPU    479.08s WALL (      25 calls)
     v_of_rho     :     68.08s CPU     73.25s WALL (      26 calls)
     newd         :     38.62s CPU     48.55s WALL (      26 calls)
     PAW_pot      :     24.67s CPU     24.70s WALL (      26 calls)
     mix_rho      :    121.41s CPU    122.99s WALL (      25 calls)

     Called by c_bands:
     init_us_2    :     35.11s CPU     35.28s WALL (     432 calls)
     cegterg      :   1767.43s CPU   1798.54s WALL (     200 calls)

     Called by *egterg:
     cdiaghg      :     11.06s CPU     11.07s WALL (     863 calls)
     h_psi        :   1393.27s CPU   1407.13s WALL (     871 calls)
     s_psi        :     88.76s CPU     88.79s WALL (     887 calls)
     g_psi        :     10.81s CPU     10.82s WALL (     663 calls)

     Called by h_psi:
     h_psi:calbec :     91.99s CPU     92.18s WALL (     871 calls)
     vloc_psi     :   1164.71s CPU   1166.48s WALL (     871 calls)
                                        0.00s GPU  (     871 calls)
     add_vuspsi   :     88.02s CPU     88.06s WALL (     871 calls)
     vhpsi        :     41.31s CPU     41.45s WALL (     871 calls)

     General routines
     calbec       :    183.94s CPU    184.32s WALL (    4022 calls)
     fft          :     24.96s CPU     25.02s WALL (     663 calls)
     ffts         :     38.74s CPU     38.81s WALL (    3054 calls)
     fftw         :   1155.83s CPU   1157.08s WALL (  103252 calls)
     interpolate  :      4.39s CPU      4.42s WALL (      52 calls)

     Parallel routines

     Hubbard U routines
     new_ns       :     11.33s CPU     11.70s WALL (      25 calls)
     vhpsi        :     41.31s CPU     41.45s WALL (     871 calls)
     force_hub    :     30.60s CPU     30.72s WALL (       1 calls)

     PWSCF        :  47m33.99s CPU  48m40.11s WALL


   This run was terminated on:  12:33:43   7Aug2026            

=------------------------------------------------------------------------------=
   JOB DONE.
=------------------------------------------------------------------------------=
Note: The following floating-point exceptions are signalling: IEEE_DENORMAL
Note: The following floating-point exceptions are signalling: IEEE_DENORMAL
Note: The following floating-point exceptions are signalling: IEEE_DENORMAL
