
     Program PWSCF v.7.5 starts on  7Aug2026 at 10: 0:23 

     This program is part of the open-source Quantum ESPRESSO suite
     for quantum simulation of materials; please cite
         "P. Giannozzi et al., J. Phys.:Condens. Matter 21 395502 (2009);
         "P. Giannozzi et al., J. Phys.:Condens. Matter 29 465901 (2017);
         "P. Giannozzi et al., J. Chem. Phys. 152 154105 (2020);
          URL http://www.quantum-espresso.org", 
     in publications or presentations arising from this work. More details at
     http://www.quantum-espresso.org/quote

     Parallel version (MPI & OpenMP), running on       4 processor cores
     Number of MPI processes:                 4
     Threads/MPI process:                     1

     MPI processes distributed on     1 nodes
     19858 MiB available memory on the printing compute node when the environment starts

     Reading input from s0_OH__u0.0.run.in

     Current dimensions of program PWSCF are:
     Max number of different atomic species (ntypx) = 10
     Max number of k-points (npk) =  40000
     Max angular momentum in pseudopotentials (lmaxx) =  4
     file O.pbe-n-kjpaw_psl.0.1.UPF: wavefunction(s)  2P renormalized
     Message from routine setup:
     using ibrav=0 with symmetry is DISCOURAGED, use correct ibrav instead

     K-points division:     npool     =       4
     Subspace diagonalization in iterative solution of the eigenvalue problem:
     a serial algorithm will be used


     G-vector sticks info
     --------------------
     sticks:   dense  smooth     PW     G-vecs:    dense   smooth      PW
     Sum        3323    1653    471               841263   297421   44917

     Using Slab Decomposition



     bravais-lattice index     =            0
     lattice parameter (alat)  =       5.5104  a.u.
     unit-cell volume          =    3076.9124 (a.u.)^3
     number of atoms/cell      =           20
     number of atomic types    =            3
     number of electrons       =       163.00
     number of Kohn-Sham states=           98
     kinetic-energy cutoff     =      80.0000  Ry
     charge density cutoff     =     640.0000  Ry
     scf convergence threshold =      1.0E-06
     mixing beta               =       0.3000
     number of iterations used =            8  local-TF  mixing
     Exchange-correlation= SLA  PW   PBX  PBC
                           (   1   4   3   4   0   0   0)

     celldm(1)=   5.510441  celldm(2)=   0.000000  celldm(3)=   0.000000
     celldm(4)=   0.000000  celldm(5)=   0.000000  celldm(6)=   0.000000

     crystal axes: (cart. coord. in units of alat)
               a(1) = (   1.000000   0.000000   0.000000 )  
               a(2) = (   0.000000   2.144115   0.000000 )  
               a(3) = (   0.000000   0.000000   8.576458 )  

     reciprocal axes: (cart. coord. in units 2 pi/alat)
               b(1) = (  1.000000  0.000000  0.000000 )  
               b(2) = (  0.000000  0.466393  0.000000 )  
               b(3) = (  0.000000  0.000000  0.116598 )  


     PseudoPot. # 1 for Cr read from file:
     /usr/share/espresso/pseudo/cr_pbe_v1.5.uspp.F.UPF
     MD5 check sum: 0d52af634a40206e4dee301ad30da4bf
     Pseudo is Ultrasoft + core correction, Zval = 14.0
     Generated by new atomic code, or converted to UPF format
     Using radial grid of  857 points,  6 beta functions with: 
                l(1) =   0
                l(2) =   0
                l(3) =   1
                l(4) =   1
                l(5) =   2
                l(6) =   2
     Q(r) pseudized with  8 coefficients,  rinner =    0.950   0.950   0.950
                                                       0.950   0.950

     PseudoPot. # 2 for H  read from file:
     /usr/share/espresso/pseudo/H.pbe-rrkjus_psl.1.0.0.UPF
     MD5 check sum: f52b6d4d1c606e5624b1dc7b2218f220
     Pseudo is Ultrasoft, Zval =  1.0
     Generated using "atomic" code by A. Dal Corso  v.5.1
     Using radial grid of  929 points,  2 beta functions with: 
                l(1) =   0
                l(2) =   0
     Q(r) pseudized with 0 coefficients 


     PseudoPot. # 3 for O  read from file:
     /usr/share/espresso/pseudo/O.pbe-n-kjpaw_psl.0.1.UPF
     MD5 check sum: 0234752ac141de4415c5fc33072bef88
     Pseudo is Projector augmented-wave + core cor, Zval =  6.0
     Generated using "atomic" code by A. Dal Corso  v.5.0.99 svn rev. 10869
     Shape of augmentation charge: BESSEL
     Using radial grid of 1095 points,  4 beta functions with: 
                l(1) =   0
                l(2) =   0
                l(3) =   1
                l(4) =   1
     Q(r) pseudized with 0 coefficients 


     atomic species   valence    mass     pseudopotential
     Cr               14.00    51.99600     Cr( 1.00)
     H                 1.00     1.00800     H ( 1.00)
     O                 6.00    15.99900     O ( 1.00)

     Starting magnetic structure 
     atomic species   magnetization
     Cr              0.600
     H               0.000
     O               0.000

      2 Sym. Ops. (no inversion) found ( 1 have fractional translation)



   Cartesian axes

     site n.     atom                  positions (alat units)
         1        Cr     tau(   1) = (   0.0000000   0.5360286   3.2161719  )
         2        Cr     tau(   2) = (   0.5000000   1.6080859   3.2161719  )
         3        Cr     tau(   3) = (  -0.0045866   1.6080859   4.3058521  )
         4        Cr     tau(   4) = (   0.4986853   0.5360286   4.3030576  )
         5        Cr     tau(   5) = (  -0.0014913   0.5360286   5.4105325  )
         6        Cr     tau(   6) = (   0.4918552   1.6080859   5.4140377  )
         7        O      tau(   7) = (   0.0000000   1.6080859   3.6342742  )
         8        O      tau(   8) = (   0.0000000   1.6080859   2.7980695  )
         9        O      tau(   9) = (   0.5000000   0.1179263   3.2161719  )
        10        O      tau(  10) = (   0.5000000   0.9541310   3.2161719  )
        11        O      tau(  11) = (  -0.0020806   0.5360286   4.7322491  )
        12        O      tau(  12) = (   0.0000000   0.5360286   3.8701268  )
        13        O      tau(  13) = (   0.4959276   1.1851994   4.2991401  )
        14        O      tau(  14) = (   0.4959276   2.0309725   4.2991401  )
        15        O      tau(  15) = (  -0.0067460   1.6080859   5.8016285  )
        16        O      tau(  16) = (  -0.0070311   1.6080859   4.9574288  )
        17        O      tau(  17) = (   0.4950777   0.1142789   5.3927666  )
        18        O      tau(  18) = (   0.4950777   0.9577784   5.3927666  )
        19        O      tau(  19) = (  -0.0210039   0.5360286   6.0465650  )
        20        H      tau(  20) = (   0.2916328   0.5360286   6.1748138  )

     number of k points=    15  Marzari-Vanderbilt smearing, width (Ry)=  0.0100
                       cart. coord. in units 2pi/alat
        k(    1) = (   0.0000000   0.0000000   0.0000000), wk =   0.0277778
        k(    2) = (   0.0000000   0.1165982   0.0000000), wk =   0.0555556
        k(    3) = (   0.0000000  -0.2331965   0.0000000), wk =   0.0277778
        k(    4) = (   0.1111111   0.0000000   0.0000000), wk =   0.0555556
        k(    5) = (   0.1111111   0.1165982   0.0000000), wk =   0.1111111
        k(    6) = (   0.1111111  -0.2331965   0.0000000), wk =   0.0555556
        k(    7) = (   0.2222222   0.0000000   0.0000000), wk =   0.0555556
        k(    8) = (   0.2222222   0.1165982   0.0000000), wk =   0.1111111
        k(    9) = (   0.2222222  -0.2331965   0.0000000), wk =   0.0555556
        k(   10) = (   0.3333333   0.0000000   0.0000000), wk =   0.0555556
        k(   11) = (   0.3333333   0.1165982   0.0000000), wk =   0.1111111
        k(   12) = (   0.3333333  -0.2331965   0.0000000), wk =   0.0555556
        k(   13) = (   0.4444444   0.0000000   0.0000000), wk =   0.0555556
        k(   14) = (   0.4444444   0.1165982   0.0000000), wk =   0.1111111
        k(   15) = (   0.4444444  -0.2331965   0.0000000), wk =   0.0555556

     Dense  grid:   841263 G-vectors     FFT dimensions: (  45,  96, 384)

     Smooth grid:   297421 G-vectors     FFT dimensions: (  32,  72, 270)

     Estimated max dynamical RAM per process >       2.14 GB

     Estimated total dynamical RAM >       7.34 GB

     Check: negative core charge=   -0.000001
     Generating pointlists ...
     new r_m :   0.2605 (alat units)  1.4355 (a.u.) for type    1
     new r_m :   0.1394 (alat units)  0.7681 (a.u.) for type    2
     new r_m :   0.1394 (alat units)  0.7681 (a.u.) for type    3

     Initial potential from superposition of free atoms

     starting charge     156.9999, renormalised to     163.0000

     negative rho (up, down):  4.260E-03 1.042E-03
     Starting wfcs are  113 randomized atomic wfcs
     Checking if some PAW data can be deallocated... 

     total cpu time spent up to now is       63.7 secs

     per-process dynamical memory:  1132.2 Mb

     Self-consistent Calculation

     iteration #  1     ecut=    80.00 Ry     beta= 0.30
     Davidson diagonalization with overlap
     ethr =  1.00E-02,  avg # of iterations =  4.2

     negative rho (up, down):  3.531E-03 6.027E-03

     total cpu time spent up to now is      226.2 secs

     total energy              =   -1594.76493276 Ry
     estimated scf accuracy    <      59.28186906 Ry

     total magnetization       =    14.56 Bohr mag/cell
     absolute magnetization    =    17.74 Bohr mag/cell

     iteration #  2     ecut=    80.00 Ry     beta= 0.30
     Davidson diagonalization with overlap
     ethr =  1.00E-02,  avg # of iterations =  1.0

     negative rho (up, down):  5.375E-03 1.878E-02

     total cpu time spent up to now is      353.9 secs

     total energy              =   -1594.75048669 Ry
     estimated scf accuracy    <      26.42753021 Ry

     total magnetization       =    13.18 Bohr mag/cell
     absolute magnetization    =    16.98 Bohr mag/cell

     iteration #  3     ecut=    80.00 Ry     beta= 0.30
     Davidson diagonalization with overlap
     ethr =  1.00E-02,  avg # of iterations =  3.2

     negative rho (up, down):  6.712E-03 2.312E-02

     total cpu time spent up to now is      477.2 secs

     total energy              =   -1596.25902598 Ry
     estimated scf accuracy    <       7.62073333 Ry

     total magnetization       =    11.43 Bohr mag/cell
     absolute magnetization    =    16.20 Bohr mag/cell

     iteration #  4     ecut=    80.00 Ry     beta= 0.30
     Davidson diagonalization with overlap
     ethr =  4.68E-03,  avg # of iterations =  1.4

     negative rho (up, down):  8.089E-03 2.636E-02

     total cpu time spent up to now is      582.3 secs

     total energy              =   -1596.27328839 Ry
     estimated scf accuracy    <       1.96794685 Ry

     total magnetization       =    10.83 Bohr mag/cell
     absolute magnetization    =    16.57 Bohr mag/cell

     iteration #  5     ecut=    80.00 Ry     beta= 0.30
     Davidson diagonalization with overlap
     ethr =  1.21E-03,  avg # of iterations =  3.4

     negative rho (up, down):  1.003E-02 3.083E-02

     total cpu time spent up to now is      694.5 secs

     total energy              =   -1596.40686815 Ry
     estimated scf accuracy    <       1.25821251 Ry

     total magnetization       =    11.00 Bohr mag/cell
     absolute magnetization    =    16.12 Bohr mag/cell

     iteration #  6     ecut=    80.00 Ry     beta= 0.30
     Davidson diagonalization with overlap
     ethr =  7.72E-04,  avg # of iterations =  2.9

     negative rho (up, down):  1.066E-02 3.197E-02

     total cpu time spent up to now is      809.4 secs

     total energy              =   -1596.42225282 Ry
     estimated scf accuracy    <       0.62477868 Ry

     total magnetization       =    11.00 Bohr mag/cell
     absolute magnetization    =    15.33 Bohr mag/cell

     iteration #  7     ecut=    80.00 Ry     beta= 0.30
     Davidson diagonalization with overlap
     ethr =  3.83E-04,  avg # of iterations =  6.9

     negative rho (up, down):  1.005E-02 3.011E-02

     total cpu time spent up to now is      937.3 secs

     total energy              =   -1596.43059180 Ry
     estimated scf accuracy    <       0.17089884 Ry

     total magnetization       =    11.00 Bohr mag/cell
     absolute magnetization    =    14.60 Bohr mag/cell

     iteration #  8     ecut=    80.00 Ry     beta= 0.30
     Davidson diagonalization with overlap
     ethr =  1.05E-04,  avg # of iterations =  4.2

     negative rho (up, down):  9.752E-03 2.962E-02

     total cpu time spent up to now is     1063.3 secs

     total energy              =   -1596.44540657 Ry
     estimated scf accuracy    <       0.18809078 Ry

     total magnetization       =    11.00 Bohr mag/cell
     absolute magnetization    =    14.27 Bohr mag/cell

     iteration #  9     ecut=    80.00 Ry     beta= 0.30
     Davidson diagonalization with overlap
     ethr =  1.05E-04,  avg # of iterations =  1.1

     negative rho (up, down):  8.484E-03 2.755E-02

     total cpu time spent up to now is     1174.1 secs

     total energy              =   -1596.43953247 Ry
     estimated scf accuracy    <       0.19735876 Ry

     total magnetization       =    11.00 Bohr mag/cell
     absolute magnetization    =    14.14 Bohr mag/cell

     iteration # 10     ecut=    80.00 Ry     beta= 0.30
     Davidson diagonalization with overlap
     ethr =  1.05E-04,  avg # of iterations =  1.2

     negative rho (up, down):  8.345E-03 2.743E-02

     total cpu time spent up to now is     1278.5 secs

     total energy              =   -1596.44281978 Ry
     estimated scf accuracy    <       0.05777537 Ry

     total magnetization       =    11.00 Bohr mag/cell
     absolute magnetization    =    13.81 Bohr mag/cell

     iteration # 11     ecut=    80.00 Ry     beta= 0.30
     Davidson diagonalization with overlap
     ethr =  3.54E-05,  avg # of iterations =  1.9

     negative rho (up, down):  5.589E-03 2.378E-02

     total cpu time spent up to now is     1388.9 secs

     total energy              =   -1596.43906639 Ry
     estimated scf accuracy    <       0.04678844 Ry

     total magnetization       =    11.00 Bohr mag/cell
     absolute magnetization    =    13.77 Bohr mag/cell

     iteration # 12     ecut=    80.00 Ry     beta= 0.30
     Davidson diagonalization with overlap
     ethr =  2.87E-05,  avg # of iterations =  2.0

     negative rho (up, down):  3.799E-03 2.150E-02

     total cpu time spent up to now is     1495.8 secs

     total energy              =   -1596.43823903 Ry
     estimated scf accuracy    <       0.01914727 Ry

     total magnetization       =    11.00 Bohr mag/cell
     absolute magnetization    =    13.65 Bohr mag/cell

     iteration # 13     ecut=    80.00 Ry     beta= 0.30
     Davidson diagonalization with overlap
     ethr =  1.17E-05,  avg # of iterations =  6.4

     negative rho (up, down):  2.527E-03 2.021E-02

     total cpu time spent up to now is     1610.0 secs

     total energy              =   -1596.43846135 Ry
     estimated scf accuracy    <       0.01008658 Ry

     total magnetization       =    11.00 Bohr mag/cell
     absolute magnetization    =    13.57 Bohr mag/cell

     iteration # 14     ecut=    80.00 Ry     beta= 0.30
     Davidson diagonalization with overlap
     ethr =  6.19E-06,  avg # of iterations =  4.7

     negative rho (up, down):  9.556E-04 1.860E-02

     total cpu time spent up to now is     1728.5 secs

     total energy              =   -1596.43769942 Ry
     estimated scf accuracy    <       0.00784123 Ry

     total magnetization       =    11.00 Bohr mag/cell
     absolute magnetization    =    13.61 Bohr mag/cell

     iteration # 15     ecut=    80.00 Ry     beta= 0.30
     Davidson diagonalization with overlap
     ethr =  4.81E-06,  avg # of iterations =  2.1

     negative rho (up, down):  4.537E-04 1.887E-02

     total cpu time spent up to now is     1836.3 secs

     total energy              =   -1596.43685737 Ry
     estimated scf accuracy    <       0.00476336 Ry

     total magnetization       =    11.00 Bohr mag/cell
     absolute magnetization    =    13.63 Bohr mag/cell

     iteration # 16     ecut=    80.00 Ry     beta= 0.30
     Davidson diagonalization with overlap
     ethr =  2.92E-06,  avg # of iterations =  3.1

     negative rho (up, down):  9.742E-04 1.945E-02

     total cpu time spent up to now is     1950.7 secs

     total energy              =   -1596.43687656 Ry
     estimated scf accuracy    <       0.00248574 Ry

     total magnetization       =    11.00 Bohr mag/cell
     absolute magnetization    =    13.66 Bohr mag/cell

     iteration # 17     ecut=    80.00 Ry     beta= 0.30
     Davidson diagonalization with overlap
     ethr =  1.52E-06,  avg # of iterations =  2.7

     negative rho (up, down):  1.261E-03 1.974E-02

     total cpu time spent up to now is     2061.1 secs

     total energy              =   -1596.43683416 Ry
     estimated scf accuracy    <       0.00177770 Ry

     total magnetization       =    11.00 Bohr mag/cell
     absolute magnetization    =    13.66 Bohr mag/cell

     iteration # 18     ecut=    80.00 Ry     beta= 0.30
     Davidson diagonalization with overlap
     ethr =  1.09E-06,  avg # of iterations =  1.6

     negative rho (up, down):  1.421E-03 1.983E-02

     total cpu time spent up to now is     2167.2 secs

     total energy              =   -1596.43683783 Ry
     estimated scf accuracy    <       0.00116539 Ry

     total magnetization       =    11.00 Bohr mag/cell
     absolute magnetization    =    13.65 Bohr mag/cell

     iteration # 19     ecut=    80.00 Ry     beta= 0.30
     Davidson diagonalization with overlap
     ethr =  7.15E-07,  avg # of iterations =  1.4

     negative rho (up, down):  3.293E-03 2.168E-02

     total cpu time spent up to now is     2276.0 secs

     total energy              =   -1596.43686059 Ry
     estimated scf accuracy    <       0.00107891 Ry

     total magnetization       =    11.00 Bohr mag/cell
     absolute magnetization    =    13.66 Bohr mag/cell

     iteration # 20     ecut=    80.00 Ry     beta= 0.30
     Davidson diagonalization with overlap
     ethr =  6.62E-07,  avg # of iterations =  1.1

     negative rho (up, down):  3.798E-03 2.211E-02

     total cpu time spent up to now is     2381.2 secs

     total energy              =   -1596.43686762 Ry
     estimated scf accuracy    <       0.00073648 Ry

     total magnetization       =    11.00 Bohr mag/cell
     absolute magnetization    =    13.68 Bohr mag/cell

     iteration # 21     ecut=    80.00 Ry     beta= 0.30
     Davidson diagonalization with overlap
     ethr =  4.52E-07,  avg # of iterations =  1.0

     negative rho (up, down):  4.263E-03 2.249E-02

     total cpu time spent up to now is     2488.1 secs

     total energy              =   -1596.43687028 Ry
     estimated scf accuracy    <       0.00041612 Ry

     total magnetization       =    11.00 Bohr mag/cell
     absolute magnetization    =    13.68 Bohr mag/cell

     iteration # 22     ecut=    80.00 Ry     beta= 0.30
     Davidson diagonalization with overlap
     ethr =  2.55E-07,  avg # of iterations =  1.3

     negative rho (up, down):  3.609E-03 2.171E-02

     total cpu time spent up to now is     2596.5 secs

     total energy              =   -1596.43686727 Ry
     estimated scf accuracy    <       0.00023475 Ry

     total magnetization       =    11.00 Bohr mag/cell
     absolute magnetization    =    13.67 Bohr mag/cell

     iteration # 23     ecut=    80.00 Ry     beta= 0.30
     Davidson diagonalization with overlap
     ethr =  1.44E-07,  avg # of iterations =  1.2

     negative rho (up, down):  3.068E-03 2.100E-02

     total cpu time spent up to now is     2696.5 secs

     total energy              =   -1596.43690190 Ry
     estimated scf accuracy    <       0.00013691 Ry

     total magnetization       =    11.00 Bohr mag/cell
     absolute magnetization    =    13.66 Bohr mag/cell

     iteration # 24     ecut=    80.00 Ry     beta= 0.30
     Davidson diagonalization with overlap
     ethr =  8.40E-08,  avg # of iterations =  1.9

     negative rho (up, down):  2.620E-03 2.027E-02

     total cpu time spent up to now is     2805.8 secs

     total energy              =   -1596.43691985 Ry
     estimated scf accuracy    <       0.00007362 Ry

     total magnetization       =    11.00 Bohr mag/cell
     absolute magnetization    =    13.66 Bohr mag/cell

     iteration # 25     ecut=    80.00 Ry     beta= 0.30
     Davidson diagonalization with overlap
     ethr =  4.52E-08,  avg # of iterations =  2.1

     negative rho (up, down):  2.339E-03 1.967E-02

     total cpu time spent up to now is     2922.0 secs

     total energy              =   -1596.43692799 Ry
     estimated scf accuracy    <       0.00002816 Ry

     total magnetization       =    11.00 Bohr mag/cell
     absolute magnetization    =    13.66 Bohr mag/cell

     iteration # 26     ecut=    80.00 Ry     beta= 0.30
     Davidson diagonalization with overlap
     ethr =  1.73E-08,  avg # of iterations =  2.2

     negative rho (up, down):  2.130E-03 1.922E-02

     total cpu time spent up to now is     3027.3 secs

     total energy              =   -1596.43693057 Ry
     estimated scf accuracy    <       0.00000939 Ry

     total magnetization       =    11.00 Bohr mag/cell
     absolute magnetization    =    13.66 Bohr mag/cell

     iteration # 27     ecut=    80.00 Ry     beta= 0.30
     Davidson diagonalization with overlap
     ethr =  5.76E-09,  avg # of iterations =  3.7

     negative rho (up, down):  2.097E-03 1.914E-02

     total cpu time spent up to now is     3145.6 secs

     total energy              =   -1596.43693272 Ry
     estimated scf accuracy    <       0.00000215 Ry

     total magnetization       =    11.00 Bohr mag/cell
     absolute magnetization    =    13.66 Bohr mag/cell

     iteration # 28     ecut=    80.00 Ry     beta= 0.30
     Davidson diagonalization with overlap
     ethr =  1.32E-09,  avg # of iterations =  3.7

     negative rho (up, down):  2.079E-03 1.903E-02

     Magnetic moment per site  (integrated on atomic sphere of radius R)
     atom   1 (R=0.261)  charge= 10.4633  magn=  1.9294
     atom   2 (R=0.261)  charge= 10.3885  magn=  1.4673
     atom   3 (R=0.261)  charge= 10.4092  magn=  1.6972
     atom   4 (R=0.261)  charge= 10.4080  magn=  1.6918
     atom   5 (R=0.261)  charge= 10.3967  magn=  1.5547
     atom   6 (R=0.261)  charge= 10.3849  magn=  1.4010
     atom   7 (R=0.139)  charge=  1.9666  magn= -0.0418
     atom   8 (R=0.139)  charge=  1.9450  magn= -0.0632
     atom   9 (R=0.139)  charge=  1.9669  magn= -0.0274
     atom  10 (R=0.139)  charge=  1.9669  magn= -0.0274
     atom  11 (R=0.139)  charge=  1.9618  magn= -0.0384
     atom  12 (R=0.139)  charge=  1.9629  magn= -0.0427
     atom  13 (R=0.139)  charge=  1.9669  magn= -0.0338
     atom  14 (R=0.139)  charge=  1.9669  magn= -0.0338
     atom  15 (R=0.139)  charge=  1.9480  magn= -0.0771
     atom  16 (R=0.139)  charge=  1.9607  magn= -0.0370
     atom  17 (R=0.139)  charge=  1.9666  magn= -0.0298
     atom  18 (R=0.139)  charge=  1.9666  magn= -0.0298
     atom  19 (R=0.139)  charge=  1.9679  magn= -0.0272
     atom  20 (R=0.139)  charge=  0.3931  magn=  0.0044

     total cpu time spent up to now is     3256.4 secs

     End of self-consistent calculation

 ------ SPIN UP ------------


          k = 0.0000 0.0000 0.0000 ( 37133 PWs)   bands (ev):

   -73.3516 -73.2865 -73.2498 -73.2398 -73.2181 -73.1880 -44.6924 -44.6875
   -44.6461 -44.6337 -44.6151 -44.5641 -44.5601 -44.5537 -44.5065 -44.5014
   -44.4880 -44.4856 -44.4801 -44.4739 -44.4397 -44.4309 -44.4130 -44.4001
   -19.2796 -18.9884 -18.7112 -18.2344 -18.1217 -17.8161 -17.6873 -17.5860
   -17.4487 -17.3604 -17.3470 -16.9194 -16.5081  -7.1659  -7.0634  -6.9557
    -6.4643  -6.0374  -5.7788  -5.5764  -5.2708  -5.1285  -5.1099  -5.0833
    -5.0502  -4.8802  -4.8251  -4.7589  -4.1585  -3.8807  -3.5394  -3.3904
    -3.3503  -3.2748  -3.0087  -2.9189  -2.8238  -2.7355  -2.6660  -2.5651
    -2.3219  -2.2334  -2.1317  -1.8992  -1.7918  -1.7111  -1.5629  -1.3555
    -1.2523  -1.1661  -1.1601  -1.1326  -1.0713  -0.8534  -0.8466  -0.7908
    -0.7365  -0.7351  -0.6583  -0.4841  -0.1937  -0.1246   0.0166   0.0883
     0.1974   0.6041   1.0110   1.1262   1.1920   1.2907   1.4007   2.0907
     2.6693   3.1288

          k = 0.0000 0.1166 0.0000 ( 37130 PWs)   bands (ev):

   -73.3516 -73.2865 -73.2497 -73.2399 -73.2181 -73.1880 -44.6924 -44.6859
   -44.6440 -44.6313 -44.6151 -44.5637 -44.5604 -44.5537 -44.5065 -44.5014
   -44.4905 -44.4855 -44.4823 -44.4755 -44.4399 -44.4306 -44.4133 -44.4001
   -19.1577 -18.8739 -18.6205 -18.3893 -18.1675 -17.9837 -17.8184 -17.5338
   -17.4765 -17.3304 -17.3270 -16.9158 -16.4990  -6.8568  -6.7706  -6.6553
    -6.4480  -6.0408  -5.6875  -5.4633  -5.2136  -5.1691  -5.0447  -4.9881
    -4.8765  -4.8322  -4.8301  -4.7591  -4.2702  -4.1127  -3.9779  -3.7808
    -3.6771  -3.4878  -3.3126  -3.0669  -2.9403  -2.8207  -2.7429  -2.6531
    -2.4210  -2.2447  -2.1923  -2.1391  -2.0823  -1.7680  -1.5771  -1.4887
    -1.4003  -1.2727  -1.0390  -0.8315  -0.7595  -0.6781  -0.6168  -0.5742
    -0.5231  -0.4432  -0.4095  -0.3285  -0.1794  -0.0847   0.0151   0.1019
     0.1948   0.5820   0.9411   0.9970   1.1103   1.2334   1.4051   2.4336
     2.9957   3.2783

          k = 0.0000-0.2332 0.0000 ( 37126 PWs)   bands (ev):

   -73.3516 -73.2865 -73.2496 -73.2400 -73.2181 -73.1880 -44.6923 -44.6843
   -44.6419 -44.6289 -44.6150 -44.5633 -44.5609 -44.5536 -44.5065 -44.5014
   -44.4930 -44.4853 -44.4845 -44.4772 -44.4400 -44.4302 -44.4137 -44.4002
   -18.8920 -18.7776 -18.6801 -18.3520 -18.3358 -18.1357 -17.9816 -17.5051
   -17.4929 -17.3126 -17.3071 -16.9143 -16.4908  -6.5613  -6.4125  -6.3101
    -6.1895  -6.0454  -5.6822  -5.2003  -5.1504  -4.9753  -4.9707  -4.9191
    -4.8601  -4.8583  -4.8375  -4.7592  -4.4124  -4.3751  -4.3273  -4.3174
    -4.1276  -3.9394  -3.4402  -3.2276  -3.1045  -3.0299  -2.9671  -2.8295
    -2.5046  -2.2463  -2.1537  -2.1076  -1.9621  -1.8580  -1.6577  -1.4412
    -1.3876  -1.1356  -0.9795  -0.8153  -0.7772  -0.6676  -0.4690  -0.4635
    -0.4240  -0.2407  -0.2128  -0.0444  -0.0026   0.0084   0.0596   0.1796
     0.4239   0.4732   0.6873   0.8048   1.0287   1.0905   1.5725   2.8075
     3.1054   3.5952

          k = 0.1111 0.0000 0.0000 ( 37175 PWs)   bands (ev):

   -73.3500 -73.2850 -73.2483 -73.2382 -73.2166 -73.1865 -44.6909 -44.6857
   -44.6442 -44.6317 -44.6120 -44.5733 -44.5612 -44.5578 -44.5049 -44.5036
   -44.4993 -44.4853 -44.4774 -44.4711 -44.4588 -44.4506 -44.4321 -44.4189
   -19.1682 -18.8872 -18.6218 -18.1612 -18.0660 -17.7611 -17.6417 -17.6127
   -17.4732 -17.3751 -17.3733 -16.9462 -16.5223  -7.0209  -6.9294  -6.8292
    -6.3433  -5.9633  -5.7274  -5.5315  -5.4582  -5.3358  -5.3033  -5.1985
    -5.0364  -4.8002  -4.7636  -4.7139  -3.9879  -3.7260  -3.5434  -3.3447
    -3.3114  -3.1865  -3.1634  -3.0419  -3.0224  -2.9423  -2.8434  -2.7076
    -2.5881  -2.3758  -2.3237  -2.1700  -2.0623  -2.0141  -1.7753  -1.7026
    -1.5746  -1.3685  -1.1744  -0.9134  -0.8192  -0.7891  -0.7204  -0.6736
    -0.5298  -0.4551  -0.3916  -0.2557  -0.0988  -0.0919   0.1430   0.2502
     0.4526   0.5419   0.9232   1.0948   1.2047   1.2245   1.3260   2.1995
     2.7664   3.1680

          k = 0.1111 0.1166 0.0000 ( 37124 PWs)   bands (ev):

   -73.3500 -73.2850 -73.2482 -73.2383 -73.2166 -73.1865 -44.6908 -44.6844
   -44.6425 -44.6297 -44.6120 -44.5733 -44.5608 -44.5583 -44.5050 -44.5036
   -44.4993 -44.4875 -44.4791 -44.4725 -44.4588 -44.4502 -44.4323 -44.4189
   -19.0508 -18.7774 -18.5335 -18.3142 -18.1076 -17.9311 -17.7719 -17.5530
   -17.5008 -17.3472 -17.3450 -16.9426 -16.5142  -6.7119  -6.6333  -6.5235
    -6.3279  -5.9668  -5.6394  -5.5127  -5.3634  -5.3014  -5.2465  -5.1545
    -4.9835  -4.7751  -4.7255  -4.6246  -4.0517  -3.9257  -3.8395  -3.7250
    -3.5571  -3.4568  -3.3507  -3.3307  -3.2643  -3.1682  -3.0037  -2.8423
    -2.7085  -2.6310  -2.2656  -2.2158  -2.1404  -1.9971  -1.7888  -1.5746
    -1.4669  -1.3853  -1.0623  -0.7886  -0.7295  -0.5274  -0.4848  -0.4144
    -0.3269  -0.2753  -0.2397  -0.1934  -0.1264  -0.0245   0.1129   0.2596
     0.4486   0.5230   0.8631   0.9200   1.0358   1.1811   1.4415   2.4921
     3.0081   3.2346

          k = 0.1111-0.2332 0.0000 ( 37144 PWs)   bands (ev):

   -73.3500 -73.2850 -73.2481 -73.2384 -73.2166 -73.1865 -44.6908 -44.6831
   -44.6407 -44.6277 -44.6120 -44.5733 -44.5602 -44.5589 -44.5051 -44.5036
   -44.4993 -44.4898 -44.4808 -44.4738 -44.4588 -44.4497 -44.4326 -44.4189
   -18.7948 -18.6830 -18.5914 -18.2827 -18.2668 -18.0750 -17.9325 -17.5233
   -17.5182 -17.3297 -17.3221 -16.9411 -16.5069  -6.4317  -6.2513  -6.1727
    -6.0427  -5.9660  -5.6592  -5.3649  -5.3307  -5.2084  -5.1888  -5.1528
    -4.8678  -4.7344  -4.6488  -4.5876  -4.3289  -4.1936  -4.0859  -4.0736
    -3.9486  -3.8593  -3.6832  -3.5805  -3.5120  -3.3924  -3.1744  -2.9566
    -2.8227  -2.6718  -2.2890  -2.2178  -1.9866  -1.8408  -1.6583  -1.4754
    -1.4389  -1.1969  -1.0498  -0.8304  -0.7085  -0.4469  -0.4257  -0.4132
    -0.3590  -0.2426  -0.0569   0.1268   0.1289   0.1986   0.2751   0.3459
     0.4351   0.5013   0.6275   0.7379   0.9637   1.0086   1.5926   2.8494
     3.0160   3.2358

          k = 0.2222 0.0000 0.0000 ( 37192 PWs)   bands (ev):

   -73.3461 -73.2812 -73.2443 -73.2343 -73.2127 -73.1826 -44.6871 -44.6812
   -44.6394 -44.6267 -44.6228 -44.6023 -44.5560 -44.5525 -44.5497 -44.5073
   -44.5002 -44.4981 -44.4956 -44.4803 -44.4782 -44.4705 -44.4655 -44.4639
   -18.8641 -18.6158 -18.3869 -17.9844 -17.9219 -17.6813 -17.6571 -17.5356
   -17.5275 -17.4401 -17.4013 -17.0094 -16.5429  -6.6400  -6.5748  -6.5029
    -6.0753  -5.8375  -5.7923  -5.7099  -5.6713  -5.5125  -5.4323  -5.1504
    -5.0611  -4.6690  -4.5201  -4.3984  -4.3976  -4.0590  -3.9749  -3.8116
    -3.6665  -3.6472  -3.5326  -3.2471  -3.0487  -2.9834  -2.8448  -2.8139
    -2.7370  -2.6119  -2.4411  -2.3754  -2.3583  -2.2524  -2.1657  -1.7914
    -1.7424  -1.4734  -1.2413  -0.8729  -0.6278  -0.5553  -0.5375  -0.5009
    -0.4557  -0.4141  -0.1586   0.0195   0.1692   0.2523   0.3564   0.4739
     0.5894   0.6448   0.7514   0.8376   0.9789   1.1162   1.3371   2.3770
     2.8136   3.0400

          k = 0.2222 0.1166 0.0000 ( 37137 PWs)   bands (ev):

   -73.3461 -73.2812 -73.2443 -73.2343 -73.2127 -73.1826 -44.6871 -44.6806
   -44.6387 -44.6259 -44.6229 -44.6023 -44.5557 -44.5528 -44.5499 -44.5069
   -44.4995 -44.4980 -44.4956 -44.4842 -44.4758 -44.4715 -44.4656 -44.4643
   -18.7612 -18.5209 -18.3065 -18.1300 -17.9631 -17.8187 -17.6780 -17.5880
   -17.5584 -17.3850 -17.3747 -17.0068 -16.5380  -6.3410  -6.2872  -6.2054
    -6.0526  -5.7916  -5.7213  -5.7146  -5.5815  -5.5340  -5.3755  -5.2982
    -4.7746  -4.6739  -4.5531  -4.5214  -4.3597  -4.2101  -4.1795  -3.9746
    -3.8811  -3.6605  -3.4982  -3.3631  -3.3414  -3.2793  -3.1789  -3.1141
    -2.9738  -2.8694  -2.4267  -2.3515  -2.1987  -2.0828  -2.0374  -1.8297
    -1.6023  -1.4534  -1.3023  -0.8267  -0.6956  -0.4597  -0.4045  -0.2258
    -0.1609  -0.1279  -0.0762   0.0288   0.2244   0.2549   0.3373   0.3738
     0.5656   0.5915   0.7053   0.7606   0.8765   1.0168   1.4677   2.5234
     2.7778   2.8788

          k = 0.2222-0.2332 0.0000 ( 37166 PWs)   bands (ev):

   -73.3461 -73.2812 -73.2442 -73.2344 -73.2127 -73.1826 -44.6871 -44.6800
   -44.6380 -44.6251 -44.6230 -44.6023 -44.5555 -44.5530 -44.5500 -44.5064
   -44.4988 -44.4979 -44.4956 -44.4867 -44.4750 -44.4725 -44.4655 -44.4649
   -18.5359 -18.4362 -18.3580 -18.1230 -18.0952 -17.9370 -17.8075 -17.5836
   -17.5578 -17.3693 -17.3475 -17.0056 -16.5336  -6.1442  -5.9144  -5.8504
    -5.7903  -5.7037  -5.6354  -5.6199  -5.4901  -5.4065  -5.3537  -5.2991
    -4.8093  -4.7498  -4.7224  -4.6217  -4.5861  -4.4936  -4.1911  -4.1797
    -3.8836  -3.8356  -3.7327  -3.5731  -3.5146  -3.5119  -3.3830  -3.2715
    -3.2681  -2.9701  -2.4099  -2.3640  -2.0487  -1.9034  -1.8160  -1.7148
    -1.6670  -1.4258  -1.3384  -0.8600  -0.4896  -0.4568  -0.3896  -0.2072
    -0.1940   0.0751   0.1720   0.2273   0.3071   0.3155   0.3291   0.4028
     0.4998   0.5407   0.7135   0.7302   0.8298   0.8461   1.5608   2.5409
     2.5850   2.5982

          k = 0.3333 0.0000 0.0000 ( 37184 PWs)   bands (ev):

   -73.3417 -73.2768 -73.2398 -73.2298 -73.2082 -73.1782 -44.6831 -44.6767
   -44.6761 -44.6340 -44.6210 -44.6023 -44.5936 -44.5611 -44.5572 -44.5534
   -44.5425 -44.5328 -44.5237 -44.4902 -44.4874 -44.4701 -44.4625 -44.4556
   -18.4559 -18.2642 -18.0994 -17.8154 -17.7666 -17.7610 -17.6350 -17.6073
   -17.5168 -17.4365 -17.3727 -17.0585 -16.5300  -6.3769  -6.2289  -6.1372
    -6.0241  -5.9398  -5.8355  -5.6990  -5.6957  -5.5689  -5.4037  -5.2749
    -5.0410  -4.9653  -4.7279  -4.5299  -4.4665  -4.4617  -4.2324  -3.9997
    -3.8570  -3.7549  -3.5486  -3.4303  -3.4000  -3.2190  -3.1473  -3.0352
    -2.9141  -2.6486  -2.4846  -2.4347  -2.2824  -1.9678  -1.9471  -1.9142
    -1.6280  -1.6071  -1.4469  -1.1137  -0.7185  -0.4966  -0.4282  -0.3621
    -0.3579  -0.2817   0.0527   0.1352   0.1544   0.2280   0.3628   0.4269
     0.5424   0.6708   0.7141   0.8258   0.9641   1.0266   1.2454   2.2749
     2.6566   3.0293

          k = 0.3333 0.1166 0.0000 ( 37206 PWs)   bands (ev):

   -73.3417 -73.2768 -73.2398 -73.2298 -73.2082 -73.1782 -44.6831 -44.6770
   -44.6763 -44.6352 -44.6224 -44.6024 -44.5935 -44.5595 -44.5552 -44.5534
   -44.5425 -44.5333 -44.5230 -44.4902 -44.4874 -44.4702 -44.4628 -44.4558
   -18.3818 -18.1981 -18.0435 -17.9458 -17.8291 -17.7461 -17.6762 -17.5977
   -17.5755 -17.4163 -17.3548 -17.0591 -16.5292  -6.3535  -6.0149  -5.9447
    -5.8906  -5.8660  -5.8107  -5.6884  -5.6620  -5.6270  -5.4737  -5.3326
    -4.9892  -4.9692  -4.7515  -4.6289  -4.4954  -4.3673  -4.2905  -3.9474
    -3.8912  -3.7504  -3.6475  -3.4631  -3.4214  -3.2896  -3.1193  -3.0456
    -2.9288  -2.8441  -2.5716  -2.3956  -2.2514  -2.1422  -2.0463  -1.8844
    -1.6083  -1.4865  -1.4668  -1.1894  -0.7925  -0.5055  -0.3928  -0.2970
    -0.2586  -0.1936  -0.1718  -0.0151   0.1151   0.2132   0.2431   0.4543
     0.6611   0.7605   0.8006   0.8811   0.9626   0.9759   1.3414   2.3198
     2.3700   2.4957

          k = 0.3333-0.2332 0.0000 ( 37216 PWs)   bands (ev):

   -73.3417 -73.2768 -73.2398 -73.2298 -73.2082 -73.1782 -44.6831 -44.6769
   -44.6769 -44.6363 -44.6237 -44.6026 -44.5935 -44.5578 -44.5534 -44.5534
   -44.5424 -44.5338 -44.5223 -44.4901 -44.4874 -44.4703 -44.4631 -44.4561
   -18.2111 -18.1617 -18.0708 -17.9720 -17.9159 -17.8205 -17.6826 -17.6453
   -17.5707 -17.4036 -17.3449 -17.0599 -16.5285  -6.3471  -5.8944  -5.8671
    -5.7666  -5.7246  -5.7194  -5.6553  -5.5781  -5.4905  -5.3315  -5.2786
    -5.1820  -4.9997  -4.9723  -4.6736  -4.5453  -4.2913  -4.2064  -4.1471
    -3.9886  -3.8022  -3.5520  -3.4832  -3.4830  -3.2952  -3.2647  -3.1037
    -3.0625  -2.8621  -2.4408  -2.3976  -2.2922  -2.1752  -2.1403  -1.9287
    -1.7698  -1.3319  -1.3173  -1.1005  -0.8754  -0.8322  -0.4596  -0.3184
    -0.3062  -0.0820  -0.0676   0.0169   0.1342   0.2412   0.2541   0.3492
     0.6771   0.7671   0.8042   0.9080   1.0468   1.0567   1.4156   2.0814
     2.0954   2.1332

          k = 0.4444 0.0000 0.0000 ( 37180 PWs)   bands (ev):

   -73.3388 -73.2740 -73.2369 -73.2269 -73.2053 -73.1753 -44.7120 -44.6810
   -44.6728 -44.6354 -44.6305 -44.6174 -44.5974 -44.5930 -44.5861 -44.5728
   -44.5586 -44.5462 -44.5363 -44.4891 -44.4818 -44.4647 -44.4573 -44.4502
   -18.0930 -17.9577 -17.8832 -17.8138 -17.7800 -17.7469 -17.6546 -17.6508
   -17.5672 -17.4547 -17.3099 -17.0531 -16.4964  -6.6860  -6.1351  -6.0130
    -5.9222  -5.8455  -5.8185  -5.7925  -5.6406  -5.6006  -5.5047  -5.4247
    -5.2379  -4.9504  -4.8877  -4.7393  -4.6404  -4.3837  -4.0360  -3.8861
    -3.8397  -3.8138  -3.6863  -3.6539  -3.4762  -3.1501  -2.9685  -2.8579
    -2.7407  -2.6588  -2.5073  -2.4580  -2.3373  -2.3077  -2.1176  -1.9719
    -1.7179  -1.6168  -1.4961  -1.1013  -0.6578  -0.4780  -0.4154  -0.3627
    -0.3400  -0.2606  -0.1964  -0.1444   0.0992   0.1324   0.2455   0.3914
     0.4084   0.6216   0.8936   0.9080   1.0892   1.1450   1.2292   2.0661
     2.7023   2.8969

          k = 0.4444 0.1166 0.0000 ( 37248 PWs)   bands (ev):

   -73.3388 -73.2740 -73.2369 -73.2269 -73.2053 -73.1753 -44.7121 -44.6810
   -44.6741 -44.6356 -44.6346 -44.6229 -44.5935 -44.5874 -44.5857 -44.5732
   -44.5572 -44.5462 -44.5363 -44.4891 -44.4818 -44.4644 -44.4571 -44.4501
   -18.0783 -17.9560 -17.8885 -17.8154 -17.7886 -17.7656 -17.6939 -17.6096
   -17.5616 -17.4407 -17.3229 -17.0556 -16.4961  -6.6830  -6.2692  -6.1189
    -6.0449  -5.9765  -5.9252  -5.6754  -5.6232  -5.4962  -5.4050  -5.2775
    -4.9530  -4.8778  -4.8469  -4.5880  -4.4688  -4.2879  -4.2009  -4.0417
    -3.8885  -3.8046  -3.6211  -3.5524  -3.3512  -3.1799  -2.9361  -2.7995
    -2.7243  -2.6108  -2.5453  -2.4270  -2.4005  -2.2879  -2.0957  -2.0029
    -1.7935  -1.6431  -1.5322  -1.2154  -0.7431  -0.6225  -0.4571  -0.4115
    -0.3974  -0.3542  -0.3332  -0.3156  -0.2223  -0.1931   0.0286   0.3052
     0.8927   0.9049   0.9990   1.0550   1.1193   1.1720   1.2268   2.1119
     2.2015   2.3194

          k = 0.4444-0.2332 0.0000 ( 37264 PWs)   bands (ev):

   -73.3388 -73.2740 -73.2369 -73.2269 -73.2054 -73.1753 -44.7122 -44.6810
   -44.6754 -44.6382 -44.6358 -44.6270 -44.5907 -44.5849 -44.5832 -44.5735
   -44.5559 -44.5463 -44.5363 -44.4891 -44.4818 -44.4641 -44.4569 -44.4500
   -18.0598 -17.9653 -17.8572 -17.8516 -17.8174 -17.7443 -17.7241 -17.5905
   -17.5575 -17.4237 -17.3392 -17.0581 -16.4959  -6.6825  -6.3667  -6.3134
    -6.2098  -5.9441  -5.9241  -5.4416  -5.4104  -5.3431  -5.2820  -5.2396
    -5.1415  -5.1174  -4.6195  -4.4685  -4.4226  -4.2150  -4.0635  -4.0320
    -3.8636  -3.7315  -3.5452  -3.4390  -3.3893  -3.0891  -2.9241  -2.9184
    -2.8316  -2.6733  -2.6126  -2.4506  -2.3632  -2.1838  -2.1813  -1.8535
    -1.6705  -1.6614  -1.4675  -1.4266  -0.9671  -0.9303  -0.9254  -0.6096
    -0.4331  -0.3566  -0.3415  -0.2969  -0.2456  -0.1979  -0.0933   0.3185
     0.9364   0.9380   1.0734   1.1616   1.2452   1.2654   1.2776   1.8866
     1.9151   1.9488

 ------ SPIN DOWN ----------


          k = 0.0000 0.0000 0.0000 ( 37133 PWs)   bands (ev):

   -71.4185 -71.2255 -71.0611 -70.9684 -70.8940 -70.6036 -42.8744 -42.7420
   -42.7055 -42.6992 -42.5957 -42.5678 -42.5158 -42.4894 -42.3993 -42.3596
   -42.2798 -42.1669 -42.1311 -42.0284 -42.0204 -42.0091 -41.9017 -41.7845
   -19.3277 -19.0385 -18.7589 -18.3341 -18.2141 -17.9212 -17.8077 -17.6464
   -17.5298 -17.4704 -17.4268 -17.1375 -16.7308  -6.7436  -6.6245  -6.5292
    -6.0471  -5.6552  -5.4959  -5.2776  -4.9989  -4.8344  -4.8111  -4.6814
    -4.6412  -4.5254  -4.4785  -4.4209  -3.9150  -3.8216  -3.5244  -3.3918
    -3.2143  -3.1822  -2.9543  -2.8935  -2.6686  -2.5726  -2.3981  -2.3847
    -2.2590  -2.0656  -1.9045  -1.7479  -1.7430  -1.6109  -1.4071  -1.3029
    -1.2554  -1.1592  -0.9018  -0.6456   1.1438   1.1760   1.2885   1.3128
     1.3160   1.4718   1.5098   1.5125   1.7608   1.8317   1.8366   1.9195
     1.9409   2.0206   2.3999   2.5321   2.6611   2.8849   3.1462   3.2803
     3.9172   4.3962

          k = 0.0000 0.1166 0.0000 ( 37130 PWs)   bands (ev):

   -71.4185 -71.2255 -71.0611 -70.9684 -70.8940 -70.6036 -42.8735 -42.7414
   -42.7051 -42.6996 -42.5957 -42.5667 -42.5158 -42.4894 -42.4003 -42.3596
   -42.2798 -42.1669 -42.1323 -42.0279 -42.0204 -42.0096 -41.9024 -41.7845
   -19.2080 -18.9252 -18.6665 -18.4806 -18.2691 -18.0654 -17.9169 -17.6088
   -17.5704 -17.4349 -17.4179 -17.1358 -16.7213  -6.4548  -6.3502  -6.2441
    -6.0311  -5.6585  -5.4058  -5.1765  -5.0284  -4.7698  -4.6370  -4.6008
    -4.5897  -4.5178  -4.4746  -4.4244  -4.0921  -3.9193  -3.7981  -3.6631
    -3.4678  -3.2153  -3.1192  -2.9311  -2.7246  -2.6476  -2.4812  -2.4006
    -2.1962  -2.1634  -2.0746  -1.9890  -1.8482  -1.6200  -1.5714  -1.4600
    -1.3790  -1.2102  -1.0495  -0.7526   1.3723   1.4170   1.5013   1.5662
     1.6095   1.6309   1.6904   1.7677   1.7841   1.8433   1.8599   1.9575
     2.0180   2.0249   2.4224   2.4908   2.6728   2.7461   3.0107   3.5398
     4.1406   4.4562

          k = 0.0000-0.2332 0.0000 ( 37126 PWs)   bands (ev):

   -71.4185 -71.2255 -71.0611 -70.9683 -70.8940 -70.6036 -42.8725 -42.7409
   -42.7046 -42.7001 -42.5957 -42.5655 -42.5158 -42.4894 -42.4014 -42.3595
   -42.2799 -42.1669 -42.1336 -42.0274 -42.0204 -42.0102 -41.9031 -41.7845
   -18.9419 -18.8449 -18.7260 -18.4553 -18.3962 -18.2270 -18.0580 -17.5897
   -17.5871 -17.4173 -17.4038 -17.1368 -16.7129  -6.1882  -5.9842  -5.9424
    -5.7985  -5.6667  -5.4131  -5.0709  -4.7452  -4.7262  -4.5900  -4.5606
    -4.5360  -4.5093  -4.4668  -4.4285  -4.1195  -4.1002  -4.0594  -4.0473
    -3.8354  -3.7086  -3.1000  -2.9913  -2.8565  -2.7215  -2.6623  -2.5030
    -2.2529  -2.2270  -2.0477  -2.0235  -1.9799  -1.7825  -1.7023  -1.4834
    -1.3454  -1.0881  -1.0674  -0.9641   1.3771   1.6541   1.6795   1.7757
     1.8049   1.8213   1.8245   1.8471   1.9334   1.9513   2.0282   2.0482
     2.0861   2.1034   2.1985   2.3792   2.6742   2.7316   3.0028   3.9026
     4.1758   4.5354

          k = 0.1111 0.0000 0.0000 ( 37175 PWs)   bands (ev):

   -71.4168 -71.2238 -71.0595 -70.9667 -70.8923 -70.6019 -42.8727 -42.7403
   -42.7021 -42.6974 -42.6174 -42.5660 -42.5124 -42.4874 -42.3956 -42.3813
   -42.2758 -42.1656 -42.1273 -42.0494 -42.0424 -42.0313 -41.8975 -41.8079
   -19.2171 -18.9380 -18.6705 -18.2614 -18.1580 -17.8649 -17.7666 -17.6728
   -17.5547 -17.4835 -17.4527 -17.1659 -16.7461  -6.6107  -6.5096  -6.4223
    -5.9499  -5.5910  -5.4335  -5.2489  -5.1370  -5.1296  -4.9368  -4.8668
    -4.7520  -4.4662  -4.4578  -4.4231  -3.6571  -3.5378  -3.4210  -3.2472
    -3.2063  -3.0560  -3.0277  -2.9996  -2.9203  -2.7821  -2.6502  -2.4535
    -2.3041  -2.2175  -2.0862  -1.9956  -1.8839  -1.8137  -1.5885  -1.5070
    -1.3072  -1.2042  -1.0609  -0.7271   1.1786   1.3649   1.4362   1.4788
     1.5349   1.5748   1.6052   1.6172   1.8058   1.8522   1.9368   1.9760
     2.0661   2.1330   2.3078   2.5725   2.6474   2.7939   3.0620   3.3806
     3.9764   4.4021

          k = 0.1111 0.1166 0.0000 ( 37124 PWs)   bands (ev):

   -71.4168 -71.2238 -71.0595 -70.9667 -70.8923 -70.6019 -42.8718 -42.7399
   -42.7016 -42.6979 -42.6174 -42.5651 -42.5124 -42.4874 -42.3965 -42.3813
   -42.2758 -42.1656 -42.1285 -42.0489 -42.0423 -42.0317 -41.8981 -41.8079
   -19.1021 -18.8296 -18.5810 -18.4054 -18.2073 -18.0115 -17.8706 -17.6308
   -17.5946 -17.4514 -17.4379 -17.1642 -16.7375  -6.3255  -6.2292  -6.1305
    -5.9343  -5.5927  -5.3617  -5.2162  -5.1421  -5.0029  -4.8875  -4.8263
    -4.6604  -4.4749  -4.4202  -4.3302  -3.7991  -3.6782  -3.6277  -3.5310
    -3.3896  -3.2850  -3.1152  -3.0969  -3.0525  -2.9319  -2.7791  -2.5432
    -2.3769  -2.3184  -2.1335  -2.0962  -1.9967  -1.9082  -1.5538  -1.4834
    -1.3744  -1.1896  -1.0850  -0.8060   1.3652   1.4660   1.5652   1.6368
     1.7030   1.7091   1.7721   1.8579   1.9096   1.9449   1.9495   2.0616
     2.1285   2.1603   2.3719   2.4291   2.6315   2.7706   2.9500   3.5982
     4.1304   4.4009

          k = 0.1111-0.2332 0.0000 ( 37144 PWs)   bands (ev):

   -71.4168 -71.2238 -71.0595 -70.9667 -70.8923 -70.6019 -42.8710 -42.7394
   -42.7010 -42.6985 -42.6174 -42.5641 -42.5124 -42.4874 -42.3974 -42.3813
   -42.2758 -42.1656 -42.1296 -42.0484 -42.0423 -42.0321 -41.8987 -41.8078
   -18.8466 -18.7514 -18.6396 -18.3823 -18.3280 -18.1649 -18.0089 -17.6152
   -17.6081 -17.4339 -17.4211 -17.1651 -16.7299  -6.0785  -5.8412  -5.8329
    -5.6733  -5.5898  -5.3959  -5.1786  -4.9613  -4.9298  -4.8176  -4.8022
    -4.5468  -4.4500  -4.3154  -4.2646  -4.0706  -3.9185  -3.8418  -3.7961
    -3.7143  -3.6105  -3.4202  -3.3458  -3.1817  -3.0567  -2.8183  -2.6854
    -2.4876  -2.3713  -2.2064  -2.1390  -1.8994  -1.8075  -1.6239  -1.4375
    -1.3062  -1.1347  -1.0945  -0.9575   1.4742   1.5883   1.6164   1.7027
     1.7872   1.8016   1.9161   1.9569   2.0194   2.1157   2.1491   2.1527
     2.2555   2.2624   2.2976   2.3898   2.6127   2.6555   3.0225   3.9176
     4.0973   4.1926

          k = 0.2222 0.0000 0.0000 ( 37192 PWs)   bands (ev):

   -71.4126 -71.2196 -71.0553 -70.9626 -70.8881 -70.5974 -42.8682 -42.7361
   -42.6957 -42.6925 -42.6700 -42.5614 -42.5045 -42.4820 -42.4356 -42.3861
   -42.2656 -42.1627 -42.1176 -42.1021 -42.0976 -42.0870 -41.8868 -41.8667
   -18.9159 -18.6688 -18.4391 -18.0843 -18.0153 -17.7564 -17.7408 -17.6629
   -17.6181 -17.5189 -17.5045 -17.2373 -16.7699  -6.2655  -6.2156  -6.1612
    -5.7781  -5.5293  -5.4891  -5.4379  -5.3746  -5.2774  -5.0947  -4.8630
    -4.7600  -4.4424  -4.2956  -4.1442  -4.0818  -3.8294  -3.7295  -3.5279
    -3.3789  -3.2730  -3.2618  -2.9711  -2.8671  -2.8465  -2.6857  -2.6700
    -2.5318  -2.3524  -2.2361  -2.1898  -2.0981  -2.0002  -1.9106  -1.6264
    -1.4875  -1.4209  -1.1345  -0.9943   1.1247   1.3813   1.7031   1.7629
     1.8073   1.8501   1.8737   1.9080   2.0098   2.0533   2.0990   2.1384
     2.1404   2.2291   2.3328   2.3564   2.5756   2.8259   2.8270   3.5833
     3.8806   4.1856

          k = 0.2222 0.1166 0.0000 ( 37137 PWs)   bands (ev):

   -71.4126 -71.2196 -71.0553 -70.9626 -70.8881 -70.5974 -42.8677 -42.7359
   -42.6953 -42.6929 -42.6701 -42.5610 -42.5045 -42.4820 -42.4356 -42.3867
   -42.2656 -42.1627 -42.1196 -42.1006 -42.0974 -42.0871 -41.8871 -41.8666
   -18.8160 -18.5763 -18.3592 -18.2202 -18.0567 -17.8906 -17.7749 -17.6776
   -17.6507 -17.4882 -17.4766 -17.2361 -16.7647  -6.0070  -5.9356  -5.8818
    -5.7383  -5.5077  -5.4186  -5.3953  -5.3035  -5.2393  -5.0509  -5.0072
    -4.4875  -4.4163  -4.3045  -4.2792  -4.0836  -3.9546  -3.8894  -3.6533
    -3.5916  -3.3970  -3.2630  -3.1697  -3.1234  -3.0686  -2.9420  -2.8695
    -2.7622  -2.5042  -2.1953  -2.0802  -2.0462  -1.8558  -1.7722  -1.5972
    -1.4501  -1.3420  -1.2024  -0.9915   1.1830   1.4574   1.6501   1.7412
     1.8122   1.8415   1.9126   2.0285   2.0988   2.1601   2.1737   2.2447
     2.3293   2.3314   2.3383   2.4084   2.5220   2.7129   2.9313   3.6950
     3.8465   4.0377

          k = 0.2222-0.2332 0.0000 ( 37166 PWs)   bands (ev):

   -71.4126 -71.2196 -71.0553 -70.9626 -70.8881 -70.5974 -42.8673 -42.7357
   -42.6946 -42.6936 -42.6701 -42.5606 -42.5045 -42.4820 -42.4356 -42.3872
   -42.2656 -42.1627 -42.1214 -42.0994 -42.0970 -42.0872 -41.8875 -41.8664
   -18.5941 -18.5074 -18.4140 -18.2092 -18.1576 -18.0215 -17.8843 -17.6809
   -17.6512 -17.4717 -17.4540 -17.2371 -16.7600  -5.8704  -5.6266  -5.5953
    -5.4634  -5.3660  -5.3502  -5.3098  -5.1276  -5.0922  -5.0026  -4.9691
    -4.5180  -4.4347  -4.4257  -4.3472  -4.2847  -4.2674  -3.9195  -3.8880
    -3.7334  -3.6635  -3.5643  -3.3029  -3.2699  -3.2069  -3.0631  -3.0018
    -2.9381  -2.5804  -2.1941  -2.1744  -1.8498  -1.7442  -1.5881  -1.5255
    -1.4168  -1.3454  -1.2380  -0.9865   1.3300   1.4194   1.5561   1.7350
     1.7573   1.8010   1.9855   2.0245   2.1196   2.2820   2.3331   2.3439
     2.4247   2.4707   2.5013   2.5619   2.5971   2.6422   3.0144   3.6061
     3.7023   3.7601

          k = 0.3333 0.0000 0.0000 ( 37184 PWs)   bands (ev):

   -71.4077 -71.2148 -71.0505 -70.9579 -70.8832 -70.5923 -42.8631 -42.7362
   -42.7312 -42.6903 -42.6781 -42.5563 -42.5050 -42.4890 -42.4742 -42.3754
   -42.2540 -42.1696 -42.1602 -42.1517 -42.1492 -42.1066 -41.9330 -41.8746
   -18.5123 -18.3216 -18.1584 -17.9103 -17.8650 -17.8201 -17.7386 -17.6908
   -17.5948 -17.5463 -17.4867 -17.3094 -16.7612  -6.2200  -5.9510  -5.8380
    -5.7297  -5.6448  -5.5520  -5.4777  -5.4030  -5.2533  -5.0674  -4.9654
    -4.8080  -4.6342  -4.4441  -4.2727  -4.1769  -4.1677  -3.9962  -3.7388
    -3.5700  -3.5564  -3.3433  -3.1469  -3.1070  -2.9348  -2.8668  -2.7155
    -2.7048  -2.3889  -2.3310  -2.1431  -2.1147  -1.8367  -1.7700  -1.7300
    -1.6042  -1.5053  -1.3691  -1.2822   1.2031   1.2594   1.6423   1.8728
     1.9178   1.9844   2.0278   2.0654   2.1421   2.1814   2.2040   2.2143
     2.3190   2.3273   2.4639   2.4953   2.5678   2.5916   2.8364   3.4442
     3.8270   4.1093

          k = 0.3333 0.1166 0.0000 ( 37206 PWs)   bands (ev):

   -71.4077 -71.2148 -71.0505 -70.9578 -70.8832 -70.5923 -42.8631 -42.7363
   -42.7313 -42.6902 -42.6782 -42.5565 -42.5050 -42.4891 -42.4742 -42.3755
   -42.2540 -42.1699 -42.1599 -42.1514 -42.1493 -42.1061 -41.9327 -41.8747
   -18.4417 -18.2594 -18.1067 -18.0275 -17.9098 -17.8189 -17.7743 -17.6896
   -17.6624 -17.5162 -17.4683 -17.3116 -16.7604  -6.2011  -5.7148  -5.6346
    -5.6082  -5.5636  -5.5118  -5.4286  -5.3495  -5.2916  -5.1657  -4.9815
    -4.7548  -4.6715  -4.5153  -4.3572  -4.2648  -4.1508  -3.9872  -3.7593
    -3.6751  -3.4774  -3.4098  -3.2479  -3.2059  -3.0660  -2.9003  -2.8230
    -2.5540  -2.5360  -2.2936  -2.2016  -2.0546  -1.9568  -1.8404  -1.7302
    -1.5025  -1.4525  -1.3636  -1.2549   1.1148   1.2155   1.4435   1.6850
     1.7050   1.9393   2.0150   2.0674   2.1635   2.2178   2.3109   2.3768
     2.4541   2.4973   2.5111   2.5211   2.6037   2.6884   2.9152   3.4531
     3.6454   3.7361

          k = 0.3333-0.2332 0.0000 ( 37216 PWs)   bands (ev):

   -71.4077 -71.2148 -71.0505 -70.9578 -70.8832 -70.5923 -42.8631 -42.7364
   -42.7314 -42.6902 -42.6782 -42.5567 -42.5050 -42.4891 -42.4742 -42.3757
   -42.2540 -42.1703 -42.1596 -42.1513 -42.1493 -42.1056 -41.9324 -41.8748
   -18.2804 -18.2311 -18.1412 -18.0444 -17.9778 -17.8979 -17.7769 -17.7239
   -17.6715 -17.5027 -17.4562 -17.3144 -16.7596  -6.1934  -5.5491  -5.5224
    -5.4508  -5.4257  -5.4061  -5.3672  -5.2781  -5.1524  -5.0200  -5.0020
    -4.8109  -4.7528  -4.7273  -4.4250  -4.3552  -4.1066  -4.0138  -3.9165
    -3.8550  -3.6547  -3.4041  -3.2979  -3.1773  -3.0489  -2.9894  -2.8605
    -2.7843  -2.4853  -2.2705  -2.1816  -1.9996  -1.9856  -1.8806  -1.7433
    -1.5005  -1.4089  -1.3757  -1.1363   1.0286   1.1865   1.1928   1.5242
     1.7205   1.9319   1.9796   1.9950   2.1746   2.2171   2.4228   2.4357
     2.5091   2.6034   2.6512   2.6706   2.7333   2.7569   3.0012   3.2338
     3.3718   3.4491

          k = 0.4444 0.0000 0.0000 ( 37180 PWs)   bands (ev):

   -71.4046 -71.2116 -71.0474 -70.9548 -70.8801 -70.5890 -42.8597 -42.7758
   -42.7281 -42.6873 -42.6714 -42.5529 -42.5399 -42.4890 -42.4692 -42.3683
   -42.2467 -42.2034 -42.2003 -42.1908 -42.1532 -42.0993 -41.9759 -41.8666
   -18.1455 -18.0215 -17.9607 -17.8807 -17.8727 -17.8189 -17.7637 -17.7387
   -17.6447 -17.5590 -17.4210 -17.3262 -16.7304  -6.5452  -5.8916  -5.7313
    -5.6382  -5.6273  -5.5822  -5.5040  -5.3069  -5.3049  -5.2312  -5.1256
    -4.8759  -4.7032  -4.5657  -4.4616  -4.3198  -4.1139  -3.8435  -3.5971
    -3.5712  -3.5577  -3.5510  -3.3785  -3.3225  -2.8746  -2.8022  -2.6614
    -2.4592  -2.4383  -2.3929  -2.2379  -2.2331  -2.0236  -2.0084  -1.7921
    -1.6020  -1.5866  -1.3422  -1.2767   1.3166   1.4702   1.4947   1.6707
     1.6969   1.8202   1.9863   2.0580   2.2123   2.2193   2.3482   2.3547
     2.3762   2.4413   2.5079   2.6391   2.6586   2.7532   2.8636   3.2623
     3.8524   4.2430

          k = 0.4444 0.1166 0.0000 ( 37248 PWs)   bands (ev):

   -71.4046 -71.2116 -71.0474 -70.9548 -70.8801 -70.5890 -42.8601 -42.7759
   -42.7284 -42.6873 -42.6714 -42.5535 -42.5400 -42.4890 -42.4692 -42.3682
   -42.2467 -42.2038 -42.1999 -42.1901 -42.1532 -42.0988 -41.9755 -41.8665
   -18.1322 -18.0257 -17.9713 -17.8945 -17.8694 -17.8410 -17.7936 -17.6972
   -17.6335 -17.5429 -17.4339 -17.3295 -16.7303  -6.5397  -5.9488  -5.7806
    -5.7470  -5.6550  -5.6049  -5.3894  -5.3316  -5.2690  -5.1286  -5.0243
    -4.7149  -4.6096  -4.5606  -4.2741  -4.2014  -4.0697  -3.9982  -3.8317
    -3.7252  -3.6100  -3.4828  -3.3923  -3.0935  -2.9419  -2.7765  -2.5844
    -2.4626  -2.4100  -2.3580  -2.2273  -2.2016  -2.1565  -1.9458  -1.8295
    -1.6943  -1.5833  -1.4498  -1.3113   1.1219   1.1651   1.3417   1.4019
     1.5229   1.7870   1.8383   2.0655   2.2281   2.3154   2.3805   2.4431
     2.4956   2.5902   2.6077   2.6430   2.6997   2.8341   2.9240   3.3001
     3.4619   3.5717

          k = 0.4444-0.2332 0.0000 ( 37264 PWs)   bands (ev):

   -71.4046 -71.2116 -71.0474 -70.9548 -70.8801 -70.5890 -42.8604 -42.7760
   -42.7287 -42.6873 -42.6714 -42.5542 -42.5401 -42.4890 -42.4692 -42.3681
   -42.2467 -42.2043 -42.1995 -42.1893 -42.1533 -42.0983 -41.9751 -41.8664
   -18.1143 -18.0448 -17.9477 -17.9246 -17.9009 -17.8224 -17.8146 -17.6759
   -17.6235 -17.5241 -17.4504 -17.3327 -16.7301  -6.5363  -6.0025  -5.9401
    -5.8594  -5.6415  -5.5979  -5.1692  -5.1420  -5.0723  -4.9590  -4.9416
    -4.8421  -4.8146  -4.3251  -4.3135  -4.2975  -4.1213  -3.9225  -3.9136
    -3.7358  -3.5999  -3.4100  -3.3266  -3.1954  -2.8182  -2.6557  -2.6449
    -2.5482  -2.4139  -2.3963  -2.3065  -2.1624  -2.1023  -1.9973  -1.7699
    -1.6832  -1.6688  -1.5210  -1.3531   0.8755   0.9275   1.0801   1.3191
     1.4594   1.7247   1.8354   2.0701   2.1968   2.3249   2.4167   2.4837
     2.4879   2.5266   2.5773   2.8230   2.8819   2.9053   3.0061   3.1527
     3.2966   3.3584

     the Fermi energy is     0.3024 ev

!    total energy              =   -1596.43693592 Ry
     estimated scf accuracy    <       0.00000056 Ry
     smearing contrib. (-TS)   =      -0.00024626 Ry
     internal energy E=F+TS    =   -1596.43668966 Ry

     The total energy is F=E-TS. E is the sum of the following terms:
     one-electron contribution =  -15592.60374845 Ry
     hartree contribution      =    7820.09269173 Ry
     xc contribution           =    -231.10120943 Ry
     ewald contribution        =    6530.92609983 Ry
     one-center paw contrib.   =    -123.75052333 Ry

     total magnetization       =    11.00 Bohr mag/cell
     absolute magnetization    =    13.66 Bohr mag/cell

     convergence has been achieved in  28 iterations

     negative rho (up, down):  2.079E-03 1.903E-02

     Forces acting on atoms (cartesian axes, Ry/au):

     atom    1 type  1   force =     0.00002595    0.00000000    0.10865066
     atom    2 type  1   force =     0.00021685    0.00000000   -0.09974030
     atom    3 type  1   force =     0.00046732    0.00000000    0.01065503
     atom    4 type  1   force =     0.00016260    0.00000000    0.00639342
     atom    5 type  1   force =    -0.00183000    0.00000000    0.01936736
     atom    6 type  1   force =    -0.00031777    0.00000000    0.04365727
     atom    7 type  3   force =    -0.00140798    0.00000000    0.04011406
     atom    8 type  3   force =    -0.00021215    0.00000000    0.06503402
     atom    9 type  3   force =    -0.00002322    0.01690219   -0.03710206
     atom   10 type  3   force =    -0.00002322   -0.01690219   -0.03710206
     atom   11 type  3   force =    -0.00080632    0.00000000   -0.01395381
     atom   12 type  3   force =    -0.00207823    0.00000000   -0.01274442
     atom   13 type  3   force =     0.00103153    0.00358879   -0.00167256
     atom   14 type  3   force =     0.00103153   -0.00358879   -0.00167256
     atom   15 type  3   force =     0.00098117    0.00000000   -0.05069216
     atom   16 type  3   force =     0.00138124    0.00000000   -0.00907635
     atom   17 type  3   force =    -0.00045030    0.00791206   -0.00074407
     atom   18 type  3   force =    -0.00045030   -0.00791206   -0.00074407
     atom   19 type  3   force =     0.00246605    0.00000000   -0.02971067
     atom   20 type  2   force =    -0.00016474    0.00000000    0.00108326

     Total force =     0.079622     Total SCF correction =     0.001136

     Writing all to output data dir ./tmp_s0_OH__u0.0/s0_OH__u0.0.save/ :
     XML data file, charge density, pseudopotentials, collected wavefunctions

     init_run     :     58.22s CPU     63.39s WALL (       1 calls)
     electrons    :   3107.06s CPU   3192.88s WALL (       1 calls)
     forces       :     16.62s CPU     17.86s WALL (       1 calls)

     Called by init_run:
     wfcinit      :     43.97s CPU     47.12s WALL (       1 calls)
     potinit      :      5.18s CPU      6.06s WALL (       1 calls)
     hinit0       :      4.16s CPU      4.47s WALL (       1 calls)

     Called by electrons:
     c_bands      :   2264.63s CPU   2312.81s WALL (      28 calls)
     sum_band     :    538.38s CPU    555.85s WALL (      28 calls)
     v_of_rho     :     77.97s CPU     84.59s WALL (      29 calls)
     newd         :     43.07s CPU     54.54s WALL (      29 calls)
     PAW_pot      :     24.18s CPU     24.29s WALL (      29 calls)
     mix_rho      :    156.78s CPU    159.51s WALL (      28 calls)

     Called by c_bands:
     init_us_2    :     38.26s CPU     38.58s WALL (     464 calls)
     cegterg      :   1877.30s CPU   1923.36s WALL (     224 calls)

     Called by *egterg:
     cdiaghg      :     10.50s CPU     10.57s WALL (     800 calls)
     h_psi        :   1479.25s CPU   1504.69s WALL (     808 calls)
     s_psi        :     94.02s CPU     94.57s WALL (     808 calls)
     g_psi        :     11.92s CPU     11.97s WALL (     576 calls)

     Called by h_psi:
     h_psi:calbec :    100.90s CPU    101.63s WALL (     808 calls)
     vloc_psi     :   1273.60s CPU   1284.00s WALL (     808 calls)
                                        0.00s GPU  (     808 calls)
     add_vuspsi   :     95.57s CPU     96.14s WALL (     808 calls)

     General routines
     calbec       :    151.11s CPU    152.02s WALL (    1064 calls)
     fft          :     28.48s CPU     28.71s WALL (     738 calls)
     ffts         :     53.92s CPU     54.25s WALL (    3435 calls)
     fftw         :   1228.15s CPU   1236.84s WALL (  115038 calls)
     interpolate  :      5.08s CPU      5.15s WALL (      58 calls)

     Parallel routines

     PWSCF        :  53m 2.55s CPU  54m35.12s WALL


   This run was terminated on:  10:54:58   7Aug2026            

=------------------------------------------------------------------------------=
   JOB DONE.
=------------------------------------------------------------------------------=
