
     Program PWSCF v.7.5 starts on  7Aug2026 at 10: 8:45 

     This program is part of the open-source Quantum ESPRESSO suite
     for quantum simulation of materials; please cite
         "P. Giannozzi et al., J. Phys.:Condens. Matter 21 395502 (2009);
         "P. Giannozzi et al., J. Phys.:Condens. Matter 29 465901 (2017);
         "P. Giannozzi et al., J. Chem. Phys. 152 154105 (2020);
          URL http://www.quantum-espresso.org", 
     in publications or presentations arising from this work. More details at
     http://www.quantum-espresso.org/quote

     Parallel version (MPI & OpenMP), running on       4 processor cores
     Number of MPI processes:                 4
     Threads/MPI process:                     1

     MPI processes distributed on     1 nodes
     24525 MiB available memory on the printing compute node when the environment starts

     Reading input from s0_OH__u0.5.run.in

     Current dimensions of program PWSCF are:
     Max number of different atomic species (ntypx) = 10
     Max number of k-points (npk) =  40000
     Max angular momentum in pseudopotentials (lmaxx) =  4
     file O.pbe-n-kjpaw_psl.0.1.UPF: wavefunction(s)  2P renormalized
     Message from routine setup:
     using ibrav=0 with symmetry is DISCOURAGED, use correct ibrav instead

     K-points division:     npool     =       4
     Subspace diagonalization in iterative solution of the eigenvalue problem:
     a serial algorithm will be used


     G-vector sticks info
     --------------------
     sticks:   dense  smooth     PW     G-vecs:    dense   smooth      PW
     Sum        3323    1653    471               841263   297421   44917

     Using Slab Decomposition



     bravais-lattice index     =            0
     lattice parameter (alat)  =       5.5104  a.u.
     unit-cell volume          =    3076.9124 (a.u.)^3
     number of atoms/cell      =           20
     number of atomic types    =            3
     number of electrons       =       163.00
     number of Kohn-Sham states=           98
     kinetic-energy cutoff     =      80.0000  Ry
     charge density cutoff     =     640.0000  Ry
     scf convergence threshold =      1.0E-06
     mixing beta               =       0.3000
     number of iterations used =            8  local-TF  mixing
     Exchange-correlation= SLA  PW   PBX  PBC
                           (   1   4   3   4   0   0   0)
     Hubbard projectors: atomic
     Hubbard parameters of DFT+U (Dudarev formulation) in eV:
     U(Cr-3d) =  1.8500

     Internal variables: lda_plus_u =T, lda_plus_u_kind = 0

     Internal variables: orbital_resolved =F, hub_pot_fix =F, apply_U = F

     celldm(1)=   5.510441  celldm(2)=   0.000000  celldm(3)=   0.000000
     celldm(4)=   0.000000  celldm(5)=   0.000000  celldm(6)=   0.000000

     crystal axes: (cart. coord. in units of alat)
               a(1) = (   1.000000   0.000000   0.000000 )  
               a(2) = (   0.000000   2.144115   0.000000 )  
               a(3) = (   0.000000   0.000000   8.576458 )  

     reciprocal axes: (cart. coord. in units 2 pi/alat)
               b(1) = (  1.000000  0.000000  0.000000 )  
               b(2) = (  0.000000  0.466393  0.000000 )  
               b(3) = (  0.000000  0.000000  0.116598 )  


     PseudoPot. # 1 for Cr read from file:
     /usr/share/espresso/pseudo/cr_pbe_v1.5.uspp.F.UPF
     MD5 check sum: 0d52af634a40206e4dee301ad30da4bf
     Pseudo is Ultrasoft + core correction, Zval = 14.0
     Generated by new atomic code, or converted to UPF format
     Using radial grid of  857 points,  6 beta functions with: 
                l(1) =   0
                l(2) =   0
                l(3) =   1
                l(4) =   1
                l(5) =   2
                l(6) =   2
     Q(r) pseudized with  8 coefficients,  rinner =    0.950   0.950   0.950
                                                       0.950   0.950

     PseudoPot. # 2 for H  read from file:
     /usr/share/espresso/pseudo/H.pbe-rrkjus_psl.1.0.0.UPF
     MD5 check sum: f52b6d4d1c606e5624b1dc7b2218f220
     Pseudo is Ultrasoft, Zval =  1.0
     Generated using "atomic" code by A. Dal Corso  v.5.1
     Using radial grid of  929 points,  2 beta functions with: 
                l(1) =   0
                l(2) =   0
     Q(r) pseudized with 0 coefficients 


     PseudoPot. # 3 for O  read from file:
     /usr/share/espresso/pseudo/O.pbe-n-kjpaw_psl.0.1.UPF
     MD5 check sum: 0234752ac141de4415c5fc33072bef88
     Pseudo is Projector augmented-wave + core cor, Zval =  6.0
     Generated using "atomic" code by A. Dal Corso  v.5.0.99 svn rev. 10869
     Shape of augmentation charge: BESSEL
     Using radial grid of 1095 points,  4 beta functions with: 
                l(1) =   0
                l(2) =   0
                l(3) =   1
                l(4) =   1
     Q(r) pseudized with 0 coefficients 


     atomic species   valence    mass     pseudopotential
     Cr               14.00    51.99600     Cr( 1.00)
     H                 1.00     1.00800     H ( 1.00)
     O                 6.00    15.99900     O ( 1.00)

     Starting magnetic structure 
     atomic species   magnetization
     Cr              0.600
     H               0.000
     O               0.000

      2 Sym. Ops. (no inversion) found ( 1 have fractional translation)



   Cartesian axes

     site n.     atom                  positions (alat units)
         1        Cr     tau(   1) = (   0.0000000   0.5360286   3.2161719  )
         2        Cr     tau(   2) = (   0.5000000   1.6080859   3.2161719  )
         3        Cr     tau(   3) = (  -0.0045866   1.6080859   4.3058521  )
         4        Cr     tau(   4) = (   0.4986853   0.5360286   4.3030576  )
         5        Cr     tau(   5) = (  -0.0014913   0.5360286   5.4105325  )
         6        Cr     tau(   6) = (   0.4918552   1.6080859   5.4140377  )
         7        O      tau(   7) = (   0.0000000   1.6080859   3.6342742  )
         8        O      tau(   8) = (   0.0000000   1.6080859   2.7980695  )
         9        O      tau(   9) = (   0.5000000   0.1179263   3.2161719  )
        10        O      tau(  10) = (   0.5000000   0.9541310   3.2161719  )
        11        O      tau(  11) = (  -0.0020806   0.5360286   4.7322491  )
        12        O      tau(  12) = (   0.0000000   0.5360286   3.8701268  )
        13        O      tau(  13) = (   0.4959276   1.1851994   4.2991401  )
        14        O      tau(  14) = (   0.4959276   2.0309725   4.2991401  )
        15        O      tau(  15) = (  -0.0067460   1.6080859   5.8016285  )
        16        O      tau(  16) = (  -0.0070311   1.6080859   4.9574288  )
        17        O      tau(  17) = (   0.4950777   0.1142789   5.3927666  )
        18        O      tau(  18) = (   0.4950777   0.9577784   5.3927666  )
        19        O      tau(  19) = (  -0.0210039   0.5360286   6.0465650  )
        20        H      tau(  20) = (   0.2916328   0.5360286   6.1748138  )

     number of k points=    15  Marzari-Vanderbilt smearing, width (Ry)=  0.0100
                       cart. coord. in units 2pi/alat
        k(    1) = (   0.0000000   0.0000000   0.0000000), wk =   0.0277778
        k(    2) = (   0.0000000   0.1165982   0.0000000), wk =   0.0555556
        k(    3) = (   0.0000000  -0.2331965   0.0000000), wk =   0.0277778
        k(    4) = (   0.1111111   0.0000000   0.0000000), wk =   0.0555556
        k(    5) = (   0.1111111   0.1165982   0.0000000), wk =   0.1111111
        k(    6) = (   0.1111111  -0.2331965   0.0000000), wk =   0.0555556
        k(    7) = (   0.2222222   0.0000000   0.0000000), wk =   0.0555556
        k(    8) = (   0.2222222   0.1165982   0.0000000), wk =   0.1111111
        k(    9) = (   0.2222222  -0.2331965   0.0000000), wk =   0.0555556
        k(   10) = (   0.3333333   0.0000000   0.0000000), wk =   0.0555556
        k(   11) = (   0.3333333   0.1165982   0.0000000), wk =   0.1111111
        k(   12) = (   0.3333333  -0.2331965   0.0000000), wk =   0.0555556
        k(   13) = (   0.4444444   0.0000000   0.0000000), wk =   0.0555556
        k(   14) = (   0.4444444   0.1165982   0.0000000), wk =   0.1111111
        k(   15) = (   0.4444444  -0.2331965   0.0000000), wk =   0.0555556

     Dense  grid:   841263 G-vectors     FFT dimensions: (  45,  96, 384)

     Smooth grid:   297421 G-vectors     FFT dimensions: (  32,  72, 270)

     Estimated max dynamical RAM per process >       2.29 GB

     Estimated total dynamical RAM >       7.94 GB

     Check: negative core charge=   -0.000001
     Generating pointlists ...
     new r_m :   0.2605 (alat units)  1.4355 (a.u.) for type    1
     new r_m :   0.1394 (alat units)  0.7681 (a.u.) for type    2
     new r_m :   0.1394 (alat units)  0.7681 (a.u.) for type    3

     Initial potential from superposition of free atoms

     starting charge     156.9999, renormalised to     163.0000

     negative rho (up, down):  4.260E-03 1.042E-03

     STARTING HUBBARD OCCUPATIONS:

     =================== HUBBARD OCCUPATIONS ===================
     ------------------------ ATOM    1 ------------------------
     Tr[ns(  1)] (up, down, total) =   3.40000  0.00000  3.40000
     Atomic magnetic moment for atom   1 =   3.40000
     SPIN  1
     eigenvalues:
       0.680  0.680  0.680  0.680  0.680
     eigenvectors (columns):
       1.000  0.000  0.000  0.000  0.000
       0.000  1.000  0.000  0.000  0.000
       0.000  0.000  1.000  0.000  0.000
       0.000  0.000  0.000  1.000  0.000
       0.000  0.000  0.000  0.000  1.000
     occupation matrix ns (before diag.):
       0.680  0.000  0.000  0.000  0.000
       0.000  0.680  0.000  0.000  0.000
       0.000  0.000  0.680  0.000  0.000
       0.000  0.000  0.000  0.680  0.000
       0.000  0.000  0.000  0.000  0.680
     SPIN  2
     eigenvalues:
       0.000  0.000  0.000  0.000  0.000
     eigenvectors (columns):
       1.000  0.000  0.000  0.000  0.000
       0.000  1.000  0.000  0.000  0.000
       0.000  0.000  1.000  0.000  0.000
       0.000  0.000  0.000  1.000  0.000
       0.000  0.000  0.000  0.000  1.000
     occupation matrix ns (before diag.):
       0.000  0.000  0.000  0.000  0.000
       0.000  0.000  0.000  0.000  0.000
       0.000  0.000  0.000  0.000  0.000
       0.000  0.000  0.000  0.000  0.000
       0.000  0.000  0.000  0.000  0.000
     ------------------------ ATOM    2 ------------------------
     Tr[ns(  2)] (up, down, total) =   3.40000  0.00000  3.40000
     Atomic magnetic moment for atom   2 =   3.40000
     SPIN  1
     eigenvalues:
       0.680  0.680  0.680  0.680  0.680
     eigenvectors (columns):
       1.000  0.000  0.000  0.000  0.000
       0.000  1.000  0.000  0.000  0.000
       0.000  0.000  1.000  0.000  0.000
       0.000  0.000  0.000  1.000  0.000
       0.000  0.000  0.000  0.000  1.000
     occupation matrix ns (before diag.):
       0.680  0.000  0.000  0.000  0.000
       0.000  0.680  0.000  0.000  0.000
       0.000  0.000  0.680  0.000  0.000
       0.000  0.000  0.000  0.680  0.000
       0.000  0.000  0.000  0.000  0.680
     SPIN  2
     eigenvalues:
       0.000  0.000  0.000  0.000  0.000
     eigenvectors (columns):
       1.000  0.000  0.000  0.000  0.000
       0.000  1.000  0.000  0.000  0.000
       0.000  0.000  1.000  0.000  0.000
       0.000  0.000  0.000  1.000  0.000
       0.000  0.000  0.000  0.000  1.000
     occupation matrix ns (before diag.):
       0.000  0.000  0.000  0.000  0.000
       0.000  0.000  0.000  0.000  0.000
       0.000  0.000  0.000  0.000  0.000
       0.000  0.000  0.000  0.000  0.000
       0.000  0.000  0.000  0.000  0.000
     ------------------------ ATOM    3 ------------------------
     Tr[ns(  3)] (up, down, total) =   3.40000  0.00000  3.40000
     Atomic magnetic moment for atom   3 =   3.40000
     SPIN  1
     eigenvalues:
       0.680  0.680  0.680  0.680  0.680
     eigenvectors (columns):
       1.000  0.000  0.000  0.000  0.000
       0.000  1.000  0.000  0.000  0.000
       0.000  0.000  1.000  0.000  0.000
       0.000  0.000  0.000  1.000  0.000
       0.000  0.000  0.000  0.000  1.000
     occupation matrix ns (before diag.):
       0.680  0.000  0.000  0.000  0.000
       0.000  0.680  0.000  0.000  0.000
       0.000  0.000  0.680  0.000  0.000
       0.000  0.000  0.000  0.680  0.000
       0.000  0.000  0.000  0.000  0.680
     SPIN  2
     eigenvalues:
       0.000  0.000  0.000  0.000  0.000
     eigenvectors (columns):
       1.000  0.000  0.000  0.000  0.000
       0.000  1.000  0.000  0.000  0.000
       0.000  0.000  1.000  0.000  0.000
       0.000  0.000  0.000  1.000  0.000
       0.000  0.000  0.000  0.000  1.000
     occupation matrix ns (before diag.):
       0.000  0.000  0.000  0.000  0.000
       0.000  0.000  0.000  0.000  0.000
       0.000  0.000  0.000  0.000  0.000
       0.000  0.000  0.000  0.000  0.000
       0.000  0.000  0.000  0.000  0.000
     ------------------------ ATOM    4 ------------------------
     Tr[ns(  4)] (up, down, total) =   3.40000  0.00000  3.40000
     Atomic magnetic moment for atom   4 =   3.40000
     SPIN  1
     eigenvalues:
       0.680  0.680  0.680  0.680  0.680
     eigenvectors (columns):
       1.000  0.000  0.000  0.000  0.000
       0.000  1.000  0.000  0.000  0.000
       0.000  0.000  1.000  0.000  0.000
       0.000  0.000  0.000  1.000  0.000
       0.000  0.000  0.000  0.000  1.000
     occupation matrix ns (before diag.):
       0.680  0.000  0.000  0.000  0.000
       0.000  0.680  0.000  0.000  0.000
       0.000  0.000  0.680  0.000  0.000
       0.000  0.000  0.000  0.680  0.000
       0.000  0.000  0.000  0.000  0.680
     SPIN  2
     eigenvalues:
       0.000  0.000  0.000  0.000  0.000
     eigenvectors (columns):
       1.000  0.000  0.000  0.000  0.000
       0.000  1.000  0.000  0.000  0.000
       0.000  0.000  1.000  0.000  0.000
       0.000  0.000  0.000  1.000  0.000
       0.000  0.000  0.000  0.000  1.000
     occupation matrix ns (before diag.):
       0.000  0.000  0.000  0.000  0.000
       0.000  0.000  0.000  0.000  0.000
       0.000  0.000  0.000  0.000  0.000
       0.000  0.000  0.000  0.000  0.000
       0.000  0.000  0.000  0.000  0.000
     ------------------------ ATOM    5 ------------------------
     Tr[ns(  5)] (up, down, total) =   3.40000  0.00000  3.40000
     Atomic magnetic moment for atom   5 =   3.40000
     SPIN  1
     eigenvalues:
       0.680  0.680  0.680  0.680  0.680
     eigenvectors (columns):
       1.000  0.000  0.000  0.000  0.000
       0.000  1.000  0.000  0.000  0.000
       0.000  0.000  1.000  0.000  0.000
       0.000  0.000  0.000  1.000  0.000
       0.000  0.000  0.000  0.000  1.000
     occupation matrix ns (before diag.):
       0.680  0.000  0.000  0.000  0.000
       0.000  0.680  0.000  0.000  0.000
       0.000  0.000  0.680  0.000  0.000
       0.000  0.000  0.000  0.680  0.000
       0.000  0.000  0.000  0.000  0.680
     SPIN  2
     eigenvalues:
       0.000  0.000  0.000  0.000  0.000
     eigenvectors (columns):
       1.000  0.000  0.000  0.000  0.000
       0.000  1.000  0.000  0.000  0.000
       0.000  0.000  1.000  0.000  0.000
       0.000  0.000  0.000  1.000  0.000
       0.000  0.000  0.000  0.000  1.000
     occupation matrix ns (before diag.):
       0.000  0.000  0.000  0.000  0.000
       0.000  0.000  0.000  0.000  0.000
       0.000  0.000  0.000  0.000  0.000
       0.000  0.000  0.000  0.000  0.000
       0.000  0.000  0.000  0.000  0.000
     ------------------------ ATOM    6 ------------------------
     Tr[ns(  6)] (up, down, total) =   3.40000  0.00000  3.40000
     Atomic magnetic moment for atom   6 =   3.40000
     SPIN  1
     eigenvalues:
       0.680  0.680  0.680  0.680  0.680
     eigenvectors (columns):
       1.000  0.000  0.000  0.000  0.000
       0.000  1.000  0.000  0.000  0.000
       0.000  0.000  1.000  0.000  0.000
       0.000  0.000  0.000  1.000  0.000
       0.000  0.000  0.000  0.000  1.000
     occupation matrix ns (before diag.):
       0.680  0.000  0.000  0.000  0.000
       0.000  0.680  0.000  0.000  0.000
       0.000  0.000  0.680  0.000  0.000
       0.000  0.000  0.000  0.680  0.000
       0.000  0.000  0.000  0.000  0.680
     SPIN  2
     eigenvalues:
       0.000  0.000  0.000  0.000  0.000
     eigenvectors (columns):
       1.000  0.000  0.000  0.000  0.000
       0.000  1.000  0.000  0.000  0.000
       0.000  0.000  1.000  0.000  0.000
       0.000  0.000  0.000  1.000  0.000
       0.000  0.000  0.000  0.000  1.000
     occupation matrix ns (before diag.):
       0.000  0.000  0.000  0.000  0.000
       0.000  0.000  0.000  0.000  0.000
       0.000  0.000  0.000  0.000  0.000
       0.000  0.000  0.000  0.000  0.000
       0.000  0.000  0.000  0.000  0.000

     Number of occupied Hubbard levels =   20.4000

     Atomic wfc used for Hubbard projectors are NOT orthogonalized

     Starting wfcs are  113 randomized atomic wfcs
     Checking if some PAW data can be deallocated... 

     total cpu time spent up to now is       58.3 secs

     per-process dynamical memory:  1263.5 Mb

     Self-consistent Calculation

     iteration #  1     ecut=    80.00 Ry     beta= 0.30
     Davidson diagonalization with overlap
     ethr =  1.00E-02,  avg # of iterations =  4.3

     =================== HUBBARD OCCUPATIONS ===================
     ------------------------ ATOM    1 ------------------------
     Tr[ns(  1)] (up, down, total) =   4.70080  0.53302  5.23382
     Atomic magnetic moment for atom   1 =   4.16778
     SPIN  1
     eigenvalues:
       0.784  0.948  0.983  0.990  0.996
     eigenvectors (columns):
      -0.000  0.920 -0.391  0.002 -0.000
      -0.000  0.002 -0.003 -1.000 -0.000
      -0.000  0.000  0.000 -0.000  1.000
       0.000 -0.391 -0.920  0.002  0.000
       1.000  0.000  0.000 -0.000  0.000
     occupation matrix ns (before diag.):
       0.954 -0.000 -0.000  0.013  0.000
      -0.000  0.990 -0.000  0.000  0.000
      -0.000 -0.000  0.996  0.000  0.000
       0.013  0.000  0.000  0.978 -0.000
       0.000  0.000  0.000 -0.000  0.784
     SPIN  2
     eigenvalues:
       0.054  0.066  0.068  0.141  0.203
     eigenvectors (columns):
       0.000 -0.001  0.219 -0.976  0.000
       0.000  1.000  0.004 -0.001  0.000
       1.000 -0.000  0.000  0.000 -0.000
      -0.000 -0.004  0.976  0.219 -0.000
       0.000 -0.000  0.000  0.000  1.000
     occupation matrix ns (before diag.):
       0.138  0.000 -0.000 -0.016  0.000
       0.000  0.066 -0.000 -0.000  0.000
      -0.000 -0.000  0.054  0.000 -0.000
      -0.016 -0.000  0.000  0.072 -0.000
       0.000  0.000 -0.000 -0.000  0.203
     ------------------------ ATOM    2 ------------------------
     Tr[ns(  2)] (up, down, total) =   3.91278  0.64283  4.55561
     Atomic magnetic moment for atom   2 =   3.26996
     SPIN  1
     eigenvalues:
       0.437  0.525  0.978  0.978  0.995
     eigenvectors (columns):
      -0.001  0.428  0.904  0.000  0.000
      -1.000  0.000 -0.001 -0.000  0.000
      -0.000 -0.000  0.000  0.001 -1.000
       0.000  0.904 -0.428 -0.000 -0.000
       0.000  0.000 -0.000  1.000  0.001
     occupation matrix ns (before diag.):
       0.895 -0.000 -0.000 -0.175  0.000
      -0.000  0.437 -0.000  0.000  0.000
      -0.000 -0.000  0.995  0.000 -0.000
      -0.175  0.000  0.000  0.608 -0.000
       0.000  0.000 -0.000 -0.000  0.978
     SPIN  2
     eigenvalues:
       0.069  0.078  0.082  0.203  0.211
     eigenvectors (columns):
      -0.000  0.929  0.000  0.371  0.002
      -0.000 -0.000 -0.000  0.005 -1.000
      -1.000 -0.000 -0.001  0.000  0.000
       0.000 -0.371 -0.000  0.929  0.004
      -0.001 -0.000  1.000 -0.000 -0.000
     occupation matrix ns (before diag.):
       0.095 -0.000 -0.000  0.043  0.000
      -0.000  0.211 -0.000 -0.000  0.000
      -0.000 -0.000  0.069  0.000 -0.000
       0.043 -0.000  0.000  0.186 -0.000
       0.000  0.000 -0.000 -0.000  0.082
     ------------------------ ATOM    3 ------------------------
     Tr[ns(  3)] (up, down, total) =   3.78108  0.61235  4.39343
     Atomic magnetic moment for atom   3 =   3.16873
     SPIN  1
     eigenvalues:
       0.403  0.447  0.966  0.976  0.990
     eigenvectors (columns):
      -0.000 -0.999 -0.032  0.007  0.000
      -0.000 -0.007 -0.019 -1.000  0.000
       0.000 -0.000  0.000 -0.000 -1.000
       0.000  0.032 -0.999  0.019 -0.000
       1.000 -0.000  0.000 -0.000  0.000
     occupation matrix ns (before diag.):
       0.448 -0.004 -0.000  0.017  0.000
      -0.004  0.976 -0.000 -0.000  0.000
      -0.000 -0.000  0.990  0.000 -0.000
       0.017 -0.000  0.000  0.965 -0.000
       0.000  0.000 -0.000 -0.000  0.403
     SPIN  2
     eigenvalues:
       0.067  0.070  0.077  0.197  0.201
     eigenvectors (columns):
      -0.117 -0.000  0.004 -0.000  0.993
       0.017 -0.000 -1.000  0.000  0.006
       0.000 -1.000  0.000  0.001 -0.000
      -0.993 -0.000 -0.017  0.000 -0.116
      -0.000  0.001  0.000  1.000  0.000
     occupation matrix ns (before diag.):
       0.200  0.001 -0.000 -0.016  0.000
       0.001  0.077 -0.000  0.000  0.000
      -0.000 -0.000  0.070  0.000  0.000
      -0.016  0.000  0.000  0.069 -0.000
       0.000  0.000  0.000 -0.000  0.197
     ------------------------ ATOM    4 ------------------------
     Tr[ns(  4)] (up, down, total) =   3.81350  0.61501  4.42850
     Atomic magnetic moment for atom   4 =   3.19849
     SPIN  1
     eigenvalues:
       0.434  0.443  0.963  0.981  0.993
     eigenvectors (columns):
      -0.102  0.443  0.000  0.891  0.000
       0.976  0.220 -0.000  0.002  0.000
       0.000 -0.000  0.000  0.000 -1.000
      -0.195  0.869 -0.000 -0.454 -0.000
      -0.000  0.000 -1.000  0.000 -0.000
     occupation matrix ns (before diag.):
       0.870  0.002 -0.000 -0.218  0.000
       0.002  0.434 -0.000  0.001  0.000
      -0.000 -0.000  0.993  0.000  0.000
      -0.218  0.001  0.000  0.554 -0.000
       0.000  0.000  0.000 -0.000  0.963
     SPIN  2
     eigenvalues:
       0.068  0.070  0.078  0.196  0.204
     eigenvectors (columns):
      -0.913  0.000  0.000  0.026 -0.406
      -0.002 -0.000 -0.000  0.998  0.069
      -0.000 -0.999 -0.041 -0.000 -0.000
       0.407 -0.000 -0.000  0.064 -0.911
       0.000 -0.041  0.999  0.000  0.000
     occupation matrix ns (before diag.):
       0.090 -0.000 -0.000  0.051  0.000
      -0.000  0.196 -0.000 -0.000  0.000
      -0.000 -0.000  0.070  0.000 -0.000
       0.051 -0.000  0.000  0.181 -0.000
       0.000  0.000 -0.000 -0.000  0.078
     ------------------------ ATOM    5 ------------------------
     Tr[ns(  5)] (up, down, total) =   1.41436  0.53644  1.95080
     Atomic magnetic moment for atom   5 =   0.87792
     SPIN  1
     eigenvalues:
       0.149  0.222  0.240  0.364  0.440
     eigenvectors (columns):
      -0.065  0.144 -0.000 -0.000 -0.987
      -0.072  0.986  0.000  0.000  0.149
       0.000  0.000 -1.000  0.006  0.000
      -0.995 -0.080 -0.000 -0.000  0.053
      -0.000 -0.000  0.006  1.000 -0.000
     occupation matrix ns (before diag.):
       0.434 -0.032 -0.000 -0.016  0.000
      -0.032  0.226 -0.000 -0.003  0.000
      -0.000 -0.000  0.240  0.000  0.001
      -0.016 -0.003  0.000  0.150 -0.000
       0.000  0.000  0.001 -0.000  0.364
     SPIN  2
     eigenvalues:
       0.049  0.063  0.068  0.164  0.192
     eigenvectors (columns):
      -0.000 -0.173  0.063  0.983  0.000
      -0.000  0.313 -0.943  0.116  0.000
      -1.000 -0.000  0.000 -0.000  0.002
       0.000 -0.934 -0.327 -0.143 -0.000
       0.002 -0.000 -0.000 -0.000  1.000
     occupation matrix ns (before diag.):
       0.161  0.011 -0.000 -0.014  0.000
       0.011  0.069 -0.000 -0.000  0.000
      -0.000 -0.000  0.049  0.000  0.000
      -0.014 -0.000  0.000  0.066 -0.000
       0.000  0.000  0.000 -0.000  0.192
     ------------------------ ATOM    6 ------------------------
     Tr[ns(  6)] (up, down, total) =   1.54276  0.63430  2.17706
     Atomic magnetic moment for atom   6 =   0.90846
     SPIN  1
     eigenvalues:
       0.230  0.251  0.263  0.389  0.410
     eigenvectors (columns):
       0.000 -0.971  0.000  0.238 -0.007
       0.000 -0.000 -0.000 -0.032 -0.999
       0.999  0.000  0.053  0.000  0.000
      -0.000  0.238 -0.000  0.971 -0.031
      -0.053  0.000  0.999 -0.000 -0.000
     occupation matrix ns (before diag.):
       0.259  0.000 -0.000  0.032  0.000
       0.000  0.410 -0.000  0.001  0.000
      -0.000 -0.000  0.230  0.000  0.002
       0.032  0.001  0.000  0.381 -0.000
       0.000  0.000  0.002 -0.000  0.263
     SPIN  2
     eigenvalues:
       0.067  0.079  0.081  0.203  0.205
     eigenvectors (columns):
       0.000 -0.936  0.000  0.073 -0.345
       0.000  0.001 -0.000 -0.978 -0.208
       1.000  0.000  0.014  0.000  0.000
      -0.000  0.352 -0.000  0.195 -0.915
      -0.014  0.000  1.000 -0.000  0.000
     occupation matrix ns (before diag.):
       0.095  0.000 -0.000  0.041  0.000
       0.000  0.203 -0.000  0.000  0.000
      -0.000 -0.000  0.067  0.000  0.000
       0.041  0.000  0.000  0.189 -0.000
       0.000  0.000  0.000 -0.000  0.081

     Number of occupied Hubbard levels =   22.7392

     negative rho (up, down):  3.442E-03 6.120E-03

     total cpu time spent up to now is      212.9 secs

     total energy              =   -1594.20590261 Ry
     estimated scf accuracy    <      60.96684402 Ry

     total magnetization       =    14.94 Bohr mag/cell
     absolute magnetization    =    18.79 Bohr mag/cell

     iteration #  2     ecut=    80.00 Ry     beta= 0.30
     Davidson diagonalization with overlap
     ethr =  1.00E-02,  avg # of iterations =  1.0

     negative rho (up, down):  6.105E-03 1.969E-02

     total cpu time spent up to now is      322.0 secs

     total energy              =   -1593.68192745 Ry
     estimated scf accuracy    <      38.29949577 Ry

     total magnetization       =    14.17 Bohr mag/cell
     absolute magnetization    =    17.95 Bohr mag/cell

     iteration #  3     ecut=    80.00 Ry     beta= 0.30
     Davidson diagonalization with overlap
     ethr =  1.00E-02,  avg # of iterations =  3.3

     negative rho (up, down):  8.115E-03 2.647E-02

     total cpu time spent up to now is      446.9 secs

     total energy              =   -1595.45398891 Ry
     estimated scf accuracy    <       6.06386753 Ry

     total magnetization       =    12.05 Bohr mag/cell
     absolute magnetization    =    18.33 Bohr mag/cell

     iteration #  4     ecut=    80.00 Ry     beta= 0.30
     Davidson diagonalization with overlap
     ethr =  3.72E-03,  avg # of iterations =  2.3

     negative rho (up, down):  8.819E-03 2.837E-02

     total cpu time spent up to now is      561.9 secs

     total energy              =   -1595.48497892 Ry
     estimated scf accuracy    <       1.89462877 Ry

     total magnetization       =    11.00 Bohr mag/cell
     absolute magnetization    =    18.65 Bohr mag/cell

     iteration #  5     ecut=    80.00 Ry     beta= 0.30
     Davidson diagonalization with overlap
     ethr =  1.16E-03,  avg # of iterations =  3.7

     negative rho (up, down):  1.100E-02 3.403E-02

     total cpu time spent up to now is      675.9 secs

     total energy              =   -1595.63320994 Ry
     estimated scf accuracy    <       0.91369392 Ry

     total magnetization       =    11.00 Bohr mag/cell
     absolute magnetization    =    18.42 Bohr mag/cell

     iteration #  6     ecut=    80.00 Ry     beta= 0.30
     Davidson diagonalization with overlap
     ethr =  5.61E-04,  avg # of iterations =  5.7

     negative rho (up, down):  1.113E-02 3.448E-02

     total cpu time spent up to now is      807.4 secs

     total energy              =   -1595.68405910 Ry
     estimated scf accuracy    <       0.53122336 Ry

     total magnetization       =    11.00 Bohr mag/cell
     absolute magnetization    =    17.80 Bohr mag/cell

     iteration #  7     ecut=    80.00 Ry     beta= 0.30
     Davidson diagonalization with overlap
     ethr =  3.26E-04,  avg # of iterations =  2.8

     negative rho (up, down):  1.011E-02 3.277E-02

     total cpu time spent up to now is      929.0 secs

     total energy              =   -1595.68650624 Ry
     estimated scf accuracy    <       0.25246458 Ry

     total magnetization       =    11.00 Bohr mag/cell
     absolute magnetization    =    17.75 Bohr mag/cell

     iteration #  8     ecut=    80.00 Ry     beta= 0.30
     Davidson diagonalization with overlap
     ethr =  1.55E-04,  avg # of iterations =  4.9

     negative rho (up, down):  9.005E-03 3.151E-02

     total cpu time spent up to now is     1056.8 secs

     total energy              =   -1595.68742130 Ry
     estimated scf accuracy    <       0.29241089 Ry

     total magnetization       =    11.00 Bohr mag/cell
     absolute magnetization    =    17.26 Bohr mag/cell

     iteration #  9     ecut=    80.00 Ry     beta= 0.30
     Davidson diagonalization with overlap
     ethr =  1.55E-04,  avg # of iterations =  1.6

     negative rho (up, down):  8.510E-03 3.091E-02

     total cpu time spent up to now is     1161.3 secs

     total energy              =   -1595.69239223 Ry
     estimated scf accuracy    <       0.05904056 Ry

     total magnetization       =    11.00 Bohr mag/cell
     absolute magnetization    =    16.98 Bohr mag/cell

     iteration # 10     ecut=    80.00 Ry     beta= 0.30
     Davidson diagonalization with overlap
     ethr =  3.62E-05,  avg # of iterations =  3.0

     negative rho (up, down):  5.375E-03 2.665E-02

     total cpu time spent up to now is     1277.3 secs

     total energy              =   -1595.68737697 Ry
     estimated scf accuracy    <       0.04335816 Ry

     total magnetization       =    11.00 Bohr mag/cell
     absolute magnetization    =    16.89 Bohr mag/cell

     iteration # 11     ecut=    80.00 Ry     beta= 0.30
     Davidson diagonalization with overlap
     ethr =  2.66E-05,  avg # of iterations =  3.1

     negative rho (up, down):  4.520E-03 2.561E-02

     total cpu time spent up to now is     1393.4 secs

     total energy              =   -1595.68943358 Ry
     estimated scf accuracy    <       0.05058551 Ry

     total magnetization       =    11.00 Bohr mag/cell
     absolute magnetization    =    16.80 Bohr mag/cell

     iteration # 12     ecut=    80.00 Ry     beta= 0.30
     Davidson diagonalization with overlap
     ethr =  2.66E-05,  avg # of iterations =  1.0

     negative rho (up, down):  2.401E-03 2.297E-02

     total cpu time spent up to now is     1497.0 secs

     total energy              =   -1595.68797085 Ry
     estimated scf accuracy    <       0.01658469 Ry

     total magnetization       =    11.00 Bohr mag/cell
     absolute magnetization    =    16.72 Bohr mag/cell

     iteration # 13     ecut=    80.00 Ry     beta= 0.30
     Davidson diagonalization with overlap
     ethr =  1.02E-05,  avg # of iterations =  5.3

     negative rho (up, down):  6.725E-04 2.119E-02

     total cpu time spent up to now is     1627.4 secs

     total energy              =   -1595.68733207 Ry
     estimated scf accuracy    <       0.00804944 Ry

     total magnetization       =    11.00 Bohr mag/cell
     absolute magnetization    =    16.64 Bohr mag/cell

     iteration # 14     ecut=    80.00 Ry     beta= 0.30
     Davidson diagonalization with overlap
     c_bands:  1 eigenvalues not converged
     ethr =  4.94E-06,  avg # of iterations =  3.7

     negative rho (up, down):  2.740E-04 2.129E-02

     total cpu time spent up to now is     1745.3 secs

     total energy              =   -1595.68703066 Ry
     estimated scf accuracy    <       0.00417549 Ry

     total magnetization       =    11.00 Bohr mag/cell
     absolute magnetization    =    16.67 Bohr mag/cell

     iteration # 15     ecut=    80.00 Ry     beta= 0.30
     Davidson diagonalization with overlap
     ethr =  2.56E-06,  avg # of iterations =  5.1

     negative rho (up, down):  7.678E-04 2.197E-02

     total cpu time spent up to now is     1862.5 secs

     total energy              =   -1595.68685597 Ry
     estimated scf accuracy    <       0.00258204 Ry

     total magnetization       =    11.00 Bohr mag/cell
     absolute magnetization    =    16.66 Bohr mag/cell

     iteration # 16     ecut=    80.00 Ry     beta= 0.30
     Davidson diagonalization with overlap
     ethr =  1.58E-06,  avg # of iterations =  3.2

     negative rho (up, down):  1.942E-03 2.321E-02

     total cpu time spent up to now is     1973.0 secs

     total energy              =   -1595.68681000 Ry
     estimated scf accuracy    <       0.00164790 Ry

     total magnetization       =    11.00 Bohr mag/cell
     absolute magnetization    =    16.65 Bohr mag/cell

     iteration # 17     ecut=    80.00 Ry     beta= 0.30
     Davidson diagonalization with overlap
     ethr =  1.01E-06,  avg # of iterations =  1.3

     negative rho (up, down):  3.195E-03 2.437E-02

     total cpu time spent up to now is     2082.5 secs

     total energy              =   -1595.68681801 Ry
     estimated scf accuracy    <       0.00107573 Ry

     total magnetization       =    11.00 Bohr mag/cell
     absolute magnetization    =    16.66 Bohr mag/cell

     iteration # 18     ecut=    80.00 Ry     beta= 0.30
     Davidson diagonalization with overlap
     ethr =  6.60E-07,  avg # of iterations =  1.7

     negative rho (up, down):  3.486E-03 2.458E-02

     total cpu time spent up to now is     2194.3 secs

     total energy              =   -1595.68681659 Ry
     estimated scf accuracy    <       0.00077071 Ry

     total magnetization       =    11.00 Bohr mag/cell
     absolute magnetization    =    16.67 Bohr mag/cell

     iteration # 19     ecut=    80.00 Ry     beta= 0.30
     Davidson diagonalization with overlap
     ethr =  4.73E-07,  avg # of iterations =  1.1

     negative rho (up, down):  3.755E-03 2.473E-02

     total cpu time spent up to now is     2303.9 secs

     total energy              =   -1595.68679643 Ry
     estimated scf accuracy    <       0.00056069 Ry

     total magnetization       =    11.00 Bohr mag/cell
     absolute magnetization    =    16.67 Bohr mag/cell

     iteration # 20     ecut=    80.00 Ry     beta= 0.30
     Davidson diagonalization with overlap
     ethr =  3.44E-07,  avg # of iterations =  1.3

     negative rho (up, down):  3.730E-03 2.461E-02

     total cpu time spent up to now is     2413.0 secs

     total energy              =   -1595.68683275 Ry
     estimated scf accuracy    <       0.00029899 Ry

     total magnetization       =    11.00 Bohr mag/cell
     absolute magnetization    =    16.67 Bohr mag/cell

     iteration # 21     ecut=    80.00 Ry     beta= 0.30
     Davidson diagonalization with overlap
     ethr =  1.83E-07,  avg # of iterations =  1.6

     negative rho (up, down):  2.695E-03 2.321E-02

     total cpu time spent up to now is     2522.2 secs

     total energy              =   -1595.68685533 Ry
     estimated scf accuracy    <       0.00014579 Ry

     total magnetization       =    11.00 Bohr mag/cell
     absolute magnetization    =    16.65 Bohr mag/cell

     iteration # 22     ecut=    80.00 Ry     beta= 0.30
     Davidson diagonalization with overlap
     ethr =  8.94E-08,  avg # of iterations =  2.0

     negative rho (up, down):  2.654E-03 2.294E-02

     total cpu time spent up to now is     2633.5 secs

     total energy              =   -1595.68687974 Ry
     estimated scf accuracy    <       0.00006071 Ry

     total magnetization       =    11.00 Bohr mag/cell
     absolute magnetization    =    16.65 Bohr mag/cell

     iteration # 23     ecut=    80.00 Ry     beta= 0.30
     Davidson diagonalization with overlap
     ethr =  3.72E-08,  avg # of iterations =  1.8

     negative rho (up, down):  2.402E-03 2.229E-02

     total cpu time spent up to now is     2740.3 secs

     total energy              =   -1595.68689028 Ry
     estimated scf accuracy    <       0.00002325 Ry

     total magnetization       =    11.00 Bohr mag/cell
     absolute magnetization    =    16.65 Bohr mag/cell

     iteration # 24     ecut=    80.00 Ry     beta= 0.30
     Davidson diagonalization with overlap
     ethr =  1.43E-08,  avg # of iterations =  3.0

     negative rho (up, down):  2.396E-03 2.203E-02

     total cpu time spent up to now is     2858.9 secs

     total energy              =   -1595.68689812 Ry
     estimated scf accuracy    <       0.00000723 Ry

     total magnetization       =    11.00 Bohr mag/cell
     absolute magnetization    =    16.65 Bohr mag/cell

     iteration # 25     ecut=    80.00 Ry     beta= 0.30
     Davidson diagonalization with overlap
     ethr =  4.43E-09,  avg # of iterations =  3.0

     negative rho (up, down):  2.358E-03 2.195E-02

     total cpu time spent up to now is     2975.5 secs

     total energy              =   -1595.68690003 Ry
     estimated scf accuracy    <       0.00000166 Ry

     total magnetization       =    11.00 Bohr mag/cell
     absolute magnetization    =    16.65 Bohr mag/cell

     iteration # 26     ecut=    80.00 Ry     beta= 0.30
     Davidson diagonalization with overlap
     ethr =  1.02E-09,  avg # of iterations =  3.7

     negative rho (up, down):  2.322E-03 2.186E-02

     Magnetic moment per site  (integrated on atomic sphere of radius R)
     atom   1 (R=0.261)  charge= 10.4676  magn=  2.0907
     atom   2 (R=0.261)  charge= 10.3989  magn=  1.7177
     atom   3 (R=0.261)  charge= 10.4101  magn=  1.8529
     atom   4 (R=0.261)  charge= 10.4106  magn=  1.8519
     atom   5 (R=0.261)  charge= 10.3992  magn=  1.7390
     atom   6 (R=0.261)  charge= 10.3937  magn=  1.6537
     atom   7 (R=0.139)  charge=  1.9682  magn= -0.0749
     atom   8 (R=0.139)  charge=  1.9461  magn= -0.1453
     atom   9 (R=0.139)  charge=  1.9686  magn= -0.0658
     atom  10 (R=0.139)  charge=  1.9686  magn= -0.0658
     atom  11 (R=0.139)  charge=  1.9632  magn= -0.0783
     atom  12 (R=0.139)  charge=  1.9646  magn= -0.0832
     atom  13 (R=0.139)  charge=  1.9684  magn= -0.0727
     atom  14 (R=0.139)  charge=  1.9684  magn= -0.0727
     atom  15 (R=0.139)  charge=  1.9493  magn= -0.1485
     atom  16 (R=0.139)  charge=  1.9620  magn= -0.0805
     atom  17 (R=0.139)  charge=  1.9682  magn= -0.0673
     atom  18 (R=0.139)  charge=  1.9682  magn= -0.0673
     atom  19 (R=0.139)  charge=  1.9682  magn= -0.0686
     atom  20 (R=0.139)  charge=  0.3936  magn=  0.0046

     total cpu time spent up to now is     3092.9 secs

     End of self-consistent calculation

     =================== HUBBARD OCCUPATIONS ===================
     ------------------------ ATOM    1 ------------------------
     Tr[ns(  1)] (up, down, total) =   3.67138  1.05922  4.73060
     Atomic magnetic moment for atom   1 =   2.61216
     SPIN  1
     eigenvalues:
       0.494  0.497  0.817  0.885  0.978
     eigenvectors (columns):
      -0.000 -0.999 -0.000  0.000  0.046
      -0.000  0.000  0.000  1.000 -0.000
      -0.000 -0.000  1.000 -0.000  0.000
       0.000  0.046 -0.000  0.000  0.999
       1.000 -0.000  0.000  0.000 -0.000
     occupation matrix ns (before diag.):
       0.498  0.000 -0.000  0.022  0.000
       0.000  0.885 -0.000 -0.000  0.000
      -0.000 -0.000  0.817  0.000  0.000
       0.022 -0.000  0.000  0.977 -0.000
       0.000  0.000  0.000 -0.000  0.494
     SPIN  2
     eigenvalues:
       0.119  0.131  0.143  0.280  0.386
     eigenvectors (columns):
      -0.107 -0.000 -0.000  0.994  0.000
      -0.000 -0.000 -1.000 -0.000  0.000
       0.000 -1.000  0.000 -0.000  0.000
      -0.994 -0.000  0.000 -0.107 -0.000
      -0.000  0.000  0.000 -0.000  1.000
     occupation matrix ns (before diag.):
       0.278 -0.000 -0.000 -0.017  0.000
      -0.000  0.143 -0.000 -0.000  0.000
      -0.000 -0.000  0.131  0.000  0.000
      -0.017 -0.000  0.000  0.121 -0.000
       0.000  0.000  0.000 -0.000  0.386
     ------------------------ ATOM    2 ------------------------
     Tr[ns(  2)] (up, down, total) =   3.47257  1.33699  4.80956
     Atomic magnetic moment for atom   2 =   2.13557
     SPIN  1
     eigenvalues:
       0.540  0.547  0.660  0.788  0.938
     eigenvectors (columns):
       0.011  0.418 -0.000 -0.000  0.908
       1.000 -0.026  0.000  0.000 -0.000
       0.000 -0.000 -1.000  0.001 -0.000
       0.023  0.908 -0.000  0.000 -0.418
      -0.000  0.000  0.001  1.000  0.000
     occupation matrix ns (before diag.):
       0.869 -0.000 -0.000 -0.148  0.000
      -0.000  0.540 -0.000 -0.000  0.000
      -0.000 -0.000  0.660  0.000  0.000
      -0.148 -0.000  0.000  0.615 -0.000
       0.000  0.000  0.000 -0.000  0.788
     SPIN  2
     eigenvalues:
       0.156  0.172  0.178  0.402  0.430
     eigenvectors (columns):
      -0.913  0.000  0.000  0.409 -0.001
       0.000 -0.000 -0.000  0.004  1.000
      -0.000 -1.000 -0.006  0.000 -0.000
       0.409 -0.000 -0.000  0.913 -0.003
       0.000 -0.006  1.000 -0.000  0.000
     occupation matrix ns (before diag.):
       0.197 -0.000 -0.000  0.092  0.000
      -0.000  0.430 -0.000 -0.000  0.000
      -0.000 -0.000  0.172  0.000 -0.000
       0.092 -0.000  0.000  0.361 -0.000
       0.000  0.000 -0.000 -0.000  0.178
     ------------------------ ATOM    3 ------------------------
     Tr[ns(  3)] (up, down, total) =   3.54034  1.23438  4.77472
     Atomic magnetic moment for atom   3 =   2.30596
     SPIN  1
     eigenvalues:
       0.498  0.529  0.718  0.815  0.982
     eigenvectors (columns):
      -0.000  0.999  0.000  0.006 -0.044
      -0.000  0.006 -0.000 -1.000  0.000
       0.000  0.000 -1.000  0.000 -0.000
       0.000 -0.044  0.000 -0.000 -0.999
       1.000  0.000  0.000 -0.000  0.000
     occupation matrix ns (before diag.):
       0.530 -0.002 -0.000  0.020  0.000
      -0.002  0.815 -0.000  0.000  0.000
      -0.000 -0.000  0.718  0.000 -0.000
       0.020  0.000  0.000  0.981 -0.000
       0.000  0.000 -0.000 -0.000  0.498
     SPIN  2
     eigenvalues:
       0.121  0.162  0.169  0.391  0.392
     eigenvectors (columns):
       0.061  0.006 -0.000 -0.998  0.000
      -0.004 -1.000  0.000 -0.006  0.000
      -0.000 -0.000 -1.000  0.000  0.000
       0.998 -0.005 -0.000  0.061 -0.000
       0.000  0.000  0.000  0.000  1.000
     occupation matrix ns (before diag.):
       0.390  0.001 -0.000 -0.016  0.000
       0.001  0.162 -0.000  0.000  0.000
      -0.000 -0.000  0.169  0.000  0.000
      -0.016  0.000  0.000  0.122 -0.000
       0.000  0.000  0.000 -0.000  0.392
     ------------------------ ATOM    4 ------------------------
     Tr[ns(  4)] (up, down, total) =   3.54177  1.23892  4.78069
     Atomic magnetic moment for atom   4 =   2.30284
     SPIN  1
     eigenvalues:
       0.497  0.531  0.699  0.844  0.971
     eigenvectors (columns):
       0.013  0.476 -0.000 -0.000  0.879
       1.000 -0.030  0.000  0.000  0.001
       0.000 -0.000 -1.000  0.027 -0.000
       0.027  0.879  0.000  0.000 -0.476
      -0.000  0.000  0.027  1.000  0.000
     occupation matrix ns (before diag.):
       0.871  0.000 -0.000 -0.184  0.000
       0.000  0.497 -0.000 -0.001  0.000
      -0.000 -0.000  0.699  0.000  0.004
      -0.184 -0.001  0.000  0.631 -0.000
       0.000  0.000  0.004 -0.000  0.844
     SPIN  2
     eigenvalues:
       0.120  0.162  0.175  0.388  0.393
     eigenvectors (columns):
      -0.888  0.000  0.000 -0.075  0.454
      -0.002 -0.000 -0.000 -0.986 -0.167
      -0.000  0.078 -0.997  0.000  0.000
       0.460 -0.000 -0.000 -0.150  0.875
       0.000  0.997  0.078 -0.000 -0.000
     occupation matrix ns (before diag.):
       0.177 -0.001 -0.000  0.112  0.000
      -0.001  0.388 -0.000 -0.000  0.000
      -0.000 -0.000  0.175  0.000 -0.001
       0.112 -0.000  0.000  0.335 -0.000
       0.000  0.000 -0.001 -0.000  0.163
     ------------------------ ATOM    5 ------------------------
     Tr[ns(  5)] (up, down, total) =   3.46429  1.31346  4.77774
     Atomic magnetic moment for atom   5 =   2.15083
     SPIN  1
     eigenvalues:
       0.502  0.546  0.573  0.859  0.985
     eigenvectors (columns):
      -0.000  0.997  0.000 -0.014 -0.075
      -0.000 -0.014 -0.000 -1.000  0.000
       0.003  0.000 -1.000  0.000 -0.000
       0.000 -0.075 -0.000  0.001 -0.997
       1.000  0.000  0.003 -0.000  0.000
     occupation matrix ns (before diag.):
       0.548  0.004 -0.000  0.033  0.000
       0.004  0.858 -0.000 -0.000  0.000
      -0.000 -0.000  0.573  0.000 -0.000
       0.033 -0.000  0.000  0.983 -0.000
       0.000  0.000 -0.000 -0.000  0.502
     SPIN  2
     eigenvalues:
       0.123  0.162  0.210  0.401  0.417
     eigenvectors (columns):
       0.056 -0.040 -0.000 -0.000 -0.998
       0.033 -0.999  0.000  0.000  0.042
      -0.000 -0.000 -1.000  0.003  0.000
       0.998  0.035 -0.000 -0.000  0.055
       0.000  0.000  0.003  1.000 -0.000
     occupation matrix ns (before diag.):
       0.416 -0.011 -0.000 -0.016  0.000
      -0.011  0.162 -0.000 -0.001  0.000
      -0.000 -0.000  0.210  0.000  0.001
      -0.016 -0.001  0.000  0.124 -0.000
       0.000  0.000  0.001 -0.000  0.401
     ------------------------ ATOM    6 ------------------------
     Tr[ns(  6)] (up, down, total) =   3.44369  1.38412  4.82781
     Atomic magnetic moment for atom   6 =   2.05957
     SPIN  1
     eigenvalues:
       0.538  0.553  0.686  0.797  0.869
     eigenvectors (columns):
      -0.011  0.440  0.000 -0.000 -0.898
       1.000  0.022 -0.000  0.000 -0.001
       0.000 -0.000  1.000 -0.027  0.000
      -0.019  0.898 -0.000  0.000  0.441
      -0.000  0.000  0.027  1.000 -0.000
     occupation matrix ns (before diag.):
       0.808  0.001 -0.000 -0.125  0.000
       0.001  0.538 -0.000  0.000  0.000
      -0.000 -0.000  0.686  0.000 -0.003
      -0.125  0.000  0.000  0.614 -0.000
       0.000  0.000 -0.003 -0.000  0.797
     SPIN  2
     eigenvalues:
       0.171  0.188  0.193  0.411  0.422
     eigenvectors (columns):
       0.917  0.000 -0.000  0.398  0.018
       0.001 -0.000  0.000 -0.047  0.999
       0.000 -0.112  0.994  0.000 -0.000
      -0.399 -0.000  0.000  0.916  0.043
      -0.000  0.994  0.112 -0.000  0.000
     occupation matrix ns (before diag.):
       0.209 -0.000 -0.000  0.088  0.000
      -0.000  0.422 -0.000  0.001  0.000
      -0.000 -0.000  0.193  0.000  0.001
       0.088  0.001  0.000  0.373 -0.000
       0.000  0.000  0.001 -0.000  0.188

     Number of occupied Hubbard levels =   28.7011

 ------ SPIN UP ------------


          k = 0.0000 0.0000 0.0000 ( 37133 PWs)   bands (ev):

   -73.3623 -73.3103 -73.2599 -73.2577 -73.2576 -73.1966 -44.7328 -44.7245
   -44.6808 -44.6426 -44.6358 -44.6045 -44.6022 -44.5844 -44.5691 -44.5415
   -44.5324 -44.5053 -44.4893 -44.4588 -44.4373 -44.4361 -44.4252 -44.3332
   -19.1605 -18.8853 -18.6105 -18.1295 -18.0457 -17.6749 -17.5687 -17.4553
   -17.3170 -17.2335 -17.2192 -16.7818 -16.3597  -7.3632  -7.2447  -7.1367
    -6.6311  -6.1565  -5.8831  -5.7531  -5.2396  -5.1755  -5.1601  -5.1033
    -5.0508  -4.8448  -4.7982  -4.6805  -4.2525  -3.8016  -3.4948  -3.3309
    -3.2756  -3.2045  -3.0379  -2.9593  -2.8043  -2.7736  -2.6688  -2.6040
    -2.3453  -2.3094  -2.1328  -2.0421  -1.9806  -1.8380  -1.8154  -1.8085
    -1.7193  -1.5647  -1.4329  -1.3965  -1.3711  -1.2766  -1.2593  -1.0971
    -1.0172  -0.9562  -0.5795  -0.5520  -0.4655  -0.3459  -0.3048  -0.0866
     0.1066   0.5370   0.9304   1.0788   1.1275   1.1793   1.2650   2.0654
     2.6282   3.1050

          k = 0.0000 0.1166 0.0000 ( 37130 PWs)   bands (ev):

   -73.3622 -73.3102 -73.2599 -73.2577 -73.2576 -73.1966 -44.7327 -44.7224
   -44.6785 -44.6401 -44.6357 -44.6042 -44.6025 -44.5845 -44.5713 -44.5414
   -44.5348 -44.5079 -44.4890 -44.4590 -44.4372 -44.4361 -44.4253 -44.3333
   -19.0385 -18.7727 -18.5201 -18.2589 -18.0930 -17.8679 -17.7045 -17.3918
   -17.3434 -17.2077 -17.2017 -16.7785 -16.3513  -7.0711  -6.9674  -6.8530
    -6.6153  -6.1608  -5.8269  -5.5960  -5.2170  -5.1656  -5.0165  -4.9699
    -4.9114  -4.8338  -4.8037  -4.6813  -4.2829  -4.1596  -3.9451  -3.7395
    -3.6757  -3.5248  -3.3497  -3.1155  -3.0410  -2.8819  -2.8441  -2.7436
    -2.5842  -2.3361  -2.2574  -2.2391  -2.1105  -1.8420  -1.6816  -1.5425
    -1.5218  -1.4472  -1.3320  -1.1923  -1.1230  -0.9985  -0.8936  -0.8503
    -0.8131  -0.7963  -0.6246  -0.5136  -0.4623  -0.4249  -0.2966  -0.0755
     0.0442   0.4533   0.8309   0.8915   1.0261   1.1067   1.3957   2.4285
     2.9735   3.2734

          k = 0.0000-0.2332 0.0000 ( 37126 PWs)   bands (ev):

   -73.3622 -73.3101 -73.2599 -73.2576 -73.2576 -73.1966 -44.7327 -44.7203
   -44.6762 -44.6376 -44.6357 -44.6036 -44.6031 -44.5845 -44.5735 -44.5414
   -44.5372 -44.5107 -44.4888 -44.4592 -44.4372 -44.4361 -44.4253 -44.3333
   -18.7812 -18.6460 -18.5923 -18.2321 -18.2190 -18.0163 -17.9151 -17.3604
   -17.3581 -17.1876 -17.1876 -16.7773 -16.3438  -6.7691  -6.6279  -6.5428
    -6.4200  -6.1725  -5.8419  -5.2469  -5.0802  -5.0183  -4.9827  -4.9125
    -4.8770  -4.8190  -4.8171  -4.6822  -4.4195  -4.3484  -4.3249  -4.2968
    -4.1764  -3.9582  -3.5559  -3.2815  -3.1998  -3.1899  -3.1021  -2.9858
    -2.6881  -2.3927  -2.3031  -1.9838  -1.9454  -1.8073  -1.5961  -1.5709
    -1.3957  -1.3148  -1.2147  -1.0101  -0.9730  -0.9476  -0.8985  -0.7673
    -0.7150  -0.5903  -0.5589  -0.3496  -0.3469  -0.3038  -0.2660  -0.0749
     0.2054   0.3304   0.5287   0.7405   0.8985   1.0050   1.5707   2.8117
     3.0896   3.6091

          k = 0.1111 0.0000 0.0000 ( 37175 PWs)   bands (ev):

   -73.3606 -73.3086 -73.2582 -73.2560 -73.2559 -73.1950 -44.7313 -44.7226
   -44.6788 -44.6406 -44.6326 -44.6026 -44.6001 -44.5830 -44.5665 -44.5606
   -44.5298 -44.5077 -44.5026 -44.4781 -44.4573 -44.4444 -44.4329 -44.3526
   -19.0472 -18.7829 -18.5194 -18.0625 -17.9800 -17.6133 -17.5216 -17.4821
   -17.3416 -17.2492 -17.2458 -16.8100 -16.3767  -7.1953  -7.0885  -6.9890
    -6.4910  -6.0542  -5.8060  -5.6662  -5.4716  -5.3460  -5.3377  -5.2150
    -5.0306  -4.8668  -4.7695  -4.6574  -4.0913  -3.7698  -3.5060  -3.3355
    -3.2791  -3.1981  -3.1391  -3.0664  -3.0295  -2.9323  -2.9008  -2.8237
    -2.5953  -2.4625  -2.4401  -2.2698  -2.1002  -2.0821  -1.9752  -1.8163
    -1.8066  -1.6179  -1.4625  -1.4151  -1.3464  -1.1318  -0.9858  -0.9759
    -0.8085  -0.7147  -0.6149  -0.5034  -0.3417  -0.1745  -0.0361   0.1094
     0.1914   0.4549   0.8480   0.9824   1.0912   1.1856   1.2234   2.1744
     2.7309   3.1507

          k = 0.1111 0.1166 0.0000 ( 37124 PWs)   bands (ev):

   -73.3605 -73.3085 -73.2581 -73.2560 -73.2559 -73.1949 -44.7313 -44.7208
   -44.6770 -44.6385 -44.6325 -44.6024 -44.6004 -44.5831 -44.5689 -44.5600
   -44.5321 -44.5074 -44.5050 -44.4782 -44.4571 -44.4444 -44.4329 -44.3526
   -18.9295 -18.6752 -18.4316 -18.1812 -18.0337 -17.8120 -17.6557 -17.4075
   -17.3678 -17.2248 -17.2194 -16.8068 -16.3691  -6.9037  -6.8087  -6.7007
    -6.4750  -6.0586  -5.7500  -5.5752  -5.3823  -5.3202  -5.2525  -5.1550
    -5.0090  -4.7904  -4.7014  -4.6431  -4.0733  -3.9951  -3.8591  -3.7383
    -3.5502  -3.4719  -3.3988  -3.3490  -3.2797  -3.2027  -3.0922  -2.9829
    -2.8770  -2.7820  -2.3483  -2.2365  -2.1887  -1.9756  -1.9423  -1.7900
    -1.6885  -1.5159  -1.2149  -1.0875  -1.0090  -0.8089  -0.7895  -0.7186
    -0.6315  -0.5742  -0.5122  -0.4662  -0.4067  -0.3122  -0.0183  -0.0009
     0.2087   0.3758   0.7514   0.8172   0.9421   1.0414   1.4411   2.4847
     2.9886   3.2309

          k = 0.1111-0.2332 0.0000 ( 37144 PWs)   bands (ev):

   -73.3605 -73.3085 -73.2581 -73.2559 -73.2559 -73.1949 -44.7313 -44.7190
   -44.6750 -44.6364 -44.6325 -44.6020 -44.6007 -44.5832 -44.5712 -44.5596
   -44.5344 -44.5074 -44.5070 -44.4783 -44.4570 -44.4443 -44.4329 -44.3526
   -18.6821 -18.5489 -18.5034 -18.1618 -18.1490 -17.9547 -17.8628 -17.3854
   -17.3730 -17.2050 -17.2014 -16.8055 -16.3622  -6.6134  -6.4562  -6.3827
    -6.2606  -6.0721  -5.7807  -5.4096  -5.2745  -5.2128  -5.1465  -5.1205
    -4.9504  -4.7203  -4.6620  -4.5810  -4.3946  -4.2648  -4.0362  -4.0344
    -3.9143  -3.9017  -3.7516  -3.6414  -3.6286  -3.5087  -3.2980  -3.0886
    -2.9841  -2.8095  -2.3798  -2.1634  -2.0434  -1.8770  -1.7736  -1.6498
    -1.5721  -1.3839  -1.0467  -0.9499  -0.9441  -0.8206  -0.7262  -0.6671
    -0.5690  -0.5659  -0.3543  -0.2650  -0.2094  -0.1657  -0.0087   0.1089
     0.2598   0.2831   0.4684   0.6603   0.8339   0.9125   1.5932   2.8584
     3.0133   3.2484

          k = 0.2222 0.0000 0.0000 ( 37192 PWs)   bands (ev):

   -73.3565 -73.3045 -73.2539 -73.2519 -73.2517 -73.1909 -44.7275 -44.7178
   -44.6739 -44.6355 -44.6251 -44.6108 -44.5966 -44.5936 -44.5798 -44.5597
   -44.5536 -44.5263 -44.5232 -44.5073 -44.4958 -44.4923 -44.4250 -44.4011
   -18.7387 -18.5096 -18.2812 -17.9068 -17.8040 -17.5507 -17.4968 -17.4042
   -17.4005 -17.3136 -17.2781 -16.8770 -16.4034  -6.7473  -6.6713  -6.6031
    -6.1736  -5.8718  -5.8194  -5.7797  -5.7162  -5.5858  -5.4696  -5.1922
    -5.1436  -4.6846  -4.5711  -4.4745  -4.4308  -4.0834  -3.9907  -3.8604
    -3.7833  -3.7538  -3.6208  -3.3955  -3.0724  -3.0321  -2.9106  -2.8437
    -2.7349  -2.6568  -2.6033  -2.4352  -2.2868  -2.2795  -2.1983  -1.9085
    -1.8673  -1.5192  -1.4881  -1.1361  -1.0441  -0.9968  -0.9332  -0.8187
    -0.6462  -0.5564  -0.5530  -0.3967  -0.1074   0.0549   0.1364   0.3099
     0.3346   0.5250   0.6768   0.7250   0.8551   0.9693   1.3260   2.3489
     2.7995   3.0480

          k = 0.2222 0.1166 0.0000 ( 37137 PWs)   bands (ev):

   -73.3565 -73.3045 -73.2539 -73.2519 -73.2518 -73.1908 -44.7275 -44.7169
   -44.6731 -44.6346 -44.6251 -44.6110 -44.5966 -44.5937 -44.5798 -44.5606
   -44.5540 -44.5265 -44.5235 -44.5068 -44.4973 -44.4921 -44.4250 -44.4009
   -18.6356 -18.4177 -18.2023 -17.9918 -17.8870 -17.6974 -17.5568 -17.4329
   -17.4229 -17.2605 -17.2494 -16.8746 -16.3986  -6.4674  -6.3966  -6.3181
    -6.1484  -5.8216  -5.7855  -5.7558  -5.6463  -5.5934  -5.4379  -5.3387
    -4.8707  -4.7132  -4.5660  -4.5276  -4.3746  -4.2260  -4.2080  -4.0694
    -3.9212  -3.7339  -3.5758  -3.4608  -3.3690  -3.2636  -3.2182  -3.1828
    -3.0247  -3.0064  -2.5913  -2.3983  -2.2760  -2.2017  -2.1183  -1.9868
    -1.7803  -1.5298  -1.4284  -0.9023  -0.8352  -0.7497  -0.6742  -0.6147
    -0.5681  -0.5274  -0.4791  -0.3082   0.0036   0.0623   0.1194   0.1551
     0.3230   0.4222   0.5930   0.6540   0.7364   0.8647   1.4602   2.5054
     2.7675   2.8954

          k = 0.2222-0.2332 0.0000 ( 37166 PWs)   bands (ev):

   -73.3564 -73.3045 -73.2539 -73.2519 -73.2518 -73.1908 -44.7275 -44.7159
   -44.6722 -44.6337 -44.6251 -44.6113 -44.5966 -44.5938 -44.5799 -44.5615
   -44.5545 -44.5257 -44.5247 -44.5061 -44.4991 -44.4918 -44.4250 -44.4007
   -18.4190 -18.2958 -18.2716 -17.9919 -17.9863 -17.8154 -17.7281 -17.4498
   -17.3968 -17.2455 -17.2220 -16.8736 -16.3943  -6.2550  -6.0267  -6.0158
    -5.9434  -5.8316  -5.7433  -5.7098  -5.4489  -5.4070  -5.3252  -5.3174
    -4.8414  -4.8166  -4.7806  -4.6828  -4.6632  -4.4866  -4.2331  -4.2001
    -3.9490  -3.8104  -3.6846  -3.6131  -3.5761  -3.5486  -3.4595  -3.3515
    -3.3053  -3.1225  -2.5254  -2.4288  -2.2275  -2.0822  -2.0385  -1.9330
    -1.7934  -1.5250  -1.4055  -0.8005  -0.7663  -0.7072  -0.6255  -0.4415
    -0.4364  -0.2720  -0.2382  -0.1693   0.0321   0.0420   0.1131   0.1427
     0.2856   0.3594   0.5577   0.5650   0.6713   0.7019   1.5559   2.5517
     2.5828   2.6222

          k = 0.3333 0.0000 0.0000 ( 37184 PWs)   bands (ev):

   -73.3521 -73.3003 -73.2494 -73.2475 -73.2474 -73.1865 -44.7234 -44.7123
   -44.6684 -44.6651 -44.6298 -44.6138 -44.6072 -44.5951 -44.5849 -44.5801
   -44.5758 -44.5626 -44.5520 -44.5453 -44.5155 -44.4878 -44.4553 -44.4159
   -18.3266 -18.1597 -17.9925 -17.7453 -17.6301 -17.6291 -17.4757 -17.4662
   -17.3911 -17.3124 -17.2348 -16.9296 -16.3943  -6.4620  -6.2433  -6.1590
    -6.0879  -6.0313  -5.9257  -5.7835  -5.7147  -5.6085  -5.5030  -5.3534
    -5.0613  -4.9874  -4.7953  -4.5874  -4.5560  -4.4398  -4.2341  -4.0779
    -3.9251  -3.7869  -3.6408  -3.4682  -3.3990  -3.2764  -3.2668  -3.1138
    -2.9527  -2.7092  -2.4904  -2.4594  -2.3375  -2.0599  -2.0281  -1.9511
    -1.7037  -1.6125  -1.5508  -1.1278  -1.0820  -1.0294  -0.9622  -0.8343
    -0.8299  -0.4504  -0.3202  -0.2119  -0.1372   0.0082   0.0544   0.3248
     0.4255   0.4350   0.5543   0.7234   0.8099   0.8923   1.2252   2.2625
     2.6423   3.0331

          k = 0.3333 0.1166 0.0000 ( 37206 PWs)   bands (ev):

   -73.3521 -73.3002 -73.2494 -73.2476 -73.2474 -73.1865 -44.7234 -44.7125
   -44.6692 -44.6653 -44.6310 -44.6138 -44.6074 -44.5951 -44.5848 -44.5788
   -44.5757 -44.5608 -44.5523 -44.5445 -44.5157 -44.4893 -44.4543 -44.4159
   -18.2520 -18.0984 -17.9389 -17.8107 -17.7387 -17.6213 -17.5422 -17.4687
   -17.4169 -17.2931 -17.2178 -16.9300 -16.3933  -6.4546  -6.0933  -6.0465
    -5.9575  -5.9176  -5.8796  -5.8047  -5.7737  -5.6740  -5.5140  -5.3848
    -5.0134  -4.9430  -4.7233  -4.5923  -4.4710  -4.3497  -4.3137  -4.0376
    -3.9084  -3.8214  -3.7056  -3.5234  -3.4917  -3.3610  -3.1842  -3.1032
    -3.0429  -2.9028  -2.6698  -2.4088  -2.3265  -2.2136  -2.1270  -1.9634
    -1.7410  -1.6813  -1.5581  -1.0761  -0.9659  -0.9159  -0.8452  -0.7989
    -0.7404  -0.6432  -0.4728  -0.3032  -0.1902  -0.1087   0.0899   0.2653
     0.4861   0.6111   0.6630   0.7136   0.7867   0.8359   1.3190   2.3121
     2.3537   2.4941

          k = 0.3333-0.2332 0.0000 ( 37216 PWs)   bands (ev):

   -73.3520 -73.3002 -73.2495 -73.2476 -73.2475 -73.1865 -44.7234 -44.7127
   -44.6700 -44.6656 -44.6322 -44.6138 -44.6076 -44.5950 -44.5848 -44.5775
   -44.5756 -44.5591 -44.5525 -44.5439 -44.5159 -44.4908 -44.4535 -44.4159
   -18.0898 -18.0206 -17.9937 -17.8473 -17.8010 -17.6946 -17.5743 -17.5226
   -17.4006 -17.2804 -17.2087 -16.9307 -16.3924  -6.4559  -6.0763  -6.0657
    -5.9815  -5.8313  -5.8273  -5.6423  -5.5786  -5.4453  -5.3053  -5.3010
    -5.1567  -4.9774  -4.9710  -4.6851  -4.5004  -4.2962  -4.2388  -4.1496
    -3.9884  -3.8063  -3.5706  -3.5179  -3.4680  -3.3980  -3.3180  -3.1342
    -3.0879  -3.0029  -2.6253  -2.4886  -2.4656  -2.2919  -2.2562  -2.0161
    -1.9859  -1.4732  -1.4644  -1.0803  -1.0436  -0.9543  -0.8996  -0.6680
    -0.6026  -0.5625  -0.4848  -0.4709  -0.2341  -0.0786   0.1249   0.1573
     0.5466   0.5776   0.6785   0.7800   0.8450   0.8538   1.3933   2.0763
     2.0804   2.1408

          k = 0.4444 0.0000 0.0000 ( 37180 PWs)   bands (ev):

   -73.3493 -73.2977 -73.2467 -73.2449 -73.2448 -73.1838 -44.7208 -44.7087
   -44.6999 -44.6648 -44.6396 -44.6260 -44.6160 -44.6058 -44.6000 -44.5937
   -44.5867 -44.5748 -44.5701 -44.5470 -44.5105 -44.4900 -44.4826 -44.4100
   -17.9656 -17.8623 -17.7835 -17.6825 -17.6652 -17.6334 -17.5227 -17.4745
   -17.4419 -17.3290 -17.1689 -16.9222 -16.3598  -6.7987  -6.2396  -6.0820
    -6.0728  -5.8416  -5.8040  -5.7751  -5.7497  -5.6521  -5.5570  -5.5087
    -5.4219  -4.9305  -4.9055  -4.7591  -4.6423  -4.3870  -4.0541  -3.8243
    -3.8151  -3.7685  -3.6946  -3.6882  -3.5305  -3.2065  -2.9520  -2.8803
    -2.8439  -2.7644  -2.5425  -2.4507  -2.3736  -2.3217  -2.1076  -2.0409
    -1.7636  -1.7190  -1.5291  -1.1856  -1.1523  -1.1076  -1.0343  -0.9426
    -0.8295  -0.8045  -0.7622  -0.2566  -0.0013   0.0137   0.1297   0.1573
     0.2308   0.3748   0.6731   0.7889   0.9978   1.0725   1.1172   2.0626
     2.6911   2.8871

          k = 0.4444 0.1166 0.0000 ( 37248 PWs)   bands (ev):

   -73.3493 -73.2977 -73.2467 -73.2449 -73.2448 -73.1838 -44.7208 -44.7099
   -44.7001 -44.6677 -44.6398 -44.6312 -44.6133 -44.6055 -44.5948 -44.5937
   -44.5860 -44.5745 -44.5699 -44.5467 -44.5102 -44.4936 -44.4790 -44.4100
   -17.9515 -17.8500 -17.7980 -17.7028 -17.6783 -17.6262 -17.5421 -17.4580
   -17.4345 -17.3167 -17.1808 -16.9240 -16.3593  -6.8013  -6.4147  -6.2677
    -6.1965  -6.1358  -6.0249  -5.6534  -5.6164  -5.4979  -5.3968  -5.2428
    -4.9843  -4.8811  -4.8444  -4.5803  -4.4672  -4.2630  -4.2045  -4.0198
    -3.8538  -3.7988  -3.6464  -3.5710  -3.3651  -3.2490  -2.9200  -2.8342
    -2.7915  -2.6621  -2.5786  -2.5165  -2.3935  -2.3031  -2.1538  -2.0590
    -1.9217  -1.7789  -1.6118  -1.1583  -1.1133  -1.0740  -1.0630  -1.0323
    -0.9036  -0.8222  -0.8131  -0.7445  -0.5260  -0.4537  -0.0926   0.1637
     0.7122   0.7840   0.8143   0.9231   0.9385   1.0922   1.1591   2.1099
     2.1772   2.2971

          k = 0.4444-0.2332 0.0000 ( 37264 PWs)   bands (ev):

   -73.3493 -73.2977 -73.2468 -73.2450 -73.2448 -73.1838 -44.7208 -44.7110
   -44.7003 -44.6704 -44.6401 -44.6351 -44.6111 -44.6049 -44.5937 -44.5908
   -44.5853 -44.5741 -44.5696 -44.5465 -44.5099 -44.4959 -44.4767 -44.4100
   -17.9339 -17.8412 -17.8043 -17.7334 -17.6919 -17.6063 -17.5664 -17.4394
   -17.4343 -17.3023 -17.1949 -16.9259 -16.3588  -6.8059  -6.5114  -6.5066
    -6.4079  -6.0858  -6.0856  -5.3795  -5.3713  -5.3010  -5.2891  -5.2348
    -5.1451  -5.0743  -4.6040  -4.4231  -4.3497  -4.1937  -4.0521  -3.9832
    -3.7973  -3.7398  -3.5732  -3.3745  -3.3192  -3.2062  -3.0647  -2.9110
    -2.8456  -2.7751  -2.7492  -2.4712  -2.4011  -2.2755  -2.1515  -2.0274
    -1.8094  -1.7954  -1.6125  -1.3555  -1.1752  -1.1591  -1.1242  -1.0648
    -1.0493  -1.0061  -0.9599  -0.8467  -0.7767  -0.6324  -0.1996   0.1897
     0.7972   0.8354   0.9205   1.0595   1.0686   1.0716   1.2321   1.8675
     1.8883   1.9379

 ------ SPIN DOWN ----------


          k = 0.0000 0.0000 0.0000 ( 37133 PWs)   bands (ev):

   -71.0829 -70.8770 -70.8331 -70.7721 -70.7175 -70.4045 -42.5933 -42.5047
   -42.4903 -42.3766 -42.3713 -42.3033 -42.2704 -42.2272 -42.1076 -42.0513
   -41.9890 -41.9697 -41.9133 -41.8313 -41.8173 -41.8036 -41.7012 -41.6002
   -19.3316 -19.0562 -18.7611 -18.3598 -18.2537 -17.9184 -17.7954 -17.6653
   -17.5490 -17.4815 -17.4470 -17.2205 -16.8768  -6.5642  -6.4369  -6.3481
    -5.8690  -5.4459  -5.3088  -5.1051  -5.0168  -4.7078  -4.6499  -4.5286
    -4.4923  -4.3977  -4.3303  -4.2282  -3.9044  -3.8166  -3.5884  -3.3868
    -3.2187  -3.1109  -2.9408  -2.9152  -2.6609  -2.5537  -2.3463  -2.3329
    -2.2358  -2.0434  -1.9277  -1.7580  -1.7265  -1.6143  -1.4060  -1.3824
    -1.2638  -1.2165  -1.0543  -0.7436   1.8972   1.9675   2.0011   2.0878
     2.1415   2.1686   2.1902   2.2718   2.5332   2.5466   2.5740   2.5781
     2.7273   2.8050   2.9389   2.9966   3.2165   3.4961   3.5714   3.7726
     4.2174   4.7332

          k = 0.0000 0.1166 0.0000 ( 37130 PWs)   bands (ev):

   -71.0830 -70.8770 -70.8332 -70.7721 -70.7176 -70.4045 -42.5918 -42.5047
   -42.4896 -42.3766 -42.3699 -42.3033 -42.2720 -42.2272 -42.1076 -42.0512
   -41.9905 -41.9698 -41.9133 -41.8306 -41.8180 -41.8036 -41.7020 -41.6002
   -19.2130 -18.9473 -18.6737 -18.4768 -18.3321 -18.0854 -17.9276 -17.5940
   -17.5715 -17.4478 -17.4306 -17.2195 -16.8687  -6.2887  -6.1708  -6.0735
    -5.8519  -5.4496  -5.2433  -5.0711  -4.9697  -4.6190  -4.4967  -4.4807
    -4.4671  -4.3919  -4.3261  -4.2296  -4.0471  -3.8851  -3.7448  -3.6707
    -3.4106  -3.1515  -3.0767  -2.8865  -2.6982  -2.5986  -2.4269  -2.3451
    -2.2227  -2.1514  -2.0793  -1.9651  -1.8113  -1.6394  -1.5824  -1.5553
    -1.4264  -1.3079  -1.1390  -0.8524   2.0537   2.2033   2.2208   2.3048
     2.3597   2.4016   2.4126   2.5310   2.5481   2.5581   2.5867   2.6474
     2.7514   2.8071   2.9893   3.0494   3.1304   3.3483   3.6240   3.8173
     4.4222   4.7720

          k = 0.0000-0.2332 0.0000 ( 37126 PWs)   bands (ev):

   -71.0830 -70.8771 -70.8332 -70.7721 -70.7176 -70.4045 -42.5902 -42.5047
   -42.4889 -42.3766 -42.3685 -42.3033 -42.2736 -42.2271 -42.1076 -42.0512
   -41.9919 -41.9698 -41.9133 -41.8298 -41.8188 -41.8036 -41.7027 -41.6002
   -18.9539 -18.8410 -18.7616 -18.4818 -18.4077 -18.2449 -18.1082 -17.5837
   -17.5512 -17.4268 -17.4152 -17.2216 -16.8614  -6.0306  -5.8173  -5.7775
    -5.6414  -5.4676  -5.2565  -5.0830  -4.6431  -4.5867  -4.4617  -4.4454
    -4.3867  -4.3801  -4.3207  -4.2306  -4.0253  -4.0000  -3.9810  -3.9515
    -3.7357  -3.6361  -3.0256  -2.9770  -2.7724  -2.6407  -2.5745  -2.4495
    -2.3318  -2.2111  -2.0848  -2.0162  -1.9874  -1.7782  -1.6886  -1.6015
    -1.4704  -1.1449  -1.1238  -1.0894   2.0451   2.4093   2.4561   2.5056
     2.5599   2.5690   2.5979   2.6227   2.6546   2.6586   2.7029   2.7071
     2.8114   2.8492   2.8623   2.9868   3.2566   3.3961   3.4439   4.1861
     4.4110   4.8106

          k = 0.1111 0.0000 0.0000 ( 37175 PWs)   bands (ev):

   -71.0813 -70.8755 -70.8316 -70.7706 -70.7160 -70.4029 -42.5913 -42.5032
   -42.4886 -42.3726 -42.3694 -42.3021 -42.2668 -42.2490 -42.1035 -42.0472
   -41.9852 -41.9684 -41.9355 -41.8530 -41.8387 -41.8256 -41.6969 -41.6235
   -19.2219 -18.9577 -18.6757 -18.2954 -18.1894 -17.8582 -17.7588 -17.6871
   -17.5695 -17.4917 -17.4689 -17.2469 -16.8956  -6.4431  -6.3365  -6.2552
    -5.7874  -5.3931  -5.2563  -5.1369  -5.0798  -5.0069  -4.8043  -4.7537
    -4.6383  -4.3505  -4.3231  -4.2412  -3.5942  -3.4903  -3.3921  -3.2291
    -3.1919  -3.0945  -2.9921  -2.9562  -2.9054  -2.7603  -2.6197  -2.3921
    -2.2556  -2.1959  -2.0155  -2.0134  -1.8540  -1.7887  -1.6082  -1.5649
    -1.3263  -1.2228  -1.1989  -0.8321   1.9551   2.0779   2.1823   2.2181
     2.2257   2.2798   2.3086   2.3288   2.5375   2.5792   2.5925   2.7198
     2.8224   2.9115   2.9152   3.0872   3.1357   3.4123   3.6700   3.6901
     4.2760   4.7303

          k = 0.1111 0.1166 0.0000 ( 37124 PWs)   bands (ev):

   -71.0814 -70.8755 -70.8316 -70.7706 -70.7160 -70.4029 -42.5900 -42.5031
   -42.4880 -42.3726 -42.3682 -42.3021 -42.2685 -42.2486 -42.1035 -42.0472
   -41.9865 -41.9684 -41.9355 -41.8524 -41.8393 -41.8256 -41.6975 -41.6235
   -19.1078 -18.8540 -18.5915 -18.4016 -18.2709 -18.0301 -17.8833 -17.6085
   -17.5925 -17.4620 -17.4482 -17.2456 -16.8879  -6.1713  -6.0624  -5.9728
    -5.7693  -5.3968  -5.2026  -5.1605  -5.0388  -4.8791  -4.7693  -4.7097
    -4.5259  -4.3637  -4.2387  -4.2140  -3.7129  -3.6401  -3.5709  -3.4814
    -3.3535  -3.2472  -3.0556  -3.0364  -2.9821  -2.8685  -2.7436  -2.4749
    -2.3185  -2.2866  -2.1385  -2.0818  -1.9710  -1.8945  -1.6082  -1.5383
    -1.4235  -1.2879  -1.1665  -0.9090   2.1170   2.1619   2.2974   2.3895
     2.4181   2.4584   2.5128   2.5597   2.5970   2.6350   2.6630   2.7637
     2.8616   2.9302   2.9924   3.0135   3.1923   3.2843   3.5631   3.8707
     4.4188   4.6969

          k = 0.1111-0.2332 0.0000 ( 37144 PWs)   bands (ev):

   -71.0814 -70.8755 -70.8316 -70.7706 -70.7161 -70.4029 -42.5887 -42.5031
   -42.4874 -42.3727 -42.3670 -42.3021 -42.2702 -42.2483 -42.1035 -42.0472
   -41.9878 -41.9684 -41.9355 -41.8517 -41.8399 -41.8256 -41.6982 -41.6235
   -18.8603 -18.7471 -18.6792 -18.4074 -18.3415 -18.1840 -18.0574 -17.6059
   -17.5663 -17.4410 -17.4321 -17.2475 -16.8811  -5.9337  -5.6869  -5.6732
    -5.5313  -5.4084  -5.2436  -5.1706  -4.8562  -4.7955  -4.6915  -4.6799
    -4.4061  -4.3045  -4.1803  -4.1077  -3.9850  -3.8285  -3.7716  -3.7068
    -3.6369  -3.5500  -3.3612  -3.2601  -3.0906  -2.9801  -2.7379  -2.6463
    -2.4100  -2.3192  -2.1909  -2.1564  -1.9177  -1.8231  -1.6396  -1.5669
    -1.4370  -1.1659  -1.1635  -1.0827   2.1447   2.3523   2.3539   2.4470
     2.5339   2.5674   2.6487   2.6732   2.6927   2.7848   2.8275   2.8951
     2.9350   2.9700   2.9924   3.0553   3.2334   3.3216   3.4669   4.1957
     4.3379   4.4450

          k = 0.2222 0.0000 0.0000 ( 37192 PWs)   bands (ev):

   -71.0772 -70.8714 -70.8275 -70.7666 -70.7119 -70.3986 -42.5864 -42.4992
   -42.4842 -42.3646 -42.3630 -42.3084 -42.2944 -42.2575 -42.0932 -42.0370
   -41.9914 -41.9755 -41.9653 -41.9082 -41.8925 -41.8814 -41.6860 -41.6826
   -18.9216 -18.6938 -18.4518 -18.1379 -18.0227 -17.7437 -17.7105 -17.6944
   -17.6223 -17.5250 -17.5075 -17.3143 -16.9309  -6.1278  -6.0848  -6.0390
    -5.6936  -5.4039  -5.3920  -5.2626  -5.2454  -5.1564  -4.9746  -4.7412
    -4.6265  -4.3414  -4.1946  -4.0488  -3.9585  -3.7636  -3.6348  -3.4420
    -3.3102  -3.2006  -3.1849  -2.9193  -2.8210  -2.8017  -2.6675  -2.6490
    -2.4986  -2.3814  -2.1688  -2.1423  -2.0610  -1.9573  -1.9159  -1.6349
    -1.5891  -1.4138  -1.2770  -1.1018   1.8780   2.1391   2.3763   2.4105
     2.4723   2.5077   2.5298   2.6117   2.7238   2.7445   2.7570   2.7823
     2.8828   2.9403   2.9473   3.1551   3.2093   3.3056   3.4624   3.9067
     4.1953   4.4773

          k = 0.2222 0.1166 0.0000 ( 37137 PWs)   bands (ev):

   -71.0772 -70.8714 -70.8275 -70.7666 -70.7119 -70.3986 -42.5857 -42.4992
   -42.4839 -42.3641 -42.3629 -42.3088 -42.2945 -42.2580 -42.0932 -42.0370
   -41.9914 -41.9767 -41.9653 -41.9076 -41.8926 -41.8812 -41.6864 -41.6825
   -18.8222 -18.6068 -18.3780 -18.2140 -18.1166 -17.9052 -17.7908 -17.6492
   -17.6277 -17.4967 -17.4839 -17.3129 -16.9255  -5.8978  -5.8129  -5.7701
    -5.6238  -5.4186  -5.2649  -5.2397  -5.1631  -5.1192  -4.9397  -4.8834
    -4.3702  -4.3170  -4.2161  -4.1514  -3.9737  -3.8751  -3.7909  -3.5634
    -3.4921  -3.3341  -3.2105  -3.1221  -3.0693  -3.0132  -2.8740  -2.8035
    -2.7248  -2.4236  -2.1864  -2.1084  -1.9983  -1.8436  -1.7809  -1.6528
    -1.4792  -1.3875  -1.3341  -1.0992   1.9435   2.1956   2.3468   2.3864
     2.4639   2.5225   2.5958   2.7216   2.7617   2.8312   2.8630   2.9546
     2.9997   3.0291   3.0577   3.1594   3.1887   3.2990   3.4531   4.0136
     4.1705   4.3323

          k = 0.2222-0.2332 0.0000 ( 37166 PWs)   bands (ev):

   -71.0772 -70.8714 -70.8275 -70.7666 -70.7119 -70.3986 -42.5850 -42.4991
   -42.4837 -42.3636 -42.3629 -42.3091 -42.2947 -42.2584 -42.0932 -42.0370
   -41.9915 -41.9778 -41.9653 -41.9070 -41.8926 -41.8811 -41.6867 -41.6823
   -18.6107 -18.4994 -18.4645 -18.2272 -18.1739 -18.0406 -17.9278 -17.6648
   -17.5951 -17.4744 -17.4689 -17.3144 -16.9207  -5.7989  -5.5240  -5.4802
    -5.3383  -5.2157  -5.2062  -5.1871  -4.9963  -4.9852  -4.8752  -4.8490
    -4.4194  -4.3155  -4.3118  -4.2079  -4.1959  -4.1383  -3.8031  -3.7965
    -3.6944  -3.6202  -3.5113  -3.2678  -3.1890  -3.1066  -2.9943  -2.9178
    -2.8537  -2.4832  -2.1850  -2.1564  -1.8657  -1.7552  -1.6678  -1.5525
    -1.4975  -1.4178  -1.2889  -1.1046   2.0857   2.1379   2.2665   2.4139
     2.4219   2.4900   2.6971   2.7337   2.7674   2.9880   3.0527   3.0953
     3.1300   3.1331   3.1986   3.2473   3.2598   3.3637   3.4969   3.8685
     3.9566   4.0649

          k = 0.3333 0.0000 0.0000 ( 37184 PWs)   bands (ev):

   -71.0723 -70.8665 -70.8225 -70.7617 -70.7070 -70.3934 -42.5809 -42.4947
   -42.4792 -42.3735 -42.3592 -42.3464 -42.2936 -42.2470 -42.0815 -42.0548
   -42.0255 -41.9711 -41.9671 -41.9644 -41.9479 -41.9446 -41.7498 -41.6735
   -18.5160 -18.3549 -18.1805 -17.9654 -17.8580 -17.8104 -17.6834 -17.6774
   -17.5899 -17.5668 -17.5097 -17.3881 -16.9371  -6.2098  -5.8606  -5.7411
    -5.6261  -5.5052  -5.4214  -5.3575  -5.2706  -5.1184  -4.9356  -4.8553
    -4.7222  -4.4864  -4.3548  -4.1929  -4.0625  -4.0459  -3.8724  -3.6646
    -3.5198  -3.4618  -3.2893  -3.0720  -3.0345  -2.8699  -2.8299  -2.6545
    -2.6484  -2.3187  -2.3061  -2.0942  -2.0779  -1.8940  -1.7649  -1.7645
    -1.6314  -1.6009  -1.4683  -1.4552   1.8989   2.0529   2.3111   2.5246
     2.5315   2.6609   2.6953   2.7270   2.8253   2.8447   2.9162   2.9444
     3.0255   3.0545   3.1720   3.1933   3.2245   3.2771   3.3779   3.8242
     4.1250   4.4257

          k = 0.3333 0.1166 0.0000 ( 37206 PWs)   bands (ev):

   -71.0723 -70.8665 -70.8225 -70.7617 -70.7070 -70.3934 -42.5808 -42.4947
   -42.4794 -42.3738 -42.3594 -42.3464 -42.2936 -42.2470 -42.0815 -42.0549
   -42.0255 -41.9711 -41.9699 -41.9629 -41.9465 -41.9442 -41.7495 -41.6736
   -18.4445 -18.2986 -18.1304 -18.0206 -17.9471 -17.8190 -17.7590 -17.6768
   -17.6283 -17.5217 -17.4968 -17.3904 -16.9360  -6.1913  -5.6117  -5.5323
    -5.4831  -5.4468  -5.3673  -5.3144  -5.1989  -5.1412  -5.0352  -4.8433
    -4.6642  -4.5587  -4.4440  -4.2767  -4.1537  -4.0229  -3.8868  -3.7170
    -3.6128  -3.4043  -3.3380  -3.1961  -3.1474  -3.0129  -2.8652  -2.7739
    -2.4899  -2.4357  -2.2831  -2.1375  -2.0418  -1.9967  -1.8685  -1.7394
    -1.5946  -1.5195  -1.4945  -1.3478   1.8608   1.9996   2.1516   2.2988
     2.3839   2.5984   2.7008   2.7202   2.8038   3.0064   3.0393   3.0986
     3.1028   3.1499   3.1732   3.2285   3.3080   3.3582   3.4591   3.8113
     3.9921   4.0679

          k = 0.3333-0.2332 0.0000 ( 37216 PWs)   bands (ev):

   -71.0723 -70.8665 -70.8225 -70.7617 -70.7070 -70.3934 -42.5808 -42.4947
   -42.4795 -42.3741 -42.3596 -42.3465 -42.2936 -42.2471 -42.0815 -42.0550
   -42.0255 -41.9732 -41.9695 -41.9624 -41.9453 -41.9438 -41.7492 -41.6737
   -18.2958 -18.2100 -18.2076 -18.0499 -17.9895 -17.8983 -17.7852 -17.7327
   -17.6104 -17.5068 -17.4852 -17.3942 -16.9349  -6.1816  -5.4269  -5.3865
    -5.3177  -5.2500  -5.2491  -5.1991  -5.1650  -5.0430  -4.9338  -4.8955
    -4.6815  -4.6427  -4.6325  -4.3479  -4.2634  -4.0212  -3.9529  -3.8285
    -3.8253  -3.6185  -3.3714  -3.2417  -3.1147  -2.9687  -2.9600  -2.7663
    -2.7248  -2.4007  -2.2752  -2.1789  -1.9981  -1.9584  -1.9039  -1.7545
    -1.6465  -1.4746  -1.4521  -1.2416   1.8213   1.9273   1.9677   2.1784
     2.3725   2.6030   2.6074   2.7282   2.8134   3.0590   3.0962   3.1831
     3.2223   3.2802   3.3199   3.3232   3.3371   3.4621   3.5503   3.5787
     3.6758   3.7891

          k = 0.4444 0.0000 0.0000 ( 37180 PWs)   bands (ev):

   -71.0689 -70.8631 -70.8192 -70.7584 -70.7036 -70.3899 -42.5773 -42.4918
   -42.4760 -42.4126 -42.3557 -42.3405 -42.2915 -42.2400 -42.0960 -42.0741
   -42.0200 -42.0098 -41.9973 -41.9859 -41.9571 -41.9551 -41.7936 -41.6654
   -18.1458 -18.0784 -17.9846 -17.8787 -17.8552 -17.8422 -17.7239 -17.6897
   -17.6328 -17.5697 -17.4569 -17.4203 -16.9143  -6.5356  -5.8153  -5.5873
    -5.5499  -5.4906  -5.4761  -5.3883  -5.1907  -5.1602  -5.1464  -5.0193
    -4.7239  -4.6012  -4.4529  -4.3352  -4.1898  -4.0365  -3.7529  -3.5174
    -3.5164  -3.4910  -3.4777  -3.3000  -3.2820  -2.8091  -2.7645  -2.6337
    -2.4670  -2.4290  -2.3374  -2.2133  -2.1850  -1.9955  -1.9880  -1.8474
    -1.6872  -1.5909  -1.5544  -1.3773   2.0128   2.1452   2.2288   2.3178
     2.4051   2.6438   2.6644   2.7303   2.8613   2.9835   2.9968   3.0628
     3.1050   3.1733   3.2645   3.2696   3.2787   3.3668   3.5474   3.6471
     4.1193   4.3683

          k = 0.4444 0.1166 0.0000 ( 37248 PWs)   bands (ev):

   -71.0689 -70.8631 -70.8192 -70.7584 -70.7036 -70.3898 -42.5777 -42.4918
   -42.4764 -42.4129 -42.3565 -42.3405 -42.2915 -42.2398 -42.0962 -42.0741
   -42.0198 -42.0092 -41.9986 -41.9854 -41.9573 -41.9537 -41.7932 -41.6653
   -18.1232 -18.0655 -17.9956 -17.8997 -17.8660 -17.8356 -17.7518 -17.6691
   -17.6378 -17.5549 -17.4597 -17.4324 -16.9142  -6.5276  -5.8048  -5.6557
    -5.6175  -5.4731  -5.4506  -5.2943  -5.2148  -5.1753  -5.0314  -4.9078
    -4.6426  -4.4940  -4.4306  -4.1682  -4.1149  -3.9960  -3.9254  -3.7764
    -3.6764  -3.5523  -3.4478  -3.3444  -3.0102  -2.8898  -2.7424  -2.5793
    -2.4211  -2.3640  -2.3239  -2.2069  -2.1711  -2.1426  -1.9534  -1.8808
    -1.7522  -1.7091  -1.5786  -1.4032   1.8668   1.9542   2.0566   2.0849
     2.1886   2.4628   2.6814   2.7484   2.9264   3.0235   3.1154   3.1572
     3.2149   3.2328   3.2491   3.2953   3.3171   3.4574   3.5715   3.6677
     3.8030   3.9032

          k = 0.4444-0.2332 0.0000 ( 37264 PWs)   bands (ev):

   -71.0689 -70.8631 -70.8192 -70.7584 -70.7035 -70.3898 -42.5781 -42.4918
   -42.4768 -42.4133 -42.3573 -42.3405 -42.2915 -42.2396 -42.0963 -42.0741
   -42.0197 -42.0085 -41.9999 -41.9850 -41.9574 -41.9525 -41.7927 -41.6653
   -18.0863 -18.0534 -18.0204 -17.9076 -17.8940 -17.8188 -17.7770 -17.6520
   -17.6463 -17.5388 -17.4627 -17.4471 -16.9142  -6.5216  -5.8335  -5.7670
    -5.6977  -5.4683  -5.4443  -5.0690  -5.0562  -4.9736  -4.8492  -4.8246
    -4.7138  -4.6667  -4.2725  -4.2517  -4.2018  -4.1083  -3.8783  -3.8750
    -3.6887  -3.5668  -3.4142  -3.2889  -3.0957  -2.7856  -2.6108  -2.5280
    -2.5041  -2.3849  -2.3687  -2.3262  -2.1661  -2.0871  -2.0554  -1.8007
    -1.7610  -1.7195  -1.7089  -1.4375   1.6743   1.7670   1.8309   1.9991
     2.1375   2.3822   2.6833   2.7405   2.9096   3.0127   3.1182   3.1602
     3.1994   3.2415   3.2536   3.3775   3.4132   3.5417   3.5605   3.6189
     3.7017   3.7466

     the Fermi energy is     0.0994 ev

!    total energy              =   -1595.68690121 Ry
     estimated scf accuracy    <       0.00000061 Ry
     smearing contrib. (-TS)   =      -0.00077120 Ry
     internal energy E=F+TS    =   -1595.68613001 Ry

     The total energy is F=E-TS. E is the sum of the following terms:
     one-electron contribution =  -15593.08545921 Ry
     hartree contribution      =    7820.86841986 Ry
     xc contribution           =    -231.36668802 Ry
     ewald contribution        =    6530.92609983 Ry
     Hubbard energy            =       0.71784652 Ry
     one-center paw contrib.   =    -123.74634897 Ry

     total magnetization       =    11.00 Bohr mag/cell
     absolute magnetization    =    16.65 Bohr mag/cell

     convergence has been achieved in  26 iterations

     negative rho (up, down):  2.322E-03 2.186E-02
     force_hub    :     31.69s CPU     31.81s WALL (       1 calls)
     dndtau       :     27.00s CPU     27.04s WALL (     480 calls)
     dprojdtau    :      2.15s CPU      2.16s WALL (    2880 calls)
     matel_dSdtau :     24.81s CPU     24.85s WALL (     480 calls)

     Forces acting on atoms (cartesian axes, Ry/au):

     atom    1 type  1   force =     0.00001818    0.00000000    0.09769640
     atom    2 type  1   force =     0.00031144    0.00000000   -0.07610868
     atom    3 type  1   force =     0.00063816    0.00000000    0.00527794
     atom    4 type  1   force =    -0.00000644    0.00000000    0.00236556
     atom    5 type  1   force =    -0.00130438    0.00000000    0.01136706
     atom    6 type  1   force =     0.00005720    0.00000000    0.02329935
     atom    7 type  3   force =    -0.00151113    0.00000000    0.04160442
     atom    8 type  3   force =    -0.00022532    0.00000000    0.04041028
     atom    9 type  3   force =    -0.00001758    0.00897197   -0.03788375
     atom   10 type  3   force =    -0.00001758   -0.00897197   -0.03788375
     atom   11 type  3   force =    -0.00112097    0.00000000   -0.00742045
     atom   12 type  3   force =    -0.00192220    0.00000000   -0.00973290
     atom   13 type  3   force =     0.00101974    0.00159795   -0.00073329
     atom   14 type  3   force =     0.00101974   -0.00159795   -0.00073329
     atom   15 type  3   force =     0.00071157    0.00000000   -0.02863751
     atom   16 type  3   force =     0.00103834    0.00000000   -0.00416848
     atom   17 type  3   force =     0.00009054    0.00429417   -0.00043429
     atom   18 type  3   force =     0.00009054   -0.00429417   -0.00043429
     atom   19 type  3   force =     0.00101290    0.00000000   -0.01861751
     atom   20 type  2   force =     0.00011722    0.00000000    0.00076717

     Total force =     0.044686     Total SCF correction =     0.002355

     Writing all to output data dir ./tmp_s0_OH__u0.5/s0_OH__u0.5.save/ :
     XML data file, charge density, pseudopotentials, collected wavefunctions

     init_run     :     55.57s CPU     58.11s WALL (       1 calls)
     electrons    :   2969.57s CPU   3034.73s WALL (       1 calls)
     forces       :     48.39s CPU     49.66s WALL (       1 calls)

     Called by init_run:
     wfcinit      :     43.31s CPU     44.63s WALL (       1 calls)
     potinit      :      4.78s CPU      5.34s WALL (       1 calls)
     hinit0       :      3.88s CPU      3.98s WALL (       1 calls)

     Called by electrons:
     c_bands      :   2205.80s CPU   2239.64s WALL (      26 calls)
     sum_band     :    502.36s CPU    516.70s WALL (      26 calls)
     v_of_rho     :     69.97s CPU     75.22s WALL (      27 calls)
     newd         :     41.04s CPU     51.40s WALL (      27 calls)
     PAW_pot      :     26.77s CPU     26.79s WALL (      27 calls)
     mix_rho      :    121.72s CPU    123.34s WALL (      26 calls)

     Called by c_bands:
     init_us_2    :     36.76s CPU     36.99s WALL (     448 calls)
     cegterg      :   1832.07s CPU   1864.80s WALL (     208 calls)

     Called by *egterg:
     cdiaghg      :     10.56s CPU     10.58s WALL (     826 calls)
     h_psi        :   1454.24s CPU   1468.98s WALL (     834 calls)
     s_psi        :     91.05s CPU     91.07s WALL (     850 calls)
     g_psi        :     11.13s CPU     11.15s WALL (     618 calls)

     Called by h_psi:
     h_psi:calbec :     95.12s CPU     95.28s WALL (     834 calls)
     vloc_psi     :   1218.48s CPU   1220.42s WALL (     834 calls)
                                        0.00s GPU  (     834 calls)
     add_vuspsi   :     90.20s CPU     90.24s WALL (     834 calls)
     vhpsi        :     42.53s CPU     42.66s WALL (     834 calls)

     General routines
     calbec       :    190.45s CPU    190.79s WALL (    4060 calls)
     fft          :     25.75s CPU     25.79s WALL (     688 calls)
     ffts         :     39.27s CPU     39.35s WALL (    3181 calls)
     fftw         :   1193.18s CPU   1194.45s WALL (  107264 calls)
     interpolate  :      4.62s CPU      4.65s WALL (      54 calls)

     Parallel routines

     Hubbard U routines
     new_ns       :     11.86s CPU     12.25s WALL (      26 calls)
     vhpsi        :     42.53s CPU     42.66s WALL (     834 calls)
     force_hub    :     31.69s CPU     31.81s WALL (       1 calls)

     PWSCF        :  51m14.00s CPU  52m23.31s WALL


   This run was terminated on:  11: 1: 9   7Aug2026            

=------------------------------------------------------------------------------=
   JOB DONE.
=------------------------------------------------------------------------------=
