
     Program PWSCF v.7.5 starts on 16Sep2026 at 21:59:16 

     This program is part of the open-source Quantum ESPRESSO suite
     for quantum simulation of materials; please cite
         "P. Giannozzi et al., J. Phys.:Condens. Matter 21 395502 (2009);
         "P. Giannozzi et al., J. Phys.:Condens. Matter 29 465901 (2017);
         "P. Giannozzi et al., J. Chem. Phys. 152 154105 (2020);
          URL http://www.quantum-espresso.org", 
     in publications or presentations arising from this work. More details at
     http://www.quantum-espresso.org/quote

     Parallel version (MPI & OpenMP), running on     128 processor cores
     Number of MPI processes:               128
     Threads/MPI process:                     1

     MPI processes distributed on     1 nodes
     221697 MiB available memory on the printing compute node when the environment starts

     Reading input from /anvil/projects/x-che260157/sts/runs/s5/Ru/s0_O__2x1v_mir__beef.run.in

     Current dimensions of program PWSCF are:
     Max number of different atomic species (ntypx) = 10
     Max number of k-points (npk) =  40000
     Max angular momentum in pseudopotentials (lmaxx) =  4
     file O.pbe-n-kjpaw_psl.0.1.UPF: wavefunction(s)  2P renormalized

     **************************************************************************
     Initializing libbeef V0.1.2 with the BEEF-vdW functional.
     Citation: Wellendorff et al., PRB 85, 235149 (2012).
     **************************************************************************


     IMPORTANT: XC functional enforced from input :
     Exchange-correlation= BEEF-VDW
                           (   1   4  43  14   2   0   0)
     Any further DFT definition will be discarded
     Please, verify this is what you really want

     Message from routine setup:
     using ibrav=0 with symmetry is DISCOURAGED, use correct ibrav instead

     K-points division:     npool     =       8
     R & G space division:  proc/nbgrp/npool/nimage =      16
     Subspace diagonalization in iterative solution of the eigenvalue problem:
     one sub-group per band group will be used
     ELPA distributed-memory algorithm (size of sub-group:  2*  2 procs)


     Parallelization info
     --------------------
     sticks:   dense  smooth     PW     G-vecs:    dense   smooth      PW
     Min         449     224     60               115683    40894    5778
     Max         450     225     61               115694    40903    5789
     Sum        7195    3595    973              1851033   654359   92507

     Using Slab Decomposition



     bravais-lattice index     =            0
     lattice parameter (alat)  =      11.7428  a.u.
     unit-cell volume          =    6769.1998 (a.u.)^3
     number of atoms/cell      =           37
     number of atomic types    =            2
     number of electrons       =       342.00
     number of Kohn-Sham states=          205
     kinetic-energy cutoff     =      80.0000  Ry
     charge density cutoff     =     640.0000  Ry
     scf convergence threshold =      1.0E-06
     mixing beta               =       0.3000
     number of iterations used =            8  local-TF  mixing
     Exchange-correlation= BEEF-VDW
                           (   1   4  43  14   2   0   0)

     celldm(1)=  11.742758  celldm(2)=   0.000000  celldm(3)=   0.000000
     celldm(4)=   0.000000  celldm(5)=   0.000000  celldm(6)=   0.000000

     crystal axes: (cart. coord. in units of alat)
               a(1) = (   1.000000   0.000000   0.000000 )  
               a(2) = (   0.000000   1.022312   0.000000 )  
               a(3) = (   0.000000   0.000000   4.089248 )  

     reciprocal axes: (cart. coord. in units 2 pi/alat)
               b(1) = (  1.000000  0.000000  0.000000 )  
               b(2) = (  0.000000  0.978175  0.000000 )  
               b(3) = (  0.000000  0.000000  0.244544 )  


     PseudoPot. # 1 for Ru read from file:
     /anvil/projects/x-che260157/pseudo/Ru_ONCV_PBE-1.0.oncvpsp.upf
     MD5 check sum: be037bb81c227cfb9b1461a9f099f4bd
     Pseudo is Norm-conserving, Zval = 16.0
     Generated using ONCVPSP code by D. R. Hamann
     Using radial grid of 1458 points,  6 beta functions with: 
                l(1) =   0
                l(2) =   0
                l(3) =   1
                l(4) =   1
                l(5) =   2
                l(6) =   2

     PseudoPot. # 2 for O  read from file:
     /anvil/projects/x-che260157/pseudo/O.pbe-n-kjpaw_psl.0.1.UPF
     MD5 check sum: 0234752ac141de4415c5fc33072bef88
     Pseudo is Projector augmented-wave + core cor, Zval =  6.0
     Generated using "atomic" code by A. Dal Corso  v.5.0.99 svn rev. 10869
     Shape of augmentation charge: BESSEL
     Using radial grid of 1095 points,  4 beta functions with: 
                l(1) =   0
                l(2) =   0
                l(3) =   1
                l(4) =   1
     Q(r) pseudized with 0 coefficients 


     atomic species   valence    mass     pseudopotential
     Ru               16.00   101.07000     Ru( 1.00)
     O                 6.00    15.99900     O ( 1.00)

      2 Sym. Ops. (no inversion) found ( 1 have fractional translation)



   Cartesian axes

     site n.     atom                  positions (alat units)
         1        Ru     tau(   1) = (   0.0000000   0.2555780   1.5334681  )
         2        Ru     tau(   2) = (   0.2500000   0.7667341   1.5334681  )
         3        Ru     tau(   3) = (  -0.0001643   0.7667341   2.0506304  )
         4        Ru     tau(   4) = (   0.2458720   0.2555780   2.0426739  )
         5        Ru     tau(   5) = (   0.0002421   0.2555780   2.5969089  )
         6        Ru     tau(   6) = (   0.2539830   0.7667341   2.5728877  )
         7        O      tau(   7) = (   0.0000000   0.7667341   1.7328190  )
         8        O      tau(   8) = (   0.0000000   0.7667341   1.3341173  )
         9        O      tau(   9) = (   0.2500000   0.0562272   1.5334681  )
        10        O      tau(  10) = (   0.2500000   0.4549289   1.5334681  )
        11        O      tau(  11) = (  -0.0000476   0.2555780   2.2507282  )
        12        O      tau(  12) = (   0.0000000   0.2555780   1.8452733  )
        13        O      tau(  13) = (   0.2491358   0.5686091   2.0469532  )
        14        O      tau(  14) = (   0.2491358   0.9648591   2.0469532  )
        15        O      tau(  15) = (  -0.0002600   0.7667341   2.7381692  )
        16        O      tau(  16) = (  -0.0010336   0.7667341   2.3619831  )
        17        O      tau(  17) = (   0.2528793   0.0603839   2.5600684  )
        18        O      tau(  18) = (   0.2528793   0.4507721   2.5600684  )
        19        Ru     tau(  19) = (   0.5000000   0.2555780   1.5334681  )
        20        Ru     tau(  20) = (   0.7500000   0.7667341   1.5334681  )
        21        Ru     tau(  21) = (   0.4999883   0.7667341   2.0482793  )
        22        Ru     tau(  22) = (   0.7539484   0.2555780   2.0422831  )
        23        Ru     tau(  23) = (   0.4997936   0.2555780   2.5336547  )
        24        Ru     tau(  24) = (   0.7445164   0.7667340   2.5748069  )
        25        O      tau(  25) = (   0.5000000   0.7667341   1.7328190  )
        26        O      tau(  26) = (   0.5000000   0.7667341   1.3341173  )
        27        O      tau(  27) = (   0.7500000   0.0562272   1.5334681  )
        28        O      tau(  28) = (   0.7500000   0.4549289   1.5334681  )
        29        O      tau(  29) = (   0.5000038   0.2555779   2.2346981  )
        30        O      tau(  30) = (   0.5000000   0.2555780   1.8452733  )
        31        O      tau(  31) = (   0.7506506   0.5684655   2.0459550  )
        32        O      tau(  32) = (   0.7506506   0.9650027   2.0459550  )
        33        O      tau(  33) = (   0.4994271   0.7667341   2.7653451  )
        34        O      tau(  34) = (   0.5000981   0.7667341   2.3603793  )
        35        O      tau(  35) = (   0.7469336   0.0611816   2.5633573  )
        36        O      tau(  36) = (   0.7469336   0.4499744   2.5633573  )
        37        O      tau(  37) = (   0.0048308   0.2555780   2.8708723  )

     number of k points=     9  Marzari-Vanderbilt smearing, width (Ry)=  0.0100
                       cart. coord. in units 2pi/alat
        k(    1) = (   0.0000000   0.0000000   0.0000000), wk =   0.1250000
        k(    2) = (   0.0000000   0.2445437   0.0000000), wk =   0.2500000
        k(    3) = (   0.0000000  -0.4890874   0.0000000), wk =   0.1250000
        k(    4) = (   0.2500000   0.0000000   0.0000000), wk =   0.2500000
        k(    5) = (   0.2500000   0.2445437   0.0000000), wk =   0.5000000
        k(    6) = (   0.2500000  -0.4890874   0.0000000), wk =   0.2500000
        k(    7) = (  -0.5000000   0.0000000   0.0000000), wk =   0.1250000
        k(    8) = (  -0.5000000   0.2445437   0.0000000), wk =   0.2500000
        k(    9) = (  -0.5000000  -0.4890874   0.0000000), wk =   0.1250000

     Dense  grid:  1851033 G-vectors     FFT dimensions: (  96, 100, 400)

     Smooth grid:   654359 G-vectors     FFT dimensions: (  72,  72, 288)

     Estimated max dynamical RAM per process >     251.19 MB

     Estimated total dynamical RAM >      28.31 GB

     Initial potential from superposition of free atoms

     starting charge     341.9933, renormalised to     342.0000

     negative rho (up, down):  1.849E-04 0.000E+00


     %%%%%%%%%%%%%%%%%%%%%%%%%%%%%%%%%%%%%%%%%%%%%%%%%%%%%%%%%%%%%%%%%%%%%%%%
     %                                                                      %
     % You are using vdW-DF, which was implemented by the Thonhauser group. %
     % Please cite the following two papers that made this development      %
     % possible and the two reviews that describe the various versions:     %
     %                                                                      %
     %   T. Thonhauser et al., PRL 115, 136402 (2015).                      %
     %   T. Thonhauser et al., PRB 76, 125112 (2007).                       %
     %   K. Berland et al., Rep. Prog. Phys. 78, 066501 (2015).             %
     %   D.C. Langreth et al., J. Phys.: Condens. Matter 21, 084203 (2009). %
     %                                                                      %
     % If you are calculating stress with vdW-DF, please also cite:         %
     %                                                                      %
     %   R. Sabatini et al., J. Phys.: Condens. Matter 24, 424209 (2012).   %
     %                                                                      %
     %%%%%%%%%%%%%%%%%%%%%%%%%%%%%%%%%%%%%%%%%%%%%%%%%%%%%%%%%%%%%%%%%%%%%%%%

     %%%%%%%%%%%%%%%%%%%%%%%%%%%%%%%%%%%%%%%%%%%%%%%%%%%%%%%%%%%%%%%%%%%%%%%%
     %                                                                      %
     %  vdW-DF NEWS:                                                        %
     %                                                                      %
     %  * vdW-DF3 is now available. DOI: 10.1021/acs.jctc.0c00471           %
     %    use with input_dft = 'vdW-DF3-opt1' or 'vdW-DF3-opt2'             %
     %                                                                      %
     %  * Unscreened and range-separated hybrid vdW-DF-cx functionals       %
     %    DOI: 10.1063/1.4986522 and 10.1088/1361-648X/ac2ad2               %
     %    use with input_dft = 'vdW-DF-cx0'    and 'vdW-DF-ahcx'            %
     %  * Unscreened and range-separated hybrid vdW-DF2-b86r functionals    %
     %    DOI: 10.1063/1.4986522 and DOI: 10.1103/PhysRevX.12.041003        %
     %    use with input_dft = 'vdW-DF2-br0' and 'vdW-DF2-ahbr'             %
     %                                                                      %
     %%%%%%%%%%%%%%%%%%%%%%%%%%%%%%%%%%%%%%%%%%%%%%%%%%%%%%%%%%%%%%%%%%%%%%%%


     Starting wfcs are  220 randomized atomic wfcs
     Checking if some PAW data can be deallocated... 

     total cpu time spent up to now is        9.0 secs

     per-process dynamical memory:   192.7 Mb

     Self-consistent Calculation

     iteration #  1     ecut=    80.00 Ry     beta= 0.30
     Davidson diagonalization with overlap
     ethr =  1.00E-02,  avg # of iterations =  2.0

     negative rho (up, down):  1.159E-05 0.000E+00

     total cpu time spent up to now is       18.5 secs

     total energy              =   -3331.59670998 Ry
     estimated scf accuracy    <      11.30263110 Ry

     iteration #  2     ecut=    80.00 Ry     beta= 0.30
     Davidson diagonalization with overlap
     ethr =  3.30E-03,  avg # of iterations =  1.0

     negative rho (up, down):  9.438E-08 0.000E+00

     total cpu time spent up to now is       26.7 secs

     total energy              =   -3331.89465499 Ry
     estimated scf accuracy    <       2.69786466 Ry

     iteration #  3     ecut=    80.00 Ry     beta= 0.30
     Davidson diagonalization with overlap
     ethr =  7.89E-04,  avg # of iterations =  2.2

     negative rho (up, down):  2.280E-08 0.000E+00

     total cpu time spent up to now is       35.8 secs

     total energy              =   -3332.02504533 Ry
     estimated scf accuracy    <       1.32964641 Ry

     iteration #  4     ecut=    80.00 Ry     beta= 0.30
     Davidson diagonalization with overlap
     ethr =  3.89E-04,  avg # of iterations =  2.0

     total cpu time spent up to now is       44.9 secs

     total energy              =   -3332.07198843 Ry
     estimated scf accuracy    <       0.32104945 Ry

     iteration #  5     ecut=    80.00 Ry     beta= 0.30
     Davidson diagonalization with overlap
     ethr =  9.39E-05,  avg # of iterations =  1.8

     total cpu time spent up to now is       54.0 secs

     total energy              =   -3332.07026974 Ry
     estimated scf accuracy    <       0.14931922 Ry

     iteration #  6     ecut=    80.00 Ry     beta= 0.30
     Davidson diagonalization with overlap
     ethr =  4.37E-05,  avg # of iterations =  2.7

     total cpu time spent up to now is       63.2 secs

     total energy              =   -3332.06921468 Ry
     estimated scf accuracy    <       0.04776378 Ry

     iteration #  7     ecut=    80.00 Ry     beta= 0.30
     Davidson diagonalization with overlap
     ethr =  1.40E-05,  avg # of iterations =  9.1

     total cpu time spent up to now is       74.1 secs

     total energy              =   -3332.06986865 Ry
     estimated scf accuracy    <       0.02755843 Ry

     iteration #  8     ecut=    80.00 Ry     beta= 0.30
     Davidson diagonalization with overlap
     ethr =  8.06E-06,  avg # of iterations =  1.4

     total cpu time spent up to now is       83.0 secs

     total energy              =   -3332.06473398 Ry
     estimated scf accuracy    <       0.02041757 Ry

     iteration #  9     ecut=    80.00 Ry     beta= 0.30
     Davidson diagonalization with overlap
     ethr =  5.97E-06,  avg # of iterations =  6.3

     total cpu time spent up to now is       94.5 secs

     total energy              =   -3332.06338266 Ry
     estimated scf accuracy    <       0.01119766 Ry

     iteration # 10     ecut=    80.00 Ry     beta= 0.30
     Davidson diagonalization with overlap
     ethr =  3.27E-06,  avg # of iterations =  5.6

     negative rho (up, down):  2.003E-05 0.000E+00

     total cpu time spent up to now is      104.6 secs

     total energy              =   -3332.06315829 Ry
     estimated scf accuracy    <       0.00648610 Ry

     iteration # 11     ecut=    80.00 Ry     beta= 0.30
     Davidson diagonalization with overlap
     ethr =  1.90E-06,  avg # of iterations =  2.6

     negative rho (up, down):  8.206E-04 0.000E+00

     total cpu time spent up to now is      113.8 secs

     total energy              =   -3332.06281473 Ry
     estimated scf accuracy    <       0.00404658 Ry

     iteration # 12     ecut=    80.00 Ry     beta= 0.30
     Davidson diagonalization with overlap
     ethr =  1.18E-06,  avg # of iterations =  3.1

     negative rho (up, down):  8.229E-03 0.000E+00

     total cpu time spent up to now is      123.1 secs

     total energy              =   -3332.06270088 Ry
     estimated scf accuracy    <       0.00275137 Ry

     iteration # 13     ecut=    80.00 Ry     beta= 0.30
     Davidson diagonalization with overlap
     ethr =  8.04E-07,  avg # of iterations =  2.0

     negative rho (up, down):  1.248E-02 0.000E+00

     total cpu time spent up to now is      132.2 secs

     total energy              =   -3332.06250698 Ry
     estimated scf accuracy    <       0.00145631 Ry

     iteration # 14     ecut=    80.00 Ry     beta= 0.30
     Davidson diagonalization with overlap
     ethr =  4.26E-07,  avg # of iterations =  1.6

     negative rho (up, down):  1.014E-02 0.000E+00

     total cpu time spent up to now is      141.1 secs

     total energy              =   -3332.06222758 Ry
     estimated scf accuracy    <       0.00097796 Ry

     iteration # 15     ecut=    80.00 Ry     beta= 0.30
     Davidson diagonalization with overlap
     ethr =  2.86E-07,  avg # of iterations =  2.2

     negative rho (up, down):  8.958E-03 0.000E+00

     total cpu time spent up to now is      150.1 secs

     total energy              =   -3332.06213855 Ry
     estimated scf accuracy    <       0.00060825 Ry

     iteration # 16     ecut=    80.00 Ry     beta= 0.30
     Davidson diagonalization with overlap
     ethr =  1.78E-07,  avg # of iterations =  3.9

     negative rho (up, down):  7.046E-03 0.000E+00

     total cpu time spent up to now is      159.8 secs

     total energy              =   -3332.06218542 Ry
     estimated scf accuracy    <       0.00029558 Ry

     iteration # 17     ecut=    80.00 Ry     beta= 0.30
     Davidson diagonalization with overlap
     ethr =  8.64E-08,  avg # of iterations =  2.0

     negative rho (up, down):  5.387E-03 0.000E+00

     total cpu time spent up to now is      168.8 secs

     total energy              =   -3332.06226492 Ry
     estimated scf accuracy    <       0.00011826 Ry

     iteration # 18     ecut=    80.00 Ry     beta= 0.30
     Davidson diagonalization with overlap
     ethr =  3.46E-08,  avg # of iterations =  1.9

     negative rho (up, down):  3.163E-03 0.000E+00

     total cpu time spent up to now is      177.8 secs

     total energy              =   -3332.06228560 Ry
     estimated scf accuracy    <       0.00008297 Ry

     iteration # 19     ecut=    80.00 Ry     beta= 0.30
     Davidson diagonalization with overlap
     ethr =  2.43E-08,  avg # of iterations =  1.9

     negative rho (up, down):  2.188E-03 0.000E+00

     total cpu time spent up to now is      186.7 secs

     total energy              =   -3332.06230312 Ry
     estimated scf accuracy    <       0.00002496 Ry

     iteration # 20     ecut=    80.00 Ry     beta= 0.30
     Davidson diagonalization with overlap
     ethr =  7.30E-09,  avg # of iterations =  2.0

     negative rho (up, down):  9.238E-04 0.000E+00

     total cpu time spent up to now is      195.7 secs

     total energy              =   -3332.06230171 Ry
     estimated scf accuracy    <       0.00001478 Ry

     iteration # 21     ecut=    80.00 Ry     beta= 0.30
     Davidson diagonalization with overlap
     ethr =  4.32E-09,  avg # of iterations =  2.2

     negative rho (up, down):  5.064E-04 0.000E+00

     total cpu time spent up to now is      204.9 secs

     total energy              =   -3332.06230161 Ry
     estimated scf accuracy    <       0.00000384 Ry

     iteration # 22     ecut=    80.00 Ry     beta= 0.30
     Davidson diagonalization with overlap
     ethr =  1.12E-09,  avg # of iterations =  2.6

     negative rho (up, down):  4.254E-04 0.000E+00

     total cpu time spent up to now is      214.8 secs

     total energy              =   -3332.06230145 Ry
     estimated scf accuracy    <       0.00000297 Ry

     iteration # 23     ecut=    80.00 Ry     beta= 0.30
     Davidson diagonalization with overlap
     ethr =  8.67E-10,  avg # of iterations =  2.0

     negative rho (up, down):  3.625E-04 0.000E+00

     total cpu time spent up to now is      223.9 secs

     total energy              =   -3332.06230227 Ry
     estimated scf accuracy    <       0.00000103 Ry

     iteration # 24     ecut=    80.00 Ry     beta= 0.30
     Davidson diagonalization with overlap
     ethr =  3.02E-10,  avg # of iterations =  2.0

     negative rho (up, down):  2.118E-04 0.000E+00

     total cpu time spent up to now is      232.7 secs

     End of self-consistent calculation

          k = 0.0000 0.0000 0.0000 ( 81707 PWs)   bands (ev):

   -73.6501 -73.1297 -73.1097 -72.9183 -72.9082 -72.8057 -72.7950 -72.7467
   -72.6864 -72.6497 -72.4140 -72.3900 -44.2148 -43.5728 -43.4064 -43.3741
   -43.2382 -43.2274 -43.1876 -43.1559 -43.1428 -43.0945 -43.0919 -43.0764
   -43.0623 -43.0352 -43.0262 -43.0144 -43.0036 -42.9224 -42.8585 -42.8486
   -42.8358 -42.8182 -42.7724 -42.7661 -42.7406 -42.7076 -42.7002 -42.6797
   -42.6515 -42.6250 -42.5628 -42.5605 -42.5449 -42.3863 -42.3353 -42.2923
   -19.3317 -18.9933 -18.8797 -18.7651 -18.4040 -18.3847 -18.2710 -18.1611
   -18.1537 -18.1174 -18.1020 -18.0467 -18.0422 -18.0113 -17.9517 -17.7444
   -17.5643 -17.5553 -17.5241 -17.4572 -17.4446 -17.1349 -17.0218 -16.5350
   -16.4998  -7.4252  -7.3764  -7.3462  -7.0952  -6.5298  -6.5175  -6.2716
    -6.0946  -6.0933  -6.0716  -6.0379  -5.9207  -5.8752  -5.8543  -5.8398
    -5.7984  -5.7832  -5.7031  -5.6700  -5.6470  -5.6346  -5.6291  -5.4739
    -5.3018  -5.2993  -5.2890  -5.2126  -5.0901  -4.8244  -4.7487  -4.4775
    -4.3361  -4.1403  -3.9345  -3.8744  -3.8678  -3.8626  -3.8126  -3.7174
    -3.6558  -3.5784  -3.4294  -3.4221  -3.3074  -3.2634  -3.1506  -3.1050
    -3.0821  -3.0073  -2.9536  -2.9168  -2.8922  -2.7317  -2.6967  -2.6928
    -2.6179  -2.6171  -2.4857  -2.4471  -2.3696  -2.3619  -2.2349  -2.1451
    -2.1074  -2.0755  -1.8957  -1.8309  -1.7644  -1.6913  -1.6301  -1.4879
    -1.4230  -1.1965  -1.0776  -1.0309  -0.7849  -0.7804  -0.5910  -0.5335
    -0.5116  -0.4372  -0.2520  -0.2174  -0.1727  -0.1451  -0.0810  -0.0437
     0.0960   0.1304   0.2112   0.2460   0.2499   0.3300   0.3878   0.4676
     0.5769   0.6068   0.6815   0.6856   0.8086   0.9091   1.0727   1.3072
     1.3285   1.5019   1.6023   1.6515   1.8013   1.8358   1.9107   1.9737
     2.0555   2.3299   2.3534   2.8288   3.3429   3.4334   3.8005   3.8687
     3.9664   4.0869   4.1708   4.2081   4.4062   4.4287   4.5869   4.9566
     5.0416   5.1522   5.2972   5.2984   5.3686

          k = 0.0000 0.2445 0.0000 ( 81832 PWs)   bands (ev):

   -73.6501 -73.1297 -73.1097 -72.9183 -72.9082 -72.8056 -72.7950 -72.7467
   -72.6864 -72.6497 -72.4140 -72.3900 -44.2148 -43.5734 -43.4058 -43.3731
   -43.2395 -43.2272 -43.1876 -43.1550 -43.1435 -43.0945 -43.0904 -43.0781
   -43.0623 -43.0353 -43.0262 -43.0145 -43.0037 -42.9226 -42.8584 -42.8486
   -42.8342 -42.8179 -42.7723 -42.7662 -42.7403 -42.7075 -42.7002 -42.6797
   -42.6517 -42.6262 -42.5620 -42.5607 -42.5454 -42.3864 -42.3361 -42.2923
   -19.2588 -18.8791 -18.8154 -18.6792 -18.4182 -18.3762 -18.2941 -18.2863
   -18.2816 -18.2444 -18.1777 -18.1099 -17.8932 -17.8150 -17.7841 -17.7565
   -17.6844 -17.6661 -17.6164 -17.5466 -17.4520 -17.1311 -17.0239 -16.5345
   -16.4973  -7.1376  -6.9912  -6.9124  -6.8870  -6.5192  -6.4924  -6.3451
    -6.3225  -6.2472  -6.1206  -6.0277  -6.0216  -5.8769  -5.8256  -5.8149
    -5.7952  -5.7875  -5.7308  -5.7002  -5.6749  -5.5978  -5.4711  -5.4395
    -5.4095  -5.3494  -5.0449  -4.9135  -4.7001  -4.5820  -4.5019  -4.3430
    -4.2573  -4.2103  -4.1102  -4.0884  -4.0004  -3.9834  -3.9030  -3.8497
    -3.8157  -3.7796  -3.6067  -3.5121  -3.4587  -3.3204  -3.3093  -3.1403
    -3.1143  -3.0618  -3.0054  -2.9726  -2.9637  -2.8973  -2.8625  -2.7903
    -2.6657  -2.6522  -2.5947  -2.5506  -2.4920  -2.4361  -2.3627  -2.2431
    -2.1557  -2.0957  -2.0881  -1.9474  -1.8728  -1.8215  -1.6898  -1.6352
    -1.4552  -1.3596  -1.2642  -1.1334  -0.4943  -0.3959  -0.3466  -0.3075
    -0.2860  -0.2778  -0.2022  -0.1042   0.0043   0.0292   0.0573   0.0808
     0.0840   0.1312   0.1532   0.1608   0.1822   0.2245   0.2613   0.2777
     0.4057   0.5435   0.6754   0.7453   0.7838   0.9634   1.3704   1.4098
     1.5038   1.6265   1.6401   1.7199   1.7539   1.8458   1.8850   1.9870
     2.0762   2.1820   2.5292   2.7743   2.8725   3.1598   3.2945   3.5890
     3.8685   3.9763   4.4265   4.6404   4.7692   4.9440   5.0769   5.0872
     5.1780   5.2272   5.2528   5.2953   5.3620

          k = 0.0000-0.4891 0.0000 ( 81886 PWs)   bands (ev):

   -73.6501 -73.1297 -73.1097 -72.9183 -72.9082 -72.8056 -72.7950 -72.7467
   -72.6864 -72.6497 -72.4140 -72.3900 -44.2148 -43.5740 -43.4052 -43.3719
   -43.2408 -43.2270 -43.1875 -43.1542 -43.1443 -43.0945 -43.0890 -43.0796
   -43.0623 -43.0353 -43.0262 -43.0145 -43.0037 -42.9228 -42.8584 -42.8486
   -42.8328 -42.8177 -42.7723 -42.7662 -42.7399 -42.7073 -42.7002 -42.6797
   -42.6519 -42.6274 -42.5612 -42.5609 -42.5460 -42.3864 -42.3370 -42.2923
   -19.1793 -18.7900 -18.6416 -18.5474 -18.4598 -18.3849 -18.3722 -18.3549
   -18.3324 -18.2863 -18.2527 -18.1237 -17.8400 -17.8299 -17.8176 -17.8171
   -17.7191 -17.7190 -17.6903 -17.5516 -17.4490 -17.1284 -17.0271 -16.5340
   -16.4953  -7.1210  -6.5628  -6.5557  -6.5115  -6.4692  -6.3212  -6.3194
    -6.2245  -6.1852  -6.1067  -5.9619  -5.9404  -5.8747  -5.8109  -5.7940
    -5.7591  -5.7154  -5.7107  -5.6872  -5.6106  -5.5275  -5.4624  -5.4617
    -5.3461  -5.1522  -5.0593  -5.0033  -4.7577  -4.7051  -4.6651  -4.5213
    -4.5104  -4.4719  -4.2979  -4.2019  -4.1360  -4.0505  -3.9361  -3.8553
    -3.7909  -3.7079  -3.6426  -3.6122  -3.4804  -3.4454  -3.4069  -3.3839
    -3.3511  -3.3143  -3.2743  -3.1088  -3.0377  -2.8925  -2.8704  -2.7447
    -2.7381  -2.7257  -2.5869  -2.5468  -2.4300  -2.3873  -2.2111  -2.1392
    -2.0739  -2.0550  -2.0355  -1.9927  -1.9313  -1.7773  -1.7669  -1.6804
    -1.5774  -1.4809  -1.3357  -1.2591  -0.8843  -0.6353  -0.5728  -0.4545
    -0.4141  -0.2118  -0.1883  -0.1270   0.0775   0.1154   0.1420   0.1956
     0.2288   0.2332   0.3486   0.4108   0.4186   0.4316   0.4761   0.4870
     0.4915   0.6061   0.7430   0.7750   0.8141   0.8881   1.2055   1.3213
     1.4057   1.5175   1.7170   1.7337   1.7466   1.9550   1.9865   2.0353
     2.1097   2.2981   2.3866   2.6865   2.7743   2.9046   2.9049   3.8667
     3.8711   3.9542   4.7025   4.7663   4.8281   4.9181   4.9517   4.9720
     5.1180   5.2408   5.3274   5.4163   5.4527

          k = 0.2500 0.0000 0.0000 ( 81703 PWs)   bands (ev):

   -73.6501 -73.1289 -73.1105 -72.9168 -72.9097 -72.8042 -72.7964 -72.7465
   -72.6866 -72.6497 -72.4135 -72.3905 -44.2148 -43.5693 -43.4062 -43.3486
   -43.2378 -43.2281 -43.2139 -43.1540 -43.1447 -43.0930 -43.0899 -43.0784
   -43.0602 -43.0325 -43.0241 -43.0020 -42.9985 -42.9000 -42.8832 -42.8446
   -42.8266 -42.8076 -42.7894 -42.7606 -42.7456 -42.7221 -42.6980 -42.6797
   -42.6761 -42.6235 -42.5621 -42.5450 -42.5374 -42.4125 -42.3326 -42.2950
   -19.2139 -18.8814 -18.7910 -18.6683 -18.5214 -18.3421 -18.2805 -18.2765
   -18.1896 -18.1606 -18.0950 -18.0447 -17.9779 -17.9429 -17.8807 -17.7617
   -17.6295 -17.5985 -17.5795 -17.5221 -17.4850 -17.1524 -17.0866 -16.5696
   -16.5400  -7.2663  -7.2046  -7.1709  -6.9174  -6.5586  -6.4542  -6.3128
    -6.2245  -6.1547  -6.1111  -6.0839  -6.0052  -5.9726  -5.9596  -5.8843
    -5.8070  -5.7680  -5.7544  -5.6376  -5.6079  -5.5290  -5.4125  -5.3640
    -5.2039  -5.1839  -5.0273  -4.9598  -4.8694  -4.7549  -4.5604  -4.5152
    -4.4078  -4.3670  -4.2532  -4.1798  -3.9004  -3.7243  -3.7040  -3.6163
    -3.5878  -3.5869  -3.4888  -3.4451  -3.4392  -3.3706  -3.2972  -3.2285
    -3.2116  -3.1621  -3.0749  -3.0190  -3.0016  -2.9305  -2.8802  -2.7392
    -2.6818  -2.6754  -2.5896  -2.5021  -2.4998  -2.4405  -2.3230  -2.2835
    -2.2412  -2.2310  -2.1527  -2.0589  -1.8989  -1.7769  -1.7173  -1.5928
    -1.4967  -1.3187  -1.2326  -1.0638  -0.6156  -0.5990  -0.3596  -0.3490
    -0.2563  -0.1927  -0.0664  -0.0243  -0.0051   0.0317   0.0772   0.1708
     0.1896   0.2188   0.2872   0.3047   0.3519   0.4002   0.5059   0.6119
     0.6557   0.7518   0.8663   0.9173   0.9227   1.1110   1.1667   1.1679
     1.2039   1.3746   1.3756   1.5186   1.6765   1.7410   1.9182   1.9853
     2.0822   2.2131   2.3960   3.0422   3.4671   3.5614   3.8704   3.9119
     4.0961   4.0988   4.2056   4.2838   4.4233   4.4923   4.5859   4.6690
     4.7390   4.9687   5.0073   5.1028   5.1610

          k = 0.2500 0.2445 0.0000 ( 81774 PWs)   bands (ev):

   -73.6501 -73.1289 -73.1105 -72.9168 -72.9097 -72.8042 -72.7964 -72.7465
   -72.6867 -72.6497 -72.4135 -72.3905 -44.2148 -43.5698 -43.4050 -43.3481
   -43.2383 -43.2286 -43.2139 -43.1533 -43.1452 -43.0930 -43.0888 -43.0794
   -43.0602 -43.0325 -43.0241 -43.0020 -42.9985 -42.9002 -42.8832 -42.8446
   -42.8264 -42.8063 -42.7893 -42.7606 -42.7452 -42.7220 -42.6980 -42.6797
   -42.6761 -42.6244 -42.5625 -42.5456 -42.5367 -42.4124 -42.3332 -42.2952
   -19.1495 -18.7713 -18.7331 -18.5796 -18.5023 -18.3480 -18.3016 -18.2933
   -18.2405 -18.2011 -18.1188 -18.0971 -17.9575 -17.8778 -17.8265 -17.7739
   -17.7460 -17.7281 -17.6832 -17.5655 -17.4778 -17.1495 -17.0894 -16.5697
   -16.5380  -6.9781  -6.8462  -6.7571  -6.7385  -6.5385  -6.3897  -6.2756
    -6.2308  -6.1746  -6.0802  -6.0303  -6.0008  -5.9322  -5.8611  -5.8533
    -5.8044  -5.7457  -5.7159  -5.6884  -5.6173  -5.5462  -5.4359  -5.3279
    -5.1988  -5.1367  -4.9043  -4.8804  -4.8084  -4.6593  -4.6065  -4.4857
    -4.4451  -4.3297  -4.2594  -4.2426  -4.0361  -3.9957  -3.8762  -3.8106
    -3.7101  -3.6548  -3.6148  -3.5581  -3.5340  -3.5135  -3.4210  -3.3871
    -3.3533  -3.3099  -3.2396  -3.1350  -3.1025  -3.0540  -2.9782  -2.9318
    -2.8936  -2.7820  -2.6708  -2.5766  -2.5017  -2.4550  -2.3880  -2.3178
    -2.2629  -2.2002  -2.1210  -1.9843  -1.9332  -1.8596  -1.6764  -1.5727
    -1.3746  -1.3392  -1.3209  -1.1860  -0.5129  -0.4136  -0.3184  -0.2634
    -0.2204  -0.1174  -0.0584   0.0004   0.0672   0.1317   0.1873   0.2114
     0.2860   0.2991   0.3509   0.3833   0.4112   0.4684   0.4951   0.5625
     0.5770   0.7200   0.8460   0.9435   0.9551   1.0996   1.2150   1.3038
     1.3915   1.4791   1.4946   1.5901   1.6393   1.6811   1.7085   1.9697
     2.1492   2.2349   2.5574   2.9175   3.1126   3.3510   3.4689   3.6785
     3.9301   4.0068   4.2599   4.5230   4.5899   4.6465   4.6793   4.9021
     4.9241   4.9700   5.0181   5.1794   5.2462

          k = 0.2500-0.4891 0.0000 ( 81830 PWs)   bands (ev):

   -73.6501 -73.1289 -73.1105 -72.9168 -72.9097 -72.8042 -72.7964 -72.7465
   -72.6867 -72.6497 -72.4135 -72.3905 -44.2148 -43.5703 -43.4039 -43.3476
   -43.2392 -43.2288 -43.2139 -43.1527 -43.1457 -43.0930 -43.0878 -43.0804
   -43.0601 -43.0325 -43.0241 -43.0021 -42.9986 -42.9004 -42.8832 -42.8446
   -42.8263 -42.8051 -42.7893 -42.7607 -42.7449 -42.7220 -42.6980 -42.6798
   -42.6761 -42.6254 -42.5628 -42.5461 -42.5360 -42.4124 -42.3339 -42.2954
   -19.0814 -18.6841 -18.5673 -18.4895 -18.4351 -18.3685 -18.3421 -18.3095
   -18.2467 -18.2226 -18.2178 -18.1324 -17.9468 -17.8985 -17.8947 -17.8518
   -17.8286 -17.7897 -17.7545 -17.5630 -17.4734 -17.1469 -17.0932 -16.5698
   -16.5364  -6.9496  -6.5708  -6.3735  -6.2749  -6.2679  -6.1035  -6.0790
    -6.0583  -6.0365  -5.9856  -5.9695  -5.9169  -5.8994  -5.8560  -5.8401
    -5.8387  -5.7881  -5.7806  -5.7462  -5.6899  -5.6562  -5.3716  -5.2180
    -5.1635  -5.0016  -4.9398  -4.8644  -4.6917  -4.6494  -4.6481  -4.5840
    -4.4474  -4.4210  -4.3939  -4.3561  -4.3227  -4.2587  -4.1714  -4.1549
    -4.0719  -3.9788  -3.8165  -3.6905  -3.6760  -3.5992  -3.5743  -3.5440
    -3.4829  -3.4225  -3.4040  -3.3325  -3.1857  -3.0484  -3.0103  -2.9978
    -2.9876  -2.8018  -2.6606  -2.5731  -2.5414  -2.4144  -2.2548  -2.2419
    -2.1747  -2.0714  -2.0397  -1.8593  -1.8246  -1.6615  -1.6172  -1.5569
    -1.5239  -1.5049  -1.3083  -1.2651  -0.6937  -0.6068  -0.5125  -0.3302
    -0.2155  -0.1631   0.0023   0.0427   0.1111   0.1698   0.1808   0.2290
     0.3957   0.4251   0.4572   0.5253   0.6088   0.6410   0.6664   0.7632
     0.7662   0.8320   0.8968   0.9267   0.9949   1.1343   1.2000   1.2490
     1.2594   1.4091   1.5892   1.6058   1.6138   1.7566   1.7860   1.8446
     2.2538   2.3843   2.5329   2.6972   2.9294   3.0397   3.1276   3.9029
     3.9277   3.9875   4.2100   4.3323   4.4416   4.6203   4.7052   4.9282
     4.9671   5.0616   5.2039   5.2837   5.5358

          k =-0.5000 0.0000 0.0000 ( 81894 PWs)   bands (ev):

   -73.6501 -73.1282 -73.1113 -72.9136 -72.9129 -72.8017 -72.7989 -72.7462
   -72.6869 -72.6497 -72.4129 -72.3911 -44.2148 -43.5657 -43.4060 -43.3009
   -43.2624 -43.2373 -43.2287 -43.1494 -43.1493 -43.0915 -43.0865 -43.0817
   -43.0578 -43.0356 -43.0222 -43.0007 -42.9430 -42.9418 -42.8555 -42.8355
   -42.8344 -42.8294 -42.7672 -42.7536 -42.7443 -42.7416 -42.7187 -42.6970
   -42.6798 -42.6219 -42.5637 -42.5451 -42.4779 -42.4727 -42.3294 -42.2982
   -18.9863 -18.8164 -18.6133 -18.6030 -18.5746 -18.4415 -18.4207 -18.4057
   -18.2209 -18.1197 -18.0734 -17.9330 -17.9178 -17.8240 -17.7944 -17.7753
   -17.7674 -17.7073 -17.7008 -17.6027 -17.4578 -17.1835 -17.1585 -16.5986
   -16.5881  -6.9013  -6.8072  -6.7753  -6.7650  -6.7132  -6.7078  -6.5549
    -6.4599  -6.3365  -6.2252  -6.1130  -6.0162  -6.0092  -5.9709  -5.9424
    -5.9372  -5.6921  -5.6343  -5.6259  -5.6057  -5.2038  -5.1845  -5.1743
    -5.0572  -4.8818  -4.7934  -4.6727  -4.6535  -4.6346  -4.5601  -4.4571
    -4.4494  -4.3300  -4.2425  -4.1667  -4.1648  -4.0863  -4.0685  -3.9234
    -3.8529  -3.8508  -3.7268  -3.4710  -3.4035  -3.3516  -3.3460  -3.2927
    -3.2394  -3.2228  -3.2167  -3.1177  -3.0105  -3.0011  -3.0000  -2.9497
    -2.7851  -2.7111  -2.6264  -2.6054  -2.6020  -2.4492  -2.4316  -2.4290
    -2.4229  -2.3100  -2.2934  -2.1384  -1.9110  -1.8522  -1.5590  -1.5312
    -1.4671  -1.4640  -1.3290  -1.2141  -0.5399  -0.4806  -0.4321  -0.3649
    -0.0591  -0.0226   0.0116   0.0930   0.1042   0.1456   0.2780   0.2862
     0.4391   0.4547   0.4957   0.6075   0.6457   0.6571   0.6966   0.7476
     0.7585   0.8445   0.8926   0.9454   0.9970   1.0421   1.0426   1.1161
     1.1298   1.2974   1.3086   1.3768   1.5420   1.6443   1.8257   1.8393
     2.1451   2.1947   2.4793   3.4957   3.6660   3.7578   3.7661   4.0186
     4.1172   4.1831   4.2175   4.3431   4.3883   4.4759   4.5564   4.5941
     4.6035   4.6177   4.6243   4.6517   4.7095

          k =-0.5000 0.2445 0.0000 ( 81810 PWs)   bands (ev):

   -73.6501 -73.1282 -73.1113 -72.9136 -72.9129 -72.8017 -72.7989 -72.7462
   -72.6869 -72.6497 -72.4129 -72.3911 -44.2148 -43.5662 -43.4046 -43.3008
   -43.2622 -43.2367 -43.2303 -43.1492 -43.1492 -43.0915 -43.0863 -43.0817
   -43.0578 -43.0356 -43.0222 -43.0008 -42.9430 -42.9419 -42.8557 -42.8355
   -42.8344 -42.8294 -42.7665 -42.7533 -42.7444 -42.7415 -42.7182 -42.6970
   -42.6798 -42.6226 -42.5643 -42.5457 -42.4775 -42.4724 -42.3298 -42.2986
   -18.9517 -18.7566 -18.5472 -18.5225 -18.5044 -18.3946 -18.3444 -18.3386
   -18.2368 -18.1077 -18.0975 -17.9842 -17.9645 -17.8925 -17.8810 -17.8540
   -17.8362 -17.8176 -17.8130 -17.5889 -17.4526 -17.1817 -17.1614 -16.5981
   -16.5876  -6.7004  -6.5349  -6.5137  -6.4899  -6.4717  -6.4080  -6.3985
    -6.3611  -6.3115  -6.2211  -6.0157  -5.9882  -5.9389  -5.8543  -5.7963
    -5.7943  -5.7217  -5.6981  -5.5785  -5.5058  -5.2653  -5.1679  -5.0337
    -4.9790  -4.9191  -4.8960  -4.7955  -4.7414  -4.6845  -4.6524  -4.6336
    -4.5961  -4.5386  -4.4645  -4.4219  -4.3215  -4.2712  -4.2122  -4.1103
    -4.0719  -3.8201  -3.7579  -3.6368  -3.5676  -3.4907  -3.4476  -3.4040
    -3.2949  -3.2487  -3.2367  -3.1615  -3.1424  -3.1203  -3.1057  -3.0954
    -2.9917  -2.7915  -2.7356  -2.6201  -2.5350  -2.5288  -2.4699  -2.4133
    -2.3654  -2.2691  -2.1878  -2.1671  -1.9330  -1.8859  -1.5333  -1.4828
    -1.4656  -1.4424  -1.3555  -1.2670  -0.5786  -0.5302  -0.2424  -0.1825
    -0.1021   0.0409   0.0560   0.1808   0.1997   0.3191   0.4025   0.4443
     0.5167   0.5659   0.5784   0.6431   0.6446   0.7100   0.7179   0.7535
     0.8139   0.8979   0.9126   0.9379   0.9651   1.1195   1.1951   1.2056
     1.2587   1.2726   1.3284   1.3785   1.4710   1.5207   1.6802   1.7078
     2.2707   2.3091   2.6062   3.2971   3.5390   3.7147   3.7399   3.8537
     3.9149   3.9533   3.9541   4.1209   4.1517   4.2328   4.3874   4.5568
     4.6239   4.8618   4.9650   5.0836   5.1642

          k =-0.5000-0.4891 0.0000 ( 81784 PWs)   bands (ev):

   -73.6501 -73.1282 -73.1113 -72.9136 -72.9129 -72.8017 -72.7989 -72.7463
   -72.6869 -72.6497 -72.4129 -72.3911 -44.2148 -43.5667 -43.4032 -43.3008
   -43.2620 -43.2368 -43.2314 -43.1491 -43.1491 -43.0915 -43.0861 -43.0816
   -43.0577 -43.0356 -43.0221 -43.0008 -42.9431 -42.9420 -42.8558 -42.8355
   -42.8343 -42.8295 -42.7658 -42.7530 -42.7445 -42.7414 -42.7177 -42.6970
   -42.6798 -42.6233 -42.5648 -42.5462 -42.4772 -42.4720 -42.3303 -42.2991
   -18.9168 -18.6863 -18.4738 -18.4226 -18.3661 -18.2622 -18.2605 -18.2348
   -18.2323 -18.1096 -18.0952 -18.0870 -18.0729 -18.0700 -18.0302 -17.9669
   -17.9476 -17.8788 -17.8716 -17.5814 -17.4480 -17.1803 -17.1647 -16.5977
   -16.5872  -6.6363  -6.5010  -6.3658  -6.2516  -6.0755  -6.0152  -6.0065
    -5.9783  -5.9571  -5.9426  -5.9410  -5.8940  -5.8134  -5.7732  -5.7030
    -5.6139  -5.5789  -5.4980  -5.4237  -5.4026  -5.3623  -5.2954  -5.2410
    -5.2049  -5.1716  -5.1706  -5.1050  -5.0920  -4.9647  -4.8603  -4.7051
    -4.6849  -4.5727  -4.5363  -4.4428  -4.3745  -4.1930  -4.0942  -4.0827
    -3.9878  -3.9727  -3.8874  -3.8462  -3.8229  -3.7607  -3.7384  -3.7166
    -3.6825  -3.6461  -3.5901  -3.5127  -3.4752  -3.3604  -3.3380  -3.0424
    -3.0421  -2.8890  -2.7025  -2.6380  -2.4523  -2.3653  -2.2389  -2.1711
    -2.1411  -2.1159  -2.0109  -1.9142  -1.8617  -1.7129  -1.5998  -1.5876
    -1.5522  -1.4327  -1.3608  -1.3320  -0.4851  -0.4264  -0.2579  -0.2490
    -0.0219  -0.0101   0.0315   0.0583   0.1004   0.2065   0.3042   0.5757
     0.5778   0.6640   0.7253   0.7721   0.7954   0.8757   0.8785   0.8941
     0.9201   0.9930   1.0249   1.0464   1.0508   1.1718   1.2330   1.2694
     1.2994   1.3010   1.3704   1.4098   1.4834   1.5188   1.5558   1.6020
     2.3702   2.3991   2.7271   2.8908   3.4267   3.4724   3.5327   3.5687
     3.5743   3.6073   3.7959   4.1207   4.1746   4.2364   4.4017   4.6661
     4.8020   4.9797   5.2846   5.3163   5.3225

     the Fermi energy is     0.8797 ev

!    total energy              =   -3332.06230211 Ry
     estimated scf accuracy    <       0.00000041 Ry
     smearing contrib. (-TS)   =       0.00051962 Ry
     internal energy E=F+TS    =   -3332.06282173 Ry

     The total energy is F=E-TS. E is the sum of the following terms:
     one-electron contribution =  -33481.71282773 Ry
     hartree contribution      =   16788.25306566 Ry
     xc contribution           =    -438.35239365 Ry
     ewald contribution        =   14051.36713766 Ry
     one-center paw contrib.   =    -251.61780367 Ry

     convergence has been achieved in  24 iterations

     negative rho (up, down):  2.118E-04 0.000E+00

     Forces acting on atoms (cartesian axes, Ry/au):

     atom    1 type  1   force =     0.00009574    0.00000000    0.05107988
     atom    2 type  1   force =     0.00100900    0.00000000   -0.08970045
     atom    3 type  1   force =    -0.00014292    0.00000000    0.00137107
     atom    4 type  1   force =     0.00015669    0.00000000    0.00007546
     atom    5 type  1   force =    -0.00036654    0.00000000    0.00510102
     atom    6 type  1   force =    -0.00185509    0.00000000    0.00177676
     atom    7 type  2   force =     0.00040482    0.00000000    0.03212365
     atom    8 type  2   force =    -0.00009771    0.00000000    0.05311333
     atom    9 type  2   force =     0.00021315    0.02057345   -0.02320900
     atom   10 type  2   force =     0.00021315   -0.02057345   -0.02320900
     atom   11 type  2   force =    -0.00094902    0.00000000    0.00382122
     atom   12 type  2   force =     0.00010827    0.00000000   -0.02273194
     atom   13 type  2   force =     0.00021012   -0.00318086   -0.00077025
     atom   14 type  2   force =     0.00021012    0.00318086   -0.00077025
     atom   15 type  2   force =     0.00001019    0.00000000    0.01259478
     atom   16 type  2   force =    -0.00066233    0.00000000   -0.00273240
     atom   17 type  2   force =     0.00106810   -0.00222091   -0.00018279
     atom   18 type  2   force =     0.00106810    0.00222091   -0.00018279
     atom   19 type  1   force =    -0.00001649    0.00000000    0.06021864
     atom   20 type  1   force =    -0.00100119    0.00000000   -0.08986542
     atom   21 type  1   force =     0.00010057    0.00000000   -0.00062582
     atom   22 type  1   force =     0.00046847    0.00000000    0.00083391
     atom   23 type  1   force =     0.00047396    0.00000000    0.00667447
     atom   24 type  1   force =     0.00310424    0.00000000    0.00097257
     atom   25 type  2   force =    -0.00050229    0.00000000    0.02591560
     atom   26 type  2   force =     0.00002405    0.00000000    0.05104416
     atom   27 type  2   force =    -0.00020686    0.02052021   -0.02321509
     atom   28 type  2   force =    -0.00020686   -0.02052021   -0.02321509
     atom   29 type  2   force =     0.00051919    0.00000000    0.00479539
     atom   30 type  2   force =    -0.00063007    0.00000000   -0.02249255
     atom   31 type  2   force =    -0.00014376   -0.00320275    0.00035342
     atom   32 type  2   force =    -0.00014376    0.00320275    0.00035342
     atom   33 type  2   force =    -0.00014132    0.00000000    0.00863924
     atom   34 type  2   force =     0.00031852    0.00000000   -0.00172316
     atom   35 type  2   force =    -0.00069326   -0.00264510   -0.00087110
     atom   36 type  2   force =    -0.00069326    0.00264510   -0.00087110
     atom   37 type  2   force =    -0.00132375    0.00000000    0.00551021

     Total force =     0.021852     Total SCF correction =     0.002700
     SCF correction compared to forces is large: reduce conv_thr to get better values

     negative rho (up, down):  2.118E-04 0.000E+00

     negative rho (up, down):  2.118E-04 0.000E+00

     negative rho (up, down):  2.118E-04 0.000E+00

     negative rho (up, down):  2.118E-04 0.000E+00

     negative rho (up, down):  2.118E-04 0.000E+00

     negative rho (up, down):  2.118E-04 0.000E+00

     negative rho (up, down):  2.118E-04 0.000E+00

     negative rho (up, down):  2.118E-04 0.000E+00

     negative rho (up, down):  2.118E-04 0.000E+00

     negative rho (up, down):  2.118E-04 0.000E+00

     negative rho (up, down):  2.118E-04 0.000E+00

     negative rho (up, down):  2.118E-04 0.000E+00

     negative rho (up, down):  2.118E-04 0.000E+00

     negative rho (up, down):  2.118E-04 0.000E+00

     negative rho (up, down):  2.118E-04 0.000E+00

     negative rho (up, down):  2.118E-04 0.000E+00

     negative rho (up, down):  2.118E-04 0.000E+00

     negative rho (up, down):  2.118E-04 0.000E+00

     negative rho (up, down):  2.118E-04 0.000E+00

     negative rho (up, down):  2.118E-04 0.000E+00

     negative rho (up, down):  2.118E-04 0.000E+00

     negative rho (up, down):  2.118E-04 0.000E+00

     negative rho (up, down):  2.118E-04 0.000E+00

     negative rho (up, down):  2.118E-04 0.000E+00

     negative rho (up, down):  2.118E-04 0.000E+00

     negative rho (up, down):  2.118E-04 0.000E+00

     negative rho (up, down):  2.118E-04 0.000E+00

     negative rho (up, down):  2.118E-04 0.000E+00

     negative rho (up, down):  2.118E-04 0.000E+00

     negative rho (up, down):  2.118E-04 0.000E+00

     negative rho (up, down):  2.118E-04 0.000E+00

     negative rho (up, down):  2.118E-04 0.000E+00

     negative rho (up, down):  2.118E-04 0.000E+00

     negative rho (up, down):  2.118E-04 0.000E+00
 BEEFens 2000 ensemble energies
             -0.304618164167224E+02
             -0.173806219129006E+01
             -0.688819690298782E+01
              0.215963611309530E+02
             -0.104397200761862E+02
             -0.897400771117742E+01
             -0.200184966884551E+02
             -0.446993626461783E+02
             -0.201264669489628E+02
             -0.211470202328869E+02
             -0.185929813904957E+02
              0.219095421328443E+01
              0.188030758907485E+01
              0.489669407042456E+00
              0.144829062577290E+01
              0.237808729788929E+02
             -0.977493416357048E+01
             -0.825006455234940E+01
              0.103129638034944E+02
             -0.551063383207506E+02
              0.275322892374354E+02
             -0.124997018413916E+02
             -0.227084168142052E+01
             -0.497424957936690E+01
             -0.199959000986075E+01
             -0.241491852684177E+01
              0.431756534488002E+02
             -0.112246360723062E+02
             -0.398717254692576E+01
             -0.268044497735296E+02
              0.370129165276560E+02
             -0.565106136101156E+01
             -0.192724616793196E+02
              0.108140776856265E+02
             -0.146938193267562E+01
              0.108792572905110E+02
             -0.108382505582048E+01
              0.274341221265601E+01
              0.160923934849027E+02
             -0.497986852339039E+02
              0.272434231334024E+02
              0.687571797534900E+01
             -0.348174958223825E+01
             -0.162712221741399E+02
              0.608201711000953E+01
             -0.828304791482725E+01
              0.220465986292672E+02
              0.176792722588908E+02
             -0.125822892217513E+02
             -0.144739540425130E+02
             -0.156776120609024E+02
             -0.178147915052070E+02
              0.826816783710063E+01
             -0.247234591674559E+02
              0.671471152546781E+01
              0.303116376565018E+02
              0.342861022613864E+02
              0.164907555265499E+02
              0.768762326189569E+01
              0.147530339407446E+02
              0.446515537042699E+02
              0.904348332735111E+01
             -0.269197366252995E+02
             -0.605553401750294E+01
             -0.124438261422730E+02
              0.307380506477674E+02
             -0.362380650952220E+02
             -0.312098629826823E+02
             -0.144626335424385E+02
             -0.609163589948025E+01
             -0.212959371389851E+02
              0.133799496309240E+02
              0.479506975605386E+01
              0.618179901879020E+01
             -0.192956579041706E+02
             -0.172127486075962E+02
             -0.282885422471330E+02
              0.174933900309414E+02
             -0.157589390052676E+02
              0.142258647294230E+02
             -0.393816625177140E+01
             -0.145256191425456E+02
             -0.268605716193134E+02
             -0.839155591843428E+01
             -0.593202453448146E+01
             -0.658485821207441E+01
              0.197601391758920E+02
              0.360486081037938E+02
             -0.207727054044566E+02
             -0.391418629157264E+02
             -0.100295216249553E+02
              0.540417302183873E+02
             -0.285783761098796E+02
              0.164508079884545E+02
             -0.556439177043927E+01
             -0.306709864647652E+02
              0.123867349924745E+02
              0.177377899890465E+02
             -0.898404878723440E+01
              0.171528813732735E+02
             -0.132007526557728E+02
             -0.264905161381092E+02
              0.456961394836746E+02
              0.223952024626938E+02
              0.137581999901513E+02
              0.692839844778953E+01
              0.118553471237009E+02
              0.410203736986331E+02
             -0.126597751565954E+02
              0.294472064994956E+01
             -0.687130769770048E+02
              0.859708102379604E+01
             -0.340186636325733E+02
              0.688854257169461E+01
              0.105007652409392E+02
             -0.174548561510420E+02
             -0.260389502502865E+02
              0.220302109438609E+01
             -0.150061088952654E+02
              0.182703189492224E+02
             -0.247669504276150E+02
             -0.157339087355615E+01
             -0.179307034853036E+02
             -0.182694099527814E+01
              0.565544692650576E+00
              0.102137449773428E+02
              0.380511290700269E+00
             -0.269905811627822E+01
              0.308472734215646E+02
              0.449851963615756E+02
              0.242218289013181E+02
              0.369088810559121E+02
             -0.557767887793911E+01
              0.592621872141453E+01
              0.261226725434790E+02
             -0.197307278690846E+01
             -0.369020211311123E+02
             -0.198495811989689E+02
             -0.249052690769645E+02
             -0.139300064284481E+02
              0.145833763519059E+02
             -0.585981041502143E+02
             -0.840470012056878E+01
              0.216652912105109E+02
             -0.189733132007391E+02
             -0.164875676715292E+02
              0.282981627524760E+02
              0.213985298086410E+02
             -0.161668625982202E+02
              0.113464877048308E+02
             -0.127398969959941E+02
              0.172700550338834E+02
              0.215904245607217E+01
              0.769470469153161E+01
             -0.422873341745925E+02
             -0.233803190432419E+02
             -0.422496534920117E+01
              0.174683357022040E+00
             -0.195408923000019E+02
              0.535672388060148E+02
             -0.943924739801264E+01
             -0.165965220978023E+02
              0.187701252586773E+02
             -0.235070191658404E+02
             -0.180147155788677E+02
              0.158744911401707E+02
              0.633466671431076E+01
              0.704308063758634E+01
              0.695630427548413E+01
             -0.586493649896298E+01
              0.858963625331131E+01
              0.288675092847651E+02
             -0.141254568124615E+02
              0.922552595882280E+01
              0.449957821859528E+02
              0.163755780751782E+02
             -0.332144689712595E+01
             -0.987881608540388E+01
              0.762185357999326E+02
             -0.995208265168858E+01
              0.182678855799791E+02
              0.119895587664572E+02
              0.157932300881116E+02
              0.442385755810748E+02
              0.250368634770080E+02
             -0.174483310478562E+01
              0.117320949255281E+02
              0.244232474202999E+02
              0.183896257004614E+02
             -0.277453948810765E+02
              0.462257488276026E+02
             -0.411331802250441E+02
             -0.755291119442447E+01
              0.281195906914681E+02
              0.559081662299157E+01
              0.363402472657441E+01
              0.151574739774107E+02
              0.118166631649698E+02
              0.172366654133063E+02
             -0.313590466705391E+02
              0.177891113867520E+01
             -0.135022382302218E+02
             -0.391663623886195E+01
             -0.137036716752948E+01
             -0.495811098016024E+01
             -0.242194394563685E+01
              0.412464279881710E+02
             -0.394438118349071E+01
             -0.133643022010140E+02
             -0.137936451475525E+01
              0.683919178744441E+01
             -0.293452980363272E+02
             -0.233529745765063E+02
             -0.180343882392066E+02
             -0.310567465641199E+02
             -0.867314864602183E+01
             -0.212805971057482E+02
              0.852389394843662E+01
             -0.488210383268282E-01
             -0.566522092566461E+01
             -0.433959579264175E+01
              0.322386006753432E+01
             -0.918472530259417E+01
              0.333264993027905E+02
             -0.415143429571986E+02
             -0.718601237101490E+01
             -0.759392302260341E+01
              0.801325504638328E+01
              0.107759961559623E+02
             -0.236038795837303E+02
             -0.851651755165727E+01
              0.214894334481674E+02
             -0.112880610363349E+02
              0.822670424229855E+01
              0.174827465593881E+02
             -0.154424915898625E+01
              0.560685095434432E+02
             -0.880616236423538E+01
             -0.163625736617865E+02
              0.196701442238484E+01
             -0.121912036928370E+02
              0.267028497225614E+02
             -0.195252673865386E+02
              0.586015013872054E+01
              0.289545589391655E+02
             -0.623200047945235E+01
              0.588335791508513E+02
              0.627376977894172E+02
             -0.328677651530123E+02
              0.289849542974181E+02
              0.984744837546546E+01
             -0.266427612191950E+02
              0.915348074439493E+01
              0.194959143985082E+02
              0.201521131168654E+02
              0.973585309198668E+00
              0.813859364984677E+01
              0.356518898491376E+02
             -0.118450721767910E+02
              0.731124388344551E+01
              0.354521326222747E+02
             -0.180164979981507E+02
             -0.873762581202463E+01
              0.268683560376485E+02
              0.144918014399269E+02
              0.381278718789980E+02
              0.135444753039773E+02
              0.468747887253784E+01
              0.134305728557971E+02
              0.196372857045126E+02
             -0.249052966815090E+02
              0.276670090543178E+01
              0.981717069217458E+01
              0.592948915589233E+01
              0.112449791235304E+02
             -0.294251439278339E+02
              0.167898450654621E+02
             -0.216202993171505E+02
             -0.164489910949889E+02
              0.954114396661141E+01
             -0.675582048061833E+01
              0.285394661501066E+02
             -0.100075351168712E+02
              0.143187279658470E+02
              0.168341307196656E+02
              0.396208775642020E+02
              0.270320025166377E+02
              0.235905485961362E+02
             -0.296556181667776E+01
             -0.367910330650020E+01
             -0.155821973707295E+02
              0.387380268888126E+02
              0.395826244820297E+02
              0.187895958584584E+02
             -0.115649488831853E+02
              0.249804521646275E+02
             -0.421663400276358E+01
              0.931564924275136E+01
              0.318823201311046E+02
              0.681020025010213E-01
             -0.466253163545647E+01
             -0.118863802827037E+02
             -0.276143929654172E+02
              0.473003475715751E+02
              0.233797465067721E+02
             -0.292670182491778E+02
             -0.752956473896482E+01
              0.126622339745904E+02
             -0.489273609931490E+01
              0.308305031102315E+02
              0.711966357509039E+01
              0.397810203828289E+02
              0.153222776661079E+02
             -0.124272728396967E+02
              0.110680344325378E+02
             -0.282528692553069E+01
             -0.142804361192402E+02
              0.743591079351347E+01
              0.887934258307172E+01
              0.458199459496088E+02
              0.388536230191618E+02
              0.272349663914352E+02
              0.342507766365655E+02
              0.384602334886577E+01
             -0.131168482134278E+02
              0.752446031495887E+01
             -0.170975849775442E+02
             -0.255836070695452E+02
             -0.280076641203623E+02
             -0.144477976950057E+02
             -0.535497141171960E+02
             -0.161556955469320E+02
             -0.420664441278019E+02
              0.106719253231915E+02
             -0.228822960354105E+02
              0.218398514941806E+02
             -0.477848421226593E+02
             -0.156468405841805E+02
              0.232891419546398E+02
              0.106477261262315E+02
             -0.429708045127801E+02
              0.292524074794666E+02
             -0.131088147361054E+02
              0.260343334419816E+02
             -0.121296027066215E+02
             -0.380547762127974E+02
              0.666312808784744E+01
             -0.315468586807477E+02
             -0.514172996933402E+01
             -0.727396899786910E+00
              0.204251307153499E+02
              0.624545256757295E+02
             -0.219206494424712E+02
             -0.181216927045680E+02
             -0.134469847531514E+01
             -0.539114764394935E+01
             -0.403365890049565E+02
             -0.281412533154854E+02
              0.247262930819086E+02
             -0.116253444353969E+02
              0.966626926494087E+01
             -0.241866481525423E+02
             -0.759725428293277E+01
             -0.208016434928803E+02
              0.263888394345376E+02
              0.635900633656405E+01
             -0.114436837164848E+02
             -0.743539234781065E+01
              0.478926676208843E+01
             -0.355540027106969E+01
              0.210724369908916E+02
             -0.125059868127470E+02
              0.351148379575500E+01
              0.166098894195725E+02
              0.750311236550897E+01
             -0.948910579836925E+01
              0.765232801877940E+02
              0.278983314121244E+02
              0.235763705410812E+01
              0.593678420570103E+01
             -0.303416113192030E+02
              0.163069080437962E+02
             -0.371315426892455E+02
             -0.140902882822680E+02
             -0.269891855044385E+02
             -0.994775850961406E+01
              0.285470413417438E+02
             -0.274160408515581E+02
              0.101829877936840E+02
             -0.186799725473844E+01
              0.150868644379011E+01
             -0.185923939205233E+02
             -0.223527670954117E+02
             -0.215022959811171E+01
             -0.189317894168920E+02
             -0.107382665832918E+02
             -0.208219976849291E+02
             -0.473801910247287E+01
             -0.171880443775835E+02
             -0.249067349438103E+02
              0.102458665896555E+02
             -0.831201285602650E+01
              0.107817290499851E+02
              0.435164670913063E+01
             -0.367814704484332E+02
             -0.263469995289304E+02
             -0.217137216731508E+02
              0.166579527372436E+02
             -0.901237204502308E+00
             -0.306622862386356E+02
              0.288651331718068E+02
             -0.199926937119125E+02
              0.279006413039965E+02
             -0.150313205466738E+02
             -0.230969777153946E+02
              0.130263280622593E+02
             -0.337351883166246E+02
             -0.174080600918741E+02
              0.312108428822606E+02
              0.963209931197963E+01
             -0.201226725567091E+02
              0.255529461104032E+02
             -0.856739998218865E+01
             -0.174116229971833E+02
             -0.147219890219891E+02
             -0.247262351985820E+02
              0.128700487023100E+02
             -0.448595317974655E+02
             -0.399385709138660E+02
             -0.439288649225469E+01
             -0.151786314224571E+02
             -0.286825609193510E+02
              0.362488068326921E+02
              0.660946420184771E+02
             -0.147146663952247E+02
             -0.186850978214875E+01
             -0.304145732113604E+02
              0.326128058590212E+02
              0.952407076628572E+01
             -0.101500234474897E+02
             -0.191367334490400E+02
              0.747712534252299E+01
             -0.294375823679023E+02
             -0.862405424250076E+01
             -0.436416268288861E+02
              0.172929031895117E+02
              0.669041480907023E+01
             -0.590992568245611E+00
             -0.447753461600439E+01
             -0.180736700011952E+02
             -0.483026836721402E+01
              0.638681057365609E+02
             -0.935622636461255E+01
             -0.228485278396862E+02
             -0.341569353508994E+02
              0.632570968173056E+01
             -0.178812299655638E+02
              0.435230242983175E+01
              0.144315163043005E+02
              0.392613660134268E+01
              0.149978938384948E+02
              0.695112988072420E+01
              0.299207641929311E+02
              0.142268136828214E+02
             -0.170926163661773E+02
              0.220117737196228E+02
              0.178119050296994E+02
              0.608541402650566E+01
              0.214608092113607E+02
             -0.131460366164709E+02
              0.366137870627965E+02
              0.106024690135906E+02
             -0.150345970320380E+02
             -0.294962692139855E+01
             -0.901981529579092E+01
              0.108256567342475E+02
             -0.121519871740798E+02
             -0.262384439683728E+01
             -0.512097776539827E+01
              0.404201701324000E+02
              0.263351168738749E+02
             -0.327536526604134E+02
             -0.306814010274778E+01
             -0.263380836778645E+02
             -0.740958095404531E+01
             -0.119230304139922E+02
              0.349577292217396E+01
             -0.478610172209609E+00
             -0.132285418003091E+02
              0.650286757328699E+01
             -0.363741627319801E+01
             -0.492907804189517E+01
              0.430417654988188E+02
              0.813714759729550E+01
             -0.404514996340183E+02
             -0.208905078613677E+02
              0.470057122579196E+02
              0.131340626948572E+02
             -0.479967883634231E+01
              0.525437944451493E+02
             -0.878095525776371E+01
             -0.508170112890079E+01
             -0.370590957343245E+01
              0.664733825775261E+01
              0.147919557681790E+02
              0.259035073820393E+01
              0.145112251432653E+02
             -0.750606860187774E+01
             -0.169414296143280E+02
             -0.204679047654103E+02
             -0.234719817789876E+02
              0.212909333687824E+02
              0.664380127122399E+01
              0.189338650682741E+02
              0.686524680592160E+01
              0.435629296968348E+02
              0.911951383574545E+01
             -0.403627039468137E+02
             -0.166215167377331E+02
              0.421462810916624E+01
             -0.143540077116756E+02
              0.312144601471291E+02
             -0.610213122490319E+01
              0.819927682577829E+01
              0.256836351641651E+02
             -0.368310140214487E+02
              0.736127772923059E+02
              0.992646718125111E+01
              0.127565545800579E+02
              0.177897991405345E+02
              0.370200706848351E+01
             -0.547518944486143E+00
              0.171627833734567E+02
             -0.176362200192247E+02
              0.402808259051793E+02
              0.354173344859807E+02
             -0.200660616972994E+02
              0.768695530497183E+01
              0.344859490827284E+02
             -0.107446084245328E+02
              0.868778190321447E+01
              0.193841274178157E+02
              0.206322316175547E+02
             -0.379925733059324E+02
             -0.569095396577626E+01
             -0.159363818630450E+02
             -0.134364764203562E+01
             -0.350373652051355E+01
             -0.218474501690537E+00
             -0.727473717968181E+01
             -0.149449954550441E+02
              0.535384348465045E+01
              0.439078876376425E+01
              0.264596701901282E+02
             -0.209197244239209E+02
              0.204912870162652E+02
              0.227029564677130E+02
             -0.706031270564941E+01
              0.410220980203846E+02
             -0.340281849790114E+02
             -0.511313701234620E+02
             -0.383980453979964E+01
             -0.268425659521131E+01
              0.574522846070920E+00
              0.389918240375241E+02
             -0.341895002888521E+01
              0.208665646068998E+02
              0.248539548732704E+02
              0.187776300400783E+02
             -0.481781145546938E+01
              0.301974317030190E+02
             -0.760953503036568E+01
             -0.167411061717095E+02
             -0.211613148059591E+02
              0.417131440726398E+01
              0.178140128348744E+02
             -0.185946745644648E+01
              0.180453396019433E+02
             -0.373428325621603E+00
              0.306313098485530E+02
              0.877713310923590E+01
              0.458140539584574E+01
             -0.281773401912591E+01
              0.158569826279777E+02
              0.190539282844266E+02
              0.952818881924156E+01
             -0.733181931899693E+00
             -0.270645856215329E+02
              0.141953322613710E+02
              0.944151468962355E+01
              0.179881119449789E+02
              0.144027030970331E+02
              0.183284158151886E+02
             -0.392410705745050E+01
              0.144002420829914E+02
             -0.140078387015249E+02
             -0.658664284210374E+00
             -0.269561919860390E+02
             -0.158247355699988E+02
              0.196329120622856E+02
             -0.447927255308691E+02
              0.135797283339047E+02
              0.796940300227266E+01
              0.414811683161560E+02
             -0.111927424714526E+02
              0.161391542476194E+02
             -0.597266340429667E+01
             -0.237385838500324E+02
             -0.350782051687287E+02
             -0.486151837845514E+01
             -0.435875529732689E+02
              0.725252040209310E+01
             -0.108933520585606E+02
              0.156098229364090E+02
              0.114416542920040E+02
             -0.130059053257362E+02
             -0.135537303699254E+02
              0.198799300423890E+02
             -0.293641476083167E+02
             -0.597950608321284E+01
             -0.940254432008162E+01
              0.118927248164447E+02
             -0.121314819712291E+01
              0.184307594808197E+01
             -0.925227704300623E+01
              0.273518552052488E+02
             -0.251457825165934E+02
              0.349806737473824E+01
              0.291285358586924E+02
             -0.171991483798343E+02
              0.152095284425320E+01
             -0.176951819071564E+01
             -0.325982397807394E+02
             -0.213076010610995E+02
             -0.309717859570826E+01
              0.132971284195809E+02
              0.159461926238866E+02
              0.311473571533182E+01
             -0.398908715587243E+01
              0.837907405787220E+01
             -0.211838824839321E+02
             -0.110657113381762E+00
             -0.258204430093001E+02
             -0.144909465738359E+02
              0.239325199876801E+02
             -0.146432970577665E+02
              0.324509023519064E+02
             -0.110618672726701E+02
              0.168673942573058E+02
              0.122665547627477E+02
             -0.311485460475879E+02
             -0.131894509337770E+02
              0.469129206303911E+01
             -0.196908419823737E+02
             -0.178784221096929E+02
             -0.428200167830973E+02
             -0.268041937500829E+02
             -0.250282443171624E+02
             -0.213998713204431E+02
              0.422819150725928E-01
              0.773730064909286E+01
              0.255402417092861E+01
              0.105846444470816E+02
             -0.278285925271892E+02
              0.695683177654996E+01
              0.125762619830792E+02
             -0.332438654145499E+02
             -0.318549276539535E+02
             -0.205989814210461E+02
             -0.118517831403041E+02
              0.836891455000330E+01
              0.171396880210409E+00
             -0.211045535835457E+02
              0.162091446301129E+02
             -0.110773054747423E+02
              0.253353982963054E+02
             -0.438064783927591E+02
              0.306879355028888E+02
             -0.315602313691243E+01
             -0.190387522531134E+02
             -0.122083049634701E+02
              0.148193050670631E+01
              0.212522810142643E+02
             -0.363478936165751E+02
             -0.614445282663937E+01
             -0.977580760267035E+01
              0.230921600348587E+02
              0.415898289594309E+02
             -0.484650457509873E+02
              0.460086395939235E+02
              0.216124057611453E+02
             -0.366353912713912E+02
             -0.165777455989675E+02
              0.380341578415082E+02
              0.300288373608369E+02
             -0.929846631724416E+01
             -0.277927122753778E+01
              0.583172979757902E+01
              0.352405191207414E+02
             -0.270339079225515E+02
              0.690034255620128E+01
             -0.343831615937981E+01
              0.149766479616713E+02
             -0.359218375115705E+02
             -0.228813387928244E+01
             -0.155638929010198E+02
              0.233464718410585E+02
              0.215179289230826E+02
             -0.429961998875157E+02
             -0.238497540461267E+02
             -0.112806513083771E+02
             -0.195195347042817E+02
             -0.593186920091202E+01
             -0.106979573199548E+02
              0.215125587715630E+02
              0.204403528933208E+02
             -0.161752091358437E+01
             -0.217682676047344E+02
             -0.422447121112927E+02
              0.229429253414877E+02
             -0.245347139097486E+02
             -0.169236096735712E+02
              0.298774149966732E+01
             -0.170255836244087E+02
             -0.198515699166167E+02
             -0.132530520273859E+02
             -0.218515671361743E+02
             -0.129418842467765E+02
             -0.245715366468602E+02
              0.276929141611673E+02
              0.307388077838191E+02
             -0.284875482201818E+01
             -0.117819741837694E+02
             -0.741786728375189E+00
              0.216283882523326E+02
             -0.425080496619243E+02
             -0.923950277394437E+01
              0.248507445202657E+02
              0.341469608906576E+02
             -0.894956578807435E+01
              0.488774692156773E+01
              0.260846488225950E+02
              0.857462591293056E+01
             -0.202076174868017E+01
             -0.216233131176530E+02
              0.110759667594265E+02
             -0.170035205123301E+02
             -0.606906618171368E+01
             -0.922340985169288E+01
             -0.865104359246496E+01
              0.107713995431565E+02
              0.393198688523160E+02
             -0.693528339975416E+00
              0.209114605205369E+01
             -0.443123627054031E+02
             -0.862512986133919E+01
             -0.177297990229929E+02
              0.546540458984623E+00
             -0.219938123766868E+02
              0.400115454900543E+02
              0.401541742253460E+02
              0.729812948795931E+01
             -0.874057801704785E+01
              0.799912411904681E+01
              0.113436688191304E+02
             -0.236331079507143E+02
             -0.426408515979290E+01
              0.805474931500885E+01
              0.724691825877926E+01
              0.271291100670598E+02
              0.206333316203031E+02
             -0.100191604655483E+02
              0.136835997146423E+02
             -0.479407953948818E+02
             -0.644419683551874E+00
              0.427656197464038E+02
              0.599628029526772E+01
             -0.276979511896798E+00
              0.153141898516900E+02
             -0.140242309030529E+02
              0.454550994407745E+02
             -0.731901117558564E+01
              0.409733206310783E+02
              0.190102029736129E+02
             -0.200428721334611E+02
              0.157162756981268E+02
             -0.155970666141411E+02
             -0.349624377877897E+02
             -0.325112428536343E+01
             -0.272114111658899E+02
             -0.263133053083044E+02
             -0.248471950853394E+01
              0.164951666256849E+02
             -0.413731464191075E+01
             -0.163872038475287E+02
              0.455271666152194E+01
             -0.350610471489514E+02
             -0.368205714672168E+01
             -0.417973429595472E+02
              0.246900337772978E+02
             -0.346693619114461E+00
             -0.243650528452737E+02
             -0.908225128839140E+01
              0.959727048985309E+01
             -0.166112932762166E+02
             -0.225369050365769E+02
              0.452497608839298E+02
             -0.114785848682429E+02
             -0.210188920370160E+02
              0.132926975027199E+02
             -0.739100230079414E+01
              0.262539922475564E+02
             -0.137654296398421E+01
              0.432783597503636E+01
              0.521205280983202E+02
             -0.755677748294573E+01
             -0.178236735719083E+02
             -0.191526333920937E+02
             -0.259188368210234E+02
             -0.170453629574384E+02
              0.130596313050733E+02
              0.121200457613258E+02
              0.108411327441350E+02
              0.368980914729534E+02
              0.122329764001222E+01
              0.975888488755092E+01
             -0.319225401280300E+02
              0.107113205419657E+01
             -0.105026366949523E+02
             -0.138921947198689E+02
              0.679393294462329E-01
              0.164366989477217E+02
              0.188428364139227E+02
              0.300740867130571E-01
              0.543803303734165E+01
              0.143561601055509E+02
              0.182963372599569E+02
             -0.120426055761946E+02
             -0.638506259996086E+01
              0.654100089774758E+00
             -0.115087784432919E+02
             -0.316774098670447E+01
             -0.150839975440314E+02
              0.385805698430105E+02
              0.322455768955157E+02
             -0.812146958959102E+01
              0.721458774807036E+01
             -0.196463756167841E+01
             -0.129418404026627E+02
              0.166618547124119E+02
             -0.498686871336463E+01
              0.192116968587415E+02
             -0.266122037196532E+02
              0.961347649383788E+01
             -0.547708460701011E+01
             -0.273644096943108E+02
             -0.132396061580419E+02
              0.139521620976987E+02
             -0.445450231245616E+02
              0.210026306328101E+02
              0.236155866119801E+02
             -0.440409647613422E+01
             -0.322880646511085E+01
             -0.195960370538120E+01
              0.116791645744896E+02
             -0.166157132587369E+02
              0.183454440459071E+02
              0.143408774102149E+02
             -0.509224164641913E+02
             -0.169528957325336E+02
              0.119506808251527E+02
             -0.399595513102406E+01
              0.202595307601817E+02
             -0.307474788850857E+02
             -0.227784504879634E+01
             -0.208743255277011E+02
             -0.626000294087634E+02
              0.382808662898552E+02
             -0.288955732978016E+02
             -0.299811969138320E+02
              0.493929570562702E+01
              0.636701232840301E+02
              0.593728886983200E+00
             -0.125770074990375E+02
             -0.119679123278888E+01
             -0.251225760806724E+01
             -0.428729236661987E+02
             -0.304354810463719E+02
              0.405115006816012E+02
             -0.423710450289553E+01
             -0.194049395313121E+02
              0.255105382957934E+02
             -0.173453870747136E+02
              0.183977131649841E+02
              0.270723472547406E+02
             -0.290943679280084E+02
             -0.127619181517557E+02
             -0.171446666267641E+02
             -0.781386214385952E+01
             -0.900371972266498E+01
             -0.447849682424976E+01
              0.724454364332524E+01
             -0.166983121949704E+02
              0.143317819335606E+02
              0.295889761016362E+02
             -0.596186242187391E+01
             -0.951786154924250E+01
              0.683104603144457E+01
              0.275657334693255E+02
              0.251558645625349E+02
              0.304861002955917E+01
             -0.183413133187850E+01
             -0.322994733537040E+01
             -0.247345458098593E+02
              0.187892296829718E+02
             -0.112547294610156E+02
              0.914982241712613E+01
             -0.790206674147720E+01
              0.143894920865547E+02
              0.835605058994250E+01
             -0.391293874969433E+02
             -0.139657983128733E+02
             -0.388037289918287E+02
             -0.163305251134150E+02
              0.251290264981189E+01
             -0.835026837169701E+01
              0.158197839410865E+02
             -0.149612929167484E+02
              0.179757505981205E+01
              0.519578448579927E+01
              0.359326855000633E+02
              0.189384576536477E+02
             -0.136281274229137E+02
             -0.183733473049841E+00
              0.573827544384258E+01
              0.192959900609950E+02
             -0.203018135155361E+00
              0.264158711974436E+02
              0.117122623125747E+02
              0.440230246211101E+02
              0.136957685885957E+01
              0.335695293357387E+02
             -0.133193358005181E+02
             -0.189204223929569E+02
              0.316363825022285E+01
              0.352196522159892E+01
              0.135745847145581E+02
             -0.526156619785309E+01
             -0.687291263854225E+01
              0.124599155747366E+02
             -0.233113057233169E+02
             -0.265730572401524E+02
              0.382715357007349E+02
             -0.356823815620606E+01
             -0.204239057815226E+02
             -0.134641811068261E+01
             -0.671143331098614E+01
              0.191344820200570E+02
              0.161694268647744E+02
             -0.105662181589653E+02
              0.449208413941463E+00
             -0.135907047826858E+02
             -0.169322958795275E+02
             -0.131988707546983E+02
             -0.473369818953212E+02
             -0.102102424155612E+01
             -0.329484096154966E+02
             -0.273798576622139E+02
             -0.199256629628480E+02
              0.852075239960061E+01
             -0.186579972255521E+02
              0.102117297826235E+02
             -0.298089832099416E+02
              0.523487968354402E+00
             -0.200199185244048E+02
              0.409313602468856E+01
              0.489498066691150E+01
              0.158014604189560E+02
             -0.101799711625376E+02
             -0.803311952279699E+01
              0.143996604044693E+02
              0.299427248577715E+02
              0.158335056606797E+02
              0.369476979006026E+01
             -0.351919867256345E+02
             -0.766462490919028E+01
             -0.161312554384085E+02
             -0.300204045368494E+02
              0.212131619033939E+02
             -0.177762462174588E+02
             -0.181472221352705E+01
             -0.129810233417472E+02
             -0.495573200844047E+02
              0.254218733095971E+02
             -0.825769215728496E+01
              0.206923117101558E+02
             -0.353351360179582E+02
              0.332333756108547E+02
              0.200815270361537E+01
             -0.149284734761228E+02
              0.366326156635344E+01
             -0.112132008271411E+02
             -0.339680598891812E+02
              0.718793925262621E+01
              0.160576328459540E+02
              0.122895831068701E+01
             -0.176707762002420E+02
             -0.743649040997354E+01
              0.827513580149255E+01
              0.149386630245045E+02
              0.314574665224637E+02
              0.127301852599740E+02
             -0.110319024562122E+02
              0.453442235383010E+02
              0.126856232803999E+02
              0.201884336457976E+02
             -0.913272638341630E+01
              0.136634376711936E+02
              0.883374896325996E+01
             -0.312687659473963E+02
             -0.101215715772766E+02
             -0.198752981255097E+02
             -0.172250217705101E+02
             -0.567008855408946E+01
             -0.744674587297266E+01
             -0.196877674443677E+02
             -0.556989230079286E+02
             -0.144295254710443E+02
              0.674846254100464E+01
              0.366184310496851E+01
              0.564952197814131E+01
              0.232042697103562E+02
              0.715913439779609E+01
              0.162374096005395E+02
             -0.203688839186525E+02
              0.232372635904745E+02
             -0.224884041623084E+02
             -0.366627682385597E+02
              0.949322329069304E+01
             -0.202737215019640E+02
             -0.196748705838080E+02
             -0.785506425914521E+02
             -0.584139496371261E+01
              0.400621047169455E+02
              0.226883820251691E+02
             -0.569109856167267E+01
             -0.584502417851553E+01
              0.173210742503393E+02
              0.328429129594245E+02
             -0.212117548568824E+02
             -0.474421543010061E+01
             -0.162929623847646E+02
             -0.179524181179280E+02
             -0.155268324852190E+02
              0.681890461509297E+01
              0.360175214821759E+02
             -0.324679240938071E+02
             -0.269914762621391E+02
              0.110978447123745E+01
             -0.464398902074461E+01
             -0.682318243389440E+01
             -0.454547067699583E+02
              0.296166363947585E+02
              0.125914793010097E+02
              0.411088242319908E+01
              0.241544217212159E+02
             -0.158965929539693E+02
              0.149542538164711E+02
              0.136468327609311E+02
              0.212766539024719E+01
             -0.282278273164127E+01
              0.543052306384383E+01
             -0.729925077019493E+01
              0.239265535561566E+02
             -0.203372962187882E+02
              0.207461303238955E+02
              0.460230148842746E+01
              0.665805383871465E+01
              0.119198532827007E+02
             -0.429098803013107E+02
              0.404049707031405E+01
             -0.330458755093466E+02
             -0.246178869033184E+02
             -0.243976247258256E+02
             -0.237584626616158E+02
              0.812375136778314E+00
              0.756973494667292E+01
              0.244471880245981E+02
              0.454906512732599E+01
              0.717491521954377E+01
             -0.354499305384787E+02
             -0.122628683794252E+02
              0.172115244235855E+02
              0.659244717385526E+00
              0.545056730378150E+00
             -0.422376388565186E+01
              0.175164979419049E+02
             -0.454386565659849E+02
              0.519343230871785E+01
              0.111887989682985E+02
              0.214941289392773E+02
              0.181717856850923E+02
             -0.282739282385327E+02
              0.521111659062797E+01
              0.239263277472850E+01
              0.216542361293654E+01
              0.194837030144492E+01
             -0.985118155531197E+01
             -0.162288853417290E+02
              0.882764293134919E+01
              0.304950508959344E+02
             -0.405392481930761E+01
              0.498155396488465E+01
              0.825250652863474E+01
             -0.124984130131860E+02
             -0.128755589475874E+02
             -0.582183634894329E+02
             -0.186660429029672E+02
             -0.257919517448616E+02
             -0.374685587025371E+01
             -0.325386391878186E+02
              0.377404576057558E+02
             -0.153471875057469E+02
             -0.268685066067271E+02
             -0.778785163916048E+02
              0.330028308727814E+02
              0.647698537815413E+01
              0.915170611446186E+00
             -0.312798292084491E+02
              0.462260794841330E+01
             -0.980277712611706E+01
             -0.167932231746958E+02
              0.518077536565862E+01
              0.167091389232224E+02
              0.361098480172285E+01
             -0.918297076357919E+01
             -0.794344317523439E+00
              0.940287268728213E+00
              0.914526074774835E+01
             -0.311914239250226E+02
              0.354957670324569E+02
             -0.210441998378589E+02
             -0.143812996889924E+02
             -0.219294616063236E+02
             -0.501669447683099E+02
              0.424965489038622E+01
             -0.253038087495428E+02
             -0.106745639463703E+02
              0.169511639767514E+02
             -0.119752219465324E+02
             -0.621006961091894E+00
             -0.528182833323767E+01
             -0.115770148823088E+02
              0.821033876802034E+00
              0.265879579227097E+02
             -0.256906685725318E+02
              0.469885451710908E+02
             -0.108353182916375E+02
              0.174279465878376E+02
             -0.455567115286158E+01
              0.620805761435176E+01
             -0.574784773104508E+01
              0.227511807229001E+02
              0.304231810389483E+02
              0.932831368513772E+01
              0.242612725104886E+02
             -0.185630688306208E+02
             -0.276673856554502E+01
             -0.111261042322427E+02
              0.341346532519317E+02
              0.284569688129343E+02
              0.217987049825828E+02
             -0.726941578362954E+01
             -0.138560530764198E+02
              0.125371526715102E+02
             -0.138719668990192E+02
             -0.643137720132336E+01
             -0.334983496372622E+01
             -0.135934491126925E+02
              0.249662798967066E+02
             -0.354845634656618E+01
              0.184843418368372E+02
              0.863558106855124E+01
              0.909346400014093E+01
             -0.164455437456706E+02
              0.143004197141594E+02
             -0.887598164190530E+01
             -0.611087827764931E+01
             -0.143397426668616E+01
             -0.248826662791199E+02
              0.381964892563600E+02
             -0.133154439946042E+02
             -0.172573248772633E+01
              0.102239011083124E+02
              0.100582456782167E+02
              0.367737908974342E+02
             -0.783267450915989E+01
              0.376026808984005E+02
              0.334079557806557E+02
             -0.468605349397865E+02
              0.349228908375660E+01
             -0.971361947399302E+01
              0.694476845190907E+01
              0.370659944311370E+01
              0.844596706563922E+01
              0.303004609456622E+02
              0.465684875019898E+02
             -0.379964896365148E+02
              0.378597588666146E+02
             -0.470926594701427E+02
             -0.392945740051215E+02
             -0.619222763908975E+01
             -0.681593112298486E-01
              0.350397742309293E+02
              0.191751425524957E+02
             -0.782533567364163E+01
             -0.450395855352419E+02
              0.346502473771019E+02
             -0.219570761227801E+02
              0.152147351767553E+00
             -0.356147547567110E+01
              0.619742712319609E+02
             -0.130266796377664E+02
             -0.526948127898427E+02
              0.149282520884432E+02
             -0.795002433615826E+02
              0.592682981939758E+01
             -0.176906307379510E+02
             -0.911955224135117E+01
             -0.134245465557269E+02
             -0.286805433180863E+02
              0.194669465904616E+02
             -0.181881348100736E+02
             -0.473816945713708E+01
             -0.390166927266771E+02
             -0.256353299077054E+01
             -0.248254958717160E+02
             -0.373225466520026E+02
             -0.588309959032727E+02
              0.570702698266331E+01
             -0.167430100374074E+02
              0.111290294959053E+01
             -0.693783579285804E+01
             -0.402528431753200E+02
             -0.318045331641743E+02
             -0.272448074139402E+02
             -0.272275309927199E+02
              0.267822478517103E+02
              0.355595625599686E+01
             -0.238092773802772E+02
             -0.108476530854429E+02
             -0.117715219251563E+02
              0.193352685205520E+02
             -0.151612339060739E+02
             -0.525328529290536E+01
             -0.130086863341865E+02
             -0.176599681687537E+02
             -0.192618653670916E+02
              0.186074903092181E+02
             -0.819932980702009E+01
             -0.452814164381263E+02
              0.385306458990756E+02
              0.229577529930770E+02
              0.243124628311540E+01
             -0.382887293944666E+02
             -0.367411262993397E+02
              0.425065178690983E+01
              0.792155821960193E+00
             -0.152766489250605E+02
             -0.228749033078026E+02
              0.168552241030139E+02
             -0.313650805839364E+01
              0.129832629543380E+02
              0.244669002254172E+02
              0.162852459859752E+02
              0.158787472397971E+02
              0.121599895149669E+02
             -0.997514424891807E+01
             -0.680326501827989E+01
             -0.107833323576419E+02
             -0.175931599008389E+02
             -0.217318538734675E+02
             -0.320535905722342E+02
             -0.188419958944441E+02
             -0.458855377129531E+01
             -0.396070669580591E+02
             -0.517592164873423E+01
              0.173004971186598E+02
             -0.367751262404872E+02
              0.141633152268324E+02
              0.121968371197782E+02
             -0.347355580561824E+02
             -0.280182516449877E+02
             -0.816588193922155E+01
              0.958506238690501E+01
             -0.197798656180934E+02
              0.355656835525841E+02
              0.309289548375852E+02
             -0.383661022934238E+02
              0.237514800487398E+02
              0.175421810400265E+02
              0.500463039516825E+01
              0.114686598614112E+02
             -0.211766992852318E+02
             -0.655480410079852E+01
              0.310486885294102E+01
              0.924682014507012E+01
              0.217267101683372E+02
             -0.254838532226419E+02
             -0.247889009196024E+01
              0.852826546300837E+01
              0.993926058211215E+00
             -0.137489447012622E+02
              0.106680006772981E+02
             -0.130638592910545E+02
             -0.101622273097945E+02
              0.142321563826712E+01
             -0.301893424942300E+02
              0.111613201495278E+01
             -0.103154443653002E+02
             -0.595879061117972E+01
              0.254171979938729E+01
             -0.273835126211594E+02
              0.283777588587394E+02
             -0.130512127244376E+02
             -0.640877988434211E+02
             -0.423973869343237E+02
              0.187900899206552E+02
             -0.184122771875221E+02
             -0.854457921580388E+01
             -0.136558866111301E+02
             -0.902433958770614E+01
             -0.495147178550681E+02
             -0.446583527537837E+01
             -0.310522531768352E+02
             -0.167420783073382E+02
              0.112223173876335E+02
              0.381184939055316E+02
              0.952090551922566E+00
             -0.871788410401962E+00
              0.288589237343732E+02
             -0.260466918608363E+02
              0.171181077486908E+02
              0.400983334460399E+01
             -0.223508310843826E+02
             -0.105832404346188E+02
              0.111440509496770E+02
              0.356216304286988E+00
              0.610044029943151E+01
              0.538713726075602E+01
             -0.114415634274290E+02
             -0.156163771371502E+02
             -0.255124076090906E+02
              0.239807441851705E+02
             -0.316445294874798E+02
             -0.240627576565972E+02
              0.611245446226432E+01
             -0.431242914071971E+02
              0.106025971932578E+02
              0.306757591788766E+02
             -0.289742385232105E+01
              0.455990386935292E+01
             -0.134329677932809E+02
             -0.103831738314959E+02
              0.454801658280860E+01
              0.187450480335014E+02
             -0.194500542852262E+02
              0.144420812802875E+02
             -0.564952639947742E+01
             -0.986608330720657E+00
              0.127343750806786E+02
              0.834448197823126E+01
             -0.524819256309562E+01
             -0.704791810045606E+00
              0.995139054669386E+01
              0.146155823097840E+02
             -0.357419317459725E+02
              0.309217378806784E+01
              0.258499398284580E+02
             -0.468172411575206E+02
              0.154958430950848E+02
             -0.587347292412927E+02
             -0.441043327376234E+01
             -0.762934399143585E+01
             -0.413243039596790E+01
             -0.560851237333418E+01
             -0.122429487478711E+02
             -0.364471034538525E+01
              0.642214439998260E+01
             -0.128897520329481E+02
              0.605222535164606E+01
              0.432643344439473E+02
             -0.309808201796204E+02
             -0.130904495350604E+02
              0.190040616575029E+02
              0.123432640956205E+02
              0.207797029590998E+02
              0.913321824327352E+01
              0.120271576937625E+02
             -0.808204041069328E+01
             -0.236151655246840E+02
             -0.220255597068519E+02
             -0.113243912566450E+02
              0.101818425794632E+01
             -0.208062288424105E+02
             -0.721152884424961E+01
              0.360125135855037E+01
              0.112830020606852E+02
             -0.500909144527027E+01
              0.290150750326817E+02
             -0.270355501340083E+02
             -0.291116547497145E+01
             -0.149018634395477E+01
              0.134559311209000E+02
             -0.203782198064968E+02
             -0.124165687420788E+02
              0.110343418733963E+02
              0.237194071385565E+02
              0.358257877759854E+02
              0.168231277679504E+02
              0.204033886933061E+02
             -0.140256591187758E+02
              0.319687641271970E+02
              0.323210953376107E+02
             -0.221673374527364E+01
              0.179237307335650E+02
              0.186048483233614E+02
             -0.112222196079655E+02
              0.260977610668573E+01
              0.301085059476700E+02
             -0.128789101031056E+02
             -0.559709553139282E+01
             -0.301728835616468E+02
              0.124702279751161E+02
             -0.551188349802747E+01
              0.931477739797398E+01
              0.355450729613524E+01
             -0.198733397056799E+02
              0.229132152445536E+02
              0.199312642442153E+02
             -0.127281673575144E+02
              0.887005138997147E+01
             -0.296637842068630E+02
             -0.261960209571494E+02
              0.117485252827796E+02
             -0.335890865696408E+02
             -0.145230020451028E+02
              0.348832764008819E+01
              0.407390826562071E+02
             -0.120327446061949E+02
             -0.598914006500105E+01
             -0.770282165309379E+01
              0.563294503300818E+02
              0.702831808269194E+01
             -0.209866526863599E+02
              0.346392977694661E+02
              0.310790798156298E+02
              0.151085424137017E+02
              0.367635668503257E+02
              0.409789064347404E+02
             -0.449840520725188E+01
             -0.139922306383972E+02
             -0.152846110762412E+02
              0.136781448540660E+02
              0.184998483607656E+02
             -0.285045397528221E+01
             -0.110694899263186E+02
             -0.303905995897539E+02
             -0.131823989029847E+02
             -0.222402217924664E+02
              0.145850109399598E+02
              0.827348645600762E+01
              0.307914796795570E+02
              0.336296422724794E+01
             -0.126401657151561E+02
             -0.381196239092914E+01
              0.197526581061269E+02
              0.692967265475488E+01
              0.262212756988265E+02
              0.282253319984312E+02
             -0.650329755075626E+01
             -0.484243900447487E+01
             -0.485675705847038E+02
              0.254356902078426E+02
             -0.199624763990988E+01
              0.268458815371112E+02
             -0.999064422218027E+01
             -0.298270771107169E+02
              0.100628841439433E+02
              0.347220577825838E+02
             -0.124373856909906E+02
              0.328704266388932E+02
             -0.358545228323634E+02
             -0.113025790299627E+02
             -0.397090648405803E+02
              0.100764698434793E+02
              0.523852953797865E+01
              0.120944967636878E+01
             -0.303358048531824E+02
              0.439365114977691E+02
              0.262174555431835E+02
              0.467489862616350E+01
             -0.235289169577618E+02
              0.110964484829760E+02
             -0.125176598777082E+02
             -0.544835512736921E+01
             -0.108587607392584E+02
              0.942542427453229E+01
             -0.615831050074868E+01
             -0.993096639302577E+01
              0.979929995991438E+01
              0.127043121150671E+02
             -0.416631045486288E+02
              0.101571678041171E+02
              0.330754300467117E+02
              0.203199861011512E+02
             -0.580907080019113E+01
              0.147974588462397E+01
             -0.173977340190704E+02
              0.284772160658012E+02
              0.813520904703282E+01
             -0.306626166457531E+01
             -0.362804875386325E+01
              0.523047435976702E+02
             -0.245693433867643E+00
              0.129356855238988E+02
              0.360039097562524E+02
              0.476729949349316E+02
              0.302578348284836E+02
              0.208104904899220E+02
             -0.314990688001007E+02
             -0.220467297887533E+02
              0.162370826096149E+02
              0.169085735918588E+01
              0.154467185895512E+02
              0.880812214174897E+01
              0.301268833316432E+02
             -0.382690080630470E+02
             -0.237047972900751E+02
             -0.492058705601443E+01
             -0.413457477092522E+02
              0.905582289285488E+01
              0.201169987104079E+02
              0.564136617484900E+01
             -0.112929885167636E+02
              0.121973180395030E+02
              0.685846791085478E+02
              0.134885860021890E+02
              0.725941164046696E+01
             -0.233824419304242E+02
             -0.304225768269938E+02
             -0.793883599671820E+01
              0.156265595412775E+02
             -0.248988025986836E+01
              0.107176224965665E+02
              0.171408472663936E+02
             -0.288425402471564E+02
              0.120601848986020E+02
              0.239993965810223E+02
              0.275989213529356E+02
             -0.314585799039571E+01
              0.118829617773787E+01
             -0.449559337880098E+01
             -0.233220655546139E+02
             -0.343318969649851E+02
              0.387866255523110E+02
             -0.354385800778427E+01
             -0.278294825879054E+02
              0.215941809536625E+01
             -0.120929531585635E+02
              0.445330915163360E+02
             -0.112795036859811E+02
             -0.178906778684999E+02
              0.168710763236261E+02
             -0.741920504247842E+01
              0.208845162266931E+02
             -0.373208978085955E+00
              0.483663499514314E+02
              0.254270348940055E+02
              0.909761875797912E+00
             -0.175858345250305E+02
              0.127050824654199E+02
             -0.265450442406678E+02
             -0.487942645824415E+01
              0.298120161474177E+02
             -0.136495894223206E+02
             -0.218274916765905E+02
             -0.113922419054740E+02
              0.252205342670203E+02
              0.625126417280978E+01
             -0.409887724819313E+02
              0.155304974262733E+02
              0.562978443871518E+01
              0.394472362759817E+01
             -0.247361537526024E+02
              0.815993795674927E+00
              0.165714872187055E+02
              0.240765503997287E+02
              0.319741300641807E+02
              0.133703213425443E+02
              0.165914399139291E+01
             -0.258013524552434E+02
             -0.234303695884614E+02
             -0.348841762480510E+02
             -0.492304985049969E+01
              0.156835962011628E+02
             -0.115898951019541E+01
              0.261884615123803E+02
             -0.159735144553905E+02
              0.861309937192991E+01
             -0.755361864682767E+01
             -0.141964511736808E+02
              0.290844875700628E+02
              0.351240271200038E+01
              0.305027874627890E+02
              0.228278634135262E+01
              0.115109690035744E+02
             -0.909880063800571E+01
              0.295973215874222E+02
             -0.683808367420961E+01
             -0.929309960493603E-01
             -0.386500781236905E+02
             -0.497946373916322E+01
              0.351988822443419E+02
              0.322021061691334E+02
              0.128528442112773E+02
             -0.751417563181801E+01
              0.227544501817316E+01
             -0.975822136456081E+01
             -0.479768409128887E+01
              0.449326280968735E+02
              0.206913963105677E+01
             -0.118823667508949E+02
             -0.536949951456817E+02
             -0.248283484903500E+02
             -0.186259049204139E+02
             -0.319110959051709E+02
             -0.280650492644917E+02
             -0.340501753523614E+02
             -0.223449995480751E+02
             -0.175515418888960E+02
             -0.234343290809792E+02
              0.231668587489854E+02
             -0.116778969729352E+02
             -0.455732314517008E+02
              0.202119844817230E+02
             -0.142562321732945E+02
             -0.393730315639580E+02
              0.476240249245272E+02
             -0.119824873187449E+02
              0.953237991299724E+01
              0.203580702904429E+02
              0.233728937863549E+01
              0.129973550034372E+02
              0.156535444714407E+01
              0.148198535975030E+00
             -0.702447220369864E+01
             -0.358082099446532E+02
              0.600898452139494E+01
             -0.620512674754737E+02
              0.332277350650148E+02
             -0.213131395639035E+02
             -0.856287667944039E+01
             -0.901768089243666E+01
              0.616834010522236E+01
             -0.945680701455909E+01
              0.141572512308953E+02
             -0.270169180790264E+02
              0.176905297024953E+02
              0.196738839859917E+02
              0.656218050152876E+01
              0.498519086233807E+01
              0.100949419093074E+02
              0.391572758096009E+01
              0.145638894516431E+02
             -0.337798990024604E+01
             -0.326897137659446E+02
              0.442976480117747E+01
             -0.111979319613753E+02
             -0.158429971934899E+01
              0.261243168470602E+02
             -0.397581990376674E+02
              0.203686058100914E-01
              0.832747604697829E+00
              0.482832748687491E+01
              0.154657599268039E+02
             -0.606964139553732E+01
              0.415547353190649E+02
              0.218105939811352E+02
             -0.822681983690400E+01
             -0.436296878435570E+01
              0.166084801297949E+01
              0.382331894573007E+02
             -0.270433562966548E+02
             -0.510578589384934E+02
              0.147957797900039E+02
             -0.643950941640044E+01
             -0.708989759477403E+01
              0.800233380556820E+01
              0.379737732792200E+02
              0.221856017027835E+02
             -0.781202446359967E+01
             -0.256478265875406E+02
             -0.406243547445681E+01
              0.144562050982287E+02
             -0.691050303845984E+01
             -0.370903961559139E+02
             -0.255686419922931E+01
             -0.461085800571974E+02
             -0.247152560140524E+02
              0.400101488606302E+02
             -0.249253843196153E+02
             -0.329582174160182E+02
             -0.253720711127068E+02
             -0.178983909338454E+02
              0.170437303646630E+02
              0.412641710427617E+02
             -0.293928151638085E+01
              0.134194264394114E+02
             -0.956165668148836E+01
             -0.343039211669249E+02
              0.235914104103488E+02
             -0.229398625307836E+02
              0.140777199975629E+02
              0.167214789730850E+02
             -0.500152388020757E+01
              0.189742357527736E+02
              0.207217641380888E+02
              0.543735816427758E+02
             -0.638895611014300E+01
             -0.248072719781314E+02
             -0.312070641275645E+02
             -0.785897208074252E+01
             -0.147839666474843E+02
              0.483419954737145E+02
             -0.218672338073910E+02
              0.538895790325440E+01
              0.315666921588394E+01
             -0.115813862821519E+02
             -0.409774024426326E+02
             -0.326177904317740E+01
              0.486509318162134E+02
              0.739297287289444E+01
              0.389063977457698E+01
             -0.276223206054241E+02
             -0.290204337577750E+02
             -0.586370454010897E+01
              0.235767437129472E+02
             -0.117950987306964E+02
              0.518801878038105E+02
             -0.226432243160234E+02
              0.839498354698756E+01
             -0.881867960792022E+01
             -0.335780630348213E+02
              0.206412029774032E+01
             -0.260270782940360E+02
             -0.370557119727091E+02
              0.440553945935912E+01
              0.102191450135594E+01
              0.253454519760583E+02
              0.109493094659996E+02
             -0.166471354431445E+02
              0.111963893932129E+02
             -0.420584550154617E+02
             -0.249800507825350E+02
              0.449313705217306E+02
              0.506336894373302E+01
             -0.643296407779326E+01
             -0.152493857977316E+02
             -0.139813512760253E+01
             -0.434944804805065E+01
              0.429681565480943E+02
              0.205186064523974E+02
             -0.634873977296809E+01
             -0.314900853847581E+01
             -0.200479812394402E+02
             -0.867787746016893E+01
             -0.320686124811384E+02
              0.235863809079177E+02
              0.307041421089906E+01
              0.582216533740683E+01
              0.841122375484746E+01
             -0.302968986860909E+01
             -0.954731530055147E+01
              0.110733619807406E+01
             -0.525564074009580E+02
             -0.861101385439187E+01
             -0.446104445559899E+01
             -0.400647860441508E+01
              0.256059213115998E+02
              0.316536648830390E+02
              0.852862982009384E+01
             -0.473786770118443E+02
              0.317370845367514E+02
             -0.106979612561933E+02
             -0.186114396910073E+02
             -0.430856651319341E+02
             -0.161178796315519E+02
              0.297976501985657E+02
              0.140171136773723E+02
              0.427685501868999E+01
              0.157618659597413E+02
             -0.282850274471563E+02
             -0.225863338156159E+02
              0.274866508725564E+02
              0.195615094809596E+02
              0.247550512357520E+02
              0.131079784531401E+01
              0.384822837096107E+01
              0.274427180470643E+02
              0.482281661106779E+02
             -0.120287848392311E+02
              0.182073228668381E+02
             -0.102514804317338E+02
             -0.208625719532388E+02
             -0.166435021883138E+02
             -0.160370156047563E+02
             -0.681911870514890E+01
             -0.248840168440775E+02
             -0.102729132949203E+02
             -0.678594207245581E+02
              0.168113298575064E+02
              0.112612307035089E+02
             -0.195917923246001E+01
             -0.190828627910185E+02
             -0.962399808557100E+01
             -0.269790516667061E+02
              0.517336604278904E+01
              0.400004273004841E+02
             -0.109603465739117E+02
             -0.834082041764931E+01
              0.108462938485843E+02
             -0.246761198736939E+02
              0.428458147920509E+02
              0.740753307510184E+01
              0.805693433797273E+01
              0.247733896772148E+02
             -0.311548104783782E+00
              0.278917230028825E+02
              0.835942957258926E+01
             -0.313312430897670E+01
              0.451211476833231E+01
             -0.152070777547232E+01
              0.344093834571944E+02
              0.434509417971748E+01
              0.812224641040754E+01
             -0.537168843449922E+01
              0.619351181959706E+01
             -0.457070808200859E+02
             -0.169546796087660E+02
             -0.237386287491218E+02
              0.243739133995240E+02
             -0.156841458764930E+02
             -0.307275121470438E+02
              0.283237964958540E+02
             -0.607635390864327E+01
              0.210924028026958E+02
             -0.446267585971887E+02
              0.101030571285322E+02
              0.332417699988733E+01
              0.325842179583105E+01
             -0.538243954828812E+01
             -0.375703621336885E+01
              0.243153877026606E+02
              0.684815760361175E+00
             -0.247469912545639E+02
             -0.912782388664691E+01
              0.120202363961919E+02
             -0.575409789179544E+02
             -0.445534381426340E+02
              0.109417628912317E+01
              0.672160677573645E+01
             -0.222924836056154E+02
             -0.813736932945233E+00
              0.533636983155762E+02
              0.148621661370159E+02
             -0.274142182154259E+02
              0.455673369595674E+01
             -0.495126322293822E+01
              0.559479792401132E+01
             -0.172164945337583E+02
              0.105185897451542E+02
              0.131793026652421E+02
             -0.300868198412809E+01
              0.549199892487092E+02
             -0.478623297448645E+01
             -0.156862801080340E+02
              0.105054196910654E+02
              0.219267071318711E+02
             -0.167869885837878E+02
             -0.102741401398898E+01
              0.481259699789700E+02
             -0.139181603960503E+01
              0.290458670811225E+02
              0.698744783213959E+01
             -0.401151437227161E+01
             -0.121388505431618E+02
              0.265517834394982E+02
             -0.274472666264823E+02
             -0.721838842155577E+00
             -0.879270890274140E+01
             -0.198734305849618E+02
              0.769416270836118E+01
              0.121800018695718E+02
              0.315276618063177E+01
             -0.205823029311546E+00
             -0.196497271651862E+02
              0.917656542260646E+01
             -0.187461924057560E+01
             -0.118329755572713E+02
             -0.100744941580755E+02
              0.919632759901268E+01
             -0.149276898316452E+01
             -0.182067430165755E+02
             -0.528623611730830E+02
              0.466824793351543E+01
              0.102630709631187E+02
             -0.221029640707012E+02
             -0.114078879951972E+02
              0.404272434693956E+02
              0.471965917630641E+01
              0.184093860330003E+02
              0.331088386642975E+01
              0.181919039238088E+02
              0.240374584641751E+01
             -0.193337160818163E+02
             -0.355847917361353E+01
              0.350464749355763E+01
              0.147531003794987E+02
              0.380163319747815E+02
              0.247020415224676E+02
              0.921782704062025E+00
              0.781654087454947E+01
              0.301972749190081E+02
              0.126920143050170E+02
             -0.356861211392164E+02
             -0.135890968201199E+02
              0.615434779796030E+01
              0.385023797943677E+01
              0.126831453833256E+02
             -0.261066288628195E+02
              0.405118413064802E+01
              0.199765336502822E+02
              0.244207231387287E+02
             -0.216991699990334E+02
             -0.102205276678492E+01
             -0.137784992970242E+01
             -0.797945692964342E+01
             -0.156552581957324E+02
             -0.867431226898213E+01
             -0.321168426288470E+01
              0.446992932582390E+01
              0.208088432620031E+02
             -0.154281707701304E+02
              0.401593342146705E+02
              0.164487166691622E+02
              0.119837220450115E+02
              0.172070296320850E+02
              0.143566765889889E+02
              0.174472479743431E+02
              0.270104574038809E+02
             -0.221969774322541E+02
              0.307905860990101E+02
             -0.559920875592882E+02
              0.155574225151701E+02
             -0.527982928960016E+02
              0.415013574138170E+02
              0.361498620722762E+02
             -0.508299978307139E+01
             -0.240310905711526E+02
             -0.212357167367897E+02
             -0.286187306218273E+02
             -0.317127185063076E+02
              0.275069242968399E+02
              0.206461540891290E+02
              0.118670406929717E+02
              0.154614706989419E+02
              0.211858508461100E+02
             -0.194588672098120E+02
             -0.918310743887446E+01
              0.277067806278983E+02
             -0.587329230725805E+01
              0.263001933566145E+02
              0.364330297652904E+02
             -0.268676996453090E+01
             -0.359085308034975E+02
              0.113261820408542E+01
             -0.923554866353829E+00
             -0.479804932174130E+01
              0.238076281621602E+00
             -0.323241873700982E+02
             -0.763106762706038E+01
              0.413947028655614E+01
              0.539828862826998E+01
              0.241862799258380E+02
             -0.205703756064143E+02
              0.290620827758412E+02
             -0.202079051243187E+02
              0.119504108601847E+02
              0.192832413206069E+02

 BEEF-vdW xc energy contributions
           1 :   -374.25634190733746     
           2 :    333.59741937208980     
           3 :   -266.00968262751832     
           4 :    191.47334126363302     
           5 :   -127.36996724759916     
           6 :    83.018430303324465     
           7 :   -58.794399590682929     
           8 :    48.873197981045166     
           9 :   -45.453874852018487     
          10 :    42.340112782895972     
          11 :   -36.640038851819725     
          12 :    28.512635537876974     
          13 :   -19.749913642815386     
          14 :    12.227514960102781     
          15 :   -6.9650783071239744     
          16 :    4.0057103789307007     
          17 :   -2.8559468087909750     
          18 :    3.0086167950098002     
          19 :   -4.1792347901783273     
          20 :    6.2047894571352344     
          21 :   -8.8187271318738567     
          22 :    11.558204872162662     
          23 :   -13.901300222270720     
          24 :    15.516189939559069     
          25 :   -16.409161888082281     
          26 :    16.855960196009221     
          27 :   -17.178381360456740     
          28 :    17.528787012159171     
          29 :   -17.813051289032671     
          30 :    17.774293885354098     
          31 :   -43.168863865315245     
          32 :   -30.761443078085676     

     Writing all to output data dir /anvil/projects/x-che260157/sts/runs/s5/Ru/tmp_s0_O__2x1v_mir__beef/s0_O__2x1v_mir__beef.save/ :
     XML data file, charge density, pseudopotentials, collected wavefunctions

     init_run     :      8.48s CPU      8.81s WALL (       1 calls)
     electrons    :    217.76s CPU    223.87s WALL (       1 calls)
     forces       :      3.54s CPU      3.63s WALL (       1 calls)

     Called by init_run:
     wfcinit      :      2.31s CPU      2.41s WALL (       1 calls)
     potinit      :      4.59s CPU      4.74s WALL (       1 calls)
     hinit0       :      0.54s CPU      0.59s WALL (       1 calls)

     Called by electrons:
     c_bands      :    136.35s CPU    140.09s WALL (      24 calls)
     sum_band     :     22.44s CPU     22.71s WALL (      24 calls)
     v_of_rho     :     40.53s CPU     42.54s WALL (      25 calls)
     newd         :      1.54s CPU      1.55s WALL (      25 calls)
     PAW_pot      :     10.99s CPU     11.04s WALL (      25 calls)
     mix_rho      :      8.31s CPU      8.38s WALL (      24 calls)
     vdW_kernel   :      2.17s CPU      2.19s WALL (       1 calls)

     Called by c_bands:
     init_us_2    :      2.96s CPU      3.03s WALL (     100 calls)
     cegterg      :    127.07s CPU    130.72s WALL (      48 calls)

     Called by *egterg:
     cdiaghg      :      5.27s CPU      5.37s WALL (     214 calls)
     h_psi        :     71.56s CPU     73.45s WALL (     216 calls)
     s_psi        :     10.29s CPU     10.53s WALL (     216 calls)
     g_psi        :      0.41s CPU      0.42s WALL (     166 calls)

     Called by h_psi:
     h_psi:calbec :     11.20s CPU     11.46s WALL (     216 calls)
     vloc_psi     :     49.51s CPU     50.48s WALL (     216 calls)
                                        0.00s GPU  (     216 calls)
     add_vuspsi   :     10.39s CPU     10.61s WALL (     216 calls)

     General routines
     calbec       :     17.06s CPU     17.36s WALL (     272 calls)
     fft          :     62.13s CPU     62.66s WALL (    3572 calls)
     ffts         :      5.07s CPU      5.11s WALL (    2878 calls)
     fftw         :     57.42s CPU     58.42s WALL (   51342 calls)
     interpolate  :      1.07s CPU      1.08s WALL (      25 calls)

     Parallel routines

     PWSCF        :   4m47.98s CPU   4m56.92s WALL


   This run was terminated on:  22: 4:13  16Sep2026            

=------------------------------------------------------------------------------=
   JOB DONE.
=------------------------------------------------------------------------------=
Note: The following floating-point exceptions are signalling: IEEE_UNDERFLOW_FLAG IEEE_DENORMAL
Note: The following floating-point exceptions are signalling: IEEE_UNDERFLOW_FLAG IEEE_DENORMAL
Note: The following floating-point exceptions are signalling: IEEE_UNDERFLOW_FLAG IEEE_DENORMAL
Note: The following floating-point exceptions are signalling: IEEE_UNDERFLOW_FLAG IEEE_DENORMAL
Note: The following floating-point exceptions are signalling: IEEE_UNDERFLOW_FLAG IEEE_DENORMAL
Note: The following floating-point exceptions are signalling: IEEE_UNDERFLOW_FLAG IEEE_DENORMAL
Note: The following floating-point exceptions are signalling: IEEE_UNDERFLOW_FLAG IEEE_DENORMAL
Note: The following floating-point exceptions are signalling: IEEE_UNDERFLOW_FLAG IEEE_DENORMAL
Note: The following floating-point exceptions are signalling: IEEE_UNDERFLOW_FLAG IEEE_DENORMAL
Note: The following floating-point exceptions are signalling: IEEE_UNDERFLOW_FLAG IEEE_DENORMAL
Note: The following floating-point exceptions are signalling: IEEE_UNDERFLOW_FLAG IEEE_DENORMAL
Note: The following floating-point exceptions are signalling: IEEE_UNDERFLOW_FLAG IEEE_DENORMAL
Note: The following floating-point exceptions are signalling: IEEE_UNDERFLOW_FLAG IEEE_DENORMAL
Note: The following floating-point exceptions are signalling: IEEE_UNDERFLOW_FLAG IEEE_DENORMAL
Note: The following floating-point exceptions are signalling: IEEE_UNDERFLOW_FLAG IEEE_DENORMAL
Note: The following floating-point exceptions are signalling: IEEE_UNDERFLOW_FLAG IEEE_DENORMAL
Note: The following floating-point exceptions are signalling: IEEE_UNDERFLOW_FLAG IEEE_DENORMAL
Note: The following floating-point exceptions are signalling: IEEE_UNDERFLOW_FLAG IEEE_DENORMAL
Note: The following floating-point exceptions are signalling: IEEE_UNDERFLOW_FLAG IEEE_DENORMAL
Note: The following floating-point exceptions are signalling: IEEE_UNDERFLOW_FLAG IEEE_DENORMAL
Note: The following floating-point exceptions are signalling: IEEE_UNDERFLOW_FLAG IEEE_DENORMAL
Note: The following floating-point exceptions are signalling: IEEE_UNDERFLOW_FLAG IEEE_DENORMAL
Note: The following floating-point exceptions are signalling: IEEE_UNDERFLOW_FLAG IEEE_DENORMAL
Note: The following floating-point exceptions are signalling: IEEE_UNDERFLOW_FLAG IEEE_DENORMAL
Note: The following floating-point exceptions are signalling: IEEE_UNDERFLOW_FLAG IEEE_DENORMAL
Note: The following floating-point exceptions are signalling: IEEE_UNDERFLOW_FLAG IEEE_DENORMAL
Note: The following floating-point exceptions are signalling: IEEE_UNDERFLOW_FLAG IEEE_DENORMAL
Note: The following floating-point exceptions are signalling: IEEE_UNDERFLOW_FLAG IEEE_DENORMAL
Note: The following floating-point exceptions are signalling: IEEE_UNDERFLOW_FLAG IEEE_DENORMAL
Note: The following floating-point exceptions are signalling: IEEE_UNDERFLOW_FLAG IEEE_DENORMAL
Note: The following floating-point exceptions are signalling: IEEE_UNDERFLOW_FLAG IEEE_DENORMAL
Note: The following floating-point exceptions are signalling: IEEE_UNDERFLOW_FLAG IEEE_DENORMAL
Note: The following floating-point exceptions are signalling: IEEE_UNDERFLOW_FLAG IEEE_DENORMAL
Note: The following floating-point exceptions are signalling: IEEE_UNDERFLOW_FLAG IEEE_DENORMAL
Note: The following floating-point exceptions are signalling: IEEE_UNDERFLOW_FLAG IEEE_DENORMAL
Note: The following floating-point exceptions are signalling: IEEE_UNDERFLOW_FLAG IEEE_DENORMAL
Note: The following floating-point exceptions are signalling: IEEE_UNDERFLOW_FLAG IEEE_DENORMAL
Note: The following floating-point exceptions are signalling: IEEE_UNDERFLOW_FLAG IEEE_DENORMAL
Note: The following floating-point exceptions are signalling: IEEE_UNDERFLOW_FLAG IEEE_DENORMAL
Note: The following floating-point exceptions are signalling: IEEE_UNDERFLOW_FLAG IEEE_DENORMAL
Note: The following floating-point exceptions are signalling: IEEE_UNDERFLOW_FLAG IEEE_DENORMAL
Note: The following floating-point exceptions are signalling: IEEE_UNDERFLOW_FLAG IEEE_DENORMAL
Note: The following floating-point exceptions are signalling: IEEE_UNDERFLOW_FLAG IEEE_DENORMAL
Note: The following floating-point exceptions are signalling: IEEE_UNDERFLOW_FLAG IEEE_DENORMAL
Note: The following floating-point exceptions are signalling: IEEE_UNDERFLOW_FLAG IEEE_DENORMAL
Note: The following floating-point exceptions are signalling: IEEE_UNDERFLOW_FLAG IEEE_DENORMAL
Note: The following floating-point exceptions are signalling: IEEE_UNDERFLOW_FLAG IEEE_DENORMAL
Note: The following floating-point exceptions are signalling: IEEE_UNDERFLOW_FLAG IEEE_DENORMAL
Note: The following floating-point exceptions are signalling: IEEE_UNDERFLOW_FLAG IEEE_DENORMAL
Note: The following floating-point exceptions are signalling: IEEE_UNDERFLOW_FLAG IEEE_DENORMAL
Note: The following floating-point exceptions are signalling: IEEE_UNDERFLOW_FLAG IEEE_DENORMAL
Note: The following floating-point exceptions are signalling: IEEE_UNDERFLOW_FLAG IEEE_DENORMAL
Note: The following floating-point exceptions are signalling: IEEE_UNDERFLOW_FLAG IEEE_DENORMAL
Note: The following floating-point exceptions are signalling: IEEE_UNDERFLOW_FLAG IEEE_DENORMAL
Note: The following floating-point exceptions are signalling: IEEE_UNDERFLOW_FLAG IEEE_DENORMAL
Note: The following floating-point exceptions are signalling: IEEE_UNDERFLOW_FLAG IEEE_DENORMAL
Note: The following floating-point exceptions are signalling: IEEE_UNDERFLOW_FLAG IEEE_DENORMAL
Note: The following floating-point exceptions are signalling: IEEE_UNDERFLOW_FLAG IEEE_DENORMAL
Note: The following floating-point exceptions are signalling: IEEE_UNDERFLOW_FLAG IEEE_DENORMAL
Note: The following floating-point exceptions are signalling: IEEE_UNDERFLOW_FLAG IEEE_DENORMAL
Note: The following floating-point exceptions are signalling: IEEE_UNDERFLOW_FLAG IEEE_DENORMAL
Note: The following floating-point exceptions are signalling: IEEE_UNDERFLOW_FLAG IEEE_DENORMAL
Note: The following floating-point exceptions are signalling: IEEE_UNDERFLOW_FLAG IEEE_DENORMAL
Note: The following floating-point exceptions are signalling: IEEE_UNDERFLOW_FLAG IEEE_DENORMAL
Note: The following floating-point exceptions are signalling: IEEE_UNDERFLOW_FLAG IEEE_DENORMAL
Note: The following floating-point exceptions are signalling: IEEE_UNDERFLOW_FLAG IEEE_DENORMAL
Note: The following floating-point exceptions are signalling: IEEE_UNDERFLOW_FLAG IEEE_DENORMAL
Note: The following floating-point exceptions are signalling: IEEE_UNDERFLOW_FLAG IEEE_DENORMAL
Note: The following floating-point exceptions are signalling: IEEE_UNDERFLOW_FLAG IEEE_DENORMAL
Note: The following floating-point exceptions are signalling: IEEE_UNDERFLOW_FLAG IEEE_DENORMAL
Note: The following floating-point exceptions are signalling: IEEE_UNDERFLOW_FLAG IEEE_DENORMAL
Note: The following floating-point exceptions are signalling: IEEE_UNDERFLOW_FLAG IEEE_DENORMAL
Note: The following floating-point exceptions are signalling: IEEE_UNDERFLOW_FLAG IEEE_DENORMAL
Note: The following floating-point exceptions are signalling: IEEE_UNDERFLOW_FLAG IEEE_DENORMAL
Note: The following floating-point exceptions are signalling: IEEE_UNDERFLOW_FLAG IEEE_DENORMAL
Note: The following floating-point exceptions are signalling: IEEE_UNDERFLOW_FLAG IEEE_DENORMAL
Note: The following floating-point exceptions are signalling: IEEE_UNDERFLOW_FLAG IEEE_DENORMAL
Note: The following floating-point exceptions are signalling: IEEE_UNDERFLOW_FLAG IEEE_DENORMAL
Note: The following floating-point exceptions are signalling: IEEE_UNDERFLOW_FLAG IEEE_DENORMAL
Note: The following floating-point exceptions are signalling: IEEE_UNDERFLOW_FLAG IEEE_DENORMAL
Note: The following floating-point exceptions are signalling: IEEE_UNDERFLOW_FLAG IEEE_DENORMAL
Note: The following floating-point exceptions are signalling: IEEE_UNDERFLOW_FLAG IEEE_DENORMAL
Note: The following floating-point exceptions are signalling: IEEE_UNDERFLOW_FLAG IEEE_DENORMAL
Note: The following floating-point exceptions are signalling: IEEE_UNDERFLOW_FLAG IEEE_DENORMAL
Note: The following floating-point exceptions are signalling: IEEE_UNDERFLOW_FLAG IEEE_DENORMAL
Note: The following floating-point exceptions are signalling: IEEE_UNDERFLOW_FLAG IEEE_DENORMAL
Note: The following floating-point exceptions are signalling: IEEE_UNDERFLOW_FLAG IEEE_DENORMAL
Note: The following floating-point exceptions are signalling: IEEE_UNDERFLOW_FLAG IEEE_DENORMAL
Note: The following floating-point exceptions are signalling: IEEE_UNDERFLOW_FLAG IEEE_DENORMAL
Note: The following floating-point exceptions are signalling: IEEE_UNDERFLOW_FLAG IEEE_DENORMAL
Note: The following floating-point exceptions are signalling: IEEE_UNDERFLOW_FLAG IEEE_DENORMAL
Note: The following floating-point exceptions are signalling: IEEE_UNDERFLOW_FLAG IEEE_DENORMAL
Note: The following floating-point exceptions are signalling: IEEE_UNDERFLOW_FLAG IEEE_DENORMAL
Note: The following floating-point exceptions are signalling: IEEE_UNDERFLOW_FLAG IEEE_DENORMAL
Note: The following floating-point exceptions are signalling: IEEE_UNDERFLOW_FLAG IEEE_DENORMAL
Note: The following floating-point exceptions are signalling: IEEE_UNDERFLOW_FLAG IEEE_DENORMAL
Note: The following floating-point exceptions are signalling: IEEE_UNDERFLOW_FLAG IEEE_DENORMAL
Note: The following floating-point exceptions are signalling: IEEE_UNDERFLOW_FLAG IEEE_DENORMAL
Note: The following floating-point exceptions are signalling: IEEE_UNDERFLOW_FLAG IEEE_DENORMAL
Note: The following floating-point exceptions are signalling: IEEE_UNDERFLOW_FLAG IEEE_DENORMAL
Note: The following floating-point exceptions are signalling: IEEE_UNDERFLOW_FLAG IEEE_DENORMAL
Note: The following floating-point exceptions are signalling: IEEE_UNDERFLOW_FLAG IEEE_DENORMAL
Note: The following floating-point exceptions are signalling: IEEE_UNDERFLOW_FLAG IEEE_DENORMAL
Note: The following floating-point exceptions are signalling: IEEE_UNDERFLOW_FLAG IEEE_DENORMAL
Note: The following floating-point exceptions are signalling: IEEE_UNDERFLOW_FLAG IEEE_DENORMAL
Note: The following floating-point exceptions are signalling: IEEE_UNDERFLOW_FLAG IEEE_DENORMAL
Note: The following floating-point exceptions are signalling: IEEE_UNDERFLOW_FLAG IEEE_DENORMAL
Note: The following floating-point exceptions are signalling: IEEE_UNDERFLOW_FLAG IEEE_DENORMAL
Note: The following floating-point exceptions are signalling: IEEE_UNDERFLOW_FLAG IEEE_DENORMAL
Note: The following floating-point exceptions are signalling: IEEE_UNDERFLOW_FLAG IEEE_DENORMAL
Note: The following floating-point exceptions are signalling: IEEE_UNDERFLOW_FLAG IEEE_DENORMAL
Note: The following floating-point exceptions are signalling: IEEE_UNDERFLOW_FLAG IEEE_DENORMAL
Note: The following floating-point exceptions are signalling: IEEE_UNDERFLOW_FLAG IEEE_DENORMAL
Note: The following floating-point exceptions are signalling: IEEE_UNDERFLOW_FLAG IEEE_DENORMAL
Note: The following floating-point exceptions are signalling: IEEE_UNDERFLOW_FLAG IEEE_DENORMAL
Note: The following floating-point exceptions are signalling: IEEE_UNDERFLOW_FLAG IEEE_DENORMAL
Note: The following floating-point exceptions are signalling: IEEE_UNDERFLOW_FLAG IEEE_DENORMAL
Note: The following floating-point exceptions are signalling: IEEE_UNDERFLOW_FLAG IEEE_DENORMAL
Note: The following floating-point exceptions are signalling: IEEE_UNDERFLOW_FLAG IEEE_DENORMAL
Note: The following floating-point exceptions are signalling: IEEE_UNDERFLOW_FLAG IEEE_DENORMAL
Note: The following floating-point exceptions are signalling: IEEE_UNDERFLOW_FLAG IEEE_DENORMAL
Note: The following floating-point exceptions are signalling: IEEE_UNDERFLOW_FLAG IEEE_DENORMAL
Note: The following floating-point exceptions are signalling: IEEE_UNDERFLOW_FLAG IEEE_DENORMAL
Note: The following floating-point exceptions are signalling: IEEE_UNDERFLOW_FLAG IEEE_DENORMAL
Note: The following floating-point exceptions are signalling: IEEE_UNDERFLOW_FLAG IEEE_DENORMAL
Note: The following floating-point exceptions are signalling: IEEE_UNDERFLOW_FLAG IEEE_DENORMAL
Note: The following floating-point exceptions are signalling: IEEE_UNDERFLOW_FLAG IEEE_DENORMAL
Note: The following floating-point exceptions are signalling: IEEE_UNDERFLOW_FLAG IEEE_DENORMAL
