
     Program PWSCF v.7.5 starts on  8Aug2026 at 17:55:13 

     This program is part of the open-source Quantum ESPRESSO suite
     for quantum simulation of materials; please cite
         "P. Giannozzi et al., J. Phys.:Condens. Matter 21 395502 (2009);
         "P. Giannozzi et al., J. Phys.:Condens. Matter 29 465901 (2017);
         "P. Giannozzi et al., J. Chem. Phys. 152 154105 (2020);
          URL http://www.quantum-espresso.org", 
     in publications or presentations arising from this work. More details at
     http://www.quantum-espresso.org/quote

     Parallel version (MPI & OpenMP), running on       4 processor cores
     Number of MPI processes:                 4
     Threads/MPI process:                     1

     MPI processes distributed on     1 nodes
     24059 MiB available memory on the printing compute node when the environment starts

     Reading input from s0_OOH__dipole.run.in

     Current dimensions of program PWSCF are:
     Max number of different atomic species (ntypx) = 10
     Max number of k-points (npk) =  40000
     Max angular momentum in pseudopotentials (lmaxx) =  4
     Presently no symmetry can be used with electric field

     file O.pbe-n-kjpaw_psl.0.1.UPF: wavefunction(s)  2P renormalized

     K-points division:     npool     =       4
     Subspace diagonalization in iterative solution of the eigenvalue problem:
     a serial algorithm will be used


     G-vector sticks info
     --------------------
     sticks:   dense  smooth     PW     G-vecs:    dense   smooth      PW
     Sum        3639    1825    519               941385   332621   50331

     Using Slab Decomposition



     bravais-lattice index     =            0
     lattice parameter (alat)  =       5.9602  a.u.
     unit-cell volume          =    3444.9838 (a.u.)^3
     number of atoms/cell      =           21
     number of atomic types    =            3
     number of electrons       =       175.00
     number of Kohn-Sham states=          106
     kinetic-energy cutoff     =      80.0000  Ry
     charge density cutoff     =     640.0000  Ry
     scf convergence threshold =      1.0E-06
     mixing beta               =       0.3000
     number of iterations used =            8  local-TF  mixing
     Exchange-correlation= SLA  PW   PBX  PBC
                           (   1   4   3   4   0   0   0)

     celldm(1)=   5.960196  celldm(2)=   0.000000  celldm(3)=   0.000000
     celldm(4)=   0.000000  celldm(5)=   0.000000  celldm(6)=   0.000000

     crystal axes: (cart. coord. in units of alat)
               a(1) = (   1.000000   0.000000   0.000000 )  
               a(2) = (   0.000000   2.016846   0.000000 )  
               a(3) = (   0.000000   0.000000   8.067384 )  

     reciprocal axes: (cart. coord. in units 2 pi/alat)
               b(1) = (  1.000000  0.000000  0.000000 )  
               b(2) = (  0.000000  0.495824  0.000000 )  
               b(3) = (  0.000000  0.000000  0.123956 )  


     PseudoPot. # 1 for H  read from file:
     /usr/share/espresso/pseudo/H.pbe-rrkjus_psl.1.0.0.UPF
     MD5 check sum: f52b6d4d1c606e5624b1dc7b2218f220
     Pseudo is Ultrasoft, Zval =  1.0
     Generated using "atomic" code by A. Dal Corso  v.5.1
     Using radial grid of  929 points,  2 beta functions with: 
                l(1) =   0
                l(2) =   0
     Q(r) pseudized with 0 coefficients 


     PseudoPot. # 2 for Ir read from file:
     /usr/share/espresso/pseudo/Ir_pbe_v1.2.uspp.F.UPF
     MD5 check sum: 8836f839c3459d2b385c504ce6d91f2c
     Pseudo is Ultrasoft + core correction, Zval = 15.0
     Generated by new atomic code, or converted to UPF format
     Using radial grid of  983 points,  7 beta functions with: 
                l(1) =   0
                l(2) =   0
                l(3) =   1
                l(4) =   1
                l(5) =   1
                l(6) =   2
                l(7) =   2
     Q(r) pseudized with  8 coefficients,  rinner =    1.400   1.400   1.400
                                                       1.400   1.400

     PseudoPot. # 3 for O  read from file:
     /usr/share/espresso/pseudo/O.pbe-n-kjpaw_psl.0.1.UPF
     MD5 check sum: 0234752ac141de4415c5fc33072bef88
     Pseudo is Projector augmented-wave + core cor, Zval =  6.0
     Generated using "atomic" code by A. Dal Corso  v.5.0.99 svn rev. 10869
     Shape of augmentation charge: BESSEL
     Using radial grid of 1095 points,  4 beta functions with: 
                l(1) =   0
                l(2) =   0
                l(3) =   1
                l(4) =   1
     Q(r) pseudized with 0 coefficients 


     atomic species   valence    mass     pseudopotential
     H                 1.00     1.00800     H ( 1.00)
     Ir               15.00   192.21700     Ir( 1.00)
     O                 6.00    15.99900     O ( 1.00)

     No symmetry found



   Cartesian axes

     site n.     atom                  positions (alat units)
         1        Ir     tau(   1) = (   0.0000000   1.5126346   3.0252692  )
         2        Ir     tau(   2) = (   0.5000000   0.5042115   3.0252692  )
         3        Ir     tau(   3) = (  -0.0023840   0.5042115   4.0424363  )
         4        Ir     tau(   4) = (   0.4990610   1.5126346   4.0354930  )
         5        Ir     tau(   5) = (   0.0012848   1.5126346   5.0614101  )
         6        Ir     tau(   6) = (   0.4948989   0.5042115   5.0639483  )
         7        O      tau(   7) = (   0.0000000   0.5042115   3.4185541  )
         8        O      tau(   8) = (   0.0000000   0.5042115   2.6319842  )
         9        O      tau(   9) = (   0.5000000   1.1193496   3.0252692  )
        10        O      tau(  10) = (   0.5000000   1.9059196   3.0252692  )
        11        O      tau(  11) = (  -0.0006886   1.5126346   4.4334117  )
        12        O      tau(  12) = (   0.0000000   1.5126346   3.6404072  )
        13        O      tau(  13) = (   0.4978055   0.1177569   4.0372497  )
        14        O      tau(  14) = (   0.4978055   0.8906661   4.0372497  )
        15        O      tau(  15) = (  -0.0045322   0.5042115   5.4396437  )
        16        O      tau(  16) = (  -0.0052389   0.5042115   4.6686027  )
        17        O      tau(  17) = (   0.4950664   1.1230207   5.0499889  )
        18        O      tau(  18) = (   0.4950664   1.9022485   5.0499889  )
        19        O      tau(  19) = (  -0.1157108   1.5126346   5.6562437  )
        20        O      tau(  20) = (   0.1683169   1.5126346   6.0083143  )
        21        H      tau(  21) = (  -0.0522583   1.5126346   6.2279178  )

     number of k points=    18  Marzari-Vanderbilt smearing, width (Ry)=  0.0100
                       cart. coord. in units 2pi/alat
        k(    1) = (   0.0000000   0.0000000   0.0000000), wk =   0.0625000
        k(    2) = (   0.0000000   0.1239559   0.0000000), wk =   0.1250000
        k(    3) = (   0.0000000  -0.2479118   0.0000000), wk =   0.0625000
        k(    4) = (   0.1250000   0.0000000   0.0000000), wk =   0.1250000
        k(    5) = (   0.1250000   0.1239559   0.0000000), wk =   0.1250000
        k(    6) = (   0.1250000  -0.2479118   0.0000000), wk =   0.1250000
        k(    7) = (   0.1250000  -0.1239559   0.0000000), wk =   0.1250000
        k(    8) = (   0.2500000   0.0000000   0.0000000), wk =   0.1250000
        k(    9) = (   0.2500000   0.1239559   0.0000000), wk =   0.1250000
        k(   10) = (   0.2500000  -0.2479118   0.0000000), wk =   0.1250000
        k(   11) = (   0.2500000  -0.1239559   0.0000000), wk =   0.1250000
        k(   12) = (   0.3750000   0.0000000   0.0000000), wk =   0.1250000
        k(   13) = (   0.3750000   0.1239559   0.0000000), wk =   0.1250000
        k(   14) = (   0.3750000  -0.2479118   0.0000000), wk =   0.1250000
        k(   15) = (   0.3750000  -0.1239559   0.0000000), wk =   0.1250000
        k(   16) = (  -0.5000000   0.0000000   0.0000000), wk =   0.0625000
        k(   17) = (  -0.5000000   0.1239559   0.0000000), wk =   0.1250000
        k(   18) = (  -0.5000000  -0.2479118   0.0000000), wk =   0.0625000

     Dense  grid:   941385 G-vectors     FFT dimensions: (  48, 100, 400)

     Smooth grid:   332621 G-vectors     FFT dimensions: (  36,  72, 288)

     Estimated max dynamical RAM per process >       2.12 GB

     Estimated total dynamical RAM >       7.82 GB

     Initial potential from superposition of free atoms

     starting charge     171.9998, renormalised to     175.0000

     negative rho (up, down):  2.222E+00 0.000E+00

     Adding external electric field

     Computed dipole along edir(3) : 
        Dipole               -2.4290 Ry au,         -6.1739 Debye
        Dipole field         -0.0089 Ry au, 

        Potential amp.        0.7669 Ry
        Total length         43.2749 bohr

     Starting wfcs are  129 randomized atomic wfcs
     Checking if some PAW data can be deallocated... 

     total cpu time spent up to now is       39.9 secs

     per-process dynamical memory:   958.2 Mb

     Self-consistent Calculation

     iteration #  1     ecut=    80.00 Ry     beta= 0.30
     Davidson diagonalization with overlap
     ethr =  1.00E-02,  avg # of iterations =  7.3

     negative rho (up, down):  2.106E+00 0.000E+00

     Adding external electric field

     Computed dipole along edir(3) : 
        Dipole               -0.2839 Ry au,         -0.7216 Debye
        Dipole field         -0.0010 Ry au, 

        Potential amp.        0.0896 Ry
        Total length         43.2749 bohr


     total cpu time spent up to now is      135.8 secs

     total energy              =   -1672.69306218 Ry
     estimated scf accuracy    <     241.85363972 Ry

     iteration #  2     ecut=    80.00 Ry     beta= 0.30
     Davidson diagonalization with overlap
     ethr =  1.00E-02,  avg # of iterations =  1.6

     negative rho (up, down):  1.974E+00 0.000E+00

     Adding external electric field

     Computed dipole along edir(3) : 
        Dipole               -0.2666 Ry au,         -0.6777 Debye
        Dipole field         -0.0010 Ry au, 

        Potential amp.        0.0842 Ry
        Total length         43.2749 bohr


     total cpu time spent up to now is      212.6 secs

     total energy              =   -1674.33928218 Ry
     estimated scf accuracy    <       6.90649922 Ry

     iteration #  3     ecut=    80.00 Ry     beta= 0.30
     Davidson diagonalization with overlap
     ethr =  3.95E-03,  avg # of iterations =  2.7

     negative rho (up, down):  1.853E+00 0.000E+00

     Adding external electric field

     Computed dipole along edir(3) : 
        Dipole               -0.1607 Ry au,         -0.4085 Debye
        Dipole field         -0.0006 Ry au, 

        Potential amp.        0.0507 Ry
        Total length         43.2749 bohr


     total cpu time spent up to now is      292.7 secs

     total energy              =   -1673.87370948 Ry
     estimated scf accuracy    <       4.87554086 Ry

     iteration #  4     ecut=    80.00 Ry     beta= 0.30
     Davidson diagonalization with overlap
     ethr =  2.79E-03,  avg # of iterations =  5.9

     negative rho (up, down):  1.870E+00 0.000E+00

     Adding external electric field

     Computed dipole along edir(3) : 
        Dipole               -0.2006 Ry au,         -0.5098 Debye
        Dipole field         -0.0007 Ry au, 

        Potential amp.        0.0633 Ry
        Total length         43.2749 bohr


     total cpu time spent up to now is      378.9 secs

     total energy              =   -1674.12296530 Ry
     estimated scf accuracy    <       0.96591894 Ry

     iteration #  5     ecut=    80.00 Ry     beta= 0.30
     Davidson diagonalization with overlap
     ethr =  5.52E-04,  avg # of iterations =  9.5

     negative rho (up, down):  1.895E+00 0.000E+00

     Adding external electric field

     Computed dipole along edir(3) : 
        Dipole               -0.2027 Ry au,         -0.5153 Debye
        Dipole field         -0.0007 Ry au, 

        Potential amp.        0.0640 Ry
        Total length         43.2749 bohr


     total cpu time spent up to now is      474.4 secs

     total energy              =   -1674.11740433 Ry
     estimated scf accuracy    <       1.87155900 Ry

     iteration #  6     ecut=    80.00 Ry     beta= 0.30
     Davidson diagonalization with overlap
     ethr =  5.52E-04,  avg # of iterations =  1.6

     negative rho (up, down):  1.893E+00 0.000E+00

     Adding external electric field

     Computed dipole along edir(3) : 
        Dipole               -0.1968 Ry au,         -0.5003 Debye
        Dipole field         -0.0007 Ry au, 

        Potential amp.        0.0621 Ry
        Total length         43.2749 bohr


     total cpu time spent up to now is      549.4 secs

     total energy              =   -1674.09742064 Ry
     estimated scf accuracy    <       1.07011030 Ry

     iteration #  7     ecut=    80.00 Ry     beta= 0.30
     Davidson diagonalization with overlap
     ethr =  5.52E-04,  avg # of iterations =  2.2

     negative rho (up, down):  1.909E+00 0.000E+00

     Adding external electric field

     Computed dipole along edir(3) : 
        Dipole               -0.2114 Ry au,         -0.5372 Debye
        Dipole field         -0.0008 Ry au, 

        Potential amp.        0.0667 Ry
        Total length         43.2749 bohr


     total cpu time spent up to now is      628.8 secs

     total energy              =   -1674.10411708 Ry
     estimated scf accuracy    <       0.34877677 Ry

     iteration #  8     ecut=    80.00 Ry     beta= 0.30
     Davidson diagonalization with overlap
     ethr =  1.99E-04,  avg # of iterations =  2.5

     negative rho (up, down):  1.923E+00 0.000E+00

     Adding external electric field

     Computed dipole along edir(3) : 
        Dipole               -0.2091 Ry au,         -0.5315 Debye
        Dipole field         -0.0008 Ry au, 

        Potential amp.        0.0660 Ry
        Total length         43.2749 bohr


     total cpu time spent up to now is      707.3 secs

     total energy              =   -1674.09645192 Ry
     estimated scf accuracy    <       0.30313711 Ry

     iteration #  9     ecut=    80.00 Ry     beta= 0.30
     Davidson diagonalization with overlap
     ethr =  1.73E-04,  avg # of iterations =  2.2

     negative rho (up, down):  1.928E+00 0.000E+00

     Adding external electric field

     Computed dipole along edir(3) : 
        Dipole               -0.2022 Ry au,         -0.5140 Debye
        Dipole field         -0.0007 Ry au, 

        Potential amp.        0.0638 Ry
        Total length         43.2749 bohr


     total cpu time spent up to now is      785.9 secs

     total energy              =   -1674.09596723 Ry
     estimated scf accuracy    <       0.03460615 Ry

     iteration # 10     ecut=    80.00 Ry     beta= 0.30
     Davidson diagonalization with overlap
     c_bands:  1 eigenvalues not converged
     ethr =  1.98E-05,  avg # of iterations = 10.2

     negative rho (up, down):  1.922E+00 0.000E+00

     Adding external electric field

     Computed dipole along edir(3) : 
        Dipole               -0.1706 Ry au,         -0.4335 Debye
        Dipole field         -0.0006 Ry au, 

        Potential amp.        0.0538 Ry
        Total length         43.2749 bohr


     total cpu time spent up to now is      878.7 secs

     total energy              =   -1674.09514516 Ry
     estimated scf accuracy    <       0.02382289 Ry

     iteration # 11     ecut=    80.00 Ry     beta= 0.30
     Davidson diagonalization with overlap
     ethr =  1.36E-05,  avg # of iterations =  3.6

     negative rho (up, down):  1.912E+00 0.000E+00

     Adding external electric field

     Computed dipole along edir(3) : 
        Dipole               -0.1267 Ry au,         -0.3220 Debye
        Dipole field         -0.0005 Ry au, 

        Potential amp.        0.0400 Ry
        Total length         43.2749 bohr


     total cpu time spent up to now is      960.3 secs

     total energy              =   -1674.09452712 Ry
     estimated scf accuracy    <       0.02970384 Ry

     iteration # 12     ecut=    80.00 Ry     beta= 0.30
     Davidson diagonalization with overlap
     ethr =  1.36E-05,  avg # of iterations =  1.3

     negative rho (up, down):  1.908E+00 0.000E+00

     Adding external electric field

     Computed dipole along edir(3) : 
        Dipole               -0.0931 Ry au,         -0.2368 Debye
        Dipole field         -0.0003 Ry au, 

        Potential amp.        0.0294 Ry
        Total length         43.2749 bohr


     total cpu time spent up to now is     1036.4 secs

     total energy              =   -1674.09388516 Ry
     estimated scf accuracy    <       0.04080723 Ry

     iteration # 13     ecut=    80.00 Ry     beta= 0.30
     Davidson diagonalization with overlap
     ethr =  1.36E-05,  avg # of iterations =  1.3

     negative rho (up, down):  1.898E+00 0.000E+00

     Adding external electric field

     Computed dipole along edir(3) : 
        Dipole                0.0535 Ry au,          0.1359 Debye
        Dipole field          0.0002 Ry au, 

        Potential amp.       -0.0169 Ry
        Total length         43.2749 bohr


     total cpu time spent up to now is     1112.9 secs

     total energy              =   -1674.09209263 Ry
     estimated scf accuracy    <       0.01674032 Ry

     iteration # 14     ecut=    80.00 Ry     beta= 0.30
     Davidson diagonalization with overlap
     ethr =  9.57E-06,  avg # of iterations =  7.7

     negative rho (up, down):  1.897E+00 0.000E+00

     Adding external electric field

     Computed dipole along edir(3) : 
        Dipole                0.1607 Ry au,          0.4086 Debye
        Dipole field          0.0006 Ry au, 

        Potential amp.       -0.0507 Ry
        Total length         43.2749 bohr


     total cpu time spent up to now is     1197.8 secs

     total energy              =   -1674.09159473 Ry
     estimated scf accuracy    <       0.00850024 Ry

     iteration # 15     ecut=    80.00 Ry     beta= 0.30
     Davidson diagonalization with overlap
     ethr =  4.86E-06,  avg # of iterations =  6.9

     negative rho (up, down):  1.918E+00 0.000E+00

     Adding external electric field

     Computed dipole along edir(3) : 
        Dipole                0.2885 Ry au,          0.7333 Debye
        Dipole field          0.0011 Ry au, 

        Potential amp.       -0.0911 Ry
        Total length         43.2749 bohr


     total cpu time spent up to now is     1284.0 secs

     total energy              =   -1674.09092041 Ry
     estimated scf accuracy    <       0.00909699 Ry

     iteration # 16     ecut=    80.00 Ry     beta= 0.30
     Davidson diagonalization with overlap
     ethr =  4.86E-06,  avg # of iterations =  8.0

     negative rho (up, down):  1.924E+00 0.000E+00

     Adding external electric field

     Computed dipole along edir(3) : 
        Dipole                0.3350 Ry au,          0.8514 Debye
        Dipole field          0.0012 Ry au, 

        Potential amp.       -0.1058 Ry
        Total length         43.2749 bohr


     total cpu time spent up to now is     1370.5 secs

     total energy              =   -1674.09096266 Ry
     estimated scf accuracy    <       0.00116998 Ry

     iteration # 17     ecut=    80.00 Ry     beta= 0.30
     Davidson diagonalization with overlap
     ethr =  6.69E-07,  avg # of iterations =  7.7

     negative rho (up, down):  1.915E+00 0.000E+00

     Adding external electric field

     Computed dipole along edir(3) : 
        Dipole                0.3346 Ry au,          0.8505 Debye
        Dipole field          0.0012 Ry au, 

        Potential amp.       -0.1056 Ry
        Total length         43.2749 bohr


     total cpu time spent up to now is     1455.9 secs

     total energy              =   -1674.09095685 Ry
     estimated scf accuracy    <       0.00157298 Ry

     iteration # 18     ecut=    80.00 Ry     beta= 0.30
     Davidson diagonalization with overlap
     ethr =  6.69E-07,  avg # of iterations =  6.4

     negative rho (up, down):  1.909E+00 0.000E+00

     Adding external electric field

     Computed dipole along edir(3) : 
        Dipole                0.3294 Ry au,          0.8372 Debye
        Dipole field          0.0012 Ry au, 

        Potential amp.       -0.1040 Ry
        Total length         43.2749 bohr


     total cpu time spent up to now is     1539.0 secs

     total energy              =   -1674.09094806 Ry
     estimated scf accuracy    <       0.00053873 Ry

     iteration # 19     ecut=    80.00 Ry     beta= 0.30
     Davidson diagonalization with overlap
     ethr =  3.08E-07,  avg # of iterations =  7.4

     negative rho (up, down):  1.908E+00 0.000E+00

     Adding external electric field

     Computed dipole along edir(3) : 
        Dipole                0.3359 Ry au,          0.8538 Debye
        Dipole field          0.0012 Ry au, 

        Potential amp.       -0.1061 Ry
        Total length         43.2749 bohr


     total cpu time spent up to now is     1624.4 secs

     total energy              =   -1674.09098070 Ry
     estimated scf accuracy    <       0.00019410 Ry

     iteration # 20     ecut=    80.00 Ry     beta= 0.30
     Davidson diagonalization with overlap
     ethr =  1.11E-07,  avg # of iterations =  5.8

     negative rho (up, down):  1.908E+00 0.000E+00

     Adding external electric field

     Computed dipole along edir(3) : 
        Dipole                0.3312 Ry au,          0.8419 Debye
        Dipole field          0.0012 Ry au, 

        Potential amp.       -0.1046 Ry
        Total length         43.2749 bohr


     total cpu time spent up to now is     1709.5 secs

     total energy              =   -1674.09102425 Ry
     estimated scf accuracy    <       0.00008404 Ry

     iteration # 21     ecut=    80.00 Ry     beta= 0.30
     Davidson diagonalization with overlap
     ethr =  4.80E-08,  avg # of iterations =  7.4

     negative rho (up, down):  1.907E+00 0.000E+00

     Adding external electric field

     Computed dipole along edir(3) : 
        Dipole                0.3234 Ry au,          0.8220 Debye
        Dipole field          0.0012 Ry au, 

        Potential amp.       -0.1021 Ry
        Total length         43.2749 bohr


     total cpu time spent up to now is     1797.8 secs

     total energy              =   -1674.09103239 Ry
     estimated scf accuracy    <       0.00016145 Ry

     iteration # 22     ecut=    80.00 Ry     beta= 0.30
     Davidson diagonalization with overlap
     ethr =  4.80E-08,  avg # of iterations =  5.7

     negative rho (up, down):  1.909E+00 0.000E+00

     Adding external electric field

     Computed dipole along edir(3) : 
        Dipole                0.3310 Ry au,          0.8414 Debye
        Dipole field          0.0012 Ry au, 

        Potential amp.       -0.1045 Ry
        Total length         43.2749 bohr


     total cpu time spent up to now is     1883.3 secs

     total energy              =   -1674.09104765 Ry
     estimated scf accuracy    <       0.00006254 Ry

     iteration # 23     ecut=    80.00 Ry     beta= 0.30
     Davidson diagonalization with overlap
     ethr =  3.57E-08,  avg # of iterations =  6.3

     negative rho (up, down):  1.909E+00 0.000E+00

     Adding external electric field

     Computed dipole along edir(3) : 
        Dipole                0.3306 Ry au,          0.8403 Debye
        Dipole field          0.0012 Ry au, 

        Potential amp.       -0.1044 Ry
        Total length         43.2749 bohr


     total cpu time spent up to now is     1969.1 secs

     total energy              =   -1674.09105050 Ry
     estimated scf accuracy    <       0.00000842 Ry

     iteration # 24     ecut=    80.00 Ry     beta= 0.30
     Davidson diagonalization with overlap
     ethr =  4.81E-09,  avg # of iterations =  1.9

     negative rho (up, down):  1.909E+00 0.000E+00

     Adding external electric field

     Computed dipole along edir(3) : 
        Dipole                0.3315 Ry au,          0.8425 Debye
        Dipole field          0.0012 Ry au, 

        Potential amp.       -0.1046 Ry
        Total length         43.2749 bohr


     total cpu time spent up to now is     2045.9 secs

     total energy              =   -1674.09105174 Ry
     estimated scf accuracy    <       0.00000561 Ry

     iteration # 25     ecut=    80.00 Ry     beta= 0.30
     Davidson diagonalization with overlap
     ethr =  3.20E-09,  avg # of iterations =  1.1

     negative rho (up, down):  1.909E+00 0.000E+00

     Adding external electric field

     Computed dipole along edir(3) : 
        Dipole                0.3319 Ry au,          0.8436 Debye
        Dipole field          0.0012 Ry au, 

        Potential amp.       -0.1048 Ry
        Total length         43.2749 bohr


     total cpu time spent up to now is     2120.3 secs

     total energy              =   -1674.09105219 Ry
     estimated scf accuracy    <       0.00000301 Ry

     iteration # 26     ecut=    80.00 Ry     beta= 0.30
     Davidson diagonalization with overlap
     ethr =  1.72E-09,  avg # of iterations =  1.5

     negative rho (up, down):  1.909E+00 0.000E+00

     Adding external electric field

     Computed dipole along edir(3) : 
        Dipole                0.3238 Ry au,          0.8231 Debye
        Dipole field          0.0012 Ry au, 

        Potential amp.       -0.1022 Ry
        Total length         43.2749 bohr


     total cpu time spent up to now is     2190.5 secs

     End of self-consistent calculation

          k = 0.0000 0.0000 0.0000 ( 41611 PWs)   bands (ev):

   -48.1128 -48.0387 -47.9338 -47.8967 -47.8884 -47.8631 -47.8275 -47.8096
   -47.7751 -47.7537 -47.7092 -47.6354 -47.5596 -47.5440 -47.5412 -47.4608
   -47.4269 -47.2432 -21.0491 -18.5594 -18.2233 -18.0895 -17.7877 -17.2367
   -17.0334 -16.8749 -16.5957 -16.5365 -16.4931 -15.3855 -15.1239 -14.4949
    -7.2922  -7.2656  -7.2056  -6.8033  -5.9935  -5.9679  -5.6054  -5.5588
    -5.4347  -5.3442  -5.1233  -4.9031  -4.8687  -4.6743  -4.4379  -4.1210
    -3.4730  -3.4384  -2.7398  -2.7346  -2.5374  -2.5294  -2.2227  -2.1578
    -2.0676  -1.9095  -1.8609  -1.7931  -1.7869  -1.5721  -1.3888  -1.3544
    -1.2278  -1.0422  -0.8369  -0.6501  -0.5158  -0.2006  -0.1070  -0.0794
    -0.0399   0.0638   0.0820   0.1249   0.1814   0.2334   0.2574   0.3329
     0.8369   0.8597   0.9964   1.3023   1.6054   1.6929   2.0777   2.5981
     2.7328   2.8301   3.2670   3.6068   4.0124   4.6599   5.1801   5.4954
     5.9311   6.0981   6.5241   6.6489   6.6661   6.6770   6.7355   7.0358
     7.1425   7.2738

          k = 0.0000 0.1240 0.0000 ( 41688 PWs)   bands (ev):

   -48.1128 -48.0374 -47.9334 -47.8956 -47.8884 -47.8631 -47.8288 -47.8093
   -47.7754 -47.7537 -47.7093 -47.6365 -47.5595 -47.5439 -47.5412 -47.4609
   -47.4269 -47.2437 -21.0488 -18.4320 -18.0742 -17.9598 -17.8207 -17.2775
   -17.1376 -16.8751 -16.7294 -16.6914 -16.6522 -15.3818 -15.1204 -14.4939
    -6.8611  -6.7583  -6.7179  -6.6567  -5.9890  -5.9708  -5.5227  -5.4829
    -5.4335  -5.2542  -5.0065  -4.9017  -4.7847  -4.6731  -4.2572  -4.1214
    -3.6231  -3.4234  -3.3346  -3.2299  -3.0870  -2.9545  -2.7978  -2.6007
    -2.4162  -2.3601  -2.3441  -2.1446  -1.8631  -1.5256  -1.4972  -1.3590
    -1.1971  -1.0574  -1.0030  -0.7913  -0.3945  -0.2677  -0.1046  -0.0395
     0.2310   0.2940   0.4488   0.5823   0.6632   0.7228   0.7268   0.8133
     0.8827   0.9423   1.0211   1.3372   1.6069   1.7050   2.1247   2.4981
     2.6456   2.8420   3.0310   3.4063   4.5060   5.1329   5.5883   5.7147
     5.9635   6.2023   6.2343   6.3749   6.3821   6.7409   6.8359   7.0380
     7.2105   7.4213

          k = 0.0000-0.2479 0.0000 ( 41774 PWs)   bands (ev):

   -48.1128 -48.0361 -47.9330 -47.8946 -47.8883 -47.8631 -47.8302 -47.8091
   -47.7756 -47.7537 -47.7093 -47.6376 -47.5594 -47.5439 -47.5412 -47.4610
   -47.4269 -47.2442 -21.0485 -18.2129 -18.0196 -17.8191 -17.6192 -17.4377
   -17.3834 -16.9269 -16.8557 -16.8348 -16.7505 -15.3789 -15.1176 -14.4933
    -6.8212  -6.0750  -5.9807  -5.9166  -5.8144  -5.7342  -5.4354  -5.4230
    -5.4055  -5.1517  -4.9626  -4.8989  -4.6709  -4.4016  -4.3373  -4.2663
    -4.2447  -4.2038  -4.1222  -3.7206  -3.7162  -3.3156  -2.8859  -2.8420
    -2.7834  -2.7413  -2.6210  -2.3179  -2.1221  -1.5396  -1.5176  -1.1431
    -1.0785  -1.0611  -0.8341  -0.7471  -0.5414  -0.1796  -0.1494  -0.0884
     0.2370   0.3593   0.7413   0.8220   0.8391   0.9649   1.0219   1.0961
     1.1965   1.2618   1.3972   1.5699   1.6384   1.8375   1.8630   2.3596
     2.4916   2.8364   2.8571   3.2501   5.0260   5.1873   5.8309   5.9029
     6.0435   6.0626   6.0719   6.3662   6.4858   6.7418   6.9089   7.0394
     7.4429   7.5457

          k = 0.1250 0.0000 0.0000 ( 41611 PWs)   bands (ev):

   -48.1127 -48.0373 -47.9327 -47.9037 -47.8953 -47.8621 -47.8255 -47.8255
   -47.7918 -47.7513 -47.7255 -47.6332 -47.5753 -47.5430 -47.5389 -47.4772
   -47.4246 -47.2409 -21.0170 -18.4191 -18.1005 -17.9704 -17.6850 -17.1687
   -16.9466 -16.9407 -16.6755 -16.6157 -16.5770 -15.4363 -15.1654 -14.4999
    -7.1123  -7.0828  -7.0270  -6.6545  -6.0093  -5.9409  -5.5893  -5.4999
    -5.4579  -5.3119  -4.9808  -4.9128  -4.4520  -4.3796  -4.3176  -4.2526
    -3.5059  -3.3450  -3.2002  -2.7161  -2.6376  -2.6322  -2.5570  -2.4755
    -2.4360  -2.4017  -2.1417  -1.9575  -1.7216  -1.6802  -1.5542  -1.5380
    -1.3239  -1.2823  -1.1822  -1.0958  -0.7827  -0.5749  -0.0852  -0.0534
     0.1868   0.2366   0.2735   0.4238   0.5132   0.5317   0.6887   0.9328
     1.0474   1.0740   1.1151   1.4259   1.9201   2.0061   2.1232   2.4735
     2.6719   2.8877   3.1188   3.4465   4.2190   4.8685   5.3292   5.4260
     5.7893   6.0570   6.1527   6.2729   6.3101   6.3565   6.5704   6.8264
     7.3227   7.4910

          k = 0.1250 0.1240 0.0000 ( 41692 PWs)   bands (ev):

   -48.1127 -48.0363 -47.9324 -47.9035 -47.8946 -47.8621 -47.8267 -47.8254
   -47.7918 -47.7513 -47.7255 -47.6342 -47.5752 -47.5430 -47.5389 -47.4772
   -47.4247 -47.2413 -21.0168 -18.2975 -17.9574 -17.8407 -17.7182 -17.2045
   -17.0700 -16.9324 -16.7958 -16.7631 -16.7063 -15.4333 -15.1626 -14.4990
    -6.7129  -6.6016  -6.5639  -6.5125  -6.0066  -5.9422  -5.4934  -5.4631
    -5.4042  -5.2147  -5.0698  -4.6442  -4.4555  -4.3792  -4.3218  -4.1342
    -3.5384  -3.4089  -3.3441  -3.3122  -3.1623  -3.0336  -2.9988  -2.8977
    -2.8463  -2.7767  -2.4868  -2.3542  -2.1068  -1.8745  -1.6681  -1.3665
    -1.2469  -1.1630  -1.1082  -0.8481  -0.6591  -0.3014  -0.1990  -0.0777
     0.3683   0.4277   0.6380   0.6769   0.7794   0.9029   0.9566   1.0063
     1.1063   1.1435   1.2969   1.5024   1.9240   2.0527   2.1150   2.4184
     2.5259   2.8227   3.0034   3.2965   4.6085   5.2045   5.4618   5.5913
     5.7747   5.8306   5.9954   6.0773   6.2409   6.4392   6.5714   6.9861
     7.3593   7.5753

          k = 0.1250-0.2479 0.0000 ( 41706 PWs)   bands (ev):

   -48.1127 -48.0353 -47.9321 -47.9033 -47.8940 -47.8620 -47.8279 -47.8252
   -47.7917 -47.7513 -47.7254 -47.6351 -47.5752 -47.5429 -47.5389 -47.4772
   -47.4247 -47.2417 -21.0165 -18.0900 -17.8920 -17.7004 -17.5073 -17.3718
   -17.3389 -16.9984 -16.9025 -16.8965 -16.7679 -15.4309 -15.1602 -14.4983
    -6.6728  -6.0661  -5.9434  -5.6930  -5.6290  -5.5317  -5.5231  -5.5034
    -5.4481  -5.3602  -5.0857  -4.4617  -4.3871  -4.3537  -4.1787  -4.1108
    -3.9864  -3.9411  -3.8939  -3.8270  -3.7885  -3.5693  -3.4560  -3.3441
    -3.2061  -2.7885  -2.7195  -2.5684  -2.2453  -1.9354  -1.6667  -1.2499
    -1.1271  -0.9198  -0.8864  -0.7177  -0.5562  -0.3874  -0.1501  -0.0918
     0.3868   0.6589   0.6672   0.7508   0.8386   0.9225   1.0383   1.1980
     1.4877   1.5387   1.7251   1.7276   1.9328   1.9369   2.1667   2.3074
     2.4240   2.7350   2.7700   3.2663   4.9675   5.2646   5.3699   5.4222
     5.4922   5.6539   6.1253   6.2486   6.4774   6.5897   6.5926   6.9711
     7.5783   7.6180

          k = 0.1250-0.1240 0.0000 ( 41692 PWs)   bands (ev):

   -48.1127 -48.0363 -47.9324 -47.9035 -47.8946 -47.8621 -47.8267 -47.8254
   -47.7918 -47.7513 -47.7255 -47.6342 -47.5752 -47.5430 -47.5389 -47.4772
   -47.4247 -47.2413 -21.0168 -18.2975 -17.9574 -17.8407 -17.7182 -17.2045
   -17.0700 -16.9324 -16.7958 -16.7631 -16.7063 -15.4333 -15.1626 -14.4990
    -6.7129  -6.6016  -6.5639  -6.5125  -6.0066  -5.9422  -5.4934  -5.4631
    -5.4042  -5.2147  -5.0698  -4.6442  -4.4555  -4.3792  -4.3218  -4.1342
    -3.5384  -3.4089  -3.3441  -3.3122  -3.1623  -3.0336  -2.9988  -2.8977
    -2.8463  -2.7767  -2.4868  -2.3542  -2.1068  -1.8745  -1.6681  -1.3665
    -1.2469  -1.1630  -1.1082  -0.8481  -0.6591  -0.3014  -0.1990  -0.0777
     0.3683   0.4277   0.6380   0.6769   0.7794   0.9029   0.9566   1.0063
     1.1063   1.1435   1.2969   1.5024   1.9240   2.0527   2.1150   2.4184
     2.5259   2.8227   3.0034   3.2965   4.6085   5.2045   5.4618   5.5913
     5.7747   5.8306   5.9954   6.0773   6.2409   6.4392   6.5714   6.9861
     7.3593   7.5753

          k = 0.2500 0.0000 0.0000 ( 41623 PWs)   bands (ev):

   -48.1131 -48.0339 -47.9398 -47.9299 -47.8920 -47.8638 -47.8597 -47.8318
   -47.8207 -47.7644 -47.7454 -47.6281 -47.6130 -47.5406 -47.5333 -47.5166
   -47.4191 -47.2352 -20.9380 -18.0533 -17.7938 -17.6737 -17.4482 -17.0948
   -17.0388 -16.8635 -16.8014 -16.7715 -16.7663 -15.5105 -15.2154 -14.5153
    -6.6698  -6.5943  -6.5494  -6.3971  -5.9109  -5.7489  -5.4945  -5.4839
    -5.3238  -5.1019  -4.9406  -4.6453  -4.5601  -4.4083  -4.0683  -3.8591
    -3.7924  -3.7436  -3.6410  -3.6013  -3.1740  -3.0343  -2.9333  -2.5422
    -2.4717  -2.3816  -2.3117  -2.2696  -2.1796  -2.0867  -2.0460  -1.9211
    -1.6900  -1.4071  -1.1160  -0.9868  -0.4222  -0.4026  -0.3641  -0.2629
     0.2122   0.4455   0.6077   0.6366   0.6863   0.9157   1.1643   1.2324
     1.4323   1.5593   1.7281   1.9290   1.9953   2.0599   2.2713   2.3111
     2.4888   2.7787   3.0136   3.0326   4.5098   4.9510   5.1768   5.3978
     5.4425   5.5412   5.6283   5.7516   5.8210   5.9817   6.5412   6.9213
     7.6200   7.9741

          k = 0.2500 0.1240 0.0000 ( 41653 PWs)   bands (ev):

   -48.1131 -48.0338 -47.9390 -47.9299 -47.8928 -47.8638 -47.8597 -47.8307
   -47.8217 -47.7641 -47.7454 -47.6285 -47.6130 -47.5406 -47.5333 -47.5165
   -47.4191 -47.2354 -20.9379 -17.9549 -17.6811 -17.5589 -17.4810 -17.1438
   -17.0602 -16.9558 -16.9251 -16.9114 -16.7372 -15.5094 -15.2146 -14.5146
    -6.4884  -6.2237  -6.2034  -6.1700  -5.9091  -5.7483  -5.4836  -5.3360
    -5.1590  -5.0141  -4.9658  -4.7061  -4.6296  -4.2519  -4.2020  -4.1671
    -4.1145  -3.9878  -3.8441  -3.5144  -3.2290  -3.0330  -2.9001  -2.8431
    -2.7097  -2.6076  -2.5856  -2.5442  -2.3473  -2.1546  -1.9680  -1.7384
    -1.4980  -1.4506  -1.1438  -0.9501  -0.6278  -0.3580  -0.2774  -0.1950
     0.0551   0.4985   0.7265   0.9172   1.0144   1.0966   1.1675   1.2927
     1.3203   1.6677   1.7739   1.9306   2.0066   2.0974   2.3165   2.3341
     2.4314   2.6334   2.8246   3.1959   4.6176   4.8217   4.8844   5.0167
     5.0424   5.4632   5.7889   5.8571   6.2188   6.3476   6.6656   7.0377
     7.7185   8.0435

          k = 0.2500-0.2479 0.0000 ( 41680 PWs)   bands (ev):

   -48.1132 -48.0338 -47.9383 -47.9299 -47.8934 -47.8638 -47.8597 -47.8296
   -47.8227 -47.7638 -47.7454 -47.6290 -47.6130 -47.5406 -47.5333 -47.5164
   -47.4192 -47.2356 -20.9377 -17.7897 -17.5896 -17.4291 -17.3442 -17.2694
   -17.2471 -17.1430 -17.0121 -16.9522 -16.7350 -15.5084 -15.2139 -14.5139
    -6.4615  -5.9385  -5.7542  -5.5945  -5.5623  -5.5145  -5.4886  -5.0674
    -5.0538  -5.0089  -4.9083  -4.9057  -4.8238  -4.7316  -4.6909  -4.4658
    -4.0875  -3.8693  -3.6752  -3.6007  -3.3760  -3.3513  -3.2380  -3.1948
    -2.9927  -2.8724  -2.8034  -2.6223  -2.5988  -2.2660  -1.8706  -1.3850
    -1.3131  -1.0544  -1.0343  -0.8537  -0.8368  -0.6091  -0.2467  -0.1529
     0.2974   0.4705   0.6716   0.7602   0.9446   1.1262   1.3422   1.4849
     1.5206   1.7737   1.9112   2.0181   2.0231   2.1403   2.3428   2.4419
     2.4631   2.5611   2.6106   3.2795   4.3833   4.4378   4.5641   4.7048
     5.0726   5.5672   5.7955   6.0974   6.3597   6.7743   6.8366   7.0335
     7.9671   8.1565

          k = 0.2500-0.1240 0.0000 ( 41653 PWs)   bands (ev):

   -48.1131 -48.0338 -47.9390 -47.9299 -47.8928 -47.8638 -47.8597 -47.8307
   -47.8217 -47.7641 -47.7454 -47.6285 -47.6130 -47.5406 -47.5333 -47.5165
   -47.4191 -47.2354 -20.9379 -17.9549 -17.6811 -17.5589 -17.4810 -17.1438
   -17.0602 -16.9558 -16.9251 -16.9114 -16.7372 -15.5094 -15.2146 -14.5146
    -6.4884  -6.2237  -6.2034  -6.1700  -5.9091  -5.7483  -5.4836  -5.3360
    -5.1590  -5.0141  -4.9658  -4.7061  -4.6296  -4.2519  -4.2020  -4.1671
    -4.1145  -3.9878  -3.8441  -3.5144  -3.2290  -3.0330  -2.9001  -2.8431
    -2.7097  -2.6076  -2.5856  -2.5442  -2.3473  -2.1546  -1.9680  -1.7384
    -1.4980  -1.4506  -1.1438  -0.9501  -0.6278  -0.3580  -0.2774  -0.1950
     0.0551   0.4985   0.7265   0.9172   1.0144   1.0966   1.1675   1.2927
     1.3203   1.6677   1.7739   1.9306   2.0066   2.0974   2.3165   2.3341
     2.4314   2.6334   2.8246   3.1959   4.6176   4.8217   4.8844   5.0167
     5.0424   5.4632   5.7889   5.8571   6.2188   6.3476   6.6656   7.0377
     7.7186   8.0436

          k = 0.3750 0.0000 0.0000 ( 41645 PWs)   bands (ev):

   -48.1151 -48.0305 -47.9740 -47.9272 -47.9018 -47.8888 -47.8719 -47.8572
   -47.8158 -47.8028 -47.7396 -47.6504 -47.6229 -47.5559 -47.5382 -47.5276
   -47.4136 -47.2295 -20.8565 -17.6189 -17.4804 -17.3616 -17.3139 -17.1303
   -17.0450 -17.0103 -16.9810 -16.9551 -16.6618 -15.4848 -15.1802 -14.5357
    -6.5299  -6.0612  -6.0124  -5.9695  -5.6936  -5.5236  -5.4304  -5.3260
    -5.2861  -5.2227  -5.0509  -4.7790  -4.7610  -4.6736  -4.5472  -4.3811
    -4.0119  -3.7689  -3.6970  -3.5559  -3.2687  -3.0822  -2.9276  -2.8633
    -2.7276  -2.5530  -2.3578  -2.2172  -2.2113  -2.0379  -1.8594  -1.7079
    -1.6731  -1.5473  -0.9608  -0.8109  -0.4358  -0.4050  -0.1951  -0.1665
     0.0507   0.6175   0.6625   0.6656   0.7683   1.0014   1.0368   1.4167
     1.5379   1.5776   1.7447   1.7490   1.8829   1.9841   2.2405   2.3444
     2.5617   2.8202   2.8641   3.0085   4.3656   4.4880   4.8962   4.9928
     5.1211   5.3352   5.3639   5.5930   5.9165   6.0138   6.5673   7.0873
     8.2289   8.7741

          k = 0.3750 0.1240 0.0000 ( 41549 PWs)   bands (ev):

   -48.1153 -48.0319 -47.9721 -47.9275 -47.9019 -47.8942 -47.8664 -47.8572
   -47.8182 -47.8006 -47.7396 -47.6504 -47.6229 -47.5555 -47.5382 -47.5276
   -47.4136 -47.2295 -20.8565 -17.5876 -17.4616 -17.3934 -17.3430 -17.1676
   -17.1066 -16.9652 -16.9585 -16.9274 -16.6646 -15.4846 -15.1803 -14.5355
    -6.5222  -5.9341  -5.9004  -5.8517  -5.6919  -5.5593  -5.4768  -5.3894
    -5.3650  -5.2405  -5.2139  -5.0733  -4.6601  -4.4285  -4.3728  -4.1663
    -4.0944  -3.8452  -3.7569  -3.3558  -3.1657  -3.0294  -2.9660  -2.7441
    -2.7133  -2.4688  -2.3582  -2.2919  -2.1493  -2.1082  -2.0148  -1.8135
    -1.4252  -1.3331  -1.2469  -0.8040  -0.7092  -0.4207  -0.2877  -0.1427
    -0.0812   0.4768   0.6638   0.7218   0.8212   0.8768   0.9018   1.1115
     1.1656   1.4288   1.5549   1.6694   1.9761   2.4592   2.5045   2.5373
     2.6763   2.7103   2.8960   3.0451   4.1779   4.2424   4.4205   4.4410
     4.5247   5.3629   5.6896   6.1684   6.5060   6.6338   6.7527   7.1546
     8.3542   8.8753

          k = 0.3750-0.2479 0.0000 ( 41514 PWs)   bands (ev):

   -48.1155 -48.0332 -47.9704 -47.9278 -47.9020 -47.8981 -47.8627 -47.8570
   -47.8200 -47.7989 -47.7396 -47.6505 -47.6229 -47.5552 -47.5382 -47.5276
   -47.4136 -47.2295 -20.8564 -17.5346 -17.4521 -17.4272 -17.3816 -17.1921
   -17.1478 -16.9434 -16.9361 -16.9105 -16.6675 -15.4844 -15.1804 -14.5352
    -6.5188  -5.8061  -5.7292  -5.7183  -5.6068  -5.5416  -5.5120  -5.4835
    -5.4124  -5.4007  -5.3356  -5.2692  -4.7114  -4.4244  -4.1219  -3.9499
    -3.8660  -3.7977  -3.7861  -3.2667  -3.1212  -3.0991  -2.9788  -2.8472
    -2.5994  -2.5640  -2.3766  -2.3657  -2.2647  -2.1789  -1.8357  -1.7234
    -1.3819  -1.3231  -1.0572  -0.8761  -0.6451  -0.5395  -0.5289  -0.3269
     0.0353   0.1551   0.2362   0.5001   0.7456   0.9708   0.9883   1.0185
     1.2866   1.4265   1.5003   1.5694   1.9389   2.4678   2.5292   2.6730
     2.8374   2.8598   2.9108   3.1802   3.7448   3.7937   3.9739   4.4816
     4.5162   5.3644   5.7634   6.5486   6.6713   7.0691   7.1720   7.1817
     8.5426   8.9796

          k = 0.3750-0.1240 0.0000 ( 41549 PWs)   bands (ev):

   -48.1153 -48.0319 -47.9721 -47.9275 -47.9019 -47.8942 -47.8664 -47.8572
   -47.8182 -47.8006 -47.7396 -47.6504 -47.6229 -47.5555 -47.5382 -47.5276
   -47.4136 -47.2295 -20.8565 -17.5876 -17.4616 -17.3934 -17.3430 -17.1676
   -17.1066 -16.9652 -16.9585 -16.9274 -16.6646 -15.4846 -15.1803 -14.5355
    -6.5222  -5.9341  -5.9004  -5.8517  -5.6919  -5.5593  -5.4768  -5.3894
    -5.3650  -5.2405  -5.2139  -5.0733  -4.6601  -4.4285  -4.3728  -4.1663
    -4.0944  -3.8452  -3.7569  -3.3558  -3.1657  -3.0294  -2.9660  -2.7441
    -2.7133  -2.4688  -2.3582  -2.2919  -2.1493  -2.1082  -2.0148  -1.8135
    -1.4252  -1.3331  -1.2469  -0.8040  -0.7092  -0.4207  -0.2877  -0.1427
    -0.0812   0.4768   0.6638   0.7218   0.8212   0.8768   0.9018   1.1115
     1.1656   1.4288   1.5549   1.6694   1.9761   2.4592   2.5045   2.5373
     2.6763   2.7103   2.8960   3.0451   4.1779   4.2424   4.4205   4.4410
     4.5247   5.3629   5.6896   6.1684   6.5060   6.6338   6.7527   7.1546
     8.3542   8.8753

          k =-0.5000 0.0000 0.0000 ( 41440 PWs)   bands (ev):

   -48.1167 -48.0291 -47.9873 -47.9261 -47.9174 -47.8882 -47.8874 -47.8569
   -47.8182 -47.8138 -47.7371 -47.6658 -47.6207 -47.5720 -47.5372 -47.5253
   -47.4113 -47.2272 -20.8220 -17.4450 -17.3212 -17.2662 -17.2261 -17.1525
   -17.1184 -17.0540 -17.0280 -17.0086 -16.6489 -15.4383 -15.1383 -14.5457
    -6.5762  -5.9618  -5.7496  -5.6659  -5.6389  -5.4957  -5.4847  -5.3896
    -5.2844  -5.2275  -5.1539  -4.8813  -4.8517  -4.7287  -4.5423  -4.4254
    -4.3692  -3.8850  -3.3853  -3.2786  -3.2591  -3.0193  -2.9889  -2.9678
    -2.8874  -2.8713  -2.4620  -2.2071  -2.0795  -1.9482  -1.7238  -1.6096
    -1.4942  -0.9427  -0.8401  -0.8238  -0.7507  -0.3563  -0.2007  -0.1433
     0.2190   0.6125   0.6319   0.6446   0.6662   0.8698   0.9502   1.0528
     1.3261   1.3859   1.5640   1.7438   1.9247   2.0022   2.0955   2.5233
     2.6545   2.6708   3.0281   3.2223   4.2059   4.3780   4.7065   4.8036
     4.9494   5.2702   5.3761   5.7148   5.8907   5.9421   6.6227   7.2314
     8.7837   9.3847

          k =-0.5000 0.1240 0.0000 ( 41518 PWs)   bands (ev):

   -48.1170 -48.0315 -47.9846 -47.9265 -47.9176 -47.8999 -47.8757 -47.8569
   -47.8225 -47.8094 -47.7371 -47.6659 -47.6206 -47.5715 -47.5372 -47.5253
   -47.4113 -47.2271 -20.8219 -17.4428 -17.4262 -17.3983 -17.3893 -17.1383
   -17.0234 -16.9576 -16.9204 -16.9022 -16.6512 -15.4371 -15.1376 -14.5458
    -6.5771  -5.9379  -5.8820  -5.8229  -5.6946  -5.6585  -5.6058  -5.5381
    -5.4978  -5.3678  -5.1938  -4.9989  -4.5759  -4.4687  -4.1840  -4.0192
    -3.9079  -3.5321  -3.3621  -3.3327  -3.3097  -3.2070  -3.0474  -3.0200
    -2.9283  -2.2505  -2.1556  -2.0999  -2.0835  -1.9985  -1.8816  -1.7600
    -1.2977  -1.1876  -0.8320  -0.7362  -0.7246  -0.6005  -0.4210  -0.1799
     0.0939   0.4449   0.6059   0.6289   0.6401   0.6916   0.7332   0.8705
     0.9891   1.0161   1.0813   1.2931   1.9378   2.5953   2.6548   2.7037
     2.7574   2.8758   2.9537   3.1500   3.9663   4.0092   4.2151   4.2635
     4.4070   5.2726   5.8205   6.3205   6.6360   6.6960   6.7780   7.2792
     8.8621   9.5407

          k =-0.5000-0.2479 0.0000 ( 41524 PWs)   bands (ev):

   -48.1173 -48.0336 -47.9822 -47.9269 -47.9177 -47.9050 -47.8707 -47.8569
   -47.8250 -47.8070 -47.7371 -47.6660 -47.6204 -47.5711 -47.5372 -47.5253
   -47.4113 -47.2270 -20.8219 -17.4937 -17.4828 -17.4727 -17.4404 -17.1185
   -17.0434 -16.8731 -16.8365 -16.8159 -16.6536 -15.4359 -15.1369 -14.5459
    -6.5787  -6.1355  -6.0541  -5.9267  -5.7621  -5.6869  -5.5733  -5.4840
    -5.4690  -5.4008  -5.2309  -5.0039  -4.6877  -4.5934  -4.0924  -3.4391
    -3.3535  -3.3511  -3.3363  -3.2699  -3.1090  -3.0489  -2.9841  -2.8380
    -2.6948  -2.6351  -2.3471  -2.1574  -1.9932  -1.9498  -1.7070  -1.6372
    -1.1903  -1.1305  -1.0904  -0.7673  -0.6951  -0.6755  -0.5578  -0.3290
    -0.1990  -0.0455   0.2406   0.3086   0.6380   0.6527   0.6672   0.7111
     0.8707   1.0106   1.0594   1.1836   1.9279   2.6174   2.6683   2.7667
     3.0065   3.0885   3.0904   3.1650   3.5562   3.6013   3.8063   4.3059
     4.4312   5.2748   5.8716   6.7609   6.8222   7.1633   7.3130   7.3142
     8.9537   9.6992

     the Fermi energy is     2.4923 ev

!    total energy              =   -1674.09105141 Ry
     estimated scf accuracy    <       0.00000087 Ry
     smearing contrib. (-TS)   =      -0.00222143 Ry
     internal energy E=F+TS    =   -1674.08882998 Ry

     The total energy is F=E-TS. E is the sum of the following terms:
     one-electron contribution =  -15402.83419376 Ry
     hartree contribution      =    7753.30872101 Ry
     xc contribution           =    -405.84766148 Ry
     ewald contribution        =    6514.55670889 Ry
     electric field correction =       0.00038251 Ry
     one-center paw contrib.   =    -133.27278714 Ry

     convergence has been achieved in  26 iterations

     negative rho (up, down):  1.909E+00 0.000E+00

     Forces acting on atoms (cartesian axes, Ry/au):

     atom    1 type  2   force =    -0.00007186    0.00000025    0.03815151
     atom    2 type  2   force =     0.00018932   -0.00000016   -0.04044869
     atom    3 type  2   force =     0.00050937   -0.00000001   -0.00051962
     atom    4 type  2   force =     0.00077250    0.00000051   -0.00019473
     atom    5 type  2   force =     0.00015726    0.00000008   -0.00095149
     atom    6 type  2   force =    -0.00019420   -0.00000001    0.00038208
     atom    7 type  3   force =    -0.00107583    0.00000009   -0.00180417
     atom    8 type  3   force =     0.00007764   -0.00000017    0.03432279
     atom    9 type  3   force =     0.00014169    0.02165978   -0.02493154
     atom   10 type  3   force =     0.00014177   -0.02165980   -0.02493127
     atom   11 type  3   force =     0.00083669    0.00000010   -0.00056883
     atom   12 type  3   force =    -0.00191576    0.00000006    0.01913414
     atom   13 type  3   force =     0.00063656    0.00081232    0.00055033
     atom   14 type  3   force =     0.00063663   -0.00081211    0.00055082
     atom   15 type  3   force =    -0.00118144   -0.00000032    0.00155348
     atom   16 type  3   force =     0.00058547    0.00000007   -0.00012632
     atom   17 type  3   force =    -0.00007721    0.00050540   -0.00044156
     atom   18 type  3   force =    -0.00007717   -0.00050596   -0.00044145
     atom   19 type  3   force =    -0.00098027   -0.00000009   -0.00092271
     atom   20 type  3   force =     0.00109321   -0.00000002    0.00277853
     atom   21 type  1   force =    -0.00020436    0.00000001   -0.00114130

     Total force =     0.004816     Total SCF correction =     0.006844
     SCF correction compared to forces is large: reduce conv_thr to get better values

     Writing all to output data dir ./tmp_s0_OOH__dipole/s0_OOH__dipole.save/ :
     XML data file, charge density, pseudopotentials, collected wavefunctions

     init_run     :     37.60s CPU     39.65s WALL (       1 calls)
     electrons    :   2075.57s CPU   2150.68s WALL (       1 calls)
     forces       :     13.46s CPU     14.52s WALL (       1 calls)

     Called by init_run:
     wfcinit      :     28.79s CPU     29.68s WALL (       1 calls)
     potinit      :      3.07s CPU      3.37s WALL (       1 calls)
     hinit0       :      3.27s CPU      3.39s WALL (       1 calls)

     Called by electrons:
     c_bands      :   1510.25s CPU   1544.30s WALL (      26 calls)
     sum_band     :    332.52s CPU    351.38s WALL (      26 calls)
     v_of_rho     :     42.60s CPU     45.94s WALL (      27 calls)
     newd         :     41.26s CPU     58.26s WALL (      27 calls)
     PAW_pot      :      8.17s CPU      8.18s WALL (      27 calls)
     mix_rho      :    140.02s CPU    142.72s WALL (      26 calls)

     Called by c_bands:
     init_us_2    :     26.83s CPU     27.02s WALL (     270 calls)
     cegterg      :   1391.05s CPU   1424.89s WALL (     130 calls)

     Called by *egterg:
     cdiaghg      :     11.67s CPU     11.69s WALL (     831 calls)
     h_psi        :   1047.08s CPU   1057.44s WALL (     836 calls)
     s_psi        :     81.84s CPU     81.88s WALL (     836 calls)
     g_psi        :      8.72s CPU      8.73s WALL (     701 calls)

     Called by h_psi:
     h_psi:calbec :     88.89s CPU     88.96s WALL (     836 calls)
     vloc_psi     :    868.04s CPU    869.18s WALL (     836 calls)
                                        0.00s GPU  (     836 calls)
     add_vuspsi   :     84.27s CPU     84.30s WALL (     836 calls)

     General routines
     calbec       :    127.78s CPU    127.86s WALL (     986 calls)
     fft          :     17.23s CPU     17.27s WALL (     360 calls)
     ffts         :     48.11s CPU     48.14s WALL (    3128 calls)
     fftw         :    821.60s CPU    822.35s WALL (   73750 calls)
     interpolate  :      3.22s CPU      3.25s WALL (      27 calls)

     Parallel routines

     PWSCF        :  35m27.25s CPU  36m45.73s WALL


   This run was terminated on:  18:31:58   8Aug2026            

=------------------------------------------------------------------------------=
   JOB DONE.
=------------------------------------------------------------------------------=
