
     Program PWSCF v.7.5 starts on  8Aug2026 at  0:17: 0 

     This program is part of the open-source Quantum ESPRESSO suite
     for quantum simulation of materials; please cite
         "P. Giannozzi et al., J. Phys.:Condens. Matter 21 395502 (2009);
         "P. Giannozzi et al., J. Phys.:Condens. Matter 29 465901 (2017);
         "P. Giannozzi et al., J. Chem. Phys. 152 154105 (2020);
          URL http://www.quantum-espresso.org", 
     in publications or presentations arising from this work. More details at
     http://www.quantum-espresso.org/quote

     Parallel version (MPI & OpenMP), running on       4 processor cores
     Number of MPI processes:                 4
     Threads/MPI process:                     1

     MPI processes distributed on     1 nodes
     52349 MiB available memory on the printing compute node when the environment starts

     Reading input from s0_OH__base.run.in

     Current dimensions of program PWSCF are:
     Max number of different atomic species (ntypx) = 10
     Max number of k-points (npk) =  40000
     Max angular momentum in pseudopotentials (lmaxx) =  4
     file O.pbe-n-kjpaw_psl.0.1.UPF: wavefunction(s)  2P renormalized
     Message from routine setup:
     using ibrav=0 with symmetry is DISCOURAGED, use correct ibrav instead

     K-points division:     npool     =       4
     Subspace diagonalization in iterative solution of the eigenvalue problem:
     a serial algorithm will be used


     G-vector sticks info
     --------------------
     sticks:   dense  smooth     PW     G-vecs:    dense   smooth      PW
     Sum        3639    1825    519               941385   332621   50331

     Using Slab Decomposition



     bravais-lattice index     =            0
     lattice parameter (alat)  =       5.9602  a.u.
     unit-cell volume          =    3444.9838 (a.u.)^3
     number of atoms/cell      =           20
     number of atomic types    =            3
     number of electrons       =       169.00
     number of Kohn-Sham states=          102
     kinetic-energy cutoff     =      80.0000  Ry
     charge density cutoff     =     640.0000  Ry
     scf convergence threshold =      1.0E-06
     mixing beta               =       0.3000
     number of iterations used =            8  local-TF  mixing
     Exchange-correlation= SLA  PW   PBX  PBC
                           (   1   4   3   4   0   0   0)

     celldm(1)=   5.960196  celldm(2)=   0.000000  celldm(3)=   0.000000
     celldm(4)=   0.000000  celldm(5)=   0.000000  celldm(6)=   0.000000

     crystal axes: (cart. coord. in units of alat)
               a(1) = (   1.000000   0.000000   0.000000 )  
               a(2) = (   0.000000   2.016846   0.000000 )  
               a(3) = (   0.000000   0.000000   8.067384 )  

     reciprocal axes: (cart. coord. in units 2 pi/alat)
               b(1) = (  1.000000  0.000000  0.000000 )  
               b(2) = (  0.000000  0.495824  0.000000 )  
               b(3) = (  0.000000  0.000000  0.123956 )  


     PseudoPot. # 1 for H  read from file:
     /usr/share/espresso/pseudo/H.pbe-rrkjus_psl.1.0.0.UPF
     MD5 check sum: f52b6d4d1c606e5624b1dc7b2218f220
     Pseudo is Ultrasoft, Zval =  1.0
     Generated using "atomic" code by A. Dal Corso  v.5.1
     Using radial grid of  929 points,  2 beta functions with: 
                l(1) =   0
                l(2) =   0
     Q(r) pseudized with 0 coefficients 


     PseudoPot. # 2 for Ir read from file:
     /usr/share/espresso/pseudo/Ir_pbe_v1.2.uspp.F.UPF
     MD5 check sum: 8836f839c3459d2b385c504ce6d91f2c
     Pseudo is Ultrasoft + core correction, Zval = 15.0
     Generated by new atomic code, or converted to UPF format
     Using radial grid of  983 points,  7 beta functions with: 
                l(1) =   0
                l(2) =   0
                l(3) =   1
                l(4) =   1
                l(5) =   1
                l(6) =   2
                l(7) =   2
     Q(r) pseudized with  8 coefficients,  rinner =    1.400   1.400   1.400
                                                       1.400   1.400

     PseudoPot. # 3 for O  read from file:
     /usr/share/espresso/pseudo/O.pbe-n-kjpaw_psl.0.1.UPF
     MD5 check sum: 0234752ac141de4415c5fc33072bef88
     Pseudo is Projector augmented-wave + core cor, Zval =  6.0
     Generated using "atomic" code by A. Dal Corso  v.5.0.99 svn rev. 10869
     Shape of augmentation charge: BESSEL
     Using radial grid of 1095 points,  4 beta functions with: 
                l(1) =   0
                l(2) =   0
                l(3) =   1
                l(4) =   1
     Q(r) pseudized with 0 coefficients 


     atomic species   valence    mass     pseudopotential
     H                 1.00     1.00800     H ( 1.00)
     Ir               15.00   192.21700     Ir( 1.00)
     O                 6.00    15.99900     O ( 1.00)

      2 Sym. Ops. (no inversion) found ( 1 have fractional translation)



   Cartesian axes

     site n.     atom                  positions (alat units)
         1        Ir     tau(   1) = (   0.0000000   1.5126346   3.0252692  )
         2        Ir     tau(   2) = (   0.5000000   0.5042115   3.0252692  )
         3        Ir     tau(   3) = (  -0.0008242   0.5042115   4.0440689  )
         4        Ir     tau(   4) = (   0.4992639   1.5126346   4.0342031  )
         5        Ir     tau(   5) = (  -0.0026497   1.5126346   5.0620142  )
         6        Ir     tau(   6) = (   0.4951993   0.5042115   5.0709699  )
         7        O      tau(   7) = (   0.0000000   0.5042115   3.4185541  )
         8        O      tau(   8) = (   0.0000000   0.5042115   2.6319842  )
         9        O      tau(   9) = (   0.5000000   1.1193496   3.0252692  )
        10        O      tau(  10) = (   0.5000000   1.9059196   3.0252692  )
        11        O      tau(  11) = (  -0.0015798   1.5126346   4.4293404  )
        12        O      tau(  12) = (   0.0000000   1.5126346   3.6404072  )
        13        O      tau(  13) = (   0.4992996   0.1182431   4.0371691  )
        14        O      tau(  14) = (   0.4992996   0.8901799   4.0371691  )
        15        O      tau(  15) = (  -0.0050805   0.5042115   5.4448748  )
        16        O      tau(  16) = (  -0.0040464   0.5042115   4.6729430  )
        17        O      tau(  17) = (   0.4959964   1.1251299   5.0554257  )
        18        O      tau(  18) = (   0.4959964   1.9001393   5.0554257  )
        19        O      tau(  19) = (  -0.0349756   1.5126346   5.6753284  )
        20        H      tau(  20) = (   0.2502274   1.5126346   5.7991802  )

     number of k points=    15  Marzari-Vanderbilt smearing, width (Ry)=  0.0100
                       cart. coord. in units 2pi/alat
        k(    1) = (   0.0000000   0.0000000   0.0000000), wk =   0.0625000
        k(    2) = (   0.0000000   0.1239559   0.0000000), wk =   0.1250000
        k(    3) = (   0.0000000  -0.2479118   0.0000000), wk =   0.0625000
        k(    4) = (   0.1250000   0.0000000   0.0000000), wk =   0.1250000
        k(    5) = (   0.1250000   0.1239559   0.0000000), wk =   0.2500000
        k(    6) = (   0.1250000  -0.2479118   0.0000000), wk =   0.1250000
        k(    7) = (   0.2500000   0.0000000   0.0000000), wk =   0.1250000
        k(    8) = (   0.2500000   0.1239559   0.0000000), wk =   0.2500000
        k(    9) = (   0.2500000  -0.2479118   0.0000000), wk =   0.1250000
        k(   10) = (   0.3750000   0.0000000   0.0000000), wk =   0.1250000
        k(   11) = (   0.3750000   0.1239559   0.0000000), wk =   0.2500000
        k(   12) = (   0.3750000  -0.2479118   0.0000000), wk =   0.1250000
        k(   13) = (  -0.5000000   0.0000000   0.0000000), wk =   0.0625000
        k(   14) = (  -0.5000000   0.1239559   0.0000000), wk =   0.1250000
        k(   15) = (  -0.5000000  -0.2479118   0.0000000), wk =   0.0625000

     Dense  grid:   941385 G-vectors     FFT dimensions: (  48, 100, 400)

     Smooth grid:   332621 G-vectors     FFT dimensions: (  36,  72, 288)

     Estimated max dynamical RAM per process >       2.03 GB

     Estimated total dynamical RAM >       7.45 GB

     Initial potential from superposition of free atoms

     starting charge     165.9998, renormalised to     169.0000

     negative rho (up, down):  2.223E+00 0.000E+00
     Starting wfcs are  125 randomized atomic wfcs
     Checking if some PAW data can be deallocated... 

     total cpu time spent up to now is       24.6 secs

     per-process dynamical memory:   889.2 Mb

     Self-consistent Calculation

     iteration #  1     ecut=    80.00 Ry     beta= 0.30
     Davidson diagonalization with overlap
     ethr =  1.00E-02,  avg # of iterations =  3.5

     negative rho (up, down):  2.052E+00 0.000E+00

     total cpu time spent up to now is       73.4 secs

     total energy              =   -1632.94522626 Ry
     estimated scf accuracy    <      52.36277854 Ry

     iteration #  2     ecut=    80.00 Ry     beta= 0.30
     Davidson diagonalization with overlap
     ethr =  1.00E-02,  avg # of iterations =  1.0

     negative rho (up, down):  1.956E+00 0.000E+00

     total cpu time spent up to now is      113.8 secs

     total energy              =   -1632.92909979 Ry
     estimated scf accuracy    <       6.12884830 Ry

     iteration #  3     ecut=    80.00 Ry     beta= 0.30
     Davidson diagonalization with overlap
     ethr =  3.63E-03,  avg # of iterations =  1.2

     negative rho (up, down):  1.848E+00 0.000E+00

     total cpu time spent up to now is      157.0 secs

     total energy              =   -1632.35710491 Ry
     estimated scf accuracy    <       2.22090196 Ry

     iteration #  4     ecut=    80.00 Ry     beta= 0.30
     Davidson diagonalization with overlap
     ethr =  1.31E-03,  avg # of iterations =  5.1

     negative rho (up, down):  1.873E+00 0.000E+00

     total cpu time spent up to now is      207.5 secs

     total energy              =   -1632.68403008 Ry
     estimated scf accuracy    <       0.89823522 Ry

     iteration #  5     ecut=    80.00 Ry     beta= 0.30
     Davidson diagonalization with overlap
     ethr =  5.32E-04,  avg # of iterations =  2.5

     negative rho (up, down):  1.899E+00 0.000E+00

     total cpu time spent up to now is      251.9 secs

     total energy              =   -1632.65006440 Ry
     estimated scf accuracy    <       0.22375635 Ry

     iteration #  6     ecut=    80.00 Ry     beta= 0.30
     Davidson diagonalization with overlap
     ethr =  1.32E-04,  avg # of iterations =  5.7

     negative rho (up, down):  1.915E+00 0.000E+00

     total cpu time spent up to now is      300.6 secs

     total energy              =   -1632.64780217 Ry
     estimated scf accuracy    <       0.06809011 Ry

     iteration #  7     ecut=    80.00 Ry     beta= 0.30
     Davidson diagonalization with overlap
     ethr =  4.03E-05,  avg # of iterations =  4.2

     negative rho (up, down):  1.935E+00 0.000E+00

     total cpu time spent up to now is      349.4 secs

     total energy              =   -1632.65149642 Ry
     estimated scf accuracy    <       0.05625523 Ry

     iteration #  8     ecut=    80.00 Ry     beta= 0.30
     Davidson diagonalization with overlap
     ethr =  3.33E-05,  avg # of iterations =  2.3

     negative rho (up, down):  1.946E+00 0.000E+00

     total cpu time spent up to now is      393.2 secs

     total energy              =   -1632.65117654 Ry
     estimated scf accuracy    <       0.02046730 Ry

     iteration #  9     ecut=    80.00 Ry     beta= 0.30
     Davidson diagonalization with overlap
     ethr =  1.21E-05,  avg # of iterations =  5.7

     negative rho (up, down):  1.951E+00 0.000E+00

     total cpu time spent up to now is      441.1 secs

     total energy              =   -1632.65031195 Ry
     estimated scf accuracy    <       0.01155331 Ry

     iteration # 10     ecut=    80.00 Ry     beta= 0.30
     Davidson diagonalization with overlap
     ethr =  6.84E-06,  avg # of iterations =  5.7

     negative rho (up, down):  1.950E+00 0.000E+00

     total cpu time spent up to now is      487.6 secs

     total energy              =   -1632.64980530 Ry
     estimated scf accuracy    <       0.00422769 Ry

     iteration # 11     ecut=    80.00 Ry     beta= 0.30
     Davidson diagonalization with overlap
     ethr =  2.50E-06,  avg # of iterations =  6.7

     negative rho (up, down):  1.931E+00 0.000E+00

     total cpu time spent up to now is      536.5 secs

     total energy              =   -1632.64939992 Ry
     estimated scf accuracy    <       0.00163902 Ry

     iteration # 12     ecut=    80.00 Ry     beta= 0.30
     Davidson diagonalization with overlap
     ethr =  9.70E-07,  avg # of iterations =  7.9

     negative rho (up, down):  1.922E+00 0.000E+00

     total cpu time spent up to now is      585.0 secs

     total energy              =   -1632.64908426 Ry
     estimated scf accuracy    <       0.00104165 Ry

     iteration # 13     ecut=    80.00 Ry     beta= 0.30
     Davidson diagonalization with overlap
     ethr =  6.16E-07,  avg # of iterations = 10.3

     negative rho (up, down):  1.919E+00 0.000E+00

     total cpu time spent up to now is      637.4 secs

     total energy              =   -1632.64897166 Ry
     estimated scf accuracy    <       0.00056349 Ry

     iteration # 14     ecut=    80.00 Ry     beta= 0.30
     Davidson diagonalization with overlap
     ethr =  3.33E-07,  avg # of iterations =  9.7

     negative rho (up, down):  1.916E+00 0.000E+00

     total cpu time spent up to now is      688.7 secs

     total energy              =   -1632.64881750 Ry
     estimated scf accuracy    <       0.00044959 Ry

     iteration # 15     ecut=    80.00 Ry     beta= 0.30
     Davidson diagonalization with overlap
     ethr =  2.66E-07,  avg # of iterations = 10.4

     negative rho (up, down):  1.915E+00 0.000E+00

     total cpu time spent up to now is      739.3 secs

     total energy              =   -1632.64870455 Ry
     estimated scf accuracy    <       0.00018119 Ry

     iteration # 16     ecut=    80.00 Ry     beta= 0.30
     Davidson diagonalization with overlap
     ethr =  1.07E-07,  avg # of iterations = 10.6

     negative rho (up, down):  1.914E+00 0.000E+00

     total cpu time spent up to now is      789.1 secs

     total energy              =   -1632.64864811 Ry
     estimated scf accuracy    <       0.00008596 Ry

     iteration # 17     ecut=    80.00 Ry     beta= 0.30
     Davidson diagonalization with overlap
     c_bands:  1 eigenvalues not converged
     ethr =  5.09E-08,  avg # of iterations = 10.2

     negative rho (up, down):  1.909E+00 0.000E+00

     total cpu time spent up to now is      838.7 secs

     total energy              =   -1632.64857298 Ry
     estimated scf accuracy    <       0.00005678 Ry

     iteration # 18     ecut=    80.00 Ry     beta= 0.30
     Davidson diagonalization with overlap
     c_bands:  1 eigenvalues not converged
     ethr =  3.36E-08,  avg # of iterations = 10.1

     negative rho (up, down):  1.909E+00 0.000E+00

     total cpu time spent up to now is      890.4 secs

     total energy              =   -1632.64856588 Ry
     estimated scf accuracy    <       0.00000946 Ry

     iteration # 19     ecut=    80.00 Ry     beta= 0.30
     Davidson diagonalization with overlap
     ethr =  5.60E-09,  avg # of iterations =  4.2

     negative rho (up, down):  1.908E+00 0.000E+00

     total cpu time spent up to now is      935.2 secs

     total energy              =   -1632.64856021 Ry
     estimated scf accuracy    <       0.00000322 Ry

     iteration # 20     ecut=    80.00 Ry     beta= 0.30
     Davidson diagonalization with overlap
     ethr =  1.90E-09,  avg # of iterations =  4.9

     negative rho (up, down):  1.908E+00 0.000E+00

     total cpu time spent up to now is      981.5 secs

     total energy              =   -1632.64856207 Ry
     estimated scf accuracy    <       0.00000117 Ry

     iteration # 21     ecut=    80.00 Ry     beta= 0.30
     Davidson diagonalization with overlap
     ethr =  6.92E-10,  avg # of iterations =  2.0

     negative rho (up, down):  1.908E+00 0.000E+00

     total cpu time spent up to now is     1022.2 secs

     End of self-consistent calculation

          k = 0.0000 0.0000 0.0000 ( 41611 PWs)   bands (ev):

   -48.9047 -48.8053 -48.7936 -48.7447 -48.7022 -48.6953 -48.6315 -48.6226
   -48.6204 -48.5833 -48.5376 -48.4761 -48.4277 -48.4086 -48.4074 -48.3225
   -48.2956 -48.1085 -19.4185 -19.0843 -18.9540 -18.6481 -18.0564 -17.8697
   -17.7321 -17.4530 -17.3874 -17.3838 -17.3407 -16.2370 -15.9858  -8.1325
    -8.0804  -8.0679  -7.5725  -6.7849  -6.4623  -6.3783  -6.3259  -6.2070
    -5.9305  -5.7220  -5.6990  -5.5301  -5.2800  -5.1652  -4.1442  -4.0663
    -3.5508  -3.5038  -3.3755  -3.0855  -3.0735  -2.9228  -2.8067  -2.7177
    -2.6395  -2.6359  -2.4343  -2.3223  -2.1919  -2.1416  -1.8044  -1.7023
    -1.4948  -1.3616  -1.1060  -1.0422  -0.8888  -0.8178  -0.8103  -0.7672
    -0.7385  -0.6776  -0.6341  -0.4907  -0.3644  -0.3141   0.1345   0.2448
     0.3353   0.7483   0.8912   1.1460   1.6999   1.8868   1.9770   2.4137
     2.7454   3.2236   3.8773   4.3257   5.1572   5.1814   5.7965   5.8110
     5.8235   5.8760   6.1126   6.1732   6.5577   6.9029

          k = 0.0000 0.1240 0.0000 ( 41688 PWs)   bands (ev):

   -48.9039 -48.8049 -48.7928 -48.7447 -48.7022 -48.6952 -48.6316 -48.6226
   -48.6202 -48.5835 -48.5384 -48.4770 -48.4276 -48.4086 -48.4074 -48.3226
   -48.2957 -48.1090 -19.2923 -18.9382 -18.8261 -18.6766 -18.1019 -17.9819
   -17.7278 -17.5877 -17.5532 -17.4826 -17.3759 -16.2347 -15.9825  -7.6355
    -7.5835  -7.5482  -7.5093  -6.7840  -6.3817  -6.3254  -6.3003  -6.1169
    -5.8323  -5.7201  -5.5948  -5.5289  -5.2911  -4.9773  -4.3816  -4.1819
    -4.1118  -3.9586  -3.8894  -3.6784  -3.6194  -3.3647  -3.2433  -3.2179
    -3.0028  -2.7981  -2.3993  -2.3353  -2.2257  -2.1374  -2.0017  -1.7169
    -1.6390  -1.2563  -1.1897  -0.9597  -0.8970  -0.5362  -0.3923  -0.3691
    -0.2646  -0.2485  -0.2052  -0.1453  -0.1329  -0.0159   0.1547   0.3436
     0.3517   0.7465   0.8810   1.2056   1.6420   1.7564   1.9927   2.1738
     2.5492   3.7403   4.4591   4.7515   5.1599   5.2981   5.5083   5.5145
     5.5392   5.8824   6.1744   6.1818   6.7022   6.8117

          k = 0.0000-0.2479 0.0000 ( 41774 PWs)   bands (ev):

   -48.9032 -48.8045 -48.7919 -48.7447 -48.7022 -48.6950 -48.6317 -48.6226
   -48.6200 -48.5837 -48.5392 -48.4779 -48.4276 -48.4086 -48.4074 -48.3227
   -48.2957 -48.1094 -19.0814 -18.8693 -18.6983 -18.4838 -18.2543 -18.2360
   -17.7894 -17.6952 -17.6901 -17.5773 -17.3755 -16.2333 -15.9798  -7.5819
    -6.7980  -6.7704  -6.7034  -6.5961  -6.3245  -6.2892  -6.2149  -6.0141
    -5.7961  -5.7169  -5.5266  -5.2994  -5.2403  -5.1576  -5.1266  -5.0730
    -4.9685  -4.5337  -4.2963  -4.0056  -3.7023  -3.6490  -3.5938  -3.4549
    -3.3845  -3.1215  -2.4010  -2.3770  -2.0223  -1.9831  -1.8981  -1.6823
    -1.6603  -1.3918  -1.0380  -1.0150  -0.8571  -0.4904  -0.4142  -0.3346
    -0.0041   0.0330   0.0990   0.1581   0.2611   0.3111   0.4396   0.5365
     0.7006   0.8116   0.9792   0.9860   1.4542   1.6304   1.9535   2.0008
     2.4026   4.3055   4.5613   5.1617   5.1801   5.2025   5.2323   5.4869
     5.6699   5.8831   6.0275   6.1776   6.5914   7.4224

          k = 0.1250 0.0000 0.0000 ( 41611 PWs)   bands (ev):

   -48.9034 -48.8041 -48.7923 -48.7438 -48.7112 -48.7012 -48.6482 -48.6370
   -48.6200 -48.5995 -48.5354 -48.4739 -48.4434 -48.4064 -48.4063 -48.3389
   -48.2934 -48.1061 -19.2775 -18.9597 -18.8341 -18.5458 -17.9886 -17.7903
   -17.7750 -17.5330 -17.4671 -17.4256 -17.3642 -16.2900 -16.0282  -7.9472
    -7.8992  -7.8898  -7.3897  -6.7503  -6.4385  -6.3704  -6.3206  -6.1708
    -5.8210  -5.7189  -5.2937  -5.2313  -5.2015  -4.9729  -4.3468  -4.0172
    -3.9256  -3.5540  -3.4732  -3.4078  -3.3839  -3.3184  -3.2442  -2.9978
    -2.8421  -2.6373  -2.5299  -2.4297  -2.3938  -2.1976  -2.1909  -2.0394
    -1.9656  -1.5793  -1.5465  -1.0334  -0.9305  -0.6613  -0.6017  -0.4846
    -0.3895  -0.3514  -0.3192  -0.3036   0.0224   0.1154   0.2541   0.4180
     0.5495   1.0795   1.0911   1.2936   1.5614   1.8140   2.0384   2.2610
     2.5839   3.4493   4.1005   4.5089   4.7448   5.1876   5.4180   5.4262
     5.4470   5.4855   5.7004   6.2611   6.8343   6.9407

          k = 0.1250 0.1240 0.0000 ( 41692 PWs)   bands (ev):

   -48.9029 -48.8038 -48.7918 -48.7438 -48.7111 -48.7012 -48.6481 -48.6367
   -48.6200 -48.5998 -48.5360 -48.4746 -48.4433 -48.4064 -48.4063 -48.3390
   -48.2934 -48.1065 -19.1572 -18.8191 -18.7064 -18.5737 -18.0309 -17.9156
   -17.7726 -17.6540 -17.6182 -17.5384 -17.3586 -16.2884 -16.0255  -7.4654
    -7.4150  -7.3945  -7.3576  -6.7509  -6.3737  -6.3432  -6.2284  -6.0750
    -5.9036  -5.4729  -5.2767  -5.2342  -5.2189  -4.8727  -4.3180  -4.2512
    -4.1746  -4.0533  -3.9419  -3.8571  -3.8028  -3.6982  -3.6255  -3.5197
    -3.2611  -3.0860  -2.7634  -2.5482  -2.2672  -2.1646  -2.0732  -1.9973
    -1.6925  -1.4690  -1.2009  -1.0776  -0.9235  -0.5226  -0.4388  -0.2751
    -0.2148  -0.0691   0.0009   0.1354   0.1911   0.2118   0.3675   0.5042
     0.6307   1.0528   1.1607   1.2760   1.5545   1.6313   1.9644   2.1450
     2.4399   3.8735   4.5386   4.7159   4.7442   4.9830   5.0909   5.2356
     5.3818   5.5632   5.7048   6.2922   6.7446   7.2065

          k = 0.1250-0.2479 0.0000 ( 41706 PWs)   bands (ev):

   -48.9024 -48.8036 -48.7912 -48.7438 -48.7110 -48.7012 -48.6480 -48.6365
   -48.6200 -48.6000 -48.5366 -48.4754 -48.4433 -48.4064 -48.4063 -48.3390
   -48.2934 -48.1069 -18.9579 -18.7401 -18.5778 -18.3709 -18.1971 -18.1870
   -17.8619 -17.7398 -17.7366 -17.5953 -17.3568 -16.2874 -16.0232  -7.3962
    -6.7519  -6.5585  -6.4775  -6.4049  -6.3784  -6.3433  -6.3252  -6.2229
    -5.9213  -5.3144  -5.2659  -5.2339  -4.9746  -4.9435  -4.8219  -4.7982
    -4.6650  -4.6612  -4.6083  -4.3915  -4.3052  -3.9173  -3.8690  -3.6309
    -3.4760  -3.3807  -2.8520  -2.5788  -2.1257  -2.1103  -1.8185  -1.7585
    -1.6269  -1.3735  -1.1383  -0.9808  -0.9584  -0.4664  -0.4048  -0.1390
    -0.1122  -0.0670   0.0099   0.1996   0.4937   0.6186   0.7149   0.8541
     0.8704   1.0779   1.0831   1.3264   1.3845   1.5684   1.8466   1.9108
     2.4170   4.4020   4.4264   4.6003   4.6334   4.6753   4.9655   5.3975
     5.6171   5.7303   5.7303   6.0934   6.7745   7.7440

          k = 0.2500 0.0000 0.0000 ( 41623 PWs)   bands (ev):

   -48.9004 -48.8014 -48.7892 -48.7522 -48.7390 -48.6990 -48.6880 -48.6760
   -48.6384 -48.6143 -48.5301 -48.4810 -48.4685 -48.4040 -48.4007 -48.3784
   -48.2879 -48.1005 -18.9108 -18.6482 -18.5344 -18.3149 -17.9272 -17.8543
   -17.7218 -17.6530 -17.6231 -17.5890 -17.3010 -16.3695 -16.0800  -7.4615
    -7.4157  -7.4126  -6.9128  -6.5598  -6.3662  -6.3413  -6.1421  -5.9541
    -5.7662  -5.5737  -5.2032  -5.1985  -4.8977  -4.6868  -4.5601  -4.4987
    -4.4891  -4.4483  -3.9865  -3.7652  -3.6977  -3.3967  -3.3009  -3.1745
    -3.1239  -3.0228  -2.9433  -2.8784  -2.7785  -2.5515  -2.2599  -2.0253
    -1.8551  -1.5630  -1.4847  -1.2409  -1.1216  -0.8218  -0.4249  -0.2166
    -0.1769  -0.1229   0.0192   0.0554   0.4502   0.6844   0.7625   0.8439
     1.0692   1.1543   1.1946   1.4152   1.4297   1.6325   1.9044   2.1464
     2.1868   3.8221   4.1351   4.3697   4.6114   4.6912   4.6984   4.7652
     4.9120   4.9735   5.5635   6.0179   7.1464   7.9228

          k = 0.2500 0.1240 0.0000 ( 41653 PWs)   bands (ev):

   -48.9004 -48.8014 -48.7895 -48.7522 -48.7390 -48.6990 -48.6874 -48.6756
   -48.6386 -48.6143 -48.5303 -48.4811 -48.4689 -48.4040 -48.4007 -48.3782
   -48.2879 -48.1006 -18.8139 -18.5360 -18.4204 -18.3407 -17.9846 -17.8962
   -17.7943 -17.7859 -17.7498 -17.5604 -17.2974 -16.3698 -16.0792  -7.0780
    -7.0384  -7.0337  -6.9105  -6.5591  -6.3657  -6.1861  -5.9892  -5.8449
    -5.8174  -5.6352  -5.3283  -5.0851  -5.0329  -5.0103  -4.8827  -4.7794
    -4.6359  -4.1988  -4.0616  -3.8563  -3.6712  -3.5595  -3.4997  -3.4419
    -3.4228  -3.2966  -3.1685  -2.8963  -2.6294  -2.3568  -2.3031  -2.0400
    -1.8356  -1.6979  -1.3464  -1.1763  -1.0475  -0.9834  -0.4754  -0.1086
    -0.0070   0.1594   0.2463   0.3019   0.4554   0.4996   0.8629   0.9029
     1.1024   1.1547   1.2474   1.4229   1.4671   1.5773   1.7729   1.9593
     2.3478   3.9140   4.0438   4.0819   4.1516   4.1923   4.8172   4.9339
     5.1867   5.3804   5.7317   6.1336   7.2066   8.1421

          k = 0.2500-0.2479 0.0000 ( 41680 PWs)   bands (ev):

   -48.9004 -48.8014 -48.7898 -48.7522 -48.7390 -48.6990 -48.6867 -48.6751
   -48.6389 -48.6143 -48.5305 -48.4811 -48.4693 -48.4040 -48.4007 -48.3781
   -48.2879 -48.1008 -18.6575 -18.4318 -18.2986 -18.1884 -18.1154 -18.1094
   -18.0097 -17.8409 -17.7768 -17.5562 -17.2947 -16.3703 -16.0785  -6.9139
    -6.5651  -6.4256  -6.3882  -6.3741  -6.3693  -5.9291  -5.8867  -5.8517
    -5.7816  -5.7682  -5.6516  -5.6233  -5.5308  -5.1670  -4.9246  -4.6536
    -4.4130  -4.3741  -4.2050  -4.1180  -4.0779  -3.8525  -3.7526  -3.7386
    -3.5678  -3.4506  -3.3835  -2.9329  -2.3223  -2.2031  -1.9264  -1.9155
    -1.7792  -1.7477  -1.4742  -1.2664  -1.0418  -0.7455  -0.3481  -0.3383
    -0.0673   0.1153   0.1560   0.6030   0.6164   0.6576   0.9635   1.0495
     1.1602   1.1700   1.2949   1.4844   1.5091   1.6188   1.7362   1.7480
     2.4321   3.5877   3.6236   3.7015   4.0676   4.1924   4.9365   5.1536
     5.2290   5.7976   5.8960   6.1590   7.3124   8.5520

          k = 0.3750 0.0000 0.0000 ( 41645 PWs)   bands (ev):

   -48.8975 -48.7987 -48.7893 -48.7861 -48.7391 -48.7281 -48.7136 -48.6977
   -48.6757 -48.6086 -48.5247 -48.5184 -48.4632 -48.4176 -48.4017 -48.3951
   -48.2824 -48.0948 -18.4815 -18.3281 -18.2178 -18.1816 -17.9561 -17.9043
   -17.8309 -17.8229 -17.8106 -17.4788 -17.2283 -16.3453 -16.0455  -6.8937
    -6.8735  -6.8266  -6.5147  -6.3392  -6.2835  -6.1882  -6.1759  -5.9822
    -5.8664  -5.6295  -5.6096  -5.4892  -5.4039  -5.2366  -4.8507  -4.5367
    -4.4628  -4.3384  -3.9938  -3.8623  -3.7871  -3.6385  -3.5279  -3.2126
    -3.1690  -3.0277  -2.8704  -2.7109  -2.5672  -2.5107  -2.4757  -1.8675
    -1.7605  -1.5870  -1.4011  -1.2934  -1.2386  -0.8521  -0.2953  -0.2480
    -0.1229  -0.0884   0.1383   0.1547   0.5777   0.6801   0.7170   0.7775
     0.9472   1.0846   1.1234   1.4200   1.4830   1.6909   1.9660   2.0211
     2.1583   3.5483   3.7341   4.1339   4.1533   4.2582   4.4825   4.5279
     4.8597   5.0809   5.5759   5.6978   7.9328   9.1260

          k = 0.3750 0.1240 0.0000 ( 41549 PWs)   bands (ev):

   -48.8980 -48.7990 -48.7895 -48.7880 -48.7390 -48.7260 -48.7129 -48.6977
   -48.6759 -48.6086 -48.5246 -48.5185 -48.4632 -48.4172 -48.4017 -48.3951
   -48.2824 -48.0948 -18.4521 -18.3072 -18.2507 -18.2034 -18.0046 -17.9472
   -17.8171 -17.7992 -17.7680 -17.4811 -17.2262 -16.3470 -16.0456  -6.7803
    -6.7344  -6.6989  -6.5313  -6.3719  -6.3142  -6.2446  -6.1741  -6.1084
    -6.0315  -5.9474  -5.4685  -5.2677  -5.2128  -5.0142  -4.9244  -4.6161
    -4.5617  -4.0881  -3.9164  -3.8170  -3.7053  -3.5821  -3.3609  -3.3033
    -3.1369  -3.0122  -2.9740  -2.9484  -2.6794  -2.3112  -2.2427  -2.1145
    -1.7923  -1.6232  -1.5432  -1.3651  -1.2316  -1.0119  -0.4478  -0.1824
    -0.1496  -0.0542   0.0238   0.0584   0.2739   0.3104   0.5905   0.6881
     0.7551   1.0708   1.6306   1.6516   1.7086   1.8234   1.8800   2.0460
     2.1991   3.3593   3.4262   3.5580   3.6259   3.7647   4.5008   5.2100
     5.5036   5.6609   5.8626   5.8946   8.0316   9.3005

          k = 0.3750-0.2479 0.0000 ( 41514 PWs)   bands (ev):

   -48.8986 -48.7992 -48.7899 -48.7895 -48.7390 -48.7241 -48.7123 -48.6977
   -48.6761 -48.6086 -48.5245 -48.5186 -48.4632 -48.4169 -48.4017 -48.3950
   -48.2824 -48.0947 -18.4050 -18.3083 -18.2570 -18.2457 -18.0377 -17.9856
   -17.8006 -17.7778 -17.7474 -17.4834 -17.2242 -16.3486 -16.0457  -6.6706
    -6.5735  -6.5211  -6.4608  -6.3739  -6.3437  -6.3251  -6.2246  -6.2244
    -6.1575  -6.1413  -5.5278  -5.2639  -5.0098  -4.8122  -4.7168  -4.6314
    -4.4676  -4.0563  -3.9075  -3.8152  -3.7051  -3.4292  -3.4207  -3.3485
    -3.1704  -3.1431  -3.1043  -2.9625  -2.5762  -2.2450  -2.2327  -1.9551
    -1.9065  -1.6413  -1.4703  -1.3975  -1.3513  -1.0909  -0.7846  -0.6414
    -0.3349  -0.1256  -0.0104   0.1640   0.2039   0.4235   0.5884   0.6553
     0.7119   0.9816   1.6221   1.6667   1.8237   1.9949   2.0501   2.0803
     2.3324   2.9447   2.9706   3.1106   3.6324   3.7799   4.5016   5.5343
     5.6666   5.9194   6.1824   6.3156   8.1330   9.9839

          k =-0.5000 0.0000 0.0000 ( 41440 PWs)   bands (ev):

   -48.8962 -48.8050 -48.7976 -48.7848 -48.7445 -48.7416 -48.7262 -48.7010
   -48.6873 -48.6062 -48.5338 -48.5225 -48.4610 -48.4337 -48.4007 -48.3927
   -48.2801 -48.0924 -18.3187 -18.1785 -18.1153 -18.0705 -17.9786 -17.9781
   -17.9030 -17.8854 -17.8255 -17.4655 -17.1967 -16.2971 -16.0035  -6.8373
    -6.5194  -6.5030  -6.4761  -6.3615  -6.3032  -6.2629  -6.0801  -6.0350
    -5.9671  -5.6964  -5.6956  -5.6032  -5.3910  -5.3591  -5.2160  -4.6045
    -4.1478  -4.1340  -4.1197  -3.8565  -3.8268  -3.7229  -3.5654  -3.2997
    -3.2918  -2.9366  -2.7810  -2.6085  -2.5326  -2.3486  -1.9700  -1.8300
    -1.6356  -1.6129  -1.5628  -1.3326  -1.1816  -0.8127  -0.2515  -0.2301
    -0.2122  -0.1672   0.0157   0.0874   0.1870   0.4739   0.5030   0.7225
     0.8797   0.9748   1.1291   1.3244   1.7112   1.8158   1.8187   2.1751
     2.3721   3.3307   3.6701   3.9424   3.9637   4.0866   4.4051   4.5329
     4.9132   5.0736   5.5139   5.7597   8.5328   9.8450

          k =-0.5000 0.1240 0.0000 ( 41518 PWs)   bands (ev):

   -48.8971 -48.8052 -48.7980 -48.7881 -48.7412 -48.7411 -48.7257 -48.7011
   -48.6874 -48.6062 -48.5339 -48.5223 -48.4608 -48.4333 -48.4007 -48.3927
   -48.2801 -48.0923 -18.3163 -18.2858 -18.2586 -18.2214 -17.9676 -17.8370
   -17.8210 -17.7652 -17.7592 -17.4675 -17.1958 -16.2981 -16.0029  -6.8042
    -6.7830  -6.6213  -6.5499  -6.4518  -6.3974  -6.3955  -6.3233  -6.1131
    -6.0040  -5.8697  -5.5464  -5.3065  -4.9653  -4.8159  -4.7449  -4.3645
    -4.2096  -4.1726  -4.0940  -4.0690  -3.8482  -3.7426  -3.1214  -3.1029
    -2.9848  -2.9330  -2.8732  -2.7696  -2.6108  -2.1912  -2.1537  -1.7979
    -1.6802  -1.6372  -1.5181  -1.4952  -1.4307  -0.9137  -0.4174  -0.3081
    -0.2576  -0.1743  -0.1422  -0.1192   0.0171   0.1261   0.1559   0.2165
     0.4238   0.9552   1.7734   1.8324   1.8517   1.9406   2.0305   2.1199
     2.2964   3.1448   3.1980   3.3514   3.3776   3.6970   4.4075   5.4746
     5.6114   5.7610   5.8228   5.9141   8.6888   9.8340

          k =-0.5000-0.2479 0.0000 ( 41524 PWs)   bands (ev):

   -48.8979 -48.8053 -48.7984 -48.7911 -48.7409 -48.7382 -48.7251 -48.7013
   -48.6876 -48.6062 -48.5340 -48.5221 -48.4607 -48.4328 -48.4007 -48.3927
   -48.2801 -48.0922 -18.3544 -18.3448 -18.3139 -18.3012 -17.9540 -17.8508
   -17.7375 -17.6783 -17.6755 -17.4695 -17.1950 -16.2992 -16.0022  -7.0015
    -6.8580  -6.7891  -6.7531  -6.3982  -6.3316  -6.2806  -6.2619  -6.2404
    -6.0381  -5.8785  -5.6075  -5.4252  -4.9222  -4.2922  -4.2071  -4.1702
    -4.1370  -4.0797  -3.8753  -3.8592  -3.6595  -3.5097  -3.4482  -3.3145
    -2.9933  -2.8436  -2.8355  -2.8052  -2.4917  -2.1121  -1.9853  -1.9356
    -1.8289  -1.7298  -1.5624  -1.5231  -1.5088  -1.0409  -0.9861  -0.6469
    -0.6301  -0.3341  -0.2416  -0.1527  -0.1277   0.0170   0.1474   0.1932
     0.3330   0.9530   1.7814   1.8145   1.9283   2.2290   2.2313   2.2419
     2.3231   2.7515   2.7767   2.9423   3.4133   3.7212   4.4096   5.7044
     5.8785   5.9970   6.2774   6.4458   8.8469   9.8107

     the Fermi energy is     1.6318 ev

!    total energy              =   -1632.64856512 Ry
     estimated scf accuracy    <       0.00000047 Ry
     smearing contrib. (-TS)   =      -0.00163774 Ry
     internal energy E=F+TS    =   -1632.64692738 Ry

     The total energy is F=E-TS. E is the sum of the following terms:
     one-electron contribution =  -15350.87838410 Ry
     hartree contribution      =    7720.30221538 Ry
     xc contribution           =    -398.55589724 Ry
     ewald contribution        =    6520.21152000 Ry
     one-center paw contrib.   =    -123.72638142 Ry

     convergence has been achieved in  21 iterations

     negative rho (up, down):  1.908E+00 0.000E+00

     Forces acting on atoms (cartesian axes, Ry/au):

     atom    1 type  2   force =    -0.00002489    0.00000000    0.03753265
     atom    2 type  2   force =    -0.00005233    0.00000000   -0.03978017
     atom    3 type  2   force =    -0.00054868    0.00000000    0.00055349
     atom    4 type  2   force =     0.00056434    0.00000000   -0.00022926
     atom    5 type  2   force =    -0.00078242    0.00000000   -0.00110175
     atom    6 type  2   force =     0.00078388    0.00000000   -0.00119526
     atom    7 type  3   force =     0.00011935    0.00000000   -0.00012522
     atom    8 type  3   force =     0.00003906    0.00000000    0.03432852
     atom    9 type  3   force =     0.00000847    0.02148183   -0.02470901
     atom   10 type  3   force =     0.00000847   -0.02148183   -0.02470901
     atom   11 type  3   force =     0.00106020    0.00000000   -0.00062272
     atom   12 type  3   force =    -0.00192057    0.00000000    0.01741007
     atom   13 type  3   force =    -0.00042800   -0.00135324    0.00087063
     atom   14 type  3   force =    -0.00042800    0.00135324    0.00087063
     atom   15 type  3   force =     0.00108238    0.00000000   -0.00123990
     atom   16 type  3   force =     0.00044145    0.00000000   -0.00045535
     atom   17 type  3   force =    -0.00048041   -0.00079939    0.00120950
     atom   18 type  3   force =    -0.00048041    0.00079939    0.00120950
     atom   19 type  3   force =     0.00004652    0.00000000    0.00032157
     atom   20 type  1   force =     0.00099159    0.00000000   -0.00013891

     Total force =     0.004559     Total SCF correction =     0.002502
     SCF correction compared to forces is large: reduce conv_thr to get better values

     Writing all to output data dir ./tmp_s0_OH__base/s0_OH__base.save/ :
     XML data file, charge density, pseudopotentials, collected wavefunctions

     init_run     :     22.88s CPU     24.37s WALL (       1 calls)
     electrons    :    953.16s CPU    997.62s WALL (       1 calls)
     forces       :      9.73s CPU     10.74s WALL (       1 calls)

     Called by init_run:
     wfcinit      :     16.36s CPU     16.90s WALL (       1 calls)
     potinit      :      2.25s CPU      2.51s WALL (       1 calls)
     hinit0       :      2.70s CPU      2.79s WALL (       1 calls)

     Called by electrons:
     c_bands      :    688.24s CPU    705.58s WALL (      21 calls)
     sum_band     :    144.88s CPU    157.56s WALL (      21 calls)
     v_of_rho     :     22.63s CPU     24.96s WALL (      22 calls)
     newd         :     27.07s CPU     38.14s WALL (      22 calls)
     PAW_pot      :      6.92s CPU      6.93s WALL (      22 calls)
     mix_rho      :     63.53s CPU     65.06s WALL (      21 calls)

     Called by c_bands:
     init_us_2    :     12.20s CPU     12.37s WALL (     176 calls)
     cegterg      :    646.89s CPU    663.99s WALL (      84 calls)

     Called by *egterg:
     cdiaghg      :      7.52s CPU      7.53s WALL (     644 calls)
     h_psi        :    451.62s CPU    457.02s WALL (     648 calls)
     s_psi        :     46.20s CPU     46.23s WALL (     648 calls)
     g_psi        :      5.04s CPU      5.05s WALL (     560 calls)

     Called by h_psi:
     h_psi:calbec :     48.84s CPU     48.98s WALL (     648 calls)
     vloc_psi     :    351.07s CPU    351.49s WALL (     648 calls)
                                        0.00s GPU  (     648 calls)
     add_vuspsi   :     48.88s CPU     48.96s WALL (     648 calls)

     General routines
     calbec       :     70.10s CPU     70.25s WALL (     748 calls)
     fft          :     10.11s CPU     10.13s WALL (     295 calls)
     ffts         :     23.85s CPU     23.87s WALL (    2503 calls)
     fftw         :    344.02s CPU    344.31s WALL (   46540 calls)
     interpolate  :      2.04s CPU      2.07s WALL (      22 calls)

     Parallel routines

     PWSCF        :  16m26.19s CPU  17m13.35s WALL


   This run was terminated on:   0:34:14   8Aug2026            

=------------------------------------------------------------------------------=
   JOB DONE.
=------------------------------------------------------------------------------=
