
     Program PWSCF v.7.5 starts on  8Aug2026 at  0:58:23 

     This program is part of the open-source Quantum ESPRESSO suite
     for quantum simulation of materials; please cite
         "P. Giannozzi et al., J. Phys.:Condens. Matter 21 395502 (2009);
         "P. Giannozzi et al., J. Phys.:Condens. Matter 29 465901 (2017);
         "P. Giannozzi et al., J. Chem. Phys. 152 154105 (2020);
          URL http://www.quantum-espresso.org", 
     in publications or presentations arising from this work. More details at
     http://www.quantum-espresso.org/quote

     Parallel version (MPI & OpenMP), running on       4 processor cores
     Number of MPI processes:                 4
     Threads/MPI process:                     1

     MPI processes distributed on     1 nodes
     52946 MiB available memory on the printing compute node when the environment starts

     Reading input from s0_O__base.run.in

     Current dimensions of program PWSCF are:
     Max number of different atomic species (ntypx) = 10
     Max number of k-points (npk) =  40000
     Max angular momentum in pseudopotentials (lmaxx) =  4
     file O.pbe-n-kjpaw_psl.0.1.UPF: wavefunction(s)  2P renormalized
     Message from routine setup:
     using ibrav=0 with symmetry is DISCOURAGED, use correct ibrav instead

     K-points division:     npool     =       4
     Subspace diagonalization in iterative solution of the eigenvalue problem:
     a serial algorithm will be used


     G-vector sticks info
     --------------------
     sticks:   dense  smooth     PW     G-vecs:    dense   smooth      PW
     Sum        3639    1825    519               941385   332621   50331

     Using Slab Decomposition



     bravais-lattice index     =            0
     lattice parameter (alat)  =       5.9602  a.u.
     unit-cell volume          =    3444.9838 (a.u.)^3
     number of atoms/cell      =           19
     number of atomic types    =            2
     number of electrons       =       168.00
     number of Kohn-Sham states=          101
     kinetic-energy cutoff     =      80.0000  Ry
     charge density cutoff     =     640.0000  Ry
     scf convergence threshold =      1.0E-06
     mixing beta               =       0.3000
     number of iterations used =            8  local-TF  mixing
     Exchange-correlation= SLA  PW   PBX  PBC
                           (   1   4   3   4   0   0   0)

     celldm(1)=   5.960196  celldm(2)=   0.000000  celldm(3)=   0.000000
     celldm(4)=   0.000000  celldm(5)=   0.000000  celldm(6)=   0.000000

     crystal axes: (cart. coord. in units of alat)
               a(1) = (   1.000000   0.000000   0.000000 )  
               a(2) = (   0.000000   2.016846   0.000000 )  
               a(3) = (   0.000000   0.000000   8.067384 )  

     reciprocal axes: (cart. coord. in units 2 pi/alat)
               b(1) = (  1.000000  0.000000  0.000000 )  
               b(2) = (  0.000000  0.495824  0.000000 )  
               b(3) = (  0.000000  0.000000  0.123956 )  


     PseudoPot. # 1 for Ir read from file:
     /usr/share/espresso/pseudo/Ir_pbe_v1.2.uspp.F.UPF
     MD5 check sum: 8836f839c3459d2b385c504ce6d91f2c
     Pseudo is Ultrasoft + core correction, Zval = 15.0
     Generated by new atomic code, or converted to UPF format
     Using radial grid of  983 points,  7 beta functions with: 
                l(1) =   0
                l(2) =   0
                l(3) =   1
                l(4) =   1
                l(5) =   1
                l(6) =   2
                l(7) =   2
     Q(r) pseudized with  8 coefficients,  rinner =    1.400   1.400   1.400
                                                       1.400   1.400

     PseudoPot. # 2 for O  read from file:
     /usr/share/espresso/pseudo/O.pbe-n-kjpaw_psl.0.1.UPF
     MD5 check sum: 0234752ac141de4415c5fc33072bef88
     Pseudo is Projector augmented-wave + core cor, Zval =  6.0
     Generated using "atomic" code by A. Dal Corso  v.5.0.99 svn rev. 10869
     Shape of augmentation charge: BESSEL
     Using radial grid of 1095 points,  4 beta functions with: 
                l(1) =   0
                l(2) =   0
                l(3) =   1
                l(4) =   1
     Q(r) pseudized with 0 coefficients 


     atomic species   valence    mass     pseudopotential
     Ir               15.00   192.21700     Ir( 1.00)
     O                 6.00    15.99900     O ( 1.00)

      4 Sym. Ops. (no inversion) found ( 2 have fractional translation)



   Cartesian axes

     site n.     atom                  positions (alat units)
         1        Ir     tau(   1) = (   0.0000000   1.5126346   3.0252692  )
         2        Ir     tau(   2) = (   0.5000000   0.5042115   3.0252692  )
         3        Ir     tau(   3) = (   0.0000000   0.5042115   4.0428594  )
         4        Ir     tau(   4) = (   0.5000000   1.5126346   4.0366227  )
         5        Ir     tau(   5) = (   0.0000000   1.5126346   5.0840887  )
         6        Ir     tau(   6) = (   0.5000000   0.5042115   5.0650004  )
         7        O      tau(   7) = (   0.0000000   0.5042115   3.4185541  )
         8        O      tau(   8) = (   0.0000000   0.5042115   2.6319842  )
         9        O      tau(   9) = (   0.5000000   1.1193496   3.0252692  )
        10        O      tau(  10) = (   0.5000000   1.9059196   3.0252692  )
        11        O      tau(  11) = (   0.0000000   1.5126346   4.4373140  )
        12        O      tau(  12) = (   0.0000000   1.5126346   3.6404072  )
        13        O      tau(  13) = (   0.5000000   0.1175415   4.0363811  )
        14        O      tau(  14) = (   0.5000000   0.8908815   4.0363811  )
        15        O      tau(  15) = (   0.0000000   0.5042115   5.4382077  )
        16        O      tau(  16) = (   0.0000000   0.5042115   4.6686519  )
        17        O      tau(  17) = (   0.5000000   1.1266233   5.0418396  )
        18        O      tau(  18) = (   0.5000000   1.8986459   5.0418396  )
        19        O      tau(  19) = (   0.0000000   1.5126346   5.6443569  )

     number of k points=    15  Marzari-Vanderbilt smearing, width (Ry)=  0.0100
                       cart. coord. in units 2pi/alat
        k(    1) = (   0.0000000   0.0000000   0.0000000), wk =   0.0625000
        k(    2) = (   0.0000000   0.1239559   0.0000000), wk =   0.1250000
        k(    3) = (   0.0000000  -0.2479118   0.0000000), wk =   0.0625000
        k(    4) = (   0.1250000   0.0000000   0.0000000), wk =   0.1250000
        k(    5) = (   0.1250000   0.1239559   0.0000000), wk =   0.2500000
        k(    6) = (   0.1250000  -0.2479118   0.0000000), wk =   0.1250000
        k(    7) = (   0.2500000   0.0000000   0.0000000), wk =   0.1250000
        k(    8) = (   0.2500000   0.1239559   0.0000000), wk =   0.2500000
        k(    9) = (   0.2500000  -0.2479118   0.0000000), wk =   0.1250000
        k(   10) = (   0.3750000   0.0000000   0.0000000), wk =   0.1250000
        k(   11) = (   0.3750000   0.1239559   0.0000000), wk =   0.2500000
        k(   12) = (   0.3750000  -0.2479118   0.0000000), wk =   0.1250000
        k(   13) = (  -0.5000000   0.0000000   0.0000000), wk =   0.0625000
        k(   14) = (  -0.5000000   0.1239559   0.0000000), wk =   0.1250000
        k(   15) = (  -0.5000000  -0.2479118   0.0000000), wk =   0.0625000

     Dense  grid:   941385 G-vectors     FFT dimensions: (  48, 100, 400)

     Smooth grid:   332621 G-vectors     FFT dimensions: (  36,  72, 288)

     Estimated max dynamical RAM per process >       2.00 GB

     Estimated total dynamical RAM >       7.31 GB

     Initial potential from superposition of free atoms

     starting charge     164.9998, renormalised to     168.0000

     negative rho (up, down):  2.225E+00 0.000E+00
     Starting wfcs are  124 randomized atomic wfcs
     Checking if some PAW data can be deallocated... 

     total cpu time spent up to now is       24.0 secs

     per-process dynamical memory:   862.5 Mb

     Self-consistent Calculation

     iteration #  1     ecut=    80.00 Ry     beta= 0.30
     Davidson diagonalization with overlap
     ethr =  1.00E-02,  avg # of iterations =  2.9

     negative rho (up, down):  2.050E+00 0.000E+00

     total cpu time spent up to now is       72.9 secs

     total energy              =   -1631.63954131 Ry
     estimated scf accuracy    <      50.20237920 Ry

     iteration #  2     ecut=    80.00 Ry     beta= 0.30
     Davidson diagonalization with overlap
     ethr =  1.00E-02,  avg # of iterations =  1.0

     negative rho (up, down):  1.955E+00 0.000E+00

     total cpu time spent up to now is      114.1 secs

     total energy              =   -1631.63958898 Ry
     estimated scf accuracy    <       6.89552595 Ry

     iteration #  3     ecut=    80.00 Ry     beta= 0.30
     Davidson diagonalization with overlap
     ethr =  4.10E-03,  avg # of iterations =  1.0

     negative rho (up, down):  1.860E+00 0.000E+00

     total cpu time spent up to now is      155.3 secs

     total energy              =   -1631.08548150 Ry
     estimated scf accuracy    <       2.50980508 Ry

     iteration #  4     ecut=    80.00 Ry     beta= 0.30
     Davidson diagonalization with overlap
     ethr =  1.49E-03,  avg # of iterations =  4.0

     negative rho (up, down):  1.882E+00 0.000E+00

     total cpu time spent up to now is      205.2 secs

     total energy              =   -1631.38325345 Ry
     estimated scf accuracy    <       0.40917266 Ry

     iteration #  5     ecut=    80.00 Ry     beta= 0.30
     Davidson diagonalization with overlap
     ethr =  2.44E-04,  avg # of iterations =  6.6

     negative rho (up, down):  1.919E+00 0.000E+00

     total cpu time spent up to now is      256.4 secs

     total energy              =   -1631.34537005 Ry
     estimated scf accuracy    <       0.38966687 Ry

     iteration #  6     ecut=    80.00 Ry     beta= 0.30
     Davidson diagonalization with overlap
     ethr =  2.32E-04,  avg # of iterations =  1.0

     negative rho (up, down):  1.920E+00 0.000E+00

     total cpu time spent up to now is      298.0 secs

     total energy              =   -1631.34218333 Ry
     estimated scf accuracy    <       0.13305179 Ry

     iteration #  7     ecut=    80.00 Ry     beta= 0.30
     Davidson diagonalization with overlap
     ethr =  7.92E-05,  avg # of iterations =  2.0

     negative rho (up, down):  1.952E+00 0.000E+00

     total cpu time spent up to now is      342.9 secs

     total energy              =   -1631.34380867 Ry
     estimated scf accuracy    <       0.12097169 Ry

     iteration #  8     ecut=    80.00 Ry     beta= 0.30
     Davidson diagonalization with overlap
     ethr =  7.20E-05,  avg # of iterations =  2.2

     negative rho (up, down):  1.966E+00 0.000E+00

     total cpu time spent up to now is      387.8 secs

     total energy              =   -1631.34492532 Ry
     estimated scf accuracy    <       0.02489216 Ry

     iteration #  9     ecut=    80.00 Ry     beta= 0.30
     Davidson diagonalization with overlap
     c_bands:  2 eigenvalues not converged
     ethr =  1.48E-05,  avg # of iterations =  7.7

     negative rho (up, down):  1.973E+00 0.000E+00

     total cpu time spent up to now is      439.3 secs

     total energy              =   -1631.34361287 Ry
     estimated scf accuracy    <       0.01208062 Ry

     iteration # 10     ecut=    80.00 Ry     beta= 0.30
     Davidson diagonalization with overlap
     ethr =  7.19E-06,  avg # of iterations =  7.1

     negative rho (up, down):  1.979E+00 0.000E+00

     total cpu time spent up to now is      489.8 secs

     total energy              =   -1631.34221262 Ry
     estimated scf accuracy    <       0.00728567 Ry

     iteration # 11     ecut=    80.00 Ry     beta= 0.30
     Davidson diagonalization with overlap
     ethr =  4.34E-06,  avg # of iterations =  8.2

     negative rho (up, down):  1.954E+00 0.000E+00

     total cpu time spent up to now is      540.0 secs

     total energy              =   -1631.34143776 Ry
     estimated scf accuracy    <       0.00613489 Ry

     iteration # 12     ecut=    80.00 Ry     beta= 0.30
     Davidson diagonalization with overlap
     ethr =  3.65E-06,  avg # of iterations =  8.1

     negative rho (up, down):  1.928E+00 0.000E+00

     total cpu time spent up to now is      589.5 secs

     total energy              =   -1631.34055635 Ry
     estimated scf accuracy    <       0.00410238 Ry

     iteration # 13     ecut=    80.00 Ry     beta= 0.30
     Davidson diagonalization with overlap
     ethr =  2.44E-06,  avg # of iterations =  8.7

     negative rho (up, down):  1.919E+00 0.000E+00

     total cpu time spent up to now is      640.3 secs

     total energy              =   -1631.34005678 Ry
     estimated scf accuracy    <       0.00174319 Ry

     iteration # 14     ecut=    80.00 Ry     beta= 0.30
     Davidson diagonalization with overlap
     c_bands:  1 eigenvalues not converged
     ethr =  1.04E-06,  avg # of iterations =  7.0

     negative rho (up, down):  1.914E+00 0.000E+00

     total cpu time spent up to now is      690.5 secs

     total energy              =   -1631.33956740 Ry
     estimated scf accuracy    <       0.00133838 Ry

     iteration # 15     ecut=    80.00 Ry     beta= 0.30
     Davidson diagonalization with overlap
     ethr =  7.97E-07,  avg # of iterations =  5.5

     negative rho (up, down):  1.915E+00 0.000E+00

     total cpu time spent up to now is      738.5 secs

     total energy              =   -1631.33940716 Ry
     estimated scf accuracy    <       0.00031514 Ry

     iteration # 16     ecut=    80.00 Ry     beta= 0.30
     Davidson diagonalization with overlap
     ethr =  1.88E-07,  avg # of iterations =  1.8

     negative rho (up, down):  1.912E+00 0.000E+00

     total cpu time spent up to now is      782.4 secs

     total energy              =   -1631.33930579 Ry
     estimated scf accuracy    <       0.00014261 Ry

     iteration # 17     ecut=    80.00 Ry     beta= 0.30
     Davidson diagonalization with overlap
     ethr =  8.49E-08,  avg # of iterations =  3.8

     negative rho (up, down):  1.907E+00 0.000E+00

     total cpu time spent up to now is      828.6 secs

     total energy              =   -1631.33926525 Ry
     estimated scf accuracy    <       0.00004842 Ry

     iteration # 18     ecut=    80.00 Ry     beta= 0.30
     Davidson diagonalization with overlap
     ethr =  2.88E-08,  avg # of iterations =  1.9

     negative rho (up, down):  1.905E+00 0.000E+00

     total cpu time spent up to now is      872.9 secs

     total energy              =   -1631.33924797 Ry
     estimated scf accuracy    <       0.00002697 Ry

     iteration # 19     ecut=    80.00 Ry     beta= 0.30
     Davidson diagonalization with overlap
     ethr =  1.61E-08,  avg # of iterations =  4.0

     negative rho (up, down):  1.904E+00 0.000E+00

     total cpu time spent up to now is      919.0 secs

     total energy              =   -1631.33924326 Ry
     estimated scf accuracy    <       0.00000622 Ry

     iteration # 20     ecut=    80.00 Ry     beta= 0.30
     Davidson diagonalization with overlap
     ethr =  3.70E-09,  avg # of iterations =  1.2

     negative rho (up, down):  1.904E+00 0.000E+00

     total cpu time spent up to now is      961.5 secs

     total energy              =   -1631.33924033 Ry
     estimated scf accuracy    <       0.00000274 Ry

     iteration # 21     ecut=    80.00 Ry     beta= 0.30
     Davidson diagonalization with overlap
     ethr =  1.63E-09,  avg # of iterations =  1.9

     negative rho (up, down):  1.903E+00 0.000E+00

     total cpu time spent up to now is     1006.1 secs

     total energy              =   -1631.33923801 Ry
     estimated scf accuracy    <       0.00000255 Ry

     iteration # 22     ecut=    80.00 Ry     beta= 0.30
     Davidson diagonalization with overlap
     ethr =  1.52E-09,  avg # of iterations =  1.9

     negative rho (up, down):  1.903E+00 0.000E+00

     total cpu time spent up to now is     1046.9 secs

     End of self-consistent calculation

          k = 0.0000 0.0000 0.0000 ( 41611 PWs)   bands (ev):

   -50.1257 -49.8193 -49.6599 -49.2166 -49.1848 -49.1093 -49.0944 -49.0081
   -48.9848 -48.9448 -48.9349 -48.8583 -48.8091 -48.7606 -48.7039 -48.6821
   -48.6742 -48.4649 -19.7832 -19.5304 -19.3298 -18.9281 -18.4767 -18.2710
   -17.9684 -17.8695 -17.7978 -17.7320 -16.8251 -16.6153 -16.3544  -8.6240
    -8.4875  -8.4322  -7.7865  -7.2030  -7.0651  -6.8108  -6.5684  -6.5396
    -6.3234  -6.1290  -6.0902  -5.9100  -5.6478  -5.1564  -4.6282  -4.0927
    -3.9410  -3.7405  -3.4759  -3.4712  -3.3783  -3.3365  -3.1533  -3.1360
    -3.0018  -2.9373  -2.7818  -2.7136  -2.6831  -2.5691  -2.4702  -2.2147
    -1.8974  -1.8856  -1.6160  -1.5144  -1.3951  -1.2437  -1.2027  -1.1210
    -1.0970  -1.0362  -1.0096  -0.8171  -0.7460  -0.5754  -0.2328  -0.0965
     0.3826   0.5544   0.8527   1.2873   1.4221   1.5618   1.6022   1.9842
     2.3591   2.9252   3.5203   3.9602   4.7449   4.8847   4.9227   5.4360
     5.4511   5.5110   5.8421   5.9349   6.3251

          k = 0.0000 0.1240 0.0000 ( 41688 PWs)   bands (ev):

   -50.1257 -49.8193 -49.6593 -49.2173 -49.1844 -49.1082 -49.0944 -49.0077
   -48.9851 -48.9449 -48.9349 -48.8595 -48.8091 -48.7606 -48.7039 -48.6821
   -48.6742 -48.4654 -19.6487 -19.3884 -19.1972 -18.9767 -18.5259 -18.3731
   -18.0139 -17.9607 -17.9346 -17.8842 -16.8173 -16.6193 -16.3511  -8.1249
    -7.9736  -7.8966  -7.7809  -7.2024  -6.9949  -6.7329  -6.5380  -6.4779
    -6.2128  -6.1279  -5.9962  -5.9088  -5.4648  -5.1899  -4.7897  -4.5682
    -4.4411  -4.3078  -4.1760  -4.0954  -3.8432  -3.7080  -3.5882  -3.4024
    -3.3319  -2.9125  -2.7654  -2.7579  -2.6816  -2.6020  -2.4688  -2.2441
    -2.0229  -1.7763  -1.6172  -1.3804  -1.2365  -1.0324  -0.9250  -0.8006
    -0.6770  -0.6164  -0.5812  -0.4922  -0.4891  -0.3837  -0.2142   0.0054
     0.3804   0.5472   0.9015   1.2700   1.3091   1.4539   1.6423   1.7797
     2.1734   3.4547   4.1657   4.3769   4.6368   4.7455   5.0001   5.1496
     5.1511   5.5155   5.8443   5.9090   6.2948

          k = 0.0000-0.2479 0.0000 ( 41774 PWs)   bands (ev):

   -50.1257 -49.8193 -49.6588 -49.2179 -49.1840 -49.1071 -49.0944 -49.0074
   -48.9855 -48.9449 -48.9349 -48.8607 -48.8090 -48.7606 -48.7039 -48.6822
   -48.6742 -48.4658 -19.3995 -19.2468 -19.1487 -18.8301 -18.6903 -18.6124
   -18.1414 -18.1078 -17.9976 -17.9359 -16.8089 -16.6248 -16.3486  -7.7966
    -7.3443  -7.2040  -7.1332  -6.9590  -6.9171  -6.6457  -6.5356  -6.3750
    -6.1766  -6.1258  -5.9065  -5.6954  -5.5844  -5.4940  -5.4664  -5.3354
    -5.1569  -4.8745  -4.7875  -4.2999  -3.9999  -3.9802  -3.9654  -3.8677
    -3.5757  -2.9155  -2.7772  -2.7651  -2.7223  -2.3827  -2.3612  -2.0651
    -1.9903  -1.7888  -1.4117  -1.3900  -1.2761  -1.1452  -0.7655  -0.7038
    -0.6025  -0.3809  -0.2657  -0.1977  -0.1502   0.0025   0.1550   0.3424
     0.4863   0.5945   0.6435   1.1390   1.2547   1.3470   1.6075   1.6456
     2.0615   3.9612   4.3192   4.4287   4.7463   4.8196   4.8383   5.1009
     5.3791   5.5165   5.6529   5.8458   6.2650

          k = 0.1250 0.0000 0.0000 ( 41611 PWs)   bands (ev):

   -50.1247 -49.8351 -49.6574 -49.2158 -49.1836 -49.1079 -49.0933 -49.0245
   -49.0008 -48.9612 -48.9325 -48.8562 -48.8248 -48.7597 -48.7015 -48.6985
   -48.6719 -48.4626 -19.6427 -19.4045 -19.2110 -18.8295 -18.4064 -18.1844
   -18.0267 -17.9531 -17.8780 -17.8144 -16.8148 -16.6611 -16.3962  -8.4389
    -8.3034  -8.2537  -7.5995  -7.1714  -7.0054  -6.7678  -6.6175  -6.5364
    -6.2089  -6.1047  -5.6633  -5.6079  -5.4556  -4.9834  -4.7336  -4.5046
    -4.0641  -3.9367  -3.8230  -3.8179  -3.7586  -3.6284  -3.6178  -3.2418
    -3.0872  -2.8964  -2.8440  -2.7755  -2.7648  -2.6745  -2.5812  -2.5039
    -2.4178  -2.0822  -2.0177  -1.4675  -1.3724  -1.2107  -1.0322  -0.9359
    -0.7520  -0.7141  -0.6882  -0.6754  -0.3239  -0.1425  -0.1244   0.1844
     0.7135   0.7828   0.9435   1.1742   1.3157   1.4371   1.7208   1.8338
     2.1997   3.1638   3.7526   4.1358   4.3869   4.5742   4.8406   5.0443
     5.0851   5.1610   5.3818   6.0352   6.4788

          k = 0.1250 0.1240 0.0000 ( 41692 PWs)   bands (ev):

   -50.1247 -49.8351 -49.6569 -49.2163 -49.1834 -49.1072 -49.0933 -49.0240
   -49.0011 -48.9612 -48.9325 -48.8572 -48.8248 -48.7597 -48.7015 -48.6985
   -48.6719 -48.4629 -19.5134 -19.2672 -19.0796 -18.8781 -18.4526 -18.3051
   -18.0726 -18.0283 -17.9979 -17.9400 -16.8047 -16.6683 -16.3935  -7.9627
    -7.8143  -7.7461  -7.5977  -7.1737  -6.9177  -6.6757  -6.6219  -6.4391
    -6.2926  -5.8351  -5.6646  -5.6098  -5.3638  -4.9956  -4.7802  -4.7038
    -4.5591  -4.4752  -4.2731  -4.2356  -4.1575  -4.0611  -3.9464  -3.7596
    -3.4859  -3.2543  -2.9589  -2.8902  -2.7790  -2.6109  -2.4108  -2.3928
    -2.2231  -1.8096  -1.7147  -1.4360  -1.2783  -1.0408  -0.8338  -0.7276
    -0.5944  -0.4866  -0.3959  -0.2658  -0.1926  -0.1167   0.0601   0.2590
     0.7053   0.8224   0.9298   1.1778   1.2129   1.3459   1.5859   1.7852
     2.0756   3.5921   4.0917   4.3490   4.3766   4.4320   4.6483   4.8251
     5.0193   5.2341   5.3815   5.9921   6.3896

          k = 0.1250-0.2479 0.0000 ( 41706 PWs)   bands (ev):

   -50.1247 -49.8351 -49.6565 -49.2168 -49.1831 -49.1066 -49.0933 -49.0234
   -49.0014 -48.9612 -48.9325 -48.8582 -48.8247 -48.7596 -48.7015 -48.6985
   -48.6720 -48.4633 -19.2717 -19.1200 -19.0309 -18.7221 -18.6316 -18.5660
   -18.2124 -18.1537 -18.0119 -17.9917 -16.7928 -16.6779 -16.3913  -7.6088
    -7.1778  -7.1119  -6.9644  -6.9023  -6.7535  -6.7207  -6.6206  -6.5862
    -6.3114  -5.6734  -5.6260  -5.4907  -5.3585  -5.2316  -5.2054  -5.1581
    -5.0377  -4.9756  -4.8684  -4.8595  -4.6824  -4.4714  -4.0134  -3.8950
    -3.8895  -3.2540  -3.0234  -2.9599  -2.7777  -2.4636  -2.2224  -2.1718
    -1.9611  -1.8119  -1.4241  -1.3691  -1.2341  -1.1937  -0.7370  -0.6357
    -0.4958  -0.4505  -0.3596  -0.0628   0.1174   0.2764   0.4955   0.5214
     0.6702   0.7242   0.9793   1.0698   1.0839   1.3568   1.5209   1.5488
     2.0801   3.7921   4.0777   4.1302   4.2652   4.3507   4.6855   5.0287
     5.2027   5.3905   5.4416   5.7095   6.4500

          k = 0.2500 0.0000 0.0000 ( 41623 PWs)   bands (ev):

   -50.1222 -49.8731 -49.6514 -49.2137 -49.1809 -49.1046 -49.0909 -49.0641
   -49.0392 -49.0004 -48.9266 -48.8625 -48.8511 -48.7573 -48.7379 -48.6958
   -48.6664 -48.4569 -19.2769 -19.0886 -18.9148 -18.6118 -18.2849 -18.1489
   -18.1477 -18.0674 -18.0045 -18.0008 -16.8066 -16.7030 -16.4468  -7.9478
    -7.8160  -7.7762  -7.1075  -6.9872  -6.8187  -6.6564  -6.6149  -6.3292
    -6.1028  -5.9178  -5.5762  -5.3182  -5.1618  -5.0616  -4.9835  -4.8879
    -4.8675  -4.8145  -4.2069  -4.1944  -3.8868  -3.7606  -3.6792  -3.5456
    -3.4872  -3.4536  -3.3889  -3.1860  -2.9404  -2.6817  -2.6216  -2.5417
    -2.2277  -2.1099  -1.6170  -1.5274  -1.4765  -1.2429  -1.0163  -0.7946
    -0.5723  -0.4553  -0.3200  -0.3002   0.1197   0.3644   0.5060   0.6827
     0.7957   0.8398   1.0527   1.0762   1.1761   1.2579   1.5121   1.7741
     1.8612   3.5479   3.7912   3.8845   4.0306   4.2521   4.3147   4.4040
     4.5695   4.6128   5.2756   5.7691   6.8258

          k = 0.2500 0.1240 0.0000 ( 41653 PWs)   bands (ev):

   -50.1222 -49.8732 -49.6512 -49.2139 -49.1809 -49.1059 -49.0909 -49.0622
   -49.0395 -49.0003 -48.9266 -48.8625 -48.8516 -48.7573 -48.7378 -48.6958
   -48.6664 -48.4570 -19.1699 -18.9765 -18.8010 -18.6579 -18.3740 -18.2608
   -18.1714 -18.1572 -18.1071 -17.9737 -16.7912 -16.7175 -16.4460  -7.5743
    -7.4347  -7.3969  -7.1067  -6.9868  -6.6708  -6.6479  -6.4582  -6.2161
    -6.1989  -5.9887  -5.5795  -5.4545  -5.4108  -5.3680  -5.2285  -5.0668
    -4.8366  -4.6625  -4.2744  -4.1897  -4.1020  -3.9411  -3.8642  -3.8502
    -3.7897  -3.6540  -3.3486  -3.0456  -2.9254  -2.7918  -2.6448  -2.4685
    -2.2126  -2.1282  -1.5896  -1.5460  -1.4208  -1.3337  -0.8385  -0.6371
    -0.3919  -0.2240  -0.1566  -0.1074   0.0969   0.3288   0.5543   0.6377
     0.7964   0.8936   0.9850   1.1082   1.1681   1.2523   1.4303   1.5985
     2.0089   3.3441   3.5995   3.7298   3.8036   3.8484   4.4655   4.5920
     4.8363   5.0167   5.4066   5.8197   6.8852

          k = 0.2500-0.2479 0.0000 ( 41680 PWs)   bands (ev):

   -50.1222 -49.8733 -49.6509 -49.2141 -49.1809 -49.1070 -49.0909 -49.0604
   -49.0397 -49.0003 -48.9266 -48.8625 -48.8520 -48.7573 -48.7376 -48.6958
   -48.6665 -48.4572 -18.9632 -18.8254 -18.7449 -18.6081 -18.5112 -18.4823
   -18.3500 -18.1898 -18.1044 -17.9716 -16.7575 -16.7504 -16.4453  -7.1152
    -7.0166  -6.9175  -6.7779  -6.7427  -6.6650  -6.4552  -6.2821  -6.2755
    -6.2246  -6.1058  -6.1039  -5.9602  -5.7604  -5.3438  -5.1980  -5.1234
    -4.8948  -4.5790  -4.5509  -4.4411  -4.3767  -4.2430  -4.1391  -4.0330
    -4.0303  -3.8183  -3.3643  -3.0815  -2.8458  -2.5335  -2.3537  -2.2714
    -2.1707  -2.1119  -1.8280  -1.5925  -1.3541  -1.2260  -0.7149  -0.5825
    -0.4177  -0.3361  -0.1969   0.2555   0.2968   0.3433   0.7141   0.7432
     0.7990   0.8323   0.9495   1.1227   1.2169   1.2905   1.4219   1.4662
     2.0909   2.8913   3.2179   3.3379   3.7766   3.8540   4.5921   4.8605
     4.9424   5.4401   5.5462   5.7746   6.9912

          k = 0.3750 0.0000 0.0000 ( 41645 PWs)   bands (ev):

   -50.1198 -49.9109 -49.6454 -49.2117 -49.1782 -49.1035 -49.1014 -49.0890
   -49.0773 -49.0389 -48.9207 -48.8998 -48.8460 -48.7771 -48.7550 -48.6901
   -48.6609 -48.4512 -18.8433 -18.7505 -18.6031 -18.5060 -18.3366 -18.2510
   -18.2434 -18.1840 -18.1820 -17.8931 -16.7729 -16.6631 -16.4118  -7.3911
    -7.2322  -7.2145  -6.8184  -6.6739  -6.6089  -6.5721  -6.5211  -6.3328
    -6.2619  -6.0291  -5.9789  -5.7910  -5.7618  -5.4441  -5.2368  -4.8778
    -4.8448  -4.5176  -4.3642  -4.2791  -4.1543  -4.0555  -3.6692  -3.6314
    -3.5263  -3.3166  -3.2585  -3.0086  -2.9877  -2.8573  -2.5550  -2.3407
    -2.0391  -2.0387  -1.6965  -1.6209  -1.2544  -1.2494  -1.0394  -0.6363
    -0.5830  -0.4032  -0.2244  -0.2089   0.2227   0.3135   0.3440   0.5093
     0.6025   0.7295   0.9101   1.1078   1.2044   1.4273   1.5768   1.6911
     1.8220   3.2144   3.3137   3.4551   3.7649   3.8978   4.1373   4.1876
     4.4784   4.7168   5.3542   5.4168   7.6122

          k = 0.3750 0.1240 0.0000 ( 41549 PWs)   bands (ev):

   -50.1198 -49.9111 -49.6454 -49.2116 -49.1785 -49.1136 -49.0910 -49.0889
   -49.0775 -49.0388 -48.9207 -48.8999 -48.8460 -48.7767 -48.7550 -48.6901
   -48.6609 -48.4512 -18.8100 -18.7348 -18.6258 -18.5357 -18.3777 -18.3305
   -18.1856 -18.1611 -18.1536 -17.8965 -16.7585 -16.6780 -16.4119  -7.2441
    -7.1192  -7.0794  -6.9136  -6.7110  -6.6734  -6.6159  -6.5099  -6.4502
    -6.3246  -6.2332  -5.8556  -5.6468  -5.5224  -5.3929  -5.3145  -4.9877
    -4.6318  -4.4547  -4.3187  -4.2172  -3.9959  -3.9680  -3.6966  -3.6645
    -3.5406  -3.3599  -3.3240  -3.1336  -2.8666  -2.7445  -2.5505  -2.4710
    -2.1716  -2.0663  -1.9366  -1.6346  -1.4900  -1.2984  -0.9183  -0.7995
    -0.4444  -0.4194  -0.3549  -0.2783  -0.0600   0.1390   0.2380   0.3294
     0.4714   0.7968   1.2808   1.3638   1.3909   1.4593   1.5421   1.6900
     1.8539   2.6897   3.0098   3.1942   3.2787   3.4850   4.1468   4.8714
     5.1333   5.3380   5.5234   5.5724   7.7102

          k = 0.3750-0.2479 0.0000 ( 41514 PWs)   bands (ev):

   -50.1198 -49.9112 -49.6454 -49.2115 -49.1787 -49.1181 -49.0889 -49.0862
   -49.0777 -49.0388 -48.9207 -48.9000 -48.8460 -48.7764 -48.7550 -48.6901
   -48.6609 -48.4511 -18.7399 -18.7349 -18.6699 -18.5623 -18.4043 -18.3791
   -18.1615 -18.1393 -18.1383 -17.9000 -16.7337 -16.7033 -16.4120  -7.1194
    -7.0064  -6.8404  -6.8236  -6.7410  -6.7378  -6.7005  -6.6472  -6.5609
    -6.4606  -6.3785  -5.6535  -5.6475  -5.4636  -5.1759  -5.1085  -5.0057
    -4.6705  -4.5379  -4.2639  -4.1485  -3.8815  -3.8519  -3.8080  -3.6648
    -3.5960  -3.4439  -3.3465  -3.1074  -2.8589  -2.6934  -2.5106  -2.3718
    -2.2660  -2.2340  -1.8476  -1.7176  -1.6414  -1.6062  -0.9921  -0.9099
    -0.8141  -0.4014  -0.3410  -0.2072  -0.0126   0.0699   0.2294   0.3430
     0.3664   0.7519   1.2501   1.3999   1.4854   1.6286   1.6885   1.7193
     1.9762   2.2291   2.5763   2.7465   3.2915   3.5040   4.1478   5.3064
     5.3419   5.6465   5.6732   5.9473   7.8101

          k =-0.5000 0.0000 0.0000 ( 41440 PWs)   bands (ev):

   -50.1188 -49.9265 -49.6429 -49.2108 -49.1771 -49.1197 -49.1000 -49.0930
   -49.0886 -49.0543 -48.9182 -48.9152 -48.8438 -48.7932 -48.7541 -48.6877
   -48.6587 -48.4488 -18.6016 -18.6011 -18.5261 -18.4631 -18.4122 -18.3254
   -18.2967 -18.2557 -18.1422 -17.8790 -16.7374 -16.6292 -16.3699  -7.2570
    -6.9384  -6.8647  -6.8497  -6.7383  -6.6781  -6.5422  -6.4848  -6.4437
    -6.1350  -6.0999  -6.0097  -5.9129  -5.7428  -5.6671  -5.5985  -4.8081
    -4.5623  -4.5057  -4.4859  -4.2600  -4.1769  -4.0626  -3.9807  -3.6168
    -3.3361  -3.2550  -3.2534  -2.9400  -2.7726  -2.6278  -2.4523  -2.0995
    -1.9744  -1.9591  -1.8901  -1.6073  -1.2294  -1.1789  -1.1425  -0.5921
    -0.5497  -0.5066  -0.3406  -0.2699  -0.1903   0.0983   0.1351   0.3091
     0.5167   0.7833   0.7938   1.0740   1.4133   1.4852   1.5477   1.7910
     2.0329   2.9914   3.0927   3.4015   3.5744   3.7266   4.0456   4.2027
     4.5226   4.7055   5.3357   5.4465   8.1998

          k =-0.5000 0.1240 0.0000 ( 41518 PWs)   bands (ev):

   -50.1188 -49.9267 -49.6430 -49.2106 -49.1775 -49.1255 -49.0942 -49.0932
   -49.0886 -49.0542 -48.9182 -48.9153 -48.8436 -48.7928 -48.7541 -48.6877
   -48.6587 -48.4487 -18.7136 -18.6471 -18.6217 -18.5980 -18.2867 -18.2753
   -18.1812 -18.1524 -18.1272 -17.8822 -16.7216 -16.6451 -16.3692  -7.2149
    -7.1610  -7.1129  -6.9169  -6.8592  -6.7676  -6.7446  -6.6141  -6.4329
    -6.1831  -6.0477  -5.9135  -5.6942  -5.4119  -5.2133  -4.8840  -4.7302
    -4.6448  -4.5358  -4.4847  -4.4188  -4.2577  -3.9006  -3.4876  -3.4314
    -3.3689  -3.2847  -3.2158  -3.0053  -2.7646  -2.6270  -2.5389  -2.2208
    -1.9981  -1.9955  -1.9275  -1.8308  -1.5028  -1.3656  -1.1469  -0.6917
    -0.6474  -0.5314  -0.5233  -0.3486  -0.2875  -0.2317  -0.1777   0.0477
     0.0549   0.7895   1.4688   1.4895   1.5330   1.5847   1.6564   1.7601
     1.9448   2.4274   2.7830   2.9883   3.0373   3.4251   4.0477   5.1098
     5.2607   5.4371   5.5211   5.5438   8.3554

          k =-0.5000-0.2479 0.0000 ( 41524 PWs)   bands (ev):

   -50.1188 -49.9268 -49.6431 -49.2104 -49.1779 -49.1296 -49.0933 -49.0900
   -49.0886 -49.0542 -48.9182 -48.9154 -48.8435 -48.7924 -48.7541 -48.6877
   -48.6587 -48.4486 -18.7847 -18.7192 -18.7081 -18.5948 -18.2749 -18.1976
   -18.1643 -18.0977 -18.0407 -17.8855 -16.6844 -16.6823 -16.3685  -7.4335
    -7.3322  -7.1541  -7.0246  -6.7965  -6.7442  -6.6995  -6.6273  -6.4672
    -6.2001  -6.1892  -5.9083  -5.8197  -4.9603  -4.7125  -4.6700  -4.5653
    -4.4863  -4.4804  -4.3742  -4.1483  -4.0090  -3.9198  -3.6889  -3.4638
    -3.4194  -3.2242  -3.2062  -2.8535  -2.6411  -2.5537  -2.4524  -2.3645
    -2.2829  -2.1818  -1.9400  -1.9326  -1.9157  -1.4326  -1.2426  -1.1306
    -0.9723  -0.6977  -0.5195  -0.5178  -0.3405  -0.2105  -0.1841  -0.0452
    -0.0414   0.8032   1.4471   1.5125   1.5906   1.8521   1.8586   1.8659
     1.9473   1.9972   2.3825   2.5786   3.0726   3.4469   4.0495   5.5372
     5.5859   5.6367   5.7433   6.0711   8.5128

     the Fermi energy is     1.2569 ev

!    total energy              =   -1631.33923789 Ry
     estimated scf accuracy    <       0.00000077 Ry
     smearing contrib. (-TS)   =      -0.00164164 Ry
     internal energy E=F+TS    =   -1631.33759625 Ry

     The total energy is F=E-TS. E is the sum of the following terms:
     one-electron contribution =  -15339.19925422 Ry
     hartree contribution      =    7711.53333461 Ry
     xc contribution           =    -397.66277385 Ry
     ewald contribution        =    6517.74619189 Ry
     one-center paw contrib.   =    -123.75509467 Ry

     convergence has been achieved in  22 iterations

     negative rho (up, down):  1.903E+00 0.000E+00

     Forces acting on atoms (cartesian axes, Ry/au):

     atom    1 type  1   force =     0.00000000    0.00000000    0.03522616
     atom    2 type  1   force =     0.00000000    0.00000000   -0.04036473
     atom    3 type  1   force =     0.00000000    0.00000000   -0.00083808
     atom    4 type  1   force =     0.00000000    0.00000000   -0.00007782
     atom    5 type  1   force =     0.00000000    0.00000000   -0.00033056
     atom    6 type  1   force =     0.00000000    0.00000000   -0.00140959
     atom    7 type  2   force =     0.00000000    0.00000000   -0.00253218
     atom    8 type  2   force =     0.00000000    0.00000000    0.03559057
     atom    9 type  2   force =     0.00000000    0.02069105   -0.02426831
     atom   10 type  2   force =     0.00000000   -0.02069105   -0.02426831
     atom   11 type  2   force =     0.00000000    0.00000000   -0.00048017
     atom   12 type  2   force =     0.00000000    0.00000000    0.02150173
     atom   13 type  2   force =     0.00000000    0.00072913    0.00146729
     atom   14 type  2   force =     0.00000000   -0.00072913    0.00146729
     atom   15 type  2   force =     0.00000000    0.00000000   -0.00107122
     atom   16 type  2   force =     0.00000000    0.00000000   -0.00132620
     atom   17 type  2   force =     0.00000000    0.00047353    0.00099854
     atom   18 type  2   force =     0.00000000   -0.00047353    0.00099854
     atom   19 type  2   force =     0.00000000    0.00000000   -0.00028295

     Total force =     0.003719     Total SCF correction =     0.004843
     SCF correction compared to forces is large: reduce conv_thr to get better values

     Writing all to output data dir ./tmp_s0_O__base/s0_O__base.save/ :
     XML data file, charge density, pseudopotentials, collected wavefunctions

     init_run     :     22.28s CPU     23.77s WALL (       1 calls)
     electrons    :    977.03s CPU   1022.90s WALL (       1 calls)
     forces       :      9.71s CPU     10.68s WALL (       1 calls)

     Called by init_run:
     wfcinit      :     15.96s CPU     16.48s WALL (       1 calls)
     potinit      :      2.20s CPU      2.46s WALL (       1 calls)
     hinit0       :      2.50s CPU      2.59s WALL (       1 calls)

     Called by electrons:
     c_bands      :    693.68s CPU    711.48s WALL (      22 calls)
     sum_band     :    155.39s CPU    168.40s WALL (      22 calls)
     v_of_rho     :     23.66s CPU     26.03s WALL (      23 calls)
     newd         :     28.22s CPU     39.89s WALL (      23 calls)
     PAW_pot      :      7.68s CPU      7.68s WALL (      23 calls)
     mix_rho      :     68.43s CPU     69.97s WALL (      22 calls)

     Called by c_bands:
     init_us_2    :     12.40s CPU     12.55s WALL (     184 calls)
     cegterg      :    653.80s CPU    671.45s WALL (      88 calls)

     Called by *egterg:
     cdiaghg      :      6.64s CPU      6.65s WALL (     577 calls)
     h_psi        :    463.80s CPU    469.29s WALL (     581 calls)
     s_psi        :     45.68s CPU     45.70s WALL (     581 calls)
     g_psi        :      5.12s CPU      5.12s WALL (     489 calls)

     Called by h_psi:
     h_psi:calbec :     48.60s CPU     48.63s WALL (     581 calls)
     vloc_psi     :    364.02s CPU    364.48s WALL (     581 calls)
                                        0.00s GPU  (     581 calls)
     add_vuspsi   :     48.38s CPU     48.40s WALL (     581 calls)

     General routines
     calbec       :     71.17s CPU     71.21s WALL (     685 calls)
     fft          :     10.42s CPU     10.44s WALL (     308 calls)
     ffts         :     27.10s CPU     27.12s WALL (    2628 calls)
     fftw         :    360.93s CPU    361.24s WALL (   47384 calls)
     interpolate  :      2.08s CPU      2.10s WALL (      23 calls)

     Parallel routines

     PWSCF        :  16m49.41s CPU  17m37.95s WALL


   This run was terminated on:   1:16: 1   8Aug2026            

=------------------------------------------------------------------------------=
   JOB DONE.
=------------------------------------------------------------------------------=
