
     Program PWSCF v.7.5 starts on  8Aug2026 at  2: 3:32 

     This program is part of the open-source Quantum ESPRESSO suite
     for quantum simulation of materials; please cite
         "P. Giannozzi et al., J. Phys.:Condens. Matter 21 395502 (2009);
         "P. Giannozzi et al., J. Phys.:Condens. Matter 29 465901 (2017);
         "P. Giannozzi et al., J. Chem. Phys. 152 154105 (2020);
          URL http://www.quantum-espresso.org", 
     in publications or presentations arising from this work. More details at
     http://www.quantum-espresso.org/quote

     Parallel version (MPI & OpenMP), running on       4 processor cores
     Number of MPI processes:                 4
     Threads/MPI process:                     1

     MPI processes distributed on     1 nodes
     52707 MiB available memory on the printing compute node when the environment starts

     Reading input from s0_OOH__vac32.run.in

     Current dimensions of program PWSCF are:
     Max number of different atomic species (ntypx) = 10
     Max number of k-points (npk) =  40000
     Max angular momentum in pseudopotentials (lmaxx) =  4
     file O.pbe-n-kjpaw_psl.0.1.UPF: wavefunction(s)  2P renormalized
     Message from routine setup:
     using ibrav=0 with symmetry is DISCOURAGED, use correct ibrav instead

     K-points division:     npool     =       4
     Subspace diagonalization in iterative solution of the eigenvalue problem:
     a serial algorithm will be used


     G-vector sticks info
     --------------------
     sticks:   dense  smooth     PW     G-vecs:    dense   smooth      PW
     Sum        3639    1825    519              1183885   418441   63305

     Using Slab Decomposition



     bravais-lattice index     =            0
     lattice parameter (alat)  =       5.9602  a.u.
     unit-cell volume          =    4332.5414 (a.u.)^3
     number of atoms/cell      =           21
     number of atomic types    =            3
     number of electrons       =       175.00
     number of Kohn-Sham states=          106
     kinetic-energy cutoff     =      80.0000  Ry
     charge density cutoff     =     640.0000  Ry
     scf convergence threshold =      1.0E-06
     mixing beta               =       0.3000
     number of iterations used =            8  local-TF  mixing
     Exchange-correlation= SLA  PW   PBX  PBC
                           (   1   4   3   4   0   0   0)

     celldm(1)=   5.960196  celldm(2)=   0.000000  celldm(3)=   0.000000
     celldm(4)=   0.000000  celldm(5)=   0.000000  celldm(6)=   0.000000

     crystal axes: (cart. coord. in units of alat)
               a(1) = (   1.000000   0.000000   0.000000 )  
               a(2) = (   0.000000   2.016846   0.000000 )  
               a(3) = (   0.000000   0.000000  10.145847 )  

     reciprocal axes: (cart. coord. in units 2 pi/alat)
               b(1) = (  1.000000  0.000000  0.000000 )  
               b(2) = (  0.000000  0.495824  0.000000 )  
               b(3) = (  0.000000  0.000000  0.098562 )  


     PseudoPot. # 1 for H  read from file:
     /usr/share/espresso/pseudo/H.pbe-rrkjus_psl.1.0.0.UPF
     MD5 check sum: f52b6d4d1c606e5624b1dc7b2218f220
     Pseudo is Ultrasoft, Zval =  1.0
     Generated using "atomic" code by A. Dal Corso  v.5.1
     Using radial grid of  929 points,  2 beta functions with: 
                l(1) =   0
                l(2) =   0
     Q(r) pseudized with 0 coefficients 


     PseudoPot. # 2 for Ir read from file:
     /usr/share/espresso/pseudo/Ir_pbe_v1.2.uspp.F.UPF
     MD5 check sum: 8836f839c3459d2b385c504ce6d91f2c
     Pseudo is Ultrasoft + core correction, Zval = 15.0
     Generated by new atomic code, or converted to UPF format
     Using radial grid of  983 points,  7 beta functions with: 
                l(1) =   0
                l(2) =   0
                l(3) =   1
                l(4) =   1
                l(5) =   1
                l(6) =   2
                l(7) =   2
     Q(r) pseudized with  8 coefficients,  rinner =    1.400   1.400   1.400
                                                       1.400   1.400

     PseudoPot. # 3 for O  read from file:
     /usr/share/espresso/pseudo/O.pbe-n-kjpaw_psl.0.1.UPF
     MD5 check sum: 0234752ac141de4415c5fc33072bef88
     Pseudo is Projector augmented-wave + core cor, Zval =  6.0
     Generated using "atomic" code by A. Dal Corso  v.5.0.99 svn rev. 10869
     Shape of augmentation charge: BESSEL
     Using radial grid of 1095 points,  4 beta functions with: 
                l(1) =   0
                l(2) =   0
                l(3) =   1
                l(4) =   1
     Q(r) pseudized with 0 coefficients 


     atomic species   valence    mass     pseudopotential
     H                 1.00     1.00800     H ( 1.00)
     Ir               15.00   192.21700     Ir( 1.00)
     O                 6.00    15.99900     O ( 1.00)

      2 Sym. Ops. (no inversion) found ( 1 have fractional translation)



   Cartesian axes

     site n.     atom                  positions (alat units)
         1        Ir     tau(   1) = (   0.0000000   1.5126346   3.6682415  )
         2        Ir     tau(   2) = (   0.5000000   0.5042115   3.6682415  )
         3        Ir     tau(   3) = (  -0.0023840   0.5042115   4.6854086  )
         4        Ir     tau(   4) = (   0.4990610   1.5126346   4.6784653  )
         5        Ir     tau(   5) = (   0.0012848   1.5126346   5.7043824  )
         6        Ir     tau(   6) = (   0.4948989   0.5042115   5.7069206  )
         7        O      tau(   7) = (   0.0000000   0.5042115   4.0615264  )
         8        O      tau(   8) = (   0.0000000   0.5042115   3.2749565  )
         9        O      tau(   9) = (   0.5000000   1.1193496   3.6682415  )
        10        O      tau(  10) = (   0.5000000   1.9059196   3.6682415  )
        11        O      tau(  11) = (  -0.0006886   1.5126346   5.0763840  )
        12        O      tau(  12) = (   0.0000000   1.5126346   4.2833795  )
        13        O      tau(  13) = (   0.4978055   0.1177569   4.6802220  )
        14        O      tau(  14) = (   0.4978055   0.8906661   4.6802220  )
        15        O      tau(  15) = (  -0.0045322   0.5042115   6.0826160  )
        16        O      tau(  16) = (  -0.0052389   0.5042115   5.3115750  )
        17        O      tau(  17) = (   0.4950664   1.1230207   5.6929612  )
        18        O      tau(  18) = (   0.4950664   1.9022485   5.6929612  )
        19        O      tau(  19) = (  -0.1157108   1.5126346   6.2992160  )
        20        O      tau(  20) = (   0.1683169   1.5126346   6.6512866  )
        21        H      tau(  21) = (  -0.0522583   1.5126346   6.8708901  )

     number of k points=    15  Marzari-Vanderbilt smearing, width (Ry)=  0.0100
                       cart. coord. in units 2pi/alat
        k(    1) = (   0.0000000   0.0000000   0.0000000), wk =   0.0625000
        k(    2) = (   0.0000000   0.1239559   0.0000000), wk =   0.1250000
        k(    3) = (   0.0000000  -0.2479118   0.0000000), wk =   0.0625000
        k(    4) = (   0.1250000   0.0000000   0.0000000), wk =   0.1250000
        k(    5) = (   0.1250000   0.1239559   0.0000000), wk =   0.2500000
        k(    6) = (   0.1250000  -0.2479118   0.0000000), wk =   0.1250000
        k(    7) = (   0.2500000   0.0000000   0.0000000), wk =   0.1250000
        k(    8) = (   0.2500000   0.1239559   0.0000000), wk =   0.2500000
        k(    9) = (   0.2500000  -0.2479118   0.0000000), wk =   0.1250000
        k(   10) = (   0.3750000   0.0000000   0.0000000), wk =   0.1250000
        k(   11) = (   0.3750000   0.1239559   0.0000000), wk =   0.2500000
        k(   12) = (   0.3750000  -0.2479118   0.0000000), wk =   0.1250000
        k(   13) = (  -0.5000000   0.0000000   0.0000000), wk =   0.0625000
        k(   14) = (  -0.5000000   0.1239559   0.0000000), wk =   0.1250000
        k(   15) = (  -0.5000000  -0.2479118   0.0000000), wk =   0.0625000

     Dense  grid:  1183885 G-vectors     FFT dimensions: (  48, 100, 500)

     Smooth grid:   418441 G-vectors     FFT dimensions: (  36,  72, 360)

     Estimated max dynamical RAM per process >       2.59 GB

     Estimated total dynamical RAM >       9.49 GB

     Initial potential from superposition of free atoms

     starting charge     171.9998, renormalised to     175.0000

     negative rho (up, down):  2.218E+00 0.000E+00
     Starting wfcs are  129 randomized atomic wfcs
     Checking if some PAW data can be deallocated... 

     total cpu time spent up to now is       32.9 secs

     per-process dynamical memory:  1144.8 Mb

     Self-consistent Calculation

     iteration #  1     ecut=    80.00 Ry     beta= 0.30
     Davidson diagonalization with overlap
     ethr =  1.00E-02,  avg # of iterations =  4.4

     negative rho (up, down):  2.069E+00 0.000E+00

     total cpu time spent up to now is      102.0 secs

     total energy              =   -1674.35162110 Ry
     estimated scf accuracy    <      99.21408021 Ry

     iteration #  2     ecut=    80.00 Ry     beta= 0.30
     Davidson diagonalization with overlap
     ethr =  1.00E-02,  avg # of iterations =  1.2

     negative rho (up, down):  1.949E+00 0.000E+00

     total cpu time spent up to now is      160.7 secs

     total energy              =   -1674.13379935 Ry
     estimated scf accuracy    <      15.62377834 Ry

     iteration #  3     ecut=    80.00 Ry     beta= 0.30
     Davidson diagonalization with overlap
     ethr =  8.93E-03,  avg # of iterations =  1.0

     negative rho (up, down):  1.877E+00 0.000E+00

     total cpu time spent up to now is      216.8 secs

     total energy              =   -1673.94756437 Ry
     estimated scf accuracy    <       4.88370246 Ry

     iteration #  4     ecut=    80.00 Ry     beta= 0.30
     Davidson diagonalization with overlap
     ethr =  2.79E-03,  avg # of iterations =  4.7

     negative rho (up, down):  1.907E+00 0.000E+00

     total cpu time spent up to now is      281.8 secs

     total energy              =   -1674.14806334 Ry
     estimated scf accuracy    <       0.83399099 Ry

     iteration #  5     ecut=    80.00 Ry     beta= 0.30
     Davidson diagonalization with overlap
     ethr =  4.77E-04,  avg # of iterations =  6.6

     negative rho (up, down):  1.910E+00 0.000E+00

     total cpu time spent up to now is      349.2 secs

     total energy              =   -1674.18539906 Ry
     estimated scf accuracy    <       1.64884893 Ry

     iteration #  6     ecut=    80.00 Ry     beta= 0.30
     Davidson diagonalization with overlap
     ethr =  4.77E-04,  avg # of iterations =  1.0

     negative rho (up, down):  1.951E+00 0.000E+00

     total cpu time spent up to now is      405.5 secs

     total energy              =   -1674.10805448 Ry
     estimated scf accuracy    <       1.46571203 Ry

     iteration #  7     ecut=    80.00 Ry     beta= 0.30
     Davidson diagonalization with overlap
     ethr =  4.77E-04,  avg # of iterations =  1.1

     negative rho (up, down):  1.970E+00 0.000E+00

     total cpu time spent up to now is      462.7 secs

     total energy              =   -1674.10475052 Ry
     estimated scf accuracy    <       0.50669031 Ry

     iteration #  8     ecut=    80.00 Ry     beta= 0.30
     Davidson diagonalization with overlap
     ethr =  2.90E-04,  avg # of iterations =  2.0

     negative rho (up, down):  1.973E+00 0.000E+00

     total cpu time spent up to now is      523.2 secs

     total energy              =   -1674.10250859 Ry
     estimated scf accuracy    <       0.10831280 Ry

     iteration #  9     ecut=    80.00 Ry     beta= 0.30
     Davidson diagonalization with overlap
     ethr =  6.19E-05,  avg # of iterations =  6.3

     negative rho (up, down):  1.973E+00 0.000E+00

     total cpu time spent up to now is      592.8 secs

     total energy              =   -1674.09763740 Ry
     estimated scf accuracy    <       0.08006672 Ry

     iteration # 10     ecut=    80.00 Ry     beta= 0.30
     Davidson diagonalization with overlap
     ethr =  4.58E-05,  avg # of iterations =  3.9

     negative rho (up, down):  1.963E+00 0.000E+00

     total cpu time spent up to now is      655.0 secs

     total energy              =   -1674.09637405 Ry
     estimated scf accuracy    <       0.01768378 Ry

     iteration # 11     ecut=    80.00 Ry     beta= 0.30
     Davidson diagonalization with overlap
     ethr =  1.01E-05,  avg # of iterations =  9.4

     negative rho (up, down):  1.937E+00 0.000E+00

     total cpu time spent up to now is      725.3 secs

     total energy              =   -1674.09352287 Ry
     estimated scf accuracy    <       0.01086041 Ry

     iteration # 12     ecut=    80.00 Ry     beta= 0.30
     Davidson diagonalization with overlap
     ethr =  6.21E-06,  avg # of iterations = 11.7

     negative rho (up, down):  1.919E+00 0.000E+00

     total cpu time spent up to now is      795.3 secs

     total energy              =   -1674.09234246 Ry
     estimated scf accuracy    <       0.00673050 Ry

     iteration # 13     ecut=    80.00 Ry     beta= 0.30
     Davidson diagonalization with overlap
     ethr =  3.85E-06,  avg # of iterations =  7.9

     negative rho (up, down):  1.911E+00 0.000E+00

     total cpu time spent up to now is      864.1 secs

     total energy              =   -1674.09183031 Ry
     estimated scf accuracy    <       0.00315272 Ry

     iteration # 14     ecut=    80.00 Ry     beta= 0.30
     Davidson diagonalization with overlap
     ethr =  1.80E-06,  avg # of iterations =  8.5

     negative rho (up, down):  1.911E+00 0.000E+00

     total cpu time spent up to now is      934.8 secs

     total energy              =   -1674.09176430 Ry
     estimated scf accuracy    <       0.00184418 Ry

     iteration # 15     ecut=    80.00 Ry     beta= 0.30
     Davidson diagonalization with overlap
     ethr =  1.05E-06,  avg # of iterations =  5.4

     negative rho (up, down):  1.912E+00 0.000E+00

     total cpu time spent up to now is     1000.8 secs

     total energy              =   -1674.09162373 Ry
     estimated scf accuracy    <       0.00119211 Ry

     iteration # 16     ecut=    80.00 Ry     beta= 0.30
     Davidson diagonalization with overlap
     c_bands:  1 eigenvalues not converged
     ethr =  6.81E-07,  avg # of iterations =  6.6

     negative rho (up, down):  1.910E+00 0.000E+00

     total cpu time spent up to now is     1069.6 secs

     total energy              =   -1674.09161511 Ry
     estimated scf accuracy    <       0.00063135 Ry

     iteration # 17     ecut=    80.00 Ry     beta= 0.30
     Davidson diagonalization with overlap
     ethr =  3.61E-07,  avg # of iterations =  2.1

     negative rho (up, down):  1.910E+00 0.000E+00

     total cpu time spent up to now is     1131.1 secs

     total energy              =   -1674.09156797 Ry
     estimated scf accuracy    <       0.00053646 Ry

     iteration # 18     ecut=    80.00 Ry     beta= 0.30
     Davidson diagonalization with overlap
     ethr =  3.07E-07,  avg # of iterations =  4.0

     negative rho (up, down):  1.908E+00 0.000E+00

     total cpu time spent up to now is     1194.7 secs

     total energy              =   -1674.09152701 Ry
     estimated scf accuracy    <       0.00039583 Ry

     iteration # 19     ecut=    80.00 Ry     beta= 0.30
     Davidson diagonalization with overlap
     ethr =  2.26E-07,  avg # of iterations =  4.1

     negative rho (up, down):  1.907E+00 0.000E+00

     total cpu time spent up to now is     1258.7 secs

     total energy              =   -1674.09150755 Ry
     estimated scf accuracy    <       0.00031513 Ry

     iteration # 20     ecut=    80.00 Ry     beta= 0.30
     Davidson diagonalization with overlap
     ethr =  1.80E-07,  avg # of iterations =  4.8

     negative rho (up, down):  1.906E+00 0.000E+00

     total cpu time spent up to now is     1323.4 secs

     total energy              =   -1674.09147957 Ry
     estimated scf accuracy    <       0.00026521 Ry

     iteration # 21     ecut=    80.00 Ry     beta= 0.30
     Davidson diagonalization with overlap
     ethr =  1.52E-07,  avg # of iterations =  3.7

     negative rho (up, down):  1.907E+00 0.000E+00

     total cpu time spent up to now is     1385.6 secs

     total energy              =   -1674.09146557 Ry
     estimated scf accuracy    <       0.00016415 Ry

     iteration # 22     ecut=    80.00 Ry     beta= 0.30
     Davidson diagonalization with overlap
     ethr =  9.38E-08,  avg # of iterations =  7.0

     negative rho (up, down):  1.908E+00 0.000E+00

     total cpu time spent up to now is     1451.4 secs

     total energy              =   -1674.09149868 Ry
     estimated scf accuracy    <       0.00009486 Ry

     iteration # 23     ecut=    80.00 Ry     beta= 0.30
     Davidson diagonalization with overlap
     ethr =  5.42E-08,  avg # of iterations =  2.3

     negative rho (up, down):  1.908E+00 0.000E+00

     total cpu time spent up to now is     1512.7 secs

     total energy              =   -1674.09153408 Ry
     estimated scf accuracy    <       0.00004848 Ry

     iteration # 24     ecut=    80.00 Ry     beta= 0.30
     Davidson diagonalization with overlap
     ethr =  2.77E-08,  avg # of iterations =  6.8

     negative rho (up, down):  1.906E+00 0.000E+00

     total cpu time spent up to now is     1578.9 secs

     total energy              =   -1674.09154118 Ry
     estimated scf accuracy    <       0.00001287 Ry

     iteration # 25     ecut=    80.00 Ry     beta= 0.30
     Davidson diagonalization with overlap
     ethr =  7.35E-09,  avg # of iterations =  5.4

     negative rho (up, down):  1.906E+00 0.000E+00

     total cpu time spent up to now is     1644.2 secs

     total energy              =   -1674.09154297 Ry
     estimated scf accuracy    <       0.00000687 Ry

     iteration # 26     ecut=    80.00 Ry     beta= 0.30
     Davidson diagonalization with overlap
     ethr =  3.93E-09,  avg # of iterations =  4.9

     negative rho (up, down):  1.906E+00 0.000E+00

     total cpu time spent up to now is     1708.4 secs

     total energy              =   -1674.09154334 Ry
     estimated scf accuracy    <       0.00000218 Ry

     iteration # 27     ecut=    80.00 Ry     beta= 0.30
     Davidson diagonalization with overlap
     ethr =  1.25E-09,  avg # of iterations =  2.7

     negative rho (up, down):  1.906E+00 0.000E+00

     total cpu time spent up to now is     1765.4 secs

     End of self-consistent calculation

          k = 0.0000 0.0000 0.0000 ( 52347 PWs)   bands (ev):

   -49.7619 -49.6858 -49.5791 -49.5433 -49.5372 -49.5106 -49.4765 -49.4559
   -49.4227 -49.4001 -49.3561 -49.2829 -49.2063 -49.1885 -49.1879 -49.1063
   -49.0734 -48.8892 -22.6834 -20.2061 -19.8704 -19.7367 -19.4342 -18.8835
   -18.6807 -18.5214 -18.2427 -18.1838 -18.1401 -17.0307 -16.7753 -16.1302
    -8.9388  -8.9125  -8.8530  -8.4479  -7.6356  -7.6082  -7.2525  -7.2060
    -7.0809  -6.9915  -6.7702  -6.5493  -6.5162  -6.3224  -6.0846  -5.7562
    -5.1190  -5.0791  -4.3846  -4.3812  -4.1811  -4.1755  -3.8716  -3.8038
    -3.7147  -3.5570  -3.5080  -3.4405  -3.4340  -3.2192  -3.0356  -3.0017
    -2.8740  -2.6851  -2.4831  -2.2984  -2.1626  -1.8490  -1.7529  -1.7275
    -1.6869  -1.5829  -1.5648  -1.5233  -1.4654  -1.4131  -1.3887  -1.3135
    -0.8094  -0.7858  -0.6512  -0.3420  -0.0457   0.0477   0.4317   0.9526
     1.0812   1.1831   1.6199   1.9597   2.3649   3.0129   3.5308   3.8977
     4.2834   4.4790   4.8763   5.0190   5.0301   5.0594   5.0872   5.3891
     5.5794   5.6690

          k = 0.0000 0.1240 0.0000 ( 52442 PWs)   bands (ev):

   -49.7619 -49.6845 -49.5787 -49.5423 -49.5372 -49.5106 -49.4779 -49.4557
   -49.4229 -49.4001 -49.3561 -49.2840 -49.2062 -49.1885 -49.1879 -49.1064
   -49.0734 -48.8897 -22.6831 -20.0787 -19.7212 -19.6069 -19.4675 -18.9241
   -18.7850 -18.5216 -18.3764 -18.3386 -18.2992 -17.0269 -16.7718 -16.1292
    -8.5057  -8.4052  -8.3646  -8.3039  -7.6315  -7.6108  -7.1698  -7.1302
    -7.0797  -6.9016  -6.6536  -6.5479  -6.4319  -6.3213  -5.9036  -5.7571
    -5.2670  -5.0682  -4.9814  -4.8752  -4.7346  -4.6000  -4.4446  -4.2461
    -4.0631  -4.0073  -3.9883  -3.7912  -3.5087  -3.1736  -3.1444  -3.0066
    -2.8421  -2.7009  -2.6496  -2.4397  -2.0415  -1.9155  -1.7516  -1.6877
    -1.4154  -1.3528  -1.1988  -1.0650  -0.9834  -0.9240  -0.9202  -0.8333
    -0.7637  -0.7018  -0.6263  -0.3078  -0.0444   0.0600   0.4784   0.8503
     0.9996   1.1911   1.3838   1.7591   2.8594   3.4911   3.9489   4.0996
     4.3224   4.5719   4.5915   4.7280   4.7350   5.0926   5.2395   5.3913
     5.5775   5.9102

          k = 0.0000-0.2479 0.0000 ( 52518 PWs)   bands (ev):

   -49.7619 -49.6832 -49.5783 -49.5412 -49.5372 -49.5106 -49.4793 -49.4554
   -49.4232 -49.4001 -49.3562 -49.2852 -49.2061 -49.1885 -49.1879 -49.1065
   -49.0734 -48.8901 -22.6829 -19.8593 -19.6664 -19.4660 -19.2665 -19.0841
   -19.0312 -18.5734 -18.5030 -18.4815 -18.3975 -17.0240 -16.7690 -16.1286
    -8.4655  -7.7137  -7.6280  -7.5635  -7.4578  -7.3816  -7.0817  -7.0699
    -7.0529  -6.7991  -6.6099  -6.5451  -6.3190  -6.0485  -5.9844  -5.9130
    -5.8919  -5.8503  -5.7571  -5.3669  -5.3618  -4.9587  -4.5328  -4.4863
    -4.4302  -4.3885  -4.2674  -3.9644  -3.7637  -3.1868  -3.1657  -2.7887
    -2.7225  -2.7074  -2.4826  -2.3941  -2.1884  -1.8280  -1.7990  -1.7342
    -1.4092  -1.2879  -0.9063  -0.8244  -0.8082  -0.6827  -0.6250  -0.5447
    -0.4501  -0.3850  -0.2496  -0.0805  -0.0076   0.1891   0.2168   0.7137
     0.8424   1.1904   1.2084   1.6012   3.3861   3.5392   4.2017   4.2551
     4.3966   4.4237   4.4455   4.7185   4.8645   5.0935   5.2616   5.3927
     5.7503   5.8716

          k = 0.1250 0.0000 0.0000 ( 52335 PWs)   bands (ev):

   -49.7618 -49.6844 -49.5780 -49.5525 -49.5419 -49.5096 -49.4746 -49.4718
   -49.4394 -49.3977 -49.3723 -49.2808 -49.2220 -49.1875 -49.1856 -49.1228
   -49.0711 -48.8869 -22.6514 -20.0658 -19.7475 -19.6176 -19.3314 -18.8154
   -18.5938 -18.5872 -18.3225 -18.2630 -18.2240 -17.0813 -16.8169 -16.1353
    -8.7588  -8.7297  -8.6743  -8.2981  -7.6460  -7.5879  -7.2363  -7.1471
    -7.1034  -6.9593  -6.6278  -6.5598  -6.0976  -6.0284  -5.9516  -5.8993
    -5.1517  -4.9909  -4.8446  -4.3632  -4.2818  -4.2798  -4.2043  -4.1226
    -4.0794  -4.0482  -3.7897  -3.6044  -3.3684  -3.3274  -3.2010  -3.1847
    -2.9723  -2.9287  -2.8302  -2.7426  -2.4245  -2.2212  -1.7345  -1.6998
    -1.4602  -1.4104  -1.3740  -1.2231  -1.1336  -1.1153  -0.9577  -0.7145
    -0.5948  -0.5724  -0.5316  -0.2226   0.2710   0.3600   0.4761   0.8284
     1.0250   1.2360   1.4718   1.7994   2.5722   3.2225   3.6855   3.7873
     4.1788   4.4133   4.5050   4.6258   4.6631   4.7182   4.9284   5.2402
     5.7263   5.9251

          k = 0.1250 0.1240 0.0000 ( 52432 PWs)   bands (ev):

   -49.7618 -49.6834 -49.5777 -49.5523 -49.5413 -49.5096 -49.4758 -49.4717
   -49.4394 -49.3977 -49.3723 -49.2817 -49.2219 -49.1875 -49.1856 -49.1228
   -49.0711 -48.8872 -22.6511 -19.9442 -19.6044 -19.4877 -19.3650 -18.8511
   -18.7173 -18.5790 -18.4426 -18.4104 -18.3533 -17.0783 -16.8141 -16.1344
    -8.3563  -8.2485  -8.2106  -8.1597  -7.6434  -7.5893  -7.1404  -7.1088
    -7.0512  -6.8620  -6.7168  -6.2908  -6.1013  -6.0281  -5.9559  -5.7808
    -5.1839  -5.0558  -4.9899  -4.9591  -4.8075  -4.6807  -4.6453  -4.5447
    -4.4926  -4.4233  -4.1324  -4.0005  -3.7516  -3.5207  -3.3160  -3.0134
    -2.8941  -2.8093  -2.7557  -2.4922  -2.3047  -1.9473  -1.8471  -1.7268
    -1.2783  -1.2193  -1.0089  -0.9697  -0.8675  -0.7431  -0.6896  -0.6406
    -0.5399  -0.5013  -0.3500  -0.1456   0.2750   0.4065   0.4679   0.7710
     0.8804   1.1736   1.3543   1.6489   2.9631   3.5634   3.8177   3.9447
     4.1330   4.1865   4.3786   4.4361   4.5920   4.7991   4.9280   5.3851
     5.7536   5.9382

          k = 0.1250-0.2479 0.0000 ( 52498 PWs)   bands (ev):

   -49.7618 -49.6824 -49.5774 -49.5521 -49.5406 -49.5096 -49.4770 -49.4715
   -49.4393 -49.3977 -49.3723 -49.2826 -49.2219 -49.1875 -49.1856 -49.1228
   -49.0711 -48.8876 -22.6509 -19.7364 -19.5388 -19.3472 -19.1547 -19.0183
   -18.9866 -18.6449 -18.5496 -18.5432 -18.4150 -17.0759 -16.8118 -16.1337
    -8.3159  -7.7036  -7.5905  -7.3399  -7.2754  -7.1788  -7.1703  -7.1505
    -7.0938  -7.0075  -6.7327  -6.1075  -6.0361  -5.9884  -5.8255  -5.7570
    -5.6334  -5.5878  -5.5402  -5.4735  -5.4356  -5.2162  -5.1037  -4.9890
    -4.8503  -4.4354  -4.3661  -4.2150  -3.8884  -3.5802  -3.3149  -2.8976
    -2.7719  -2.5652  -2.5334  -2.3644  -2.2022  -2.0330  -1.7987  -1.7411
    -1.2599  -0.9882  -0.9797  -0.8962  -0.8083  -0.7241  -0.6030  -0.4493
    -0.1592  -0.1085   0.0785   0.0806   0.2845   0.2879   0.5201   0.6612
     0.7754   1.0892   1.1220   1.6164   3.3273   3.6172   3.7221   3.7767
     3.8452   4.0109   4.5122   4.5994   4.8297   4.9457   4.9684   5.3236
     5.9317   6.0124

          k = 0.2500 0.0000 0.0000 ( 52347 PWs)   bands (ev):

   -49.7622 -49.6809 -49.5886 -49.5753 -49.5387 -49.5102 -49.5072 -49.4793
   -49.4698 -49.4113 -49.3918 -49.2756 -49.2596 -49.1852 -49.1799 -49.1622
   -49.0656 -48.8812 -22.5724 -19.7000 -19.4408 -19.3209 -19.0946 -18.7415
   -18.6857 -18.5104 -18.4487 -18.4187 -18.4133 -17.1553 -16.8672 -16.1509
    -8.3140  -8.2410  -8.1967  -8.0368  -7.5528  -7.3960  -7.1414  -7.1285
    -6.9709  -6.7493  -6.5853  -6.2854  -6.2034  -6.0551  -5.7158  -5.5058
    -5.4388  -5.3902  -5.2891  -5.2482  -4.8195  -4.6799  -4.5799  -4.1916
    -4.1173  -4.0258  -3.9588  -3.9157  -3.8261  -3.7332  -3.6928  -3.5675
    -3.3374  -3.0543  -2.7627  -2.6341  -2.0635  -2.0486  -2.0107  -1.9120
    -1.4338  -1.2011  -1.0399  -1.0105  -0.9605  -0.7313  -0.4790  -0.4144
    -0.2144  -0.0879   0.0802   0.2821   0.3471   0.4131   0.6235   0.6663
     0.8416   1.1317   1.3667   1.3812   2.8650   3.3038   3.5306   3.7527
     3.7947   3.8941   3.9813   4.1060   4.1739   4.3507   4.9053   5.3144
     6.0710   6.2886

          k = 0.2500 0.1240 0.0000 ( 52373 PWs)   bands (ev):

   -49.7623 -49.6809 -49.5878 -49.5753 -49.5394 -49.5101 -49.5072 -49.4782
   -49.4708 -49.4110 -49.3918 -49.2761 -49.2597 -49.1852 -49.1799 -49.1621
   -49.0656 -48.8814 -22.5722 -19.6015 -19.3281 -19.2060 -19.1276 -18.7904
   -18.7073 -18.6028 -18.5721 -18.5585 -18.3842 -17.1542 -16.8664 -16.1501
    -8.1256  -7.8704  -7.8500  -7.8173  -7.5512  -7.3954  -7.1283  -6.9829
    -6.8060  -6.6604  -6.6132  -6.3441  -6.2742  -5.8986  -5.8485  -5.8145
    -5.7610  -5.6352  -5.4908  -5.1606  -4.8748  -4.6788  -4.5463  -4.4891
    -4.3575  -4.2547  -4.2336  -4.1909  -3.9942  -3.8003  -3.6126  -3.3852
    -3.1451  -3.0973  -2.7905  -2.5973  -2.2727  -2.0050  -1.9220  -1.8430
    -1.5908  -1.1473  -0.9201  -0.7289  -0.6327  -0.5506  -0.4773  -0.3538
    -0.3266   0.0204   0.1262   0.2836   0.3583   0.4505   0.6699   0.6881
     0.7839   0.9856   1.1772   1.5460   2.9731   3.1743   3.2374   3.3698
     3.3945   3.8208   4.1418   4.2142   4.5747   4.7147   5.0278   5.4157
     6.1702   6.3550

          k = 0.2500-0.2479 0.0000 ( 52384 PWs)   bands (ev):

   -49.7623 -49.6809 -49.5871 -49.5752 -49.5401 -49.5101 -49.5072 -49.4771
   -49.4718 -49.4107 -49.3918 -49.2765 -49.2597 -49.1852 -49.1799 -49.1619
   -49.0656 -48.8815 -22.5721 -19.4360 -19.2365 -19.0758 -18.9915 -18.9165
   -18.8944 -18.7898 -18.6590 -18.5991 -18.3820 -17.1532 -16.8657 -16.1495
    -8.0980  -7.5810  -7.4013  -7.2416  -7.2091  -7.1617  -7.1334  -6.7143
    -6.7006  -6.6558  -6.5551  -6.5524  -6.4706  -6.3773  -6.3289  -6.1116
    -5.7349  -5.5162  -5.3215  -5.2470  -5.0214  -4.9981  -4.8853  -4.8411
    -4.6393  -4.5185  -4.4493  -4.2690  -4.2493  -3.9110  -3.5142  -3.0313
    -2.9602  -2.6999  -2.6810  -2.4999  -2.4842  -2.2577  -1.8886  -1.8023
    -1.3483  -1.1762  -0.9734  -0.8864  -0.7024  -0.5179  -0.3050  -0.1620
    -0.1273   0.1268   0.2648   0.3704   0.3742   0.4937   0.6942   0.7962
     0.8150   0.9142   0.9642   1.6296   2.7356   2.7907   2.9171   3.0605
     3.4248   3.9284   4.1475   4.4496   4.7242   5.1270   5.2192   5.3863
     6.4078   6.4689

          k = 0.3750 0.0000 0.0000 ( 52307 PWs)   bands (ev):

   -49.7642 -49.6776 -49.6228 -49.5726 -49.5481 -49.5354 -49.5195 -49.5047
   -49.4649 -49.4496 -49.3860 -49.2971 -49.2704 -49.2014 -49.1828 -49.1743
   -49.0601 -48.8755 -22.4909 -19.2656 -19.1271 -19.0088 -18.9604 -18.7772
   -18.6919 -18.6572 -18.6281 -18.6025 -18.3087 -17.1295 -16.8321 -16.1715
    -8.1637  -7.7080  -7.6591  -7.6164  -7.3346  -7.1702  -7.0766  -6.9728
    -6.9308  -6.8683  -6.6979  -6.4232  -6.4083  -6.3204  -6.1947  -6.0252
    -5.6587  -5.4153  -5.3434  -5.2024  -4.9147  -4.7291  -4.5750  -4.5096
    -4.3744  -4.1975  -4.0047  -3.8627  -3.8583  -3.6870  -3.5060  -3.3544
    -3.3212  -3.1931  -2.6074  -2.4575  -2.0827  -2.0552  -1.8354  -1.8114
    -1.5959  -1.0294  -0.9851  -0.9797  -0.8785  -0.6454  -0.6104  -0.2294
    -0.1106  -0.0687   0.0997   0.1020   0.2358   0.3376   0.5929   0.6977
     0.9154   1.1732   1.2138   1.3612   2.7191   2.8405   3.2483   3.3456
     3.4743   3.6888   3.7166   3.9489   4.2704   4.3688   4.9200   5.4647
     6.6838   7.0860

          k = 0.3750 0.1240 0.0000 ( 52293 PWs)   bands (ev):

   -49.7644 -49.6790 -49.6209 -49.5728 -49.5483 -49.5410 -49.5138 -49.5047
   -49.4670 -49.4477 -49.3860 -49.2971 -49.2704 -49.2011 -49.1828 -49.1743
   -49.0601 -48.8755 -22.4909 -19.2343 -19.1084 -19.0407 -18.9894 -18.8145
   -18.7534 -18.6121 -18.6060 -18.5744 -18.3116 -17.1293 -16.8321 -16.1712
    -8.1558  -7.5810  -7.5469  -7.4987  -7.3337  -7.2053  -7.1232  -7.0359
    -7.0110  -6.8858  -6.8608  -6.7199  -6.3030  -6.0746  -6.0197  -5.8135
    -5.7413  -5.4907  -5.4041  -5.0015  -4.8120  -4.6761  -4.6127  -4.3905
    -4.3596  -4.1151  -4.0064  -3.9383  -3.7954  -3.7569  -3.6596  -3.4609
    -3.0726  -2.9795  -2.8937  -2.4505  -2.3563  -2.0700  -1.9319  -1.7886
    -1.7239  -1.1693  -0.9828  -0.9245  -0.8263  -0.7703  -0.7442  -0.5352
    -0.4812  -0.2173  -0.0935   0.0229   0.3309   0.8125   0.8568   0.8905
     1.0282   1.0635   1.2486   1.3963   2.5305   2.5952   2.7736   2.7944
     2.8771   3.7151   4.0486   4.5224   4.8595   4.9882   5.1050   5.5281
     6.8070   7.1883

          k = 0.3750-0.2479 0.0000 ( 52258 PWs)   bands (ev):

   -49.7646 -49.6804 -49.6191 -49.5731 -49.5483 -49.5450 -49.5100 -49.5045
   -49.4688 -49.4461 -49.3860 -49.2972 -49.2705 -49.2007 -49.1828 -49.1743
   -49.0601 -48.8755 -22.4908 -19.1809 -19.0996 -19.0742 -19.0279 -18.8389
   -18.7947 -18.5904 -18.5837 -18.5573 -18.3145 -17.1292 -16.8322 -16.1710
    -8.1524  -7.4529  -7.3757  -7.3600  -7.2541  -7.1886  -7.1592  -7.1302
    -7.0595  -7.0439  -6.9826  -6.9153  -6.3536  -6.0712  -5.7672  -5.5976
    -5.5124  -5.4433  -5.4339  -4.9129  -4.7679  -4.7430  -4.6261  -4.4939
    -4.2462  -4.2114  -4.0225  -4.0125  -3.9109  -3.8298  -3.4795  -3.3702
    -3.0288  -2.9698  -2.7053  -2.5216  -2.2913  -2.1885  -2.1765  -1.9707
    -1.6095  -1.4891  -1.4107  -1.1467  -0.9005  -0.6769  -0.6566  -0.6286
    -0.3602  -0.2197  -0.1474  -0.0792   0.2945   0.8202   0.8836   1.0235
     1.1902   1.2123   1.2639   1.5321   2.0971   2.1466   2.3271   2.8349
     2.8688   3.7166   4.1235   4.9011   5.0260   5.4223   5.5341   5.5434
     6.9884   7.2956

          k =-0.5000 0.0000 0.0000 ( 52152 PWs)   bands (ev):

   -49.7658 -49.6761 -49.6362 -49.5714 -49.5638 -49.5358 -49.5341 -49.5044
   -49.4651 -49.4629 -49.3835 -49.3124 -49.2683 -49.2175 -49.1818 -49.1719
   -49.0578 -48.8731 -22.4564 -19.0909 -18.9682 -18.9135 -18.8730 -18.7993
   -18.7652 -18.7010 -18.6755 -18.6555 -18.2958 -17.0830 -16.7901 -16.1815
    -8.2095  -7.6079  -7.3899  -7.3128  -7.2857  -7.1427  -7.1305  -7.0347
    -6.9307  -6.8742  -6.8008  -6.5282  -6.4985  -6.3747  -6.1896  -6.0703
    -6.0162  -5.5292  -5.0322  -4.9255  -4.9063  -4.6663  -4.6320  -4.6147
    -4.5348  -4.5184  -4.1093  -3.8523  -3.7263  -3.5950  -3.3705  -3.2551
    -3.1420  -2.5884  -2.4857  -2.4685  -2.4076  -2.0023  -1.8474  -1.7827
    -1.4259  -1.0347  -1.0149  -1.0025  -0.9801  -0.7764  -0.6964  -0.5948
    -0.3205  -0.2613  -0.0826   0.0966   0.2778   0.3583   0.4485   0.8762
     1.0079   1.0203   1.3810   1.5750   2.5588   2.7307   3.0585   3.1564
     3.3026   3.6226   3.7298   4.0710   4.2449   4.2945   4.9754   5.5978
     7.2292   7.7131

          k =-0.5000 0.1240 0.0000 ( 52218 PWs)   bands (ev):

   -49.7661 -49.6787 -49.6333 -49.5718 -49.5639 -49.5471 -49.5228 -49.5044
   -49.4703 -49.4577 -49.3835 -49.3125 -49.2681 -49.2171 -49.1818 -49.1719
   -49.0578 -48.8730 -22.4564 -19.0887 -19.0732 -19.0459 -19.0360 -18.7851
   -18.6703 -18.6043 -18.5670 -18.5501 -18.2982 -17.0819 -16.7894 -16.1816
    -8.2105  -7.5843  -7.5277  -7.4696  -7.3413  -7.2981  -7.2524  -7.1849
    -7.1448  -7.0141  -6.8408  -6.6448  -6.2205  -6.1158  -5.8296  -5.6655
    -5.5536  -5.1789  -5.0093  -4.9796  -4.9563  -4.8549  -4.6941  -4.6668
    -4.5712  -3.8977  -3.8032  -3.7464  -3.7301  -3.6451  -3.5268  -3.4073
    -2.9451  -2.8337  -2.4780  -2.3869  -2.3737  -2.2477  -2.0671  -1.8203
    -1.5513  -1.2016  -1.0403  -1.0175  -1.0072  -0.9553  -0.9131  -0.7757
    -0.6575  -0.6310  -0.5660  -0.3544   0.2944   0.9487   1.0078   1.0540
     1.1104   1.2285   1.3067   1.5023   2.3187   2.3619   2.5683   2.6163
     2.7597   3.6250   4.1787   4.6737   4.9893   5.0486   5.1304   5.6448
     7.3061   7.8694

          k =-0.5000-0.2479 0.0000 ( 52228 PWs)   bands (ev):

   -49.7664 -49.6809 -49.6308 -49.5722 -49.5640 -49.5521 -49.5178 -49.5044
   -49.4728 -49.4552 -49.3835 -49.3126 -49.2680 -49.2167 -49.1818 -49.1719
   -49.0578 -48.8729 -22.4563 -19.1405 -19.1307 -19.1193 -19.0863 -18.7653
   -18.6903 -18.5198 -18.4831 -18.4639 -18.3005 -17.0807 -16.7887 -16.1817
    -8.2122  -7.7823  -7.7009  -7.5745  -7.4071  -7.3244  -7.2203  -7.1310
    -7.1161  -7.0476  -6.8780  -6.6497  -6.3327  -6.2405  -5.7355  -5.0869
    -5.0001  -4.9970  -4.9828  -4.9183  -4.7560  -4.6951  -4.6274  -4.4846
    -4.3418  -4.2821  -3.9938  -3.8041  -3.6411  -3.5968  -3.3514  -3.2851
    -2.8368  -2.7778  -2.7377  -2.4101  -2.3516  -2.3235  -2.2011  -1.9712
    -1.8470  -1.6911  -1.4067  -1.3352  -1.0085  -0.9926  -0.9797  -0.9356
    -0.7755  -0.6360  -0.5882  -0.4644   0.2845   0.9713   1.0200   1.1175
     1.3596   1.4416   1.4424   1.5180   1.9084   1.9542   2.1595   2.6587
     2.7839   3.6272   4.2301   5.1135   5.1759   5.5165   5.6654   5.6790
     7.3955   8.0286

     the Fermi energy is     0.8453 ev

!    total energy              =   -1674.09154221 Ry
     estimated scf accuracy    <       0.00000084 Ry
     smearing contrib. (-TS)   =      -0.00221424 Ry
     internal energy E=F+TS    =   -1674.08932798 Ry

     The total energy is F=E-TS. E is the sum of the following terms:
     one-electron contribution =  -25009.75209707 Ry
     hartree contribution      =   12547.05139121 Ry
     xc contribution           =    -405.84826940 Ry
     ewald contribution        =   11327.73251425 Ry
     one-center paw contrib.   =    -133.27286697 Ry

     convergence has been achieved in  27 iterations

     negative rho (up, down):  1.906E+00 0.000E+00

     Forces acting on atoms (cartesian axes, Ry/au):

     atom    1 type  2   force =    -0.00006861    0.00000000    0.03837817
     atom    2 type  2   force =     0.00019472    0.00000000   -0.03957003
     atom    3 type  2   force =     0.00051005    0.00000000   -0.00041781
     atom    4 type  2   force =     0.00076467    0.00000000   -0.00021933
     atom    5 type  2   force =    -0.00001331    0.00000000   -0.00052937
     atom    6 type  2   force =    -0.00018590    0.00000000    0.00068564
     atom    7 type  3   force =    -0.00107202    0.00000000   -0.00196264
     atom    8 type  3   force =     0.00008220    0.00000000    0.03328245
     atom    9 type  3   force =     0.00014624    0.02165841   -0.02520711
     atom   10 type  3   force =     0.00014624   -0.02165841   -0.02520711
     atom   11 type  3   force =     0.00088221    0.00000000   -0.00037108
     atom   12 type  3   force =    -0.00190837    0.00000000    0.01947217
     atom   13 type  3   force =     0.00064119    0.00081207    0.00056749
     atom   14 type  3   force =     0.00064119   -0.00081207    0.00056749
     atom   15 type  3   force =    -0.00118096    0.00000000    0.00128050
     atom   16 type  3   force =     0.00057959    0.00000000   -0.00019128
     atom   17 type  3   force =    -0.00010385    0.00048948   -0.00046767
     atom   18 type  3   force =    -0.00010385   -0.00048948   -0.00046767
     atom   19 type  3   force =     0.00033781    0.00000000   -0.00021178
     atom   20 type  3   force =    -0.00019333    0.00000000    0.00113798
     atom   21 type  1   force =    -0.00009592    0.00000000   -0.00054901

     Total force =     0.003421     Total SCF correction =     0.001873
     SCF correction compared to forces is large: reduce conv_thr to get better values

     Writing all to output data dir ./tmp_s0_OOH__vac32/s0_OOH__vac32.save/ :
     XML data file, charge density, pseudopotentials, collected wavefunctions

     init_run     :     30.52s CPU     32.60s WALL (       1 calls)
     electrons    :   1659.60s CPU   1732.61s WALL (       1 calls)
     forces       :     13.43s CPU     14.72s WALL (       1 calls)

     Called by init_run:
     wfcinit      :     22.51s CPU     23.23s WALL (       1 calls)
     potinit      :      2.78s CPU      3.17s WALL (       1 calls)
     hinit0       :      3.18s CPU      3.32s WALL (       1 calls)

     Called by electrons:
     c_bands      :   1191.59s CPU   1219.71s WALL (      27 calls)
     sum_band     :    259.58s CPU    279.99s WALL (      27 calls)
     v_of_rho     :     37.64s CPU     42.34s WALL (      28 calls)
     newd         :     45.45s CPU     63.45s WALL (      28 calls)
     PAW_pot      :     10.47s CPU     10.48s WALL (      28 calls)
     mix_rho      :    113.89s CPU    116.38s WALL (      27 calls)

     Called by c_bands:
     init_us_2    :     20.53s CPU     20.73s WALL (     224 calls)
     cegterg      :   1137.07s CPU   1165.12s WALL (     108 calls)

     Called by *egterg:
     cdiaghg      :     10.21s CPU     10.22s WALL (     793 calls)
     h_psi        :    801.66s CPU    810.46s WALL (     797 calls)
     s_psi        :     79.39s CPU     79.41s WALL (     797 calls)
     g_psi        :      8.51s CPU      8.52s WALL (     685 calls)

     Called by h_psi:
     h_psi:calbec :     83.75s CPU     83.77s WALL (     797 calls)
     vloc_psi     :    629.19s CPU    629.84s WALL (     797 calls)
                                        0.00s GPU  (     797 calls)
     add_vuspsi   :     84.04s CPU     84.06s WALL (     797 calls)

     General routines
     calbec       :    120.48s CPU    120.52s WALL (     921 calls)
     fft          :     17.21s CPU     17.24s WALL (     373 calls)
     ffts         :     45.90s CPU     45.94s WALL (    3253 calls)
     fftw         :    615.06s CPU    615.49s WALL (   61296 calls)
     interpolate  :      3.20s CPU      3.22s WALL (      28 calls)

     Parallel routines

     PWSCF        :  28m23.99s CPU  29m40.61s WALL


   This run was terminated on:   2:33:13   8Aug2026            

=------------------------------------------------------------------------------=
   JOB DONE.
=------------------------------------------------------------------------------=
