
     Program PWSCF v.7.5 starts on  8Aug2026 at  0:34:17 

     This program is part of the open-source Quantum ESPRESSO suite
     for quantum simulation of materials; please cite
         "P. Giannozzi et al., J. Phys.:Condens. Matter 21 395502 (2009);
         "P. Giannozzi et al., J. Phys.:Condens. Matter 29 465901 (2017);
         "P. Giannozzi et al., J. Chem. Phys. 152 154105 (2020);
          URL http://www.quantum-espresso.org", 
     in publications or presentations arising from this work. More details at
     http://www.quantum-espresso.org/quote

     Parallel version (MPI & OpenMP), running on       4 processor cores
     Number of MPI processes:                 4
     Threads/MPI process:                     1

     MPI processes distributed on     1 nodes
     52094 MiB available memory on the printing compute node when the environment starts

     Reading input from s0_OH__vac32.run.in

     Current dimensions of program PWSCF are:
     Max number of different atomic species (ntypx) = 10
     Max number of k-points (npk) =  40000
     Max angular momentum in pseudopotentials (lmaxx) =  4
     file O.pbe-n-kjpaw_psl.0.1.UPF: wavefunction(s)  2P renormalized
     Message from routine setup:
     using ibrav=0 with symmetry is DISCOURAGED, use correct ibrav instead

     K-points division:     npool     =       4
     Subspace diagonalization in iterative solution of the eigenvalue problem:
     a serial algorithm will be used


     G-vector sticks info
     --------------------
     sticks:   dense  smooth     PW     G-vecs:    dense   smooth      PW
     Sum        3639    1825    519              1183885   418441   63305

     Using Slab Decomposition



     bravais-lattice index     =            0
     lattice parameter (alat)  =       5.9602  a.u.
     unit-cell volume          =    4332.5414 (a.u.)^3
     number of atoms/cell      =           20
     number of atomic types    =            3
     number of electrons       =       169.00
     number of Kohn-Sham states=          102
     kinetic-energy cutoff     =      80.0000  Ry
     charge density cutoff     =     640.0000  Ry
     scf convergence threshold =      1.0E-06
     mixing beta               =       0.3000
     number of iterations used =            8  local-TF  mixing
     Exchange-correlation= SLA  PW   PBX  PBC
                           (   1   4   3   4   0   0   0)

     celldm(1)=   5.960196  celldm(2)=   0.000000  celldm(3)=   0.000000
     celldm(4)=   0.000000  celldm(5)=   0.000000  celldm(6)=   0.000000

     crystal axes: (cart. coord. in units of alat)
               a(1) = (   1.000000   0.000000   0.000000 )  
               a(2) = (   0.000000   2.016846   0.000000 )  
               a(3) = (   0.000000   0.000000  10.145847 )  

     reciprocal axes: (cart. coord. in units 2 pi/alat)
               b(1) = (  1.000000  0.000000  0.000000 )  
               b(2) = (  0.000000  0.495824  0.000000 )  
               b(3) = (  0.000000  0.000000  0.098562 )  


     PseudoPot. # 1 for H  read from file:
     /usr/share/espresso/pseudo/H.pbe-rrkjus_psl.1.0.0.UPF
     MD5 check sum: f52b6d4d1c606e5624b1dc7b2218f220
     Pseudo is Ultrasoft, Zval =  1.0
     Generated using "atomic" code by A. Dal Corso  v.5.1
     Using radial grid of  929 points,  2 beta functions with: 
                l(1) =   0
                l(2) =   0
     Q(r) pseudized with 0 coefficients 


     PseudoPot. # 2 for Ir read from file:
     /usr/share/espresso/pseudo/Ir_pbe_v1.2.uspp.F.UPF
     MD5 check sum: 8836f839c3459d2b385c504ce6d91f2c
     Pseudo is Ultrasoft + core correction, Zval = 15.0
     Generated by new atomic code, or converted to UPF format
     Using radial grid of  983 points,  7 beta functions with: 
                l(1) =   0
                l(2) =   0
                l(3) =   1
                l(4) =   1
                l(5) =   1
                l(6) =   2
                l(7) =   2
     Q(r) pseudized with  8 coefficients,  rinner =    1.400   1.400   1.400
                                                       1.400   1.400

     PseudoPot. # 3 for O  read from file:
     /usr/share/espresso/pseudo/O.pbe-n-kjpaw_psl.0.1.UPF
     MD5 check sum: 0234752ac141de4415c5fc33072bef88
     Pseudo is Projector augmented-wave + core cor, Zval =  6.0
     Generated using "atomic" code by A. Dal Corso  v.5.0.99 svn rev. 10869
     Shape of augmentation charge: BESSEL
     Using radial grid of 1095 points,  4 beta functions with: 
                l(1) =   0
                l(2) =   0
                l(3) =   1
                l(4) =   1
     Q(r) pseudized with 0 coefficients 


     atomic species   valence    mass     pseudopotential
     H                 1.00     1.00800     H ( 1.00)
     Ir               15.00   192.21700     Ir( 1.00)
     O                 6.00    15.99900     O ( 1.00)

      2 Sym. Ops. (no inversion) found ( 1 have fractional translation)



   Cartesian axes

     site n.     atom                  positions (alat units)
         1        Ir     tau(   1) = (   0.0000000   1.5126346   3.8826103  )
         2        Ir     tau(   2) = (   0.5000000   0.5042115   3.8826103  )
         3        Ir     tau(   3) = (  -0.0008242   0.5042115   4.9014100  )
         4        Ir     tau(   4) = (   0.4992639   1.5126346   4.8915442  )
         5        Ir     tau(   5) = (  -0.0026497   1.5126346   5.9193553  )
         6        Ir     tau(   6) = (   0.4951993   0.5042115   5.9283110  )
         7        O      tau(   7) = (   0.0000000   0.5042115   4.2758953  )
         8        O      tau(   8) = (   0.0000000   0.5042115   3.4893253  )
         9        O      tau(   9) = (   0.5000000   1.1193496   3.8826103  )
        10        O      tau(  10) = (   0.5000000   1.9059196   3.8826103  )
        11        O      tau(  11) = (  -0.0015798   1.5126346   5.2866815  )
        12        O      tau(  12) = (   0.0000000   1.5126346   4.4977483  )
        13        O      tau(  13) = (   0.4992996   0.1182431   4.8945102  )
        14        O      tau(  14) = (   0.4992996   0.8901799   4.8945102  )
        15        O      tau(  15) = (  -0.0050805   0.5042115   6.3022159  )
        16        O      tau(  16) = (  -0.0040464   0.5042115   5.5302841  )
        17        O      tau(  17) = (   0.4959964   1.1251299   5.9127668  )
        18        O      tau(  18) = (   0.4959964   1.9001393   5.9127668  )
        19        O      tau(  19) = (  -0.0349756   1.5126346   6.5326695  )
        20        H      tau(  20) = (   0.2502274   1.5126346   6.6565213  )

     number of k points=    15  Marzari-Vanderbilt smearing, width (Ry)=  0.0100
                       cart. coord. in units 2pi/alat
        k(    1) = (   0.0000000   0.0000000   0.0000000), wk =   0.0625000
        k(    2) = (   0.0000000   0.1239559   0.0000000), wk =   0.1250000
        k(    3) = (   0.0000000  -0.2479118   0.0000000), wk =   0.0625000
        k(    4) = (   0.1250000   0.0000000   0.0000000), wk =   0.1250000
        k(    5) = (   0.1250000   0.1239559   0.0000000), wk =   0.2500000
        k(    6) = (   0.1250000  -0.2479118   0.0000000), wk =   0.1250000
        k(    7) = (   0.2500000   0.0000000   0.0000000), wk =   0.1250000
        k(    8) = (   0.2500000   0.1239559   0.0000000), wk =   0.2500000
        k(    9) = (   0.2500000  -0.2479118   0.0000000), wk =   0.1250000
        k(   10) = (   0.3750000   0.0000000   0.0000000), wk =   0.1250000
        k(   11) = (   0.3750000   0.1239559   0.0000000), wk =   0.2500000
        k(   12) = (   0.3750000  -0.2479118   0.0000000), wk =   0.1250000
        k(   13) = (  -0.5000000   0.0000000   0.0000000), wk =   0.0625000
        k(   14) = (  -0.5000000   0.1239559   0.0000000), wk =   0.1250000
        k(   15) = (  -0.5000000  -0.2479118   0.0000000), wk =   0.0625000

     Dense  grid:  1183885 G-vectors     FFT dimensions: (  48, 100, 500)

     Smooth grid:   418441 G-vectors     FFT dimensions: (  36,  72, 360)

     Estimated max dynamical RAM per process >       2.55 GB

     Estimated total dynamical RAM >       9.35 GB

     Initial potential from superposition of free atoms

     starting charge     165.9998, renormalised to     169.0000

     negative rho (up, down):  2.218E+00 0.000E+00
     Starting wfcs are  125 randomized atomic wfcs
     Checking if some PAW data can be deallocated... 

     total cpu time spent up to now is       31.5 secs

     per-process dynamical memory:  1121.8 Mb

     Self-consistent Calculation

     iteration #  1     ecut=    80.00 Ry     beta= 0.30
     Davidson diagonalization with overlap
     ethr =  1.00E-02,  avg # of iterations =  3.8

     negative rho (up, down):  2.064E+00 0.000E+00

     total cpu time spent up to now is       94.5 secs

     total energy              =   -1632.98657644 Ry
     estimated scf accuracy    <      56.39447663 Ry

     iteration #  2     ecut=    80.00 Ry     beta= 0.30
     Davidson diagonalization with overlap
     ethr =  1.00E-02,  avg # of iterations =  1.0

     negative rho (up, down):  1.964E+00 0.000E+00

     total cpu time spent up to now is      147.0 secs

     total energy              =   -1632.84821207 Ry
     estimated scf accuracy    <       6.11435367 Ry

     iteration #  3     ecut=    80.00 Ry     beta= 0.30
     Davidson diagonalization with overlap
     ethr =  3.62E-03,  avg # of iterations =  1.5

     negative rho (up, down):  1.868E+00 0.000E+00

     total cpu time spent up to now is      201.3 secs

     total energy              =   -1632.40561545 Ry
     estimated scf accuracy    <       2.24562890 Ry

     iteration #  4     ecut=    80.00 Ry     beta= 0.30
     Davidson diagonalization with overlap
     ethr =  1.33E-03,  avg # of iterations =  5.9

     negative rho (up, down):  1.889E+00 0.000E+00

     total cpu time spent up to now is      266.3 secs

     total energy              =   -1632.68798040 Ry
     estimated scf accuracy    <       0.83648735 Ry

     iteration #  5     ecut=    80.00 Ry     beta= 0.30
     Davidson diagonalization with overlap
     ethr =  4.95E-04,  avg # of iterations =  3.0

     negative rho (up, down):  1.908E+00 0.000E+00

     total cpu time spent up to now is      324.1 secs

     total energy              =   -1632.65232497 Ry
     estimated scf accuracy    <       0.28308637 Ry

     iteration #  6     ecut=    80.00 Ry     beta= 0.30
     Davidson diagonalization with overlap
     ethr =  1.68E-04,  avg # of iterations =  5.6

     negative rho (up, down):  1.927E+00 0.000E+00

     total cpu time spent up to now is      382.5 secs

     total energy              =   -1632.64994611 Ry
     estimated scf accuracy    <       0.14767796 Ry

     iteration #  7     ecut=    80.00 Ry     beta= 0.30
     Davidson diagonalization with overlap
     ethr =  8.74E-05,  avg # of iterations =  3.5

     negative rho (up, down):  1.942E+00 0.000E+00

     total cpu time spent up to now is      441.0 secs

     total energy              =   -1632.65261354 Ry
     estimated scf accuracy    <       0.06858865 Ry

     iteration #  8     ecut=    80.00 Ry     beta= 0.30
     Davidson diagonalization with overlap
     ethr =  4.06E-05,  avg # of iterations =  3.5

     negative rho (up, down):  1.954E+00 0.000E+00

     total cpu time spent up to now is      500.0 secs

     total energy              =   -1632.65176043 Ry
     estimated scf accuracy    <       0.02870717 Ry

     iteration #  9     ecut=    80.00 Ry     beta= 0.30
     Davidson diagonalization with overlap
     c_bands:  1 eigenvalues not converged
     ethr =  1.70E-05,  avg # of iterations =  6.1

     negative rho (up, down):  1.957E+00 0.000E+00

     total cpu time spent up to now is      560.6 secs

     total energy              =   -1632.65088836 Ry
     estimated scf accuracy    <       0.01201523 Ry

     iteration # 10     ecut=    80.00 Ry     beta= 0.30
     Davidson diagonalization with overlap
     ethr =  7.11E-06,  avg # of iterations =  5.9

     negative rho (up, down):  1.950E+00 0.000E+00

     total cpu time spent up to now is      621.3 secs

     total energy              =   -1632.65028598 Ry
     estimated scf accuracy    <       0.00453666 Ry

     iteration # 11     ecut=    80.00 Ry     beta= 0.30
     Davidson diagonalization with overlap
     ethr =  2.68E-06,  avg # of iterations =  7.5

     negative rho (up, down):  1.927E+00 0.000E+00

     total cpu time spent up to now is      682.8 secs

     total energy              =   -1632.64965083 Ry
     estimated scf accuracy    <       0.00210319 Ry

     iteration # 12     ecut=    80.00 Ry     beta= 0.30
     Davidson diagonalization with overlap
     c_bands:  1 eigenvalues not converged
     ethr =  1.24E-06,  avg # of iterations = 10.7

     negative rho (up, down):  1.924E+00 0.000E+00

     total cpu time spent up to now is      745.7 secs

     total energy              =   -1632.64938144 Ry
     estimated scf accuracy    <       0.00172674 Ry

     iteration # 13     ecut=    80.00 Ry     beta= 0.30
     Davidson diagonalization with overlap
     ethr =  1.02E-06,  avg # of iterations =  8.3

     negative rho (up, down):  1.922E+00 0.000E+00

     total cpu time spent up to now is      807.5 secs

     total energy              =   -1632.64924201 Ry
     estimated scf accuracy    <       0.00103062 Ry

     iteration # 14     ecut=    80.00 Ry     beta= 0.30
     Davidson diagonalization with overlap
     ethr =  6.10E-07,  avg # of iterations =  7.1

     negative rho (up, down):  1.920E+00 0.000E+00

     total cpu time spent up to now is      867.8 secs

     total energy              =   -1632.64907358 Ry
     estimated scf accuracy    <       0.00078961 Ry

     iteration # 15     ecut=    80.00 Ry     beta= 0.30
     Davidson diagonalization with overlap
     ethr =  4.67E-07,  avg # of iterations =  7.5

     negative rho (up, down):  1.920E+00 0.000E+00

     total cpu time spent up to now is      928.8 secs

     total energy              =   -1632.64892895 Ry
     estimated scf accuracy    <       0.00048729 Ry

     iteration # 16     ecut=    80.00 Ry     beta= 0.30
     Davidson diagonalization with overlap
     ethr =  2.88E-07,  avg # of iterations = 10.8

     negative rho (up, down):  1.918E+00 0.000E+00

     total cpu time spent up to now is      993.9 secs

     total energy              =   -1632.64882357 Ry
     estimated scf accuracy    <       0.00028145 Ry

     iteration # 17     ecut=    80.00 Ry     beta= 0.30
     Davidson diagonalization with overlap
     c_bands:  1 eigenvalues not converged
     ethr =  1.67E-07,  avg # of iterations = 12.7

     negative rho (up, down):  1.914E+00 0.000E+00

     total cpu time spent up to now is     1059.5 secs

     total energy              =   -1632.64866779 Ry
     estimated scf accuracy    <       0.00020413 Ry

     iteration # 18     ecut=    80.00 Ry     beta= 0.30
     Davidson diagonalization with overlap
     c_bands:  1 eigenvalues not converged
     ethr =  1.21E-07,  avg # of iterations = 13.7

     negative rho (up, down):  1.912E+00 0.000E+00

     total cpu time spent up to now is     1127.4 secs

     total energy              =   -1632.64861486 Ry
     estimated scf accuracy    <       0.00007848 Ry

     iteration # 19     ecut=    80.00 Ry     beta= 0.30
     Davidson diagonalization with overlap
     c_bands:  1 eigenvalues not converged
     ethr =  4.64E-08,  avg # of iterations = 11.9

     negative rho (up, down):  1.910E+00 0.000E+00

     total cpu time spent up to now is     1193.3 secs

     total energy              =   -1632.64857085 Ry
     estimated scf accuracy    <       0.00003224 Ry

     iteration # 20     ecut=    80.00 Ry     beta= 0.30
     Davidson diagonalization with overlap
     c_bands:  2 eigenvalues not converged
     ethr =  1.91E-08,  avg # of iterations =  9.3

     negative rho (up, down):  1.907E+00 0.000E+00

     total cpu time spent up to now is     1257.2 secs

     total energy              =   -1632.64855658 Ry
     estimated scf accuracy    <       0.00001562 Ry

     iteration # 21     ecut=    80.00 Ry     beta= 0.30
     Davidson diagonalization with overlap
     ethr =  9.25E-09,  avg # of iterations =  4.4

     negative rho (up, down):  1.906E+00 0.000E+00

     total cpu time spent up to now is     1316.4 secs

     total energy              =   -1632.64855073 Ry
     estimated scf accuracy    <       0.00000629 Ry

     iteration # 22     ecut=    80.00 Ry     beta= 0.30
     Davidson diagonalization with overlap
     ethr =  3.72E-09,  avg # of iterations =  3.3

     negative rho (up, down):  1.906E+00 0.000E+00

     total cpu time spent up to now is     1373.8 secs

     total energy              =   -1632.64854828 Ry
     estimated scf accuracy    <       0.00000435 Ry

     iteration # 23     ecut=    80.00 Ry     beta= 0.30
     Davidson diagonalization with overlap
     ethr =  2.57E-09,  avg # of iterations =  4.1

     negative rho (up, down):  1.905E+00 0.000E+00

     total cpu time spent up to now is     1428.5 secs

     End of self-consistent calculation

          k = 0.0000 0.0000 0.0000 ( 52347 PWs)   bands (ev):

   -50.4955 -50.3958 -50.3842 -50.3359 -50.2929 -50.2859 -50.2220 -50.2132
   -50.2113 -50.1739 -50.1287 -50.0666 -50.0183 -49.9992 -49.9978 -49.9127
   -49.8863 -49.6988 -21.0096 -20.6754 -20.5451 -20.2393 -19.6478 -19.4612
   -19.3232 -19.0442 -18.9786 -18.9736 -18.9317 -17.8281 -17.5777  -9.7232
    -9.6712  -9.6588  -9.1634  -8.3761  -8.0531  -7.9691  -7.9168  -7.7979
    -7.5216  -7.3129  -7.2901  -7.1212  -6.8698  -6.7562  -5.7353  -5.6568
    -5.1419  -5.0949  -4.9667  -4.6768  -4.6646  -4.5137  -4.3978  -4.3087
    -4.2305  -4.2270  -4.0252  -3.9132  -3.7829  -3.7325  -3.3955  -3.2925
    -3.0861  -2.9526  -2.6971  -2.6336  -2.4794  -2.4084  -2.4012  -2.3581
    -2.3298  -2.2683  -2.2249  -2.0814  -1.9549  -1.9046  -1.4565  -1.3463
    -1.2552  -0.8433  -0.6993  -0.4450   0.1089   0.2952   0.3860   0.8228
     1.1544   1.6327   2.2864   2.7343   3.5662   3.5894   4.2056   4.2203
     4.2328   4.2849   4.5210   4.5823   4.9638   5.3107

          k = 0.0000 0.1240 0.0000 ( 52442 PWs)   bands (ev):

   -50.4948 -50.3955 -50.3834 -50.3359 -50.2929 -50.2857 -50.2221 -50.2132
   -50.2111 -50.1741 -50.1295 -50.0675 -50.0183 -49.9992 -49.9978 -49.9128
   -49.8864 -49.6993 -20.8835 -20.5293 -20.4172 -20.2678 -19.6932 -19.5733
   -19.3190 -19.1789 -19.1444 -19.0737 -18.9657 -17.8257 -17.5744  -9.2263
    -9.1743  -9.1390  -9.1002  -8.3752  -7.9725  -7.9163  -7.8911  -7.7078
    -7.4234  -7.3111  -7.1859  -7.1201  -6.8810  -6.5684  -5.9726  -5.7728
    -5.7028  -5.5496  -5.4802  -5.2694  -5.2104  -4.9556  -4.8344  -4.8088
    -4.5938  -4.3891  -3.9903  -3.9264  -3.8168  -3.7285  -3.5924  -3.3077
    -3.2304  -2.8475  -2.7808  -2.5508  -2.4882  -2.1271  -1.9827  -1.9597
    -1.8554  -1.8393  -1.7959  -1.7361  -1.7236  -1.6067  -1.4362  -1.2474
    -1.2388  -0.8451  -0.7096  -0.3853   0.0509   0.1654   0.4012   0.5828
     0.9582   2.1494   2.8682   3.1606   3.5690   3.7060   3.9175   3.9237
     3.9485   4.2913   4.5825   4.5890   5.1103   5.2211

          k = 0.0000-0.2479 0.0000 ( 52518 PWs)   bands (ev):

   -50.4941 -50.3951 -50.3825 -50.3359 -50.2929 -50.2856 -50.2222 -50.2132
   -50.2110 -50.1743 -50.1303 -50.0685 -50.0182 -49.9992 -49.9978 -49.9129
   -49.8864 -49.6997 -20.6726 -20.4605 -20.2893 -20.0750 -19.8456 -19.8274
   -19.3805 -19.2865 -19.2813 -19.1686 -18.9654 -17.8244 -17.5717  -9.1728
    -8.3889  -8.3614  -8.2942  -8.1870  -7.9154  -7.8799  -7.8057  -7.6050
    -7.3872  -7.3079  -7.1178  -6.8892  -6.8313  -6.7485  -6.7174  -6.6641
    -6.5594  -6.1249  -5.8873  -5.5964  -5.2933  -5.2399  -5.1847  -5.0458
    -4.9756  -4.7125  -3.9920  -3.9682  -3.6135  -3.5739  -3.4885  -3.2737
    -3.2516  -2.9831  -2.6293  -2.6064  -2.4480  -2.0813  -2.0042  -1.9251
    -1.5949  -1.5579  -1.4919  -1.4327  -1.3295  -1.2796  -1.1510  -1.0543
    -0.8909  -0.7791  -0.6116  -0.6052  -0.1366   0.0390   0.3627   0.4095
     0.8113   2.7144   2.9706   3.5709   3.5894   3.6117   3.6416   3.8958
     4.0792   4.2920   4.4365   4.5867   4.9948   5.8368

          k = 0.1250 0.0000 0.0000 ( 52335 PWs)   bands (ev):

   -50.4943 -50.3947 -50.3829 -50.3350 -50.3018 -50.2918 -50.2387 -50.2280
   -50.2106 -50.1901 -50.1265 -50.0644 -50.0340 -49.9969 -49.9968 -49.9291
   -49.8841 -49.6965 -20.8686 -20.5508 -20.4252 -20.1370 -19.5800 -19.3816
   -19.3665 -19.1242 -19.0584 -19.0166 -18.9539 -17.8810 -17.6202  -9.5379
    -9.4900  -9.4807  -8.9806  -8.3414  -8.0293  -7.9613  -7.9115  -7.7618
    -7.4121  -7.3100  -6.8842  -6.8224  -6.7919  -6.5640  -5.9378  -5.6082
    -5.5164  -5.1450  -5.0642  -4.9988  -4.9749  -4.9093  -4.8355  -4.5888
    -4.4332  -4.2282  -4.1209  -4.0207  -3.9847  -3.7889  -3.7819  -3.6306
    -3.5566  -3.1702  -3.1364  -2.6243  -2.5220  -2.2525  -2.1924  -2.0755
    -1.9802  -1.9423  -1.9099  -1.8939  -1.5683  -1.4754  -1.3370  -1.1726
    -1.0417  -0.5119  -0.4998  -0.2972  -0.0295   0.2230   0.4467   0.6700
     0.9929   1.8585   2.5097   2.9176   3.1539   3.5963   3.8271   3.8355
     3.8563   3.8935   4.1095   4.6689   5.2381   5.3510

          k = 0.1250 0.1240 0.0000 ( 52432 PWs)   bands (ev):

   -50.4938 -50.3944 -50.3823 -50.3350 -50.3017 -50.2918 -50.2386 -50.2277
   -50.2106 -50.1904 -50.1271 -50.0652 -50.0340 -49.9969 -49.9968 -49.9292
   -49.8841 -49.6968 -20.7483 -20.4101 -20.2974 -20.1649 -19.6222 -19.5069
   -19.3639 -19.2451 -19.2094 -19.1296 -18.9483 -17.8794 -17.6174  -9.0562
    -9.0058  -8.9854  -8.9485  -8.3420  -7.9646  -7.9340  -7.8192  -7.6659
    -7.4947  -7.0638  -6.8674  -6.8248  -6.8098  -6.4637  -5.9090  -5.8423
    -5.7656  -5.6443  -5.5328  -5.4481  -5.3938  -5.2891  -5.2164  -5.1107
    -4.8521  -4.6769  -4.3545  -4.1394  -3.8583  -3.7555  -3.6644  -3.5885
    -3.2832  -3.0599  -2.7916  -2.6687  -2.5149  -2.1133  -2.0296  -1.8657
    -1.8056  -1.6598  -1.5900  -1.4554  -1.3998  -1.3791  -1.2233  -1.0866
    -0.9604  -0.5384  -0.4303  -0.3148  -0.0365   0.0404   0.3731   0.5537
     0.8488   2.2827   2.9478   3.1251   3.1533   3.3921   3.5001   3.6448
     3.7905   3.9715   4.1139   4.6995   5.1497   5.6178

          k = 0.1250-0.2479 0.0000 ( 52498 PWs)   bands (ev):

   -50.4932 -50.3942 -50.3818 -50.3350 -50.3016 -50.2918 -50.2386 -50.2275
   -50.2106 -50.1907 -50.1277 -50.0659 -50.0339 -49.9969 -49.9968 -49.9292
   -49.8841 -49.6972 -20.5490 -20.3313 -20.1688 -19.9621 -19.7885 -19.7783
   -19.4530 -19.3311 -19.3279 -19.1867 -18.9465 -17.8784 -17.6152  -8.9871
    -8.3430  -8.1493  -8.0683  -7.9958  -7.9692  -7.9342  -7.9159  -7.8138
    -7.5124  -6.9043  -6.8569  -6.8252  -6.5656  -6.5345  -6.4128  -6.3890
    -6.2559  -6.2522  -6.1993  -5.9824  -5.8963  -5.5081  -5.4599  -5.2220
    -5.0670  -4.9714  -4.4430  -4.1701  -3.7161  -3.7015  -3.4096  -3.3495
    -3.2182  -2.9647  -2.7292  -2.5718  -2.5499  -2.0566  -1.9956  -1.7298
    -1.7029  -1.6579  -1.5809  -1.3912  -1.0970  -0.9722  -0.8760  -0.7368
    -0.7205  -0.5132  -0.5082  -0.2644  -0.2064  -0.0228   0.2558   0.3196
     0.8256   2.8110   2.8358   3.0095   3.0426   3.0846   3.3747   3.8062
     4.0261   4.1394   4.1395   4.5024   5.1775   6.1590

          k = 0.2500 0.0000 0.0000 ( 52347 PWs)   bands (ev):

   -50.4913 -50.3920 -50.3798 -50.3429 -50.3301 -50.2897 -50.2785 -50.2670
   -50.2290 -50.2049 -50.1212 -50.0717 -50.0591 -49.9945 -49.9913 -49.9686
   -49.8786 -49.6908 -20.5019 -20.2393 -20.1255 -19.9059 -19.5186 -19.4458
   -19.3129 -19.2442 -19.2141 -19.1805 -18.8907 -17.9604 -17.6720  -9.0523
    -9.0065  -9.0035  -8.5037  -8.1509  -7.9570  -7.9322  -7.7330  -7.5450
    -7.3571  -7.1644  -6.7942  -6.7889  -6.4888  -6.2779  -6.1509  -6.0899
    -6.0801  -6.0393  -5.5772  -5.3560  -5.2888  -4.9881  -4.8919  -4.7655
    -4.7150  -4.6138  -4.5344  -4.4692  -4.3695  -4.1426  -3.8510  -3.6163
    -3.4460  -3.1526  -3.0755  -2.8320  -2.7131  -2.4129  -2.0158  -1.8073
    -1.7677  -1.7137  -1.5714  -1.5352  -1.1406  -0.9064  -0.8283  -0.7472
    -0.5219  -0.4369  -0.3964  -0.1756  -0.1613   0.0416   0.3134   0.5555
     0.5951   2.2314   2.5441   2.7789   3.0205   3.1005   3.1076   3.1745
     3.3208   3.3824   3.9723   4.4271   5.5481   6.3360

          k = 0.2500 0.1240 0.0000 ( 52373 PWs)   bands (ev):

   -50.4913 -50.3920 -50.3801 -50.3429 -50.3301 -50.2897 -50.2779 -50.2666
   -50.2293 -50.2049 -50.1214 -50.0717 -50.0594 -49.9944 -49.9913 -49.9684
   -49.8786 -49.6910 -20.4050 -20.1271 -20.0115 -19.9319 -19.5759 -19.4876
   -19.3856 -19.3770 -19.3410 -19.1519 -18.8870 -17.9607 -17.6712  -8.6688
    -8.6292  -8.6247  -8.5014  -8.1502  -7.9565  -7.7770  -7.5801  -7.4359
    -7.4084  -7.2258  -6.9188  -6.6760  -6.6239  -6.6013  -6.4737  -6.3703
    -6.2270  -5.7899  -5.6523  -5.4472  -5.2622  -5.1506  -5.0908  -5.0331
    -5.0137  -4.8876  -4.7594  -4.4874  -4.2204  -3.9480  -3.8942  -3.6308
    -3.4265  -3.2885  -2.9368  -2.7676  -2.6385  -2.5744  -2.0662  -1.6994
    -1.5977  -1.4315  -1.3444  -1.2891  -1.1353  -1.0913  -0.7281  -0.6880
    -0.4885  -0.4365  -0.3435  -0.1679  -0.1239  -0.0137   0.1819   0.3683
     0.7564   2.3233   2.4529   2.4911   2.5608   2.6014   3.2264   3.3428
     3.5958   3.7895   4.1405   4.5428   5.6088   6.5563

          k = 0.2500-0.2479 0.0000 ( 52384 PWs)   bands (ev):

   -50.4912 -50.3920 -50.3804 -50.3429 -50.3301 -50.2896 -50.2772 -50.2661
   -50.2295 -50.2049 -50.1216 -50.0717 -50.0598 -49.9944 -49.9913 -49.9683
   -49.8786 -49.6911 -20.2486 -20.0230 -19.8897 -19.7796 -19.7065 -19.7005
   -19.6008 -19.4323 -19.3681 -19.1477 -18.8843 -17.9612 -17.6705  -8.5047
    -8.1563  -8.0163  -7.9791  -7.9650  -7.9601  -7.5200  -7.4778  -7.4424
    -7.3725  -7.3591  -7.2424  -7.2142  -7.1217  -6.7577  -6.5158  -6.2448
    -6.0038  -5.9652  -5.7959  -5.7089  -5.6689  -5.4435  -5.3436  -5.3294
    -5.1588  -5.0421  -4.9743  -4.5240  -3.9130  -3.7942  -3.5171  -3.5067
    -3.3702  -3.3386  -3.0653  -2.8567  -2.6333  -2.3361  -1.9388  -1.9291
    -1.6581  -1.4755  -1.4350  -0.9878  -0.9743  -0.9333  -0.6275  -0.5413
    -0.4310  -0.4210  -0.2958  -0.1068  -0.0817   0.0276   0.1453   0.1571
     0.8407   1.9970   2.0327   2.1108   2.4768   2.6014   3.3454   3.5629
     3.6379   4.2068   4.3051   4.5680   5.7152   6.9675

          k = 0.3750 0.0000 0.0000 ( 52307 PWs)   bands (ev):

   -50.4883 -50.3893 -50.3799 -50.3767 -50.3303 -50.3186 -50.3046 -50.2884
   -50.2663 -50.1992 -50.1159 -50.1091 -50.0537 -50.0078 -49.9921 -49.9856
   -49.8731 -49.6851 -20.0726 -19.9192 -19.8089 -19.7726 -19.5476 -19.4954
   -19.4221 -19.4144 -19.4017 -19.0704 -18.8179 -17.9362 -17.6375  -8.4846
    -8.4643  -8.4174  -8.1054  -7.9302  -7.8744  -7.7792  -7.7668  -7.5731
    -7.4574  -7.2201  -7.2006  -7.0801  -6.9949  -6.8275  -6.4418  -6.1277
    -6.0538  -5.9293  -5.5847  -5.4532  -5.3781  -5.2295  -5.1188  -4.8036
    -4.7600  -4.6187  -4.4616  -4.3020  -4.1584  -4.1018  -4.0668  -3.4586
    -3.3503  -3.1775  -2.9919  -2.8843  -2.8302  -2.4435  -1.8860  -1.8387
    -1.7137  -1.6791  -1.4522  -1.4364  -1.0130  -0.9110  -0.8739  -0.8132
    -0.6436  -0.5064  -0.4675  -0.1710  -0.1079   0.1000   0.3749   0.4297
     0.5673   1.9574   2.1432   2.5431   2.5626   2.6676   2.8915   2.9370
     3.2689   3.4899   3.9852   4.1069   6.3353   7.5429

          k = 0.3750 0.1240 0.0000 ( 52293 PWs)   bands (ev):

   -50.4889 -50.3896 -50.3801 -50.3786 -50.3302 -50.3166 -50.3040 -50.2884
   -50.2665 -50.1992 -50.1157 -50.1091 -50.0537 -50.0074 -49.9921 -49.9856
   -49.8731 -49.6851 -20.0431 -19.8983 -19.8419 -19.7944 -19.5960 -19.5384
   -19.4085 -19.3903 -19.3593 -19.0727 -18.8159 -17.9378 -17.6376  -8.3711
    -8.3253  -8.2898  -8.1221  -7.9627  -7.9050  -7.8356  -7.7650  -7.6992
    -7.6225  -7.5384  -7.0591  -6.8586  -6.8038  -6.6051  -6.5155  -6.2072
    -6.1525  -5.6792  -5.5073  -5.4077  -5.2963  -5.1731  -4.9519  -4.8944
    -4.7280  -4.6032  -4.5653  -4.5395  -4.2705  -3.9023  -3.8336  -3.7056
    -3.3823  -3.2141  -3.1341  -2.9558  -2.8230  -2.6033  -2.0386  -1.7732
    -1.7403  -1.6450  -1.5669  -1.5325  -1.3169  -1.2803  -1.0003  -0.9030
    -0.8358  -0.5199   0.0396   0.0607   0.1177   0.2323   0.2890   0.4549
     0.6078   1.7686   1.8353   1.9674   2.0350   2.1738   2.9098   3.6192
     3.9129   4.0700   4.2717   4.3037   6.4345   7.7171

          k = 0.3750-0.2479 0.0000 ( 52258 PWs)   bands (ev):

   -50.4894 -50.3898 -50.3804 -50.3801 -50.3301 -50.3146 -50.3033 -50.2884
   -50.2667 -50.1992 -50.1156 -50.1092 -50.0538 -50.0071 -49.9921 -49.9856
   -49.8731 -49.6851 -19.9960 -19.8997 -19.8480 -19.8368 -19.6290 -19.5769
   -19.3920 -19.3689 -19.3387 -19.0750 -18.8138 -17.9395 -17.6377  -8.2615
    -8.1643  -8.1119  -8.0518  -7.9648  -7.9345  -7.9159  -7.8157  -7.8151
    -7.7486  -7.7321  -7.1185  -6.8549  -6.6006  -6.4032  -6.3077  -6.2226
    -6.0582  -5.6474  -5.4983  -5.4062  -5.2959  -5.0203  -5.0118  -4.9394
    -4.7614  -4.7341  -4.6956  -4.5538  -4.1673  -3.8359  -3.8237  -3.5451
    -3.4978  -3.2323  -3.0610  -2.9886  -2.9424  -2.6820  -2.3752  -2.2323
    -1.9259  -1.7163  -1.6012  -1.4267  -1.3871  -1.1670  -1.0023  -0.9358
    -0.8791  -0.6089   0.0310   0.0759   0.2323   0.4038   0.4592   0.4894
     0.7413   1.3541   1.3797   1.5200   2.0415   2.1890   2.9106   3.9436
     4.0756   4.3286   4.5915   4.7246   6.5363   8.0295

          k =-0.5000 0.0000 0.0000 ( 52152 PWs)   bands (ev):

   -50.4871 -50.3956 -50.3882 -50.3754 -50.3350 -50.3327 -50.3173 -50.2917
   -50.2779 -50.1968 -50.1244 -50.1136 -50.0515 -50.0239 -49.9911 -49.9833
   -49.8708 -49.6828 -19.9096 -19.7696 -19.7065 -19.6615 -19.5702 -19.5692
   -19.4941 -19.4765 -19.4170 -19.0571 -18.7863 -17.8879 -17.5955  -8.4282
    -8.1102  -8.0935  -8.0670  -7.9524  -7.8942  -7.8539  -7.6711  -7.6258
    -7.5578  -7.2874  -7.2864  -7.1941  -6.9820  -6.9501  -6.8072  -6.1951
    -5.7386  -5.7249  -5.7106  -5.4478  -5.4178  -5.3139  -5.1562  -4.8907
    -4.8829  -4.5277  -4.3720  -4.1994  -4.1239  -3.9397  -3.5612  -3.4201
    -3.2260  -3.2054  -3.1531  -2.9236  -2.7725  -2.4041  -1.8422  -1.8207
    -1.8031  -1.7581  -1.5749  -1.5031  -1.4039  -1.1170  -1.0880  -0.8684
    -0.7113  -0.6157  -0.4618  -0.2665   0.1202   0.2249   0.2273   0.5840
     0.7810   1.7398   2.0792   2.3517   2.3729   2.4960   2.8141   2.9421
     3.3224   3.4826   3.9231   4.1687   6.9380   8.2425

          k =-0.5000 0.1240 0.0000 ( 52218 PWs)   bands (ev):

   -50.4880 -50.3958 -50.3886 -50.3787 -50.3323 -50.3316 -50.3167 -50.2918
   -50.2781 -50.1968 -50.1245 -50.1134 -50.0514 -50.0235 -49.9911 -49.9833
   -49.8708 -49.6827 -19.9073 -19.8769 -19.8499 -19.8123 -19.5592 -19.4285
   -19.4120 -19.3565 -19.3502 -19.0591 -18.7855 -17.8890 -17.5948  -8.3950
    -8.3739  -8.2122  -8.1410  -8.0427  -7.9879  -7.9863  -7.9143  -7.7037
    -7.5952  -7.4605  -7.1374  -6.8977  -6.5561  -6.4069  -6.3357  -5.9555
    -5.8006  -5.7634  -5.6848  -5.6601  -5.4395  -5.3333  -4.7125  -4.6940
    -4.5759  -4.5239  -4.4641  -4.3609  -4.2019  -3.7821  -3.7448  -3.3881
    -3.2708  -3.2288  -3.1093  -3.0861  -3.0216  -2.5050  -2.0083  -1.8989
    -1.8483  -1.7650  -1.7331  -1.7101  -1.5735  -1.4644  -1.4350  -1.3744
    -1.1673  -0.6352   0.1825   0.2415   0.2604   0.3497   0.4393   0.5290
     0.7053   1.5542   1.6071   1.7607   1.7867   2.1060   2.8165   3.8838
     4.0207   4.1702   4.2318   4.3231   7.0940   8.2336

          k =-0.5000-0.2479 0.0000 ( 52228 PWs)   bands (ev):

   -50.4888 -50.3959 -50.3890 -50.3816 -50.3320 -50.3287 -50.3162 -50.2919
   -50.2782 -50.1968 -50.1246 -50.1132 -50.0513 -50.0230 -49.9911 -49.9833
   -49.8708 -49.6826 -19.9454 -19.9361 -19.9049 -19.8921 -19.5456 -19.4423
   -19.3286 -19.2696 -19.2665 -19.0611 -18.7846 -17.8901 -17.5941  -8.5923
    -8.4488  -8.3801  -8.3439  -7.9893  -7.9225  -7.8710  -7.8527  -7.8309
    -7.6293  -7.4693  -7.1986  -7.0163  -6.5128  -5.8833  -5.7979  -5.7614
    -5.7282  -5.6704  -5.4663  -5.4499  -5.2503  -5.1008  -5.0394  -4.9055
    -4.5843  -4.4346  -4.4267  -4.3962  -4.0830  -3.7026  -3.5763  -3.5266
    -3.4190  -3.3202  -3.1546  -3.1143  -3.0996  -2.6324  -2.5768  -2.2376
    -2.2211  -1.9248  -1.8323  -1.7433  -1.7187  -1.5736  -1.4430  -1.3977
    -1.2582  -0.6374   0.1906   0.2233   0.3370   0.6381   0.6401   0.6510
     0.7322   1.1609   1.1858   1.3517   1.8224   2.1302   2.8185   4.1137
     4.2876   4.4062   4.6866   4.8548   7.2522   8.2122

     the Fermi energy is     0.0408 ev

!    total energy              =   -1632.64854893 Ry
     estimated scf accuracy    <       0.00000063 Ry
     smearing contrib. (-TS)   =      -0.00163533 Ry
     internal energy E=F+TS    =   -1632.64691360 Ry

     The total energy is F=E-TS. E is the sum of the following terms:
     one-electron contribution =  -24454.89796705 Ry
     hartree contribution      =   12262.41592448 Ry
     xc contribution           =    -398.55571179 Ry
     ewald contribution        =   11082.11727701 Ry
     one-center paw contrib.   =    -123.72643624 Ry

     convergence has been achieved in  23 iterations

     negative rho (up, down):  1.905E+00 0.000E+00

     Forces acting on atoms (cartesian axes, Ry/au):

     atom    1 type  2   force =    -0.00002887    0.00000000    0.03754938
     atom    2 type  2   force =    -0.00005695    0.00000000   -0.03967130
     atom    3 type  2   force =    -0.00056270    0.00000000    0.00055562
     atom    4 type  2   force =     0.00056441    0.00000000   -0.00024680
     atom    5 type  2   force =    -0.00076579    0.00000000   -0.00094001
     atom    6 type  2   force =     0.00079268    0.00000000   -0.00118504
     atom    7 type  3   force =     0.00011451    0.00000000   -0.00013408
     atom    8 type  3   force =     0.00003467    0.00000000    0.03425462
     atom    9 type  3   force =     0.00000357    0.02152218   -0.02476265
     atom   10 type  3   force =     0.00000357   -0.02152218   -0.02476265
     atom   11 type  3   force =     0.00105476    0.00000000   -0.00058721
     atom   12 type  3   force =    -0.00192679    0.00000000    0.01742661
     atom   13 type  3   force =    -0.00043226   -0.00135292    0.00089645
     atom   14 type  3   force =    -0.00043226    0.00135292    0.00089645
     atom   15 type  3   force =     0.00107704    0.00000000   -0.00126670
     atom   16 type  3   force =     0.00043685    0.00000000   -0.00044088
     atom   17 type  3   force =    -0.00048821   -0.00079003    0.00115290
     atom   18 type  3   force =    -0.00048821    0.00079003    0.00115290
     atom   19 type  3   force =     0.00007900    0.00000000    0.00017432
     atom   20 type  1   force =     0.00102096    0.00000000   -0.00006191

     Total force =     0.004497     Total SCF correction =     0.002069
     SCF correction compared to forces is large: reduce conv_thr to get better values

     Writing all to output data dir ./tmp_s0_OH__vac32/s0_OH__vac32.save/ :
     XML data file, charge density, pseudopotentials, collected wavefunctions

     init_run     :     29.32s CPU     31.22s WALL (       1 calls)
     electrons    :   1339.19s CPU   1397.14s WALL (       1 calls)
     forces       :     12.26s CPU     13.40s WALL (       1 calls)

     Called by init_run:
     wfcinit      :     17.61s CPU     18.26s WALL (       1 calls)
     potinit      :      3.11s CPU      3.46s WALL (       1 calls)
     hinit0       :      2.91s CPU      3.03s WALL (       1 calls)

     Called by electrons:
     c_bands      :    960.53s CPU    982.57s WALL (      23 calls)
     sum_band     :    212.08s CPU    228.42s WALL (      23 calls)
     v_of_rho     :     28.70s CPU     32.39s WALL (      24 calls)
     newd         :     39.40s CPU     53.92s WALL (      24 calls)
     PAW_pot      :     12.56s CPU     12.56s WALL (      24 calls)
     mix_rho      :     86.19s CPU     88.24s WALL (      23 calls)

     Called by c_bands:
     init_us_2    :     14.90s CPU     15.05s WALL (     192 calls)
     cegterg      :    786.35s CPU    808.24s WALL (      92 calls)

     Called by *egterg:
     cdiaghg      :      8.06s CPU      8.07s WALL (     763 calls)
     h_psi        :    527.09s CPU    533.76s WALL (     767 calls)
     s_psi        :     60.97s CPU     60.99s WALL (     767 calls)
     g_psi        :      6.41s CPU      6.42s WALL (     671 calls)

     Called by h_psi:
     h_psi:calbec :     64.14s CPU     64.16s WALL (     767 calls)
     vloc_psi     :    393.99s CPU    394.31s WALL (     767 calls)
                                        0.00s GPU  (     767 calls)
     add_vuspsi   :     65.26s CPU     65.28s WALL (     767 calls)

     General routines
     calbec       :     91.20s CPU     91.23s WALL (     875 calls)
     fft          :     13.18s CPU     13.20s WALL (     321 calls)
     ffts         :     31.71s CPU     31.74s WALL (    2753 calls)
     fftw         :    412.29s CPU    412.50s WALL (   50700 calls)
     interpolate  :      2.45s CPU      2.48s WALL (      24 calls)

     Parallel routines

     PWSCF        :  23m 1.53s CPU  24m 2.75s WALL


   This run was terminated on:   0:58:20   8Aug2026            

=------------------------------------------------------------------------------=
   JOB DONE.
=------------------------------------------------------------------------------=
