
     Program PWSCF v.7.5 starts on  8Aug2026 at 17:48:46 

     This program is part of the open-source Quantum ESPRESSO suite
     for quantum simulation of materials; please cite
         "P. Giannozzi et al., J. Phys.:Condens. Matter 21 395502 (2009);
         "P. Giannozzi et al., J. Phys.:Condens. Matter 29 465901 (2017);
         "P. Giannozzi et al., J. Chem. Phys. 152 154105 (2020);
          URL http://www.quantum-espresso.org", 
     in publications or presentations arising from this work. More details at
     http://www.quantum-espresso.org/quote

     Parallel version (MPI & OpenMP), running on       4 processor cores
     Number of MPI processes:                 4
     Threads/MPI process:                     1

     MPI processes distributed on     1 nodes
     24257 MiB available memory on the printing compute node when the environment starts

     Reading input from s0_OH__dipole.run.in

     Current dimensions of program PWSCF are:
     Max number of different atomic species (ntypx) = 10
     Max number of k-points (npk) =  40000
     Max angular momentum in pseudopotentials (lmaxx) =  4
     Presently no symmetry can be used with electric field

     file O.pbe-n-kjpaw_psl.0.1.UPF: wavefunction(s)  2P renormalized

     K-points division:     npool     =       4
     Subspace diagonalization in iterative solution of the eigenvalue problem:
     a serial algorithm will be used


     G-vector sticks info
     --------------------
     sticks:   dense  smooth     PW     G-vecs:    dense   smooth      PW
     Sum        3639    1825    519               941385   332621   50331

     Using Slab Decomposition



     bravais-lattice index     =            0
     lattice parameter (alat)  =       5.9602  a.u.
     unit-cell volume          =    3444.9838 (a.u.)^3
     number of atoms/cell      =           20
     number of atomic types    =            3
     number of electrons       =       169.00
     number of Kohn-Sham states=          102
     kinetic-energy cutoff     =      80.0000  Ry
     charge density cutoff     =     640.0000  Ry
     scf convergence threshold =      1.0E-06
     mixing beta               =       0.3000
     number of iterations used =            8  local-TF  mixing
     Exchange-correlation= SLA  PW   PBX  PBC
                           (   1   4   3   4   0   0   0)

     celldm(1)=   5.960196  celldm(2)=   0.000000  celldm(3)=   0.000000
     celldm(4)=   0.000000  celldm(5)=   0.000000  celldm(6)=   0.000000

     crystal axes: (cart. coord. in units of alat)
               a(1) = (   1.000000   0.000000   0.000000 )  
               a(2) = (   0.000000   2.016846   0.000000 )  
               a(3) = (   0.000000   0.000000   8.067384 )  

     reciprocal axes: (cart. coord. in units 2 pi/alat)
               b(1) = (  1.000000  0.000000  0.000000 )  
               b(2) = (  0.000000  0.495824  0.000000 )  
               b(3) = (  0.000000  0.000000  0.123956 )  


     PseudoPot. # 1 for H  read from file:
     /usr/share/espresso/pseudo/H.pbe-rrkjus_psl.1.0.0.UPF
     MD5 check sum: f52b6d4d1c606e5624b1dc7b2218f220
     Pseudo is Ultrasoft, Zval =  1.0
     Generated using "atomic" code by A. Dal Corso  v.5.1
     Using radial grid of  929 points,  2 beta functions with: 
                l(1) =   0
                l(2) =   0
     Q(r) pseudized with 0 coefficients 


     PseudoPot. # 2 for Ir read from file:
     /usr/share/espresso/pseudo/Ir_pbe_v1.2.uspp.F.UPF
     MD5 check sum: 8836f839c3459d2b385c504ce6d91f2c
     Pseudo is Ultrasoft + core correction, Zval = 15.0
     Generated by new atomic code, or converted to UPF format
     Using radial grid of  983 points,  7 beta functions with: 
                l(1) =   0
                l(2) =   0
                l(3) =   1
                l(4) =   1
                l(5) =   1
                l(6) =   2
                l(7) =   2
     Q(r) pseudized with  8 coefficients,  rinner =    1.400   1.400   1.400
                                                       1.400   1.400

     PseudoPot. # 3 for O  read from file:
     /usr/share/espresso/pseudo/O.pbe-n-kjpaw_psl.0.1.UPF
     MD5 check sum: 0234752ac141de4415c5fc33072bef88
     Pseudo is Projector augmented-wave + core cor, Zval =  6.0
     Generated using "atomic" code by A. Dal Corso  v.5.0.99 svn rev. 10869
     Shape of augmentation charge: BESSEL
     Using radial grid of 1095 points,  4 beta functions with: 
                l(1) =   0
                l(2) =   0
                l(3) =   1
                l(4) =   1
     Q(r) pseudized with 0 coefficients 


     atomic species   valence    mass     pseudopotential
     H                 1.00     1.00800     H ( 1.00)
     Ir               15.00   192.21700     Ir( 1.00)
     O                 6.00    15.99900     O ( 1.00)

     No symmetry found



   Cartesian axes

     site n.     atom                  positions (alat units)
         1        Ir     tau(   1) = (   0.0000000   1.5126346   3.0252692  )
         2        Ir     tau(   2) = (   0.5000000   0.5042115   3.0252692  )
         3        Ir     tau(   3) = (  -0.0008242   0.5042115   4.0440689  )
         4        Ir     tau(   4) = (   0.4992639   1.5126346   4.0342031  )
         5        Ir     tau(   5) = (  -0.0026497   1.5126346   5.0620142  )
         6        Ir     tau(   6) = (   0.4951993   0.5042115   5.0709699  )
         7        O      tau(   7) = (   0.0000000   0.5042115   3.4185541  )
         8        O      tau(   8) = (   0.0000000   0.5042115   2.6319842  )
         9        O      tau(   9) = (   0.5000000   1.1193496   3.0252692  )
        10        O      tau(  10) = (   0.5000000   1.9059196   3.0252692  )
        11        O      tau(  11) = (  -0.0015798   1.5126346   4.4293404  )
        12        O      tau(  12) = (   0.0000000   1.5126346   3.6404072  )
        13        O      tau(  13) = (   0.4992996   0.1182431   4.0371691  )
        14        O      tau(  14) = (   0.4992996   0.8901799   4.0371691  )
        15        O      tau(  15) = (  -0.0050805   0.5042115   5.4448748  )
        16        O      tau(  16) = (  -0.0040464   0.5042115   4.6729430  )
        17        O      tau(  17) = (   0.4959964   1.1251299   5.0554257  )
        18        O      tau(  18) = (   0.4959964   1.9001393   5.0554257  )
        19        O      tau(  19) = (  -0.0349756   1.5126346   5.6753284  )
        20        H      tau(  20) = (   0.2502274   1.5126346   5.7991802  )

     number of k points=    18  Marzari-Vanderbilt smearing, width (Ry)=  0.0100
                       cart. coord. in units 2pi/alat
        k(    1) = (   0.0000000   0.0000000   0.0000000), wk =   0.0625000
        k(    2) = (   0.0000000   0.1239559   0.0000000), wk =   0.1250000
        k(    3) = (   0.0000000  -0.2479118   0.0000000), wk =   0.0625000
        k(    4) = (   0.1250000   0.0000000   0.0000000), wk =   0.1250000
        k(    5) = (   0.1250000   0.1239559   0.0000000), wk =   0.1250000
        k(    6) = (   0.1250000  -0.2479118   0.0000000), wk =   0.1250000
        k(    7) = (   0.1250000  -0.1239559   0.0000000), wk =   0.1250000
        k(    8) = (   0.2500000   0.0000000   0.0000000), wk =   0.1250000
        k(    9) = (   0.2500000   0.1239559   0.0000000), wk =   0.1250000
        k(   10) = (   0.2500000  -0.2479118   0.0000000), wk =   0.1250000
        k(   11) = (   0.2500000  -0.1239559   0.0000000), wk =   0.1250000
        k(   12) = (   0.3750000   0.0000000   0.0000000), wk =   0.1250000
        k(   13) = (   0.3750000   0.1239559   0.0000000), wk =   0.1250000
        k(   14) = (   0.3750000  -0.2479118   0.0000000), wk =   0.1250000
        k(   15) = (   0.3750000  -0.1239559   0.0000000), wk =   0.1250000
        k(   16) = (  -0.5000000   0.0000000   0.0000000), wk =   0.0625000
        k(   17) = (  -0.5000000   0.1239559   0.0000000), wk =   0.1250000
        k(   18) = (  -0.5000000  -0.2479118   0.0000000), wk =   0.0625000

     Dense  grid:   941385 G-vectors     FFT dimensions: (  48, 100, 400)

     Smooth grid:   332621 G-vectors     FFT dimensions: (  36,  72, 288)

     Estimated max dynamical RAM per process >       2.09 GB

     Estimated total dynamical RAM >       7.70 GB

     Initial potential from superposition of free atoms

     starting charge     165.9998, renormalised to     169.0000

     negative rho (up, down):  2.223E+00 0.000E+00

     Adding external electric field

     Computed dipole along edir(3) : 
        Dipole               -1.2115 Ry au,         -3.0792 Debye
        Dipole field         -0.0044 Ry au, 

        Potential amp.        0.3825 Ry
        Total length         43.2749 bohr

     Starting wfcs are  125 randomized atomic wfcs
     Checking if some PAW data can be deallocated... 

     total cpu time spent up to now is       39.2 secs

     per-process dynamical memory:   937.3 Mb

     Self-consistent Calculation

     iteration #  1     ecut=    80.00 Ry     beta= 0.30
     Davidson diagonalization with overlap
     ethr =  1.00E-02,  avg # of iterations =  6.3

     negative rho (up, down):  2.064E+00 0.000E+00

     Adding external electric field

     Computed dipole along edir(3) : 
        Dipole               -0.2750 Ry au,         -0.6991 Debye
        Dipole field         -0.0010 Ry au, 

        Potential amp.        0.0868 Ry
        Total length         43.2749 bohr


     total cpu time spent up to now is      126.7 secs

     total energy              =   -1632.25645117 Ry
     estimated scf accuracy    <     106.58298305 Ry

     iteration #  2     ecut=    80.00 Ry     beta= 0.30
     Davidson diagonalization with overlap
     ethr =  1.00E-02,  avg # of iterations =  1.3

     negative rho (up, down):  1.959E+00 0.000E+00

     Adding external electric field

     Computed dipole along edir(3) : 
        Dipole               -0.3135 Ry au,         -0.7969 Debye
        Dipole field         -0.0011 Ry au, 

        Potential amp.        0.0990 Ry
        Total length         43.2749 bohr


     total cpu time spent up to now is      198.8 secs

     total energy              =   -1632.92783383 Ry
     estimated scf accuracy    <       6.87944857 Ry

     iteration #  3     ecut=    80.00 Ry     beta= 0.30
     Davidson diagonalization with overlap
     ethr =  4.07E-03,  avg # of iterations =  1.3

     negative rho (up, down):  1.826E+00 0.000E+00

     Adding external electric field

     Computed dipole along edir(3) : 
        Dipole               -0.2757 Ry au,         -0.7007 Debye
        Dipole field         -0.0010 Ry au, 

        Potential amp.        0.0870 Ry
        Total length         43.2749 bohr


     total cpu time spent up to now is      269.6 secs

     total energy              =   -1632.30649227 Ry
     estimated scf accuracy    <       2.46221917 Ry

     iteration #  4     ecut=    80.00 Ry     beta= 0.30
     Davidson diagonalization with overlap
     ethr =  1.46E-03,  avg # of iterations =  6.5

     negative rho (up, down):  1.848E+00 0.000E+00

     Adding external electric field

     Computed dipole along edir(3) : 
        Dipole               -0.2516 Ry au,         -0.6395 Debye
        Dipole field         -0.0009 Ry au, 

        Potential amp.        0.0794 Ry
        Total length         43.2749 bohr


     total cpu time spent up to now is      357.4 secs

     total energy              =   -1632.68973054 Ry
     estimated scf accuracy    <       1.27325474 Ry

     iteration #  5     ecut=    80.00 Ry     beta= 0.30
     Davidson diagonalization with overlap
     ethr =  7.53E-04,  avg # of iterations =  1.8

     negative rho (up, down):  1.870E+00 0.000E+00

     Adding external electric field

     Computed dipole along edir(3) : 
        Dipole               -0.2218 Ry au,         -0.5638 Debye
        Dipole field         -0.0008 Ry au, 

        Potential amp.        0.0700 Ry
        Total length         43.2749 bohr


     total cpu time spent up to now is      431.5 secs

     total energy              =   -1632.65121971 Ry
     estimated scf accuracy    <       0.28770166 Ry

     iteration #  6     ecut=    80.00 Ry     beta= 0.30
     Davidson diagonalization with overlap
     ethr =  1.70E-04,  avg # of iterations =  3.8

     negative rho (up, down):  1.893E+00 0.000E+00

     Adding external electric field

     Computed dipole along edir(3) : 
        Dipole               -0.1848 Ry au,         -0.4696 Debye
        Dipole field         -0.0007 Ry au, 

        Potential amp.        0.0583 Ry
        Total length         43.2749 bohr


     total cpu time spent up to now is      510.2 secs

     total energy              =   -1632.64480657 Ry
     estimated scf accuracy    <       0.12055597 Ry

     iteration #  7     ecut=    80.00 Ry     beta= 0.30
     Davidson diagonalization with overlap
     ethr =  7.13E-05,  avg # of iterations =  3.4

     negative rho (up, down):  1.908E+00 0.000E+00

     Adding external electric field

     Computed dipole along edir(3) : 
        Dipole               -0.1655 Ry au,         -0.4207 Debye
        Dipole field         -0.0006 Ry au, 

        Potential amp.        0.0523 Ry
        Total length         43.2749 bohr


     total cpu time spent up to now is      588.1 secs

     total energy              =   -1632.64979622 Ry
     estimated scf accuracy    <       0.03360248 Ry

     iteration #  8     ecut=    80.00 Ry     beta= 0.30
     Davidson diagonalization with overlap
     ethr =  1.99E-05,  avg # of iterations =  4.5

     negative rho (up, down):  1.924E+00 0.000E+00

     Adding external electric field

     Computed dipole along edir(3) : 
        Dipole               -0.1385 Ry au,         -0.3520 Debye
        Dipole field         -0.0005 Ry au, 

        Potential amp.        0.0437 Ry
        Total length         43.2749 bohr


     total cpu time spent up to now is      667.9 secs

     total energy              =   -1632.64930649 Ry
     estimated scf accuracy    <       0.00745973 Ry

     iteration #  9     ecut=    80.00 Ry     beta= 0.30
     Davidson diagonalization with overlap
     ethr =  4.41E-06,  avg # of iterations =  5.2

     negative rho (up, down):  1.931E+00 0.000E+00

     Adding external electric field

     Computed dipole along edir(3) : 
        Dipole               -0.1188 Ry au,         -0.3019 Debye
        Dipole field         -0.0004 Ry au, 

        Potential amp.        0.0375 Ry
        Total length         43.2749 bohr


     total cpu time spent up to now is      747.3 secs

     total energy              =   -1632.64921895 Ry
     estimated scf accuracy    <       0.00313710 Ry

     iteration # 10     ecut=    80.00 Ry     beta= 0.30
     Davidson diagonalization with overlap
     ethr =  1.86E-06,  avg # of iterations =  6.5

     negative rho (up, down):  1.931E+00 0.000E+00

     Adding external electric field

     Computed dipole along edir(3) : 
        Dipole               -0.1012 Ry au,         -0.2572 Debye
        Dipole field         -0.0004 Ry au, 

        Potential amp.        0.0319 Ry
        Total length         43.2749 bohr


     total cpu time spent up to now is      828.3 secs

     total energy              =   -1632.64917123 Ry
     estimated scf accuracy    <       0.00082043 Ry

     iteration # 11     ecut=    80.00 Ry     beta= 0.30
     Davidson diagonalization with overlap
     ethr =  4.85E-07,  avg # of iterations =  4.8

     negative rho (up, down):  1.928E+00 0.000E+00

     Adding external electric field

     Computed dipole along edir(3) : 
        Dipole               -0.0950 Ry au,         -0.2416 Debye
        Dipole field         -0.0003 Ry au, 

        Potential amp.        0.0300 Ry
        Total length         43.2749 bohr


     total cpu time spent up to now is      904.2 secs

     total energy              =   -1632.64917435 Ry
     estimated scf accuracy    <       0.00206542 Ry

     iteration # 12     ecut=    80.00 Ry     beta= 0.30
     Davidson diagonalization with overlap
     ethr =  4.85E-07,  avg # of iterations =  2.6

     negative rho (up, down):  1.921E+00 0.000E+00

     Adding external electric field

     Computed dipole along edir(3) : 
        Dipole               -0.0677 Ry au,         -0.1721 Debye
        Dipole field         -0.0002 Ry au, 

        Potential amp.        0.0214 Ry
        Total length         43.2749 bohr


     total cpu time spent up to now is      978.0 secs

     total energy              =   -1632.64900663 Ry
     estimated scf accuracy    <       0.00206545 Ry

     iteration # 13     ecut=    80.00 Ry     beta= 0.30
     Davidson diagonalization with overlap
     ethr =  4.85E-07,  avg # of iterations =  9.8

     negative rho (up, down):  1.915E+00 0.000E+00

     Adding external electric field

     Computed dipole along edir(3) : 
        Dipole               -0.0460 Ry au,         -0.1168 Debye
        Dipole field         -0.0002 Ry au, 

        Potential amp.        0.0145 Ry
        Total length         43.2749 bohr


     total cpu time spent up to now is     1062.7 secs

     total energy              =   -1632.64882993 Ry
     estimated scf accuracy    <       0.00159993 Ry

     iteration # 14     ecut=    80.00 Ry     beta= 0.30
     Davidson diagonalization with overlap
     ethr =  4.85E-07,  avg # of iterations = 12.0

     negative rho (up, down):  1.914E+00 0.000E+00

     Adding external electric field

     Computed dipole along edir(3) : 
        Dipole               -0.0434 Ry au,         -0.1103 Debye
        Dipole field         -0.0002 Ry au, 

        Potential amp.        0.0137 Ry
        Total length         43.2749 bohr


     total cpu time spent up to now is     1150.6 secs

     total energy              =   -1632.64875592 Ry
     estimated scf accuracy    <       0.00034336 Ry

     iteration # 15     ecut=    80.00 Ry     beta= 0.30
     Davidson diagonalization with overlap
     ethr =  2.03E-07,  avg # of iterations =  9.1

     negative rho (up, down):  1.917E+00 0.000E+00

     Adding external electric field

     Computed dipole along edir(3) : 
        Dipole               -0.0480 Ry au,         -0.1219 Debye
        Dipole field         -0.0002 Ry au, 

        Potential amp.        0.0151 Ry
        Total length         43.2749 bohr


     total cpu time spent up to now is     1234.0 secs

     total energy              =   -1632.64870495 Ry
     estimated scf accuracy    <       0.00017762 Ry

     iteration # 16     ecut=    80.00 Ry     beta= 0.30
     Davidson diagonalization with overlap
     ethr =  1.05E-07,  avg # of iterations =  7.5

     negative rho (up, down):  1.916E+00 0.000E+00

     Adding external electric field

     Computed dipole along edir(3) : 
        Dipole               -0.0531 Ry au,         -0.1348 Debye
        Dipole field         -0.0002 Ry au, 

        Potential amp.        0.0167 Ry
        Total length         43.2749 bohr


     total cpu time spent up to now is     1314.8 secs

     total energy              =   -1632.64868121 Ry
     estimated scf accuracy    <       0.00017770 Ry

     iteration # 17     ecut=    80.00 Ry     beta= 0.30
     Davidson diagonalization with overlap
     ethr =  1.05E-07,  avg # of iterations =  2.2

     negative rho (up, down):  1.911E+00 0.000E+00

     Adding external electric field

     Computed dipole along edir(3) : 
        Dipole               -0.0809 Ry au,         -0.2057 Debye
        Dipole field         -0.0003 Ry au, 

        Potential amp.        0.0255 Ry
        Total length         43.2749 bohr


     total cpu time spent up to now is     1389.2 secs

     total energy              =   -1632.64854125 Ry
     estimated scf accuracy    <       0.00012327 Ry

     iteration # 18     ecut=    80.00 Ry     beta= 0.30
     Davidson diagonalization with overlap
     ethr =  7.29E-08,  avg # of iterations = 12.0

     negative rho (up, down):  1.910E+00 0.000E+00

     Adding external electric field

     Computed dipole along edir(3) : 
        Dipole               -0.0945 Ry au,         -0.2401 Debye
        Dipole field         -0.0003 Ry au, 

        Potential amp.        0.0298 Ry
        Total length         43.2749 bohr


     total cpu time spent up to now is     1476.7 secs

     total energy              =   -1632.64852861 Ry
     estimated scf accuracy    <       0.00021058 Ry

     iteration # 19     ecut=    80.00 Ry     beta= 0.30
     Davidson diagonalization with overlap
     ethr =  7.29E-08,  avg # of iterations =  4.4

     negative rho (up, down):  1.908E+00 0.000E+00

     Adding external electric field

     Computed dipole along edir(3) : 
        Dipole               -0.0965 Ry au,         -0.2453 Debye
        Dipole field         -0.0004 Ry au, 

        Potential amp.        0.0305 Ry
        Total length         43.2749 bohr


     total cpu time spent up to now is     1553.4 secs

     total energy              =   -1632.64851150 Ry
     estimated scf accuracy    <       0.00002426 Ry

     iteration # 20     ecut=    80.00 Ry     beta= 0.30
     Davidson diagonalization with overlap
     c_bands:  1 eigenvalues not converged
     ethr =  1.44E-08,  avg # of iterations =  4.7

     negative rho (up, down):  1.908E+00 0.000E+00

     Adding external electric field

     Computed dipole along edir(3) : 
        Dipole               -0.0991 Ry au,         -0.2518 Debye
        Dipole field         -0.0004 Ry au, 

        Potential amp.        0.0313 Ry
        Total length         43.2749 bohr


     total cpu time spent up to now is     1631.3 secs

     total energy              =   -1632.64850885 Ry
     estimated scf accuracy    <       0.00002060 Ry

     iteration # 21     ecut=    80.00 Ry     beta= 0.30
     Davidson diagonalization with overlap
     ethr =  1.22E-08,  avg # of iterations =  1.5

     negative rho (up, down):  1.908E+00 0.000E+00

     Adding external electric field

     Computed dipole along edir(3) : 
        Dipole               -0.0989 Ry au,         -0.2513 Debye
        Dipole field         -0.0004 Ry au, 

        Potential amp.        0.0312 Ry
        Total length         43.2749 bohr


     total cpu time spent up to now is     1704.2 secs

     total energy              =   -1632.64850389 Ry
     estimated scf accuracy    <       0.00000536 Ry

     iteration # 22     ecut=    80.00 Ry     beta= 0.30
     Davidson diagonalization with overlap
     ethr =  3.17E-09,  avg # of iterations =  3.3

     negative rho (up, down):  1.908E+00 0.000E+00

     Adding external electric field

     Computed dipole along edir(3) : 
        Dipole               -0.1008 Ry au,         -0.2561 Debye
        Dipole field         -0.0004 Ry au, 

        Potential amp.        0.0318 Ry
        Total length         43.2749 bohr


     total cpu time spent up to now is     1780.8 secs

     total energy              =   -1632.64850378 Ry
     estimated scf accuracy    <       0.00000590 Ry

     iteration # 23     ecut=    80.00 Ry     beta= 0.30
     Davidson diagonalization with overlap
     ethr =  3.17E-09,  avg # of iterations =  1.1

     negative rho (up, down):  1.908E+00 0.000E+00

     Adding external electric field

     Computed dipole along edir(3) : 
        Dipole               -0.0925 Ry au,         -0.2352 Debye
        Dipole field         -0.0003 Ry au, 

        Potential amp.        0.0292 Ry
        Total length         43.2749 bohr


     total cpu time spent up to now is     1846.1 secs

     End of self-consistent calculation

          k = 0.0000 0.0000 0.0000 ( 41611 PWs)   bands (ev):

   -48.9309 -48.8307 -48.8194 -48.7717 -48.7283 -48.7212 -48.6576 -48.6485
   -48.6471 -48.6093 -48.5653 -48.5021 -48.4538 -48.4345 -48.4325 -48.3480
   -48.3216 -48.1341 -19.4457 -19.1117 -18.9815 -18.6753 -18.0837 -17.8971
   -17.7586 -17.4804 -17.4150 -17.4062 -17.3679 -16.2628 -16.0149  -8.1593
    -8.1074  -8.0951  -7.5992  -6.8120  -6.4891  -6.4055  -6.3527  -6.2342
    -5.9577  -5.7483  -5.7260  -5.5575  -5.3031  -5.1923  -4.1713  -4.0915
    -3.5779  -3.5309  -3.4027  -3.1136  -3.1009  -2.9498  -2.8340  -2.7449
    -2.6666  -2.6632  -2.4605  -2.3489  -2.2188  -2.1682  -1.8314  -1.7263
    -1.5222  -1.3883  -1.1328  -1.0698  -0.9152  -0.8441  -0.8375  -0.7938
    -0.7661  -0.7041  -0.6605  -0.5170  -0.3892  -0.3398   0.1077   0.2179
     0.3101   0.7196   0.8663   1.1194   1.6737   1.8581   1.9503   2.3870
     2.7186   3.1970   3.8507   4.2973   5.1302   5.1516   5.7693   5.7843
     5.7970   5.8488   6.0844   6.1471   6.5303   6.8757

          k = 0.0000 0.1240 0.0000 ( 41688 PWs)   bands (ev):

   -48.9301 -48.8304 -48.8186 -48.7717 -48.7283 -48.7210 -48.6577 -48.6485
   -48.6470 -48.6095 -48.5661 -48.5030 -48.4537 -48.4345 -48.4325 -48.3480
   -48.3216 -48.1346 -19.3196 -18.9655 -18.8534 -18.7039 -18.1291 -18.0094
   -17.7545 -17.6149 -17.5807 -17.5098 -17.3984 -16.2604 -16.0116  -7.6623
    -7.6104  -7.5752  -7.5364  -6.8111  -6.4086  -6.3522  -6.3275  -6.1442
    -5.8594  -5.7464  -5.6218  -5.5563  -5.3143  -5.0045  -4.4085  -4.2087
    -4.1389  -3.9857  -3.9157  -3.7055  -3.6465  -3.3916  -3.2707  -3.2450
    -3.0298  -2.8250  -2.4260  -2.3620  -2.2532  -2.1642  -2.0271  -1.7424
    -1.6665  -1.2835  -1.2165  -0.9865  -0.9247  -0.5628  -0.4167  -0.3951
    -0.2915  -0.2753  -0.2316  -0.1719  -0.1595  -0.0425   0.1280   0.3169
     0.3263   0.7178   0.8560   1.1790   1.6149   1.7300   1.9642   2.1470
     2.5225   3.7139   4.4328   4.7248   5.1334   5.2682   5.4813   5.4876
     5.5126   5.8552   6.1431   6.1516   6.6724   6.7958

          k = 0.0000-0.2479 0.0000 ( 41774 PWs)   bands (ev):

   -48.9294 -48.8300 -48.8177 -48.7717 -48.7283 -48.7209 -48.6578 -48.6485
   -48.6468 -48.6097 -48.5669 -48.5040 -48.4537 -48.4345 -48.4325 -48.3481
   -48.3216 -48.1351 -19.1086 -18.8966 -18.7255 -18.5114 -18.2815 -18.2637
   -17.8165 -17.7228 -17.7167 -17.6046 -17.3979 -16.2591 -16.0089  -7.6086
    -6.8250  -6.7974  -6.7305  -6.6235  -6.3513  -6.3160  -6.2422  -6.0413
    -5.8231  -5.7432  -5.5540  -5.3224  -5.2675  -5.1847  -5.1534  -5.1003
    -4.9956  -4.5609  -4.3234  -4.0316  -3.7295  -3.6759  -3.6210  -3.4814
    -3.4116  -3.1481  -2.4276  -2.4038  -2.0497  -2.0089  -1.9227  -1.7098
    -1.6878  -1.4192  -1.0655  -1.0430  -0.8833  -0.5172  -0.4377  -0.3604
    -0.0308   0.0057   0.0722   0.1314   0.2352   0.2846   0.4137   0.5099
     0.6722   0.7859   0.9530   0.9587   1.4278   1.6027   1.9272   1.9734
     2.3750   4.2785   4.5354   5.1352   5.1534   5.1753   5.2057   5.4598
     5.6440   5.8559   6.0005   6.1514   6.5484   7.4221

          k = 0.1250 0.0000 0.0000 ( 41611 PWs)   bands (ev):

   -48.9296 -48.8296 -48.8181 -48.7709 -48.7371 -48.7273 -48.6742 -48.6639
   -48.6458 -48.6255 -48.5631 -48.4999 -48.4695 -48.4322 -48.4315 -48.3644
   -48.3193 -48.1318 -19.3048 -18.9871 -18.8615 -18.5730 -18.0159 -17.8172
   -17.8024 -17.5604 -17.4948 -17.4528 -17.3863 -16.3157 -16.0574  -7.9740
    -7.9262  -7.9170  -7.4164  -6.7773  -6.4655  -6.3971  -6.3479  -6.1981
    -5.8479  -5.7461  -5.3188  -5.2583  -5.2261  -5.0000  -4.3737  -4.0443
    -3.9516  -3.5812  -3.5004  -3.4351  -3.4109  -3.3455  -3.2715  -3.0248
    -2.8695  -2.6636  -2.5571  -2.4565  -2.4207  -2.2252  -2.2178  -2.0664
    -1.9924  -1.6058  -1.5698  -1.0599  -0.9582  -0.6884  -0.6281  -0.5117
    -0.4159  -0.3780  -0.3459  -0.3280  -0.0039   0.0890   0.2272   0.3923
     0.5219   1.0516   1.0647   1.2677   1.5355   1.7872   2.0095   2.2343
     2.5572   3.4229   4.0740   4.4811   4.7183   5.1598   5.3908   5.3996
     5.4203   5.4556   5.6743   6.2310   6.7978   6.9237

          k = 0.1250 0.1240 0.0000 ( 41692 PWs)   bands (ev):

   -48.9291 -48.8293 -48.8176 -48.7709 -48.7370 -48.7273 -48.6742 -48.6636
   -48.6458 -48.6258 -48.5637 -48.5007 -48.4694 -48.4322 -48.4315 -48.3644
   -48.3193 -48.1322 -19.1844 -18.8464 -18.7337 -18.6010 -18.0581 -17.9430
   -17.7997 -17.6811 -17.6458 -17.5657 -17.3807 -16.3140 -16.0547  -7.4922
    -7.4420  -7.4216  -7.3846  -6.7779  -6.4004  -6.3701  -6.2556  -6.1023
    -5.9306  -5.4995  -5.3024  -5.2598  -5.2451  -4.8997  -4.3449  -4.2784
    -4.2017  -4.0804  -3.9687  -3.8841  -3.8300  -3.7251  -3.6522  -3.5468
    -3.2879  -3.1127  -2.7901  -2.5754  -2.2942  -2.1906  -2.1004  -2.0242
    -1.7180  -1.4955  -1.2264  -1.1051  -0.9511  -0.5481  -0.4651  -0.3008
    -0.2414  -0.0955  -0.0259   0.1088   0.1643   0.1851   0.3411   0.4780
     0.6034   1.0255   1.1337   1.2501   1.5276   1.6052   1.9367   2.1173
     2.4129   3.8472   4.5123   4.6895   4.7174   4.9561   5.0641   5.2089
     5.3541   5.5342   5.6786   6.2606   6.7069   7.1974

          k = 0.1250-0.2479 0.0000 ( 41706 PWs)   bands (ev):

   -48.9286 -48.8291 -48.8170 -48.7708 -48.7369 -48.7273 -48.6741 -48.6634
   -48.6458 -48.6260 -48.5643 -48.5014 -48.4694 -48.4322 -48.4315 -48.3644
   -48.3193 -48.1326 -18.9850 -18.7674 -18.6050 -18.3985 -18.2249 -18.2141
   -17.8890 -17.7667 -17.7642 -17.6227 -17.3789 -16.3131 -16.0524  -7.4229
    -6.7789  -6.5854  -6.5046  -6.4319  -6.4052  -6.3704  -6.3524  -6.2501
    -5.9483  -5.3377  -5.2923  -5.2614  -5.0017  -4.9706  -4.8491  -4.8250
    -4.6921  -4.6881  -4.6354  -4.4186  -4.3326  -3.9433  -3.8958  -3.6580
    -3.5030  -3.4068  -2.8786  -2.6063  -2.1502  -2.1373  -1.8455  -1.7850
    -1.6543  -1.4003  -1.1649  -1.0075  -0.9861  -0.4904  -0.4311  -0.1654
    -0.1387  -0.0939  -0.0167   0.1731   0.4677   0.5919   0.6879   0.8274
     0.8436   1.0506   1.0557   1.3004   1.3580   1.5411   1.8204   1.8837
     2.3889   4.3752   4.4003   4.5733   4.6065   4.6490   4.9391   5.3698
     5.5901   5.7040   5.7042   6.0665   6.7306   7.7464

          k = 0.1250-0.1240 0.0000 ( 41692 PWs)   bands (ev):

   -48.9291 -48.8293 -48.8176 -48.7709 -48.7370 -48.7273 -48.6742 -48.6636
   -48.6458 -48.6258 -48.5637 -48.5007 -48.4694 -48.4322 -48.4315 -48.3644
   -48.3193 -48.1322 -19.1844 -18.8464 -18.7337 -18.6010 -18.0581 -17.9430
   -17.7997 -17.6811 -17.6458 -17.5657 -17.3807 -16.3140 -16.0547  -7.4922
    -7.4420  -7.4216  -7.3846  -6.7779  -6.4004  -6.3701  -6.2556  -6.1023
    -5.9306  -5.4995  -5.3024  -5.2598  -5.2451  -4.8997  -4.3449  -4.2784
    -4.2017  -4.0804  -3.9687  -3.8841  -3.8300  -3.7251  -3.6522  -3.5468
    -3.2879  -3.1127  -2.7901  -2.5754  -2.2942  -2.1906  -2.1004  -2.0242
    -1.7180  -1.4955  -1.2264  -1.1051  -0.9511  -0.5481  -0.4651  -0.3008
    -0.2414  -0.0955  -0.0259   0.1088   0.1643   0.1851   0.3411   0.4780
     0.6034   1.0255   1.1337   1.2501   1.5276   1.6052   1.9367   2.1173
     2.4129   3.8472   4.5123   4.6895   4.7174   4.9561   5.0641   5.2089
     5.3541   5.5342   5.6786   6.2606   6.7069   7.1974

          k = 0.2500 0.0000 0.0000 ( 41623 PWs)   bands (ev):

   -48.9266 -48.8269 -48.8150 -48.7783 -48.7659 -48.7251 -48.7141 -48.7029
   -48.6643 -48.6401 -48.5578 -48.5071 -48.4946 -48.4291 -48.4265 -48.4038
   -48.3138 -48.1261 -18.9380 -18.6756 -18.5618 -18.3420 -17.9544 -17.8817
   -17.7491 -17.6806 -17.6504 -17.6164 -17.3229 -16.3950 -16.1093  -7.4884
    -7.4428  -7.4398  -6.9393  -6.5868  -6.3926  -6.3683  -6.1693  -5.9813
    -5.7926  -5.5998  -5.2303  -5.2234  -4.9248  -4.7137  -4.5870  -4.5264
    -4.5162  -4.4752  -4.0123  -3.7912  -3.7248  -3.4246  -3.3279  -3.2015
    -3.1510  -3.0498  -2.9706  -2.9046  -2.8056  -2.5787  -2.2872  -2.0522
    -1.8813  -1.5854  -1.5108  -1.2678  -1.1495  -0.8487  -0.4514  -0.2430
    -0.2036  -0.1498  -0.0063   0.0288   0.4236   0.6578   0.7361   0.8166
     1.0424   1.1272   1.1678   1.3895   1.4032   1.6059   1.8777   2.1197
     2.1580   3.7959   4.1083   4.3432   4.5848   4.6646   4.6713   4.7385
     4.8848   4.9462   5.5362   5.9920   7.0988   7.9255

          k = 0.2500 0.1240 0.0000 ( 41653 PWs)   bands (ev):

   -48.9266 -48.8269 -48.8153 -48.7783 -48.7659 -48.7251 -48.7135 -48.7025
   -48.6646 -48.6401 -48.5580 -48.5072 -48.4950 -48.4291 -48.4265 -48.4037
   -48.3138 -48.1263 -18.8411 -18.5633 -18.4478 -18.3680 -18.0118 -17.9237
   -17.8217 -17.8132 -17.7772 -17.5878 -17.3192 -16.3953 -16.1085  -7.1049
    -7.0654  -7.0610  -6.9370  -6.5861  -6.3921  -6.2131  -6.0163  -5.8718
    -5.8447  -5.6611  -5.3539  -5.1122  -5.0601  -5.0375  -4.9094  -4.8061
    -4.6627  -4.2259  -4.0875  -3.8825  -3.6980  -3.5868  -3.5269  -3.4693
    -3.4499  -3.3238  -3.1951  -2.9234  -2.6562  -2.3839  -2.3301  -2.0662
    -1.8617  -1.7232  -1.3711  -1.2038  -1.0744  -1.0101  -0.5014  -0.1350
    -0.0329   0.1328   0.2198   0.2746   0.4288   0.4730   0.8359   0.8760
     1.0758   1.1274   1.2211   1.3970   1.4403   1.5506   1.7459   1.9324
     2.3197   3.8877   4.0169   4.0552   4.1250   4.1654   4.7908   4.9070
     5.1602   5.3537   5.7043   6.1072   7.1602   8.1484

          k = 0.2500-0.2479 0.0000 ( 41680 PWs)   bands (ev):

   -48.9266 -48.8269 -48.8156 -48.7783 -48.7659 -48.7251 -48.7128 -48.7021
   -48.6649 -48.6401 -48.5582 -48.5072 -48.4954 -48.4291 -48.4265 -48.4035
   -48.3138 -48.1265 -18.6846 -18.4591 -18.3257 -18.2160 -18.1427 -18.1369
   -18.0370 -17.8682 -17.8042 -17.5836 -17.3165 -16.3958 -16.1078  -6.9404
    -6.5922  -6.4523  -6.4153  -6.4012  -6.3958  -5.9561  -5.9138  -5.8785
    -5.8086  -5.7952  -5.6781  -5.6503  -5.5575  -5.1928  -4.9518  -4.6806
    -4.4390  -4.4013  -4.2319  -4.1453  -4.1049  -3.8792  -3.7793  -3.7647
    -3.5947  -3.4788  -3.4098  -2.9601  -2.3479  -2.2304  -1.9519  -1.9429
    -1.8055  -1.7744  -1.5018  -1.2906  -1.0697  -0.7709  -0.3742  -0.3648
    -0.0936   0.0891   0.1293   0.5761   0.5898   0.6304   0.9368   1.0230
     1.1327   1.1431   1.2689   1.4570   1.4830   1.5915   1.7097   1.7216
     2.4040   3.5612   3.5965   3.6749   4.0412   4.1656   4.9095   5.1277
     5.2021   5.7715   5.8692   6.1322   7.2678   8.8316

          k = 0.2500-0.1240 0.0000 ( 41653 PWs)   bands (ev):

   -48.9266 -48.8269 -48.8153 -48.7783 -48.7659 -48.7251 -48.7135 -48.7025
   -48.6646 -48.6401 -48.5580 -48.5072 -48.4950 -48.4291 -48.4265 -48.4037
   -48.3138 -48.1263 -18.8411 -18.5633 -18.4478 -18.3680 -18.0118 -17.9237
   -17.8217 -17.8132 -17.7772 -17.5878 -17.3192 -16.3953 -16.1085  -7.1049
    -7.0654  -7.0610  -6.9370  -6.5861  -6.3921  -6.2131  -6.0163  -5.8718
    -5.8447  -5.6611  -5.3539  -5.1122  -5.0601  -5.0375  -4.9094  -4.8061
    -4.6627  -4.2259  -4.0875  -3.8825  -3.6980  -3.5868  -3.5269  -3.4693
    -3.4499  -3.3238  -3.1951  -2.9234  -2.6562  -2.3839  -2.3301  -2.0662
    -1.8617  -1.7232  -1.3711  -1.2038  -1.0744  -1.0101  -0.5014  -0.1350
    -0.0329   0.1328   0.2198   0.2746   0.4288   0.4730   0.8359   0.8760
     1.0758   1.1274   1.2211   1.3970   1.4403   1.5506   1.7459   1.9324
     2.3197   3.8877   4.0169   4.0552   4.1250   4.1654   4.7908   4.9070
     5.1602   5.3537   5.7043   6.1072   7.1602   8.1484

          k = 0.3750 0.0000 0.0000 ( 41645 PWs)   bands (ev):

   -48.9237 -48.8242 -48.8152 -48.8119 -48.7661 -48.7542 -48.7405 -48.7238
   -48.7017 -48.6344 -48.5525 -48.5445 -48.4892 -48.4430 -48.4268 -48.4209
   -48.3083 -48.1205 -18.5087 -18.3553 -18.2452 -18.2087 -17.9835 -17.9316
   -17.8586 -17.8504 -17.8380 -17.5062 -17.2501 -16.3707 -16.0748  -6.9208
    -6.9003  -6.8536  -6.5405  -6.3661  -6.3102  -6.2151  -6.2030  -6.0086
    -5.8936  -5.6558  -5.6368  -5.5162  -5.4312  -5.2630  -4.8776  -4.5634
    -4.4899  -4.3645  -4.0207  -3.8892  -3.8144  -3.6656  -3.5543  -3.2392
    -3.1960  -3.0543  -2.8978  -2.7380  -2.5944  -2.5378  -2.5027  -1.8945
    -1.7833  -1.6121  -1.4272  -1.3200  -1.2668  -0.8799  -0.3215  -0.2744
    -0.1499  -0.1149   0.1119   0.1279   0.5518   0.6529   0.6907   0.7515
     0.9205   1.0579   1.0967   1.3931   1.4564   1.6646   1.9392   1.9929
     2.1317   3.5217   3.7074   4.1070   4.1264   4.2316   4.4558   4.5012
     4.8333   5.0539   5.5502   5.6711   7.8874   9.1431

          k = 0.3750 0.1240 0.0000 ( 41549 PWs)   bands (ev):

   -48.9242 -48.8245 -48.8154 -48.8138 -48.7661 -48.7521 -48.7399 -48.7238
   -48.7019 -48.6344 -48.5524 -48.5446 -48.4893 -48.4427 -48.4268 -48.4209
   -48.3083 -48.1204 -18.4792 -18.3345 -18.2783 -18.2305 -18.0318 -17.9745
   -17.8450 -17.8265 -17.7953 -17.5085 -17.2481 -16.3724 -16.0749  -6.8073
    -6.7614  -6.7260  -6.5574  -6.3987  -6.3408  -6.2716  -6.2008  -6.1351
    -6.0585  -5.9745  -5.4943  -5.2947  -5.2401  -5.0414  -4.9513  -4.6429
    -4.5878  -4.1153  -3.9432  -3.8433  -3.7324  -3.6092  -3.3875  -3.3302
    -3.1641  -3.0390  -3.0020  -2.9749  -2.7064  -2.3383  -2.2693  -2.1417
    -1.8156  -1.6492  -1.5696  -1.3908  -1.2594  -1.0395  -0.4743  -0.2088
    -0.1759  -0.0806  -0.0027   0.0311   0.2474   0.2839   0.5645   0.6611
     0.7287   1.0447   1.6038   1.6249   1.6819   1.7961   1.8533   2.0192
     2.1715   3.3327   3.3993   3.5315   3.5992   3.7379   4.4740   5.1836
     5.4774   5.6342   5.8358   5.8680   7.9870   9.3156

          k = 0.3750-0.2479 0.0000 ( 41514 PWs)   bands (ev):

   -48.9248 -48.8247 -48.8157 -48.8154 -48.7660 -48.7501 -48.7392 -48.7238
   -48.7021 -48.6344 -48.5522 -48.5447 -48.4893 -48.4423 -48.4268 -48.4209
   -48.3083 -48.1204 -18.4320 -18.3361 -18.2843 -18.2727 -18.0648 -18.0129
   -17.8285 -17.8051 -17.7747 -17.5108 -17.2460 -16.3740 -16.0750  -6.6976
    -6.5997  -6.5481  -6.4880  -6.4010  -6.3705  -6.3522  -6.2515  -6.2502
    -6.1846  -6.1680  -5.5534  -5.2909  -5.0366  -4.8397  -4.7434  -4.6588
    -4.4934  -4.0836  -3.9340  -3.8426  -3.7316  -3.4564  -3.4477  -3.3753
    -3.1972  -3.1694  -3.1319  -2.9902  -2.6031  -2.2715  -2.2598  -1.9786
    -1.9339  -1.6676  -1.4961  -1.4245  -1.3784  -1.1179  -0.8105  -0.6681
    -0.3616  -0.1518  -0.0365   0.1375   0.1765   0.3971   0.5624   0.6283
     0.6849   0.9560   1.5951   1.6407   1.7958   1.9679   2.0234   2.0537
     2.3051   2.9183   2.9435   3.0841   3.6058   3.7531   4.4747   5.5085
     5.6398   5.8930   6.1559   6.2886   8.0898   9.6218

          k = 0.3750-0.1240 0.0000 ( 41549 PWs)   bands (ev):

   -48.9242 -48.8245 -48.8154 -48.8138 -48.7661 -48.7521 -48.7399 -48.7238
   -48.7019 -48.6344 -48.5524 -48.5446 -48.4893 -48.4427 -48.4268 -48.4209
   -48.3083 -48.1204 -18.4792 -18.3345 -18.2783 -18.2305 -18.0318 -17.9745
   -17.8450 -17.8265 -17.7953 -17.5085 -17.2481 -16.3724 -16.0749  -6.8073
    -6.7614  -6.7260  -6.5574  -6.3987  -6.3408  -6.2716  -6.2008  -6.1351
    -6.0585  -5.9745  -5.4943  -5.2947  -5.2401  -5.0414  -4.9513  -4.6429
    -4.5878  -4.1153  -3.9432  -3.8433  -3.7324  -3.6092  -3.3875  -3.3302
    -3.1641  -3.0390  -3.0020  -2.9749  -2.7064  -2.3383  -2.2693  -2.1417
    -1.8156  -1.6492  -1.5696  -1.3908  -1.2594  -1.0395  -0.4743  -0.2088
    -0.1759  -0.0806  -0.0027   0.0311   0.2474   0.2839   0.5645   0.6611
     0.7287   1.0447   1.6038   1.6249   1.6819   1.7961   1.8533   2.0192
     2.1715   3.3327   3.3993   3.5315   3.5992   3.7379   4.4740   5.1836
     5.4774   5.6342   5.8358   5.8680   7.9870   9.3155

          k =-0.5000 0.0000 0.0000 ( 41440 PWs)   bands (ev):

   -48.9224 -48.8309 -48.8231 -48.8106 -48.7706 -48.7685 -48.7532 -48.7271
   -48.7133 -48.6320 -48.5599 -48.5503 -48.4870 -48.4591 -48.4258 -48.4186
   -48.3060 -48.1181 -18.3455 -18.2059 -18.1429 -18.0977 -18.0059 -18.0054
   -17.9305 -17.9128 -17.8529 -17.4928 -17.2185 -16.3225 -16.0328  -6.8642
    -6.5461  -6.5286  -6.5031  -6.3884  -6.3302  -6.2901  -6.1072  -6.0616
    -5.9936  -5.7235  -5.7224  -5.6301  -5.4182  -5.3859  -5.2430  -4.6300
    -4.1749  -4.1610  -4.1468  -3.8837  -3.8535  -3.7501  -3.5916  -3.3268
    -3.3189  -2.9636  -2.8077  -2.6353  -2.5598  -2.3753  -1.9969  -1.8538
    -1.6598  -1.6443  -1.5870  -1.3592  -1.2080  -0.8405  -0.2778  -0.2566
    -0.2387  -0.1944  -0.0102   0.0611   0.1602   0.4472   0.4762   0.6959
     0.8528   0.9497   1.1023   1.2976   1.6844   1.7894   1.7905   2.1483
     2.3454   3.3042   3.6433   3.9155   3.9368   4.0600   4.3783   4.5064
     4.8869   5.0466   5.4880   5.7330   8.4949   9.7853

          k =-0.5000 0.1240 0.0000 ( 41518 PWs)   bands (ev):

   -48.9233 -48.8311 -48.8235 -48.8140 -48.7682 -48.7672 -48.7527 -48.7272
   -48.7135 -48.6320 -48.5600 -48.5500 -48.4869 -48.4587 -48.4258 -48.4186
   -48.3060 -48.1180 -18.3432 -18.3131 -18.2863 -18.2486 -17.9949 -17.8644
   -17.8481 -17.7930 -17.7865 -17.4949 -17.2177 -16.3236 -16.0321  -6.8309
    -6.8100  -6.6485  -6.5774  -6.4783  -6.4232  -6.4223  -6.3504  -6.1389
    -6.0310  -5.8963  -5.5731  -5.3335  -4.9920  -4.8431  -4.7710  -4.3917
    -4.2370  -4.1995  -4.1209  -4.0962  -3.8754  -3.7685  -3.1484  -3.1300
    -3.0119  -2.9598  -2.9001  -2.7969  -2.6378  -2.2173  -2.1805  -1.8218
    -1.7055  -1.6655  -1.5454  -1.5214  -1.4572  -0.9411  -0.4440  -0.3344
    -0.2839  -0.2009  -0.1694  -0.1458  -0.0089   0.0998   0.1291   0.1898
     0.3968   0.9302   1.7469   1.8057   1.8238   1.9138   2.0035   2.0932
     2.2695   3.1184   3.1710   3.3249   3.3511   3.6701   4.3807   5.4480
     5.5856   5.7345   5.7961   5.8870   8.6510   9.7796

          k =-0.5000-0.2479 0.0000 ( 41524 PWs)   bands (ev):

   -48.9241 -48.8312 -48.8239 -48.8169 -48.7679 -48.7642 -48.7521 -48.7273
   -48.7136 -48.6320 -48.5601 -48.5498 -48.4868 -48.4583 -48.4258 -48.4186
   -48.3060 -48.1179 -18.3815 -18.3726 -18.3408 -18.3284 -17.9813 -17.8782
   -17.7647 -17.7061 -17.7028 -17.4969 -17.2169 -16.3247 -16.0315  -7.0285
    -6.8851  -6.8166  -6.7795  -6.4253  -6.3587  -6.3060  -6.2889  -6.2660
    -6.0651  -5.9051  -5.6343  -5.4522  -4.9478  -4.3198  -4.2338  -4.1975
    -4.1644  -4.1064  -3.9025  -3.8854  -3.6860  -3.5371  -3.4753  -3.3418
    -3.0202  -2.8706  -2.8628  -2.8322  -2.5191  -2.1371  -2.0122  -1.9628
    -1.8528  -1.7542  -1.5929  -1.5505  -1.5344  -1.0685  -1.0122  -0.6727
    -0.6569  -0.3602  -0.2679  -0.1791  -0.1551  -0.0090   0.1211   0.1664
     0.3059   0.9281   1.7552   1.7872   1.9006   2.2023   2.2042   2.2152
     2.2963   2.7251   2.7497   2.9159   3.3867   3.6943   4.3828   5.6786
     5.8518   5.9705   6.2510   6.4188   8.8094   9.7611

     the Fermi energy is     1.6051 ev

!    total energy              =   -1632.64850302 Ry
     estimated scf accuracy    <       0.00000087 Ry
     smearing contrib. (-TS)   =      -0.00163027 Ry
     internal energy E=F+TS    =   -1632.64687275 Ry

     The total energy is F=E-TS. E is the sum of the following terms:
     one-electron contribution =  -15350.92665834 Ry
     hartree contribution      =    7720.34941880 Ry
     xc contribution           =    -398.55475338 Ry
     ewald contribution        =    6520.21152000 Ry
     electric field correction =       0.00003124 Ry
     one-center paw contrib.   =    -123.72643108 Ry

     convergence has been achieved in  23 iterations

     negative rho (up, down):  1.908E+00 0.000E+00

     Forces acting on atoms (cartesian axes, Ry/au):

     atom    1 type  2   force =    -0.00004234   -0.00000044    0.03763042
     atom    2 type  2   force =    -0.00006992    0.00000055   -0.03945087
     atom    3 type  2   force =    -0.00056899    0.00000055    0.00061817
     atom    4 type  2   force =     0.00054873   -0.00000030   -0.00019574
     atom    5 type  2   force =    -0.00077818   -0.00000066   -0.00052115
     atom    6 type  2   force =     0.00077306   -0.00000026   -0.00091390
     atom    7 type  3   force =     0.00010143   -0.00000022   -0.00016382
     atom    8 type  3   force =     0.00002119   -0.00000031    0.03377854
     atom    9 type  3   force =    -0.00000931    0.02152208   -0.02486269
     atom   10 type  3   force =    -0.00001015   -0.02152169   -0.02486327
     atom   11 type  3   force =     0.00103783    0.00000051   -0.00050557
     atom   12 type  3   force =    -0.00194269    0.00000004    0.01764507
     atom   13 type  3   force =    -0.00044540   -0.00134717    0.00094044
     atom   14 type  3   force =    -0.00044591    0.00134728    0.00094023
     atom   15 type  3   force =     0.00106320    0.00000035   -0.00168321
     atom   16 type  3   force =     0.00042375    0.00000015   -0.00043879
     atom   17 type  3   force =    -0.00050740   -0.00076683    0.00118624
     atom   18 type  3   force =    -0.00050740    0.00076672    0.00118661
     atom   19 type  3   force =     0.00035378   -0.00000032   -0.00046251
     atom   20 type  1   force =     0.00100473   -0.00000003    0.00013580

     Total force =     0.004549     Total SCF correction =     0.006052
     SCF correction compared to forces is large: reduce conv_thr to get better values

     Writing all to output data dir ./tmp_s0_OH__dipole/s0_OH__dipole.save/ :
     XML data file, charge density, pseudopotentials, collected wavefunctions

     init_run     :     36.99s CPU     38.96s WALL (       1 calls)
     electrons    :   1742.52s CPU   1806.97s WALL (       1 calls)
     forces       :     12.99s CPU     14.06s WALL (       1 calls)

     Called by init_run:
     wfcinit      :     28.61s CPU     29.40s WALL (       1 calls)
     potinit      :      2.89s CPU      3.18s WALL (       1 calls)
     hinit0       :      3.31s CPU      3.45s WALL (       1 calls)

     Called by electrons:
     c_bands      :   1260.32s CPU   1289.02s WALL (      23 calls)
     sum_band     :    279.42s CPU    295.85s WALL (      23 calls)
     v_of_rho     :     36.89s CPU     39.86s WALL (      24 calls)
     newd         :     36.08s CPU     51.04s WALL (      24 calls)
     PAW_pot      :      7.01s CPU      7.02s WALL (      24 calls)
     mix_rho      :    122.60s CPU    124.84s WALL (      23 calls)

     Called by c_bands:
     init_us_2    :     22.76s CPU     22.94s WALL (     240 calls)
     cegterg      :   1155.53s CPU   1184.12s WALL (     115 calls)

     Called by *egterg:
     cdiaghg      :      9.58s CPU      9.59s WALL (     740 calls)
     h_psi        :    879.55s CPU    888.12s WALL (     745 calls)
     s_psi        :     66.06s CPU     66.07s WALL (     745 calls)
     g_psi        :      7.35s CPU      7.36s WALL (     625 calls)

     Called by h_psi:
     h_psi:calbec :     71.26s CPU     71.29s WALL (     745 calls)
     vloc_psi     :    733.64s CPU    734.58s WALL (     745 calls)
                                        0.00s GPU  (     745 calls)
     add_vuspsi   :     69.57s CPU     69.58s WALL (     745 calls)

     General routines
     calbec       :    103.39s CPU    103.43s WALL (     880 calls)
     fft          :     15.60s CPU     15.65s WALL (     321 calls)
     ffts         :     42.05s CPU     42.08s WALL (    2753 calls)
     fftw         :    693.48s CPU    694.19s WALL (   62646 calls)
     interpolate  :      2.86s CPU      2.89s WALL (      24 calls)

     Parallel routines

     PWSCF        :  29m53.00s CPU  31m 0.77s WALL


   This run was terminated on:  18:19:46   8Aug2026            

=------------------------------------------------------------------------------=
   JOB DONE.
=------------------------------------------------------------------------------=
