
     Program PWSCF v.7.5 starts on  8Aug2026 at 18:19:48 

     This program is part of the open-source Quantum ESPRESSO suite
     for quantum simulation of materials; please cite
         "P. Giannozzi et al., J. Phys.:Condens. Matter 21 395502 (2009);
         "P. Giannozzi et al., J. Phys.:Condens. Matter 29 465901 (2017);
         "P. Giannozzi et al., J. Chem. Phys. 152 154105 (2020);
          URL http://www.quantum-espresso.org", 
     in publications or presentations arising from this work. More details at
     http://www.quantum-espresso.org/quote

     Parallel version (MPI & OpenMP), running on       4 processor cores
     Number of MPI processes:                 4
     Threads/MPI process:                     1

     MPI processes distributed on     1 nodes
     22615 MiB available memory on the printing compute node when the environment starts

     Reading input from slab__dipole.run.in

     Current dimensions of program PWSCF are:
     Max number of different atomic species (ntypx) = 10
     Max number of k-points (npk) =  40000
     Max angular momentum in pseudopotentials (lmaxx) =  4
     file O.pbe-n-kjpaw_psl.0.1.UPF: wavefunction(s)  2P renormalized

     K-points division:     npool     =       4
     Subspace diagonalization in iterative solution of the eigenvalue problem:
     a serial algorithm will be used


     G-vector sticks info
     --------------------
     sticks:   dense  smooth     PW     G-vecs:    dense   smooth      PW
     Sum        3639    1825    519               941385   332621   50331

     Using Slab Decomposition



     bravais-lattice index     =            0
     lattice parameter (alat)  =       5.9602  a.u.
     unit-cell volume          =    3444.9838 (a.u.)^3
     number of atoms/cell      =           18
     number of atomic types    =            2
     number of electrons       =       162.00
     number of Kohn-Sham states=           97
     kinetic-energy cutoff     =      80.0000  Ry
     charge density cutoff     =     640.0000  Ry
     scf convergence threshold =      1.0E-06
     mixing beta               =       0.3000
     number of iterations used =            8  local-TF  mixing
     Exchange-correlation= SLA  PW   PBX  PBC
                           (   1   4   3   4   0   0   0)

     celldm(1)=   5.960196  celldm(2)=   0.000000  celldm(3)=   0.000000
     celldm(4)=   0.000000  celldm(5)=   0.000000  celldm(6)=   0.000000

     crystal axes: (cart. coord. in units of alat)
               a(1) = (   1.000000   0.000000   0.000000 )  
               a(2) = (   0.000000   2.016846   0.000000 )  
               a(3) = (   0.000000   0.000000   8.067384 )  

     reciprocal axes: (cart. coord. in units 2 pi/alat)
               b(1) = (  1.000000  0.000000  0.000000 )  
               b(2) = (  0.000000  0.495824  0.000000 )  
               b(3) = (  0.000000  0.000000  0.123956 )  


     PseudoPot. # 1 for Ir read from file:
     /usr/share/espresso/pseudo/Ir_pbe_v1.2.uspp.F.UPF
     MD5 check sum: 8836f839c3459d2b385c504ce6d91f2c
     Pseudo is Ultrasoft + core correction, Zval = 15.0
     Generated by new atomic code, or converted to UPF format
     Using radial grid of  983 points,  7 beta functions with: 
                l(1) =   0
                l(2) =   0
                l(3) =   1
                l(4) =   1
                l(5) =   1
                l(6) =   2
                l(7) =   2
     Q(r) pseudized with  8 coefficients,  rinner =    1.400   1.400   1.400
                                                       1.400   1.400

     PseudoPot. # 2 for O  read from file:
     /usr/share/espresso/pseudo/O.pbe-n-kjpaw_psl.0.1.UPF
     MD5 check sum: 0234752ac141de4415c5fc33072bef88
     Pseudo is Projector augmented-wave + core cor, Zval =  6.0
     Generated using "atomic" code by A. Dal Corso  v.5.0.99 svn rev. 10869
     Shape of augmentation charge: BESSEL
     Using radial grid of 1095 points,  4 beta functions with: 
                l(1) =   0
                l(2) =   0
                l(3) =   1
                l(4) =   1
     Q(r) pseudized with 0 coefficients 


     atomic species   valence    mass     pseudopotential
     Ir               15.00   192.21700     Ir( 1.00)
     O                 6.00    15.99900     O ( 1.00)

     No symmetry found



   Cartesian axes

     site n.     atom                  positions (alat units)
         1        Ir     tau(   1) = (   0.0000000   1.5126346   3.0252692  )
         2        Ir     tau(   2) = (   0.5000000   0.5042115   3.0252692  )
         3        Ir     tau(   3) = (  -0.0000000   0.5042115   4.0490144  )
         4        Ir     tau(   4) = (   0.4999999   1.5126345   4.0369655  )
         5        Ir     tau(   5) = (  -0.0000001   1.5126347   5.0521139  )
         6        Ir     tau(   6) = (   0.5000000   0.5042117   5.0842459  )
         7        O      tau(   7) = (   0.0000000   0.5042115   3.4185541  )
         8        O      tau(   8) = (   0.0000000   0.5042115   2.6319842  )
         9        O      tau(   9) = (   0.5000000   1.1193496   3.0252692  )
        10        O      tau(  10) = (   0.5000000   1.9059196   3.0252692  )
        11        O      tau(  11) = (  -0.0000001   1.5126339   4.4343023  )
        12        O      tau(  12) = (   0.0000000   1.5126346   3.6404072  )
        13        O      tau(  13) = (   0.5000000   0.1171043   4.0441494  )
        14        O      tau(  14) = (   0.5000000   0.8913186   4.0441490  )
        15        O      tau(  15) = (  -0.0000000   0.5042117   5.4603797  )
        16        O      tau(  16) = (  -0.0000000   0.5042116   4.6811465  )
        17        O      tau(  17) = (   0.5000000   1.1288945   5.0949094  )
        18        O      tau(  18) = (   0.5000000   1.8963749   5.0949092  )

     number of k points=    32  Marzari-Vanderbilt smearing, width (Ry)=  0.0100
                       cart. coord. in units 2pi/alat
        k(    1) = (   0.0000000   0.0000000   0.0000000), wk =   0.0625000
        k(    2) = (   0.0000000   0.1239559   0.0000000), wk =   0.0625000
        k(    3) = (   0.0000000  -0.2479118   0.0000000), wk =   0.0625000
        k(    4) = (   0.0000000  -0.1239559   0.0000000), wk =   0.0625000
        k(    5) = (   0.1250000   0.0000000   0.0000000), wk =   0.0625000
        k(    6) = (   0.1250000   0.1239559   0.0000000), wk =   0.0625000
        k(    7) = (   0.1250000  -0.2479118   0.0000000), wk =   0.0625000
        k(    8) = (   0.1250000  -0.1239559   0.0000000), wk =   0.0625000
        k(    9) = (   0.2500000   0.0000000   0.0000000), wk =   0.0625000
        k(   10) = (   0.2500000   0.1239559   0.0000000), wk =   0.0625000
        k(   11) = (   0.2500000  -0.2479118   0.0000000), wk =   0.0625000
        k(   12) = (   0.2500000  -0.1239559   0.0000000), wk =   0.0625000
        k(   13) = (   0.3750000   0.0000000   0.0000000), wk =   0.0625000
        k(   14) = (   0.3750000   0.1239559   0.0000000), wk =   0.0625000
        k(   15) = (   0.3750000  -0.2479118   0.0000000), wk =   0.0625000
        k(   16) = (   0.3750000  -0.1239559   0.0000000), wk =   0.0625000
        k(   17) = (  -0.5000000   0.0000000   0.0000000), wk =   0.0625000
        k(   18) = (  -0.5000000   0.1239559   0.0000000), wk =   0.0625000
        k(   19) = (  -0.5000000  -0.2479118   0.0000000), wk =   0.0625000
        k(   20) = (  -0.5000000  -0.1239559   0.0000000), wk =   0.0625000
        k(   21) = (  -0.3750000   0.0000000   0.0000000), wk =   0.0625000
        k(   22) = (  -0.3750000   0.1239559   0.0000000), wk =   0.0625000
        k(   23) = (  -0.3750000  -0.2479118   0.0000000), wk =   0.0625000
        k(   24) = (  -0.3750000  -0.1239559   0.0000000), wk =   0.0625000
        k(   25) = (  -0.2500000   0.0000000   0.0000000), wk =   0.0625000
        k(   26) = (  -0.2500000   0.1239559   0.0000000), wk =   0.0625000
        k(   27) = (  -0.2500000  -0.2479118   0.0000000), wk =   0.0625000
        k(   28) = (  -0.2500000  -0.1239559   0.0000000), wk =   0.0625000
        k(   29) = (  -0.1250000   0.0000000   0.0000000), wk =   0.0625000
        k(   30) = (  -0.1250000   0.1239559   0.0000000), wk =   0.0625000
        k(   31) = (  -0.1250000  -0.2479118   0.0000000), wk =   0.0625000
        k(   32) = (  -0.1250000  -0.1239559   0.0000000), wk =   0.0625000

     Dense  grid:   941385 G-vectors     FFT dimensions: (  48, 100, 400)

     Smooth grid:   332621 G-vectors     FFT dimensions: (  36,  72, 288)

     Estimated max dynamical RAM per process >       2.21 GB

     Estimated total dynamical RAM >       8.16 GB

     Initial potential from superposition of free atoms

     starting charge     158.9998, renormalised to     162.0000

     negative rho (up, down):  2.226E+00 0.000E+00

     Adding external electric field

     Computed dipole along edir(3) : 
        Dipole               -0.0335 Ry au,         -0.0852 Debye
        Dipole field         -0.0001 Ry au, 

        Potential amp.        0.0106 Ry
        Total length         43.2749 bohr

     Starting wfcs are  120 randomized atomic wfcs
     Checking if some PAW data can be deallocated... 

     total cpu time spent up to now is       54.5 secs

     per-process dynamical memory:  1082.8 Mb

     Self-consistent Calculation

     iteration #  1     ecut=    80.00 Ry     beta= 0.30
     Davidson diagonalization with overlap
     ethr =  1.00E-02,  avg # of iterations =  3.1

     negative rho (up, down):  2.089E+00 0.000E+00

     Adding external electric field

     Computed dipole along edir(3) : 
        Dipole                0.0421 Ry au,          0.1070 Debye
        Dipole field          0.0002 Ry au, 

        Potential amp.       -0.0133 Ry
        Total length         43.2749 bohr


     total cpu time spent up to now is      173.6 secs

     total energy              =   -1590.60302986 Ry
     estimated scf accuracy    <      14.06375610 Ry

     iteration #  2     ecut=    80.00 Ry     beta= 0.30
     Davidson diagonalization with overlap
     ethr =  8.68E-03,  avg # of iterations =  1.0

     negative rho (up, down):  1.919E+00 0.000E+00

     Adding external electric field

     Computed dipole along edir(3) : 
        Dipole                0.1113 Ry au,          0.2829 Debye
        Dipole field          0.0004 Ry au, 

        Potential amp.       -0.0351 Ry
        Total length         43.2749 bohr


     total cpu time spent up to now is      275.0 secs

     total energy              =   -1589.16019906 Ry
     estimated scf accuracy    <       5.51964829 Ry

     iteration #  3     ecut=    80.00 Ry     beta= 0.30
     Davidson diagonalization with overlap
     ethr =  3.41E-03,  avg # of iterations =  2.2

     negative rho (up, down):  1.914E+00 0.000E+00

     Adding external electric field

     Computed dipole along edir(3) : 
        Dipole                0.1301 Ry au,          0.3308 Debye
        Dipole field          0.0005 Ry au, 

        Potential amp.       -0.0411 Ry
        Total length         43.2749 bohr


     total cpu time spent up to now is      388.3 secs

     total energy              =   -1589.78809666 Ry
     estimated scf accuracy    <       0.50072842 Ry

     iteration #  4     ecut=    80.00 Ry     beta= 0.30
     Davidson diagonalization with overlap
     ethr =  3.09E-04,  avg # of iterations =  9.1

     negative rho (up, down):  1.936E+00 0.000E+00

     Adding external electric field

     Computed dipole along edir(3) : 
        Dipole                0.1573 Ry au,          0.3998 Debye
        Dipole field          0.0006 Ry au, 

        Potential amp.       -0.0497 Ry
        Total length         43.2749 bohr


     total cpu time spent up to now is      516.5 secs

     total energy              =   -1589.74701534 Ry
     estimated scf accuracy    <       0.21420924 Ry

     iteration #  5     ecut=    80.00 Ry     beta= 0.30
     Davidson diagonalization with overlap
     ethr =  1.32E-04,  avg # of iterations =  2.7

     negative rho (up, down):  1.955E+00 0.000E+00

     Adding external electric field

     Computed dipole along edir(3) : 
        Dipole                0.1841 Ry au,          0.4680 Debye
        Dipole field          0.0007 Ry au, 

        Potential amp.       -0.0581 Ry
        Total length         43.2749 bohr


     total cpu time spent up to now is      633.2 secs

     total energy              =   -1589.75035803 Ry
     estimated scf accuracy    <       0.06333037 Ry

     iteration #  6     ecut=    80.00 Ry     beta= 0.30
     Davidson diagonalization with overlap
     ethr =  3.91E-05,  avg # of iterations =  6.7

     negative rho (up, down):  1.970E+00 0.000E+00

     Adding external electric field

     Computed dipole along edir(3) : 
        Dipole                0.1952 Ry au,          0.4961 Debye
        Dipole field          0.0007 Ry au, 

        Potential amp.       -0.0616 Ry
        Total length         43.2749 bohr


     total cpu time spent up to now is      768.9 secs

     total energy              =   -1589.75559112 Ry
     estimated scf accuracy    <       0.02415364 Ry

     iteration #  7     ecut=    80.00 Ry     beta= 0.30
     Davidson diagonalization with overlap
     ethr =  1.49E-05,  avg # of iterations =  3.8

     negative rho (up, down):  1.990E+00 0.000E+00

     Adding external electric field

     Computed dipole along edir(3) : 
        Dipole                0.2221 Ry au,          0.5644 Debye
        Dipole field          0.0008 Ry au, 

        Potential amp.       -0.0701 Ry
        Total length         43.2749 bohr


     total cpu time spent up to now is      880.7 secs

     total energy              =   -1589.75328648 Ry
     estimated scf accuracy    <       0.02295861 Ry

     iteration #  8     ecut=    80.00 Ry     beta= 0.30
     Davidson diagonalization with overlap
     ethr =  1.42E-05,  avg # of iterations =  6.1

     negative rho (up, down):  2.003E+00 0.000E+00

     Adding external electric field

     Computed dipole along edir(3) : 
        Dipole                0.2476 Ry au,          0.6293 Debye
        Dipole field          0.0009 Ry au, 

        Potential amp.       -0.0782 Ry
        Total length         43.2749 bohr


     total cpu time spent up to now is     1002.7 secs

     total energy              =   -1589.75231579 Ry
     estimated scf accuracy    <       0.01193840 Ry

     iteration #  9     ecut=    80.00 Ry     beta= 0.30
     Davidson diagonalization with overlap
     ethr =  7.37E-06,  avg # of iterations =  6.6

     negative rho (up, down):  1.985E+00 0.000E+00

     Adding external electric field

     Computed dipole along edir(3) : 
        Dipole                0.2542 Ry au,          0.6461 Debye
        Dipole field          0.0009 Ry au, 

        Potential amp.       -0.0802 Ry
        Total length         43.2749 bohr


     total cpu time spent up to now is     1120.7 secs

     total energy              =   -1589.75129638 Ry
     estimated scf accuracy    <       0.00733316 Ry

     iteration # 10     ecut=    80.00 Ry     beta= 0.30
     Davidson diagonalization with overlap
     ethr =  4.53E-06,  avg # of iterations =  5.7

     negative rho (up, down):  1.972E+00 0.000E+00

     Adding external electric field

     Computed dipole along edir(3) : 
        Dipole                0.2362 Ry au,          0.6005 Debye
        Dipole field          0.0009 Ry au, 

        Potential amp.       -0.0746 Ry
        Total length         43.2749 bohr


     total cpu time spent up to now is     1238.1 secs

     total energy              =   -1589.75109270 Ry
     estimated scf accuracy    <       0.00402240 Ry

     iteration # 11     ecut=    80.00 Ry     beta= 0.30
     Davidson diagonalization with overlap
     ethr =  2.48E-06,  avg # of iterations =  5.7

     negative rho (up, down):  1.960E+00 0.000E+00

     Adding external electric field

     Computed dipole along edir(3) : 
        Dipole                0.1999 Ry au,          0.5082 Debye
        Dipole field          0.0007 Ry au, 

        Potential amp.       -0.0631 Ry
        Total length         43.2749 bohr


     total cpu time spent up to now is     1354.9 secs

     total energy              =   -1589.75040321 Ry
     estimated scf accuracy    <       0.00340957 Ry

     iteration # 12     ecut=    80.00 Ry     beta= 0.30
     Davidson diagonalization with overlap
     c_bands:  1 eigenvalues not converged
     ethr =  2.10E-06,  avg # of iterations =  9.2

     negative rho (up, down):  1.964E+00 0.000E+00

     Adding external electric field

     Computed dipole along edir(3) : 
        Dipole                0.1935 Ry au,          0.4918 Debye
        Dipole field          0.0007 Ry au, 

        Potential amp.       -0.0611 Ry
        Total length         43.2749 bohr


     total cpu time spent up to now is     1481.0 secs

     total energy              =   -1589.75048437 Ry
     estimated scf accuracy    <       0.00472867 Ry

     iteration # 13     ecut=    80.00 Ry     beta= 0.30
     Davidson diagonalization with overlap
     ethr =  2.10E-06,  avg # of iterations =  1.8

     negative rho (up, down):  1.967E+00 0.000E+00

     Adding external electric field

     Computed dipole along edir(3) : 
        Dipole                0.1677 Ry au,          0.4263 Debye
        Dipole field          0.0006 Ry au, 

        Potential amp.       -0.0530 Ry
        Total length         43.2749 bohr


     total cpu time spent up to now is     1586.7 secs

     total energy              =   -1589.75051551 Ry
     estimated scf accuracy    <       0.00403000 Ry

     iteration # 14     ecut=    80.00 Ry     beta= 0.30
     Davidson diagonalization with overlap
     ethr =  2.10E-06,  avg # of iterations =  5.6

     negative rho (up, down):  1.967E+00 0.000E+00

     Adding external electric field

     Computed dipole along edir(3) : 
        Dipole                0.1723 Ry au,          0.4378 Debye
        Dipole field          0.0006 Ry au, 

        Potential amp.       -0.0544 Ry
        Total length         43.2749 bohr


     total cpu time spent up to now is     1699.7 secs

     total energy              =   -1589.75054224 Ry
     estimated scf accuracy    <       0.00334556 Ry

     iteration # 15     ecut=    80.00 Ry     beta= 0.30
     Davidson diagonalization with overlap
     ethr =  2.07E-06,  avg # of iterations =  1.0

     negative rho (up, down):  1.969E+00 0.000E+00

     Adding external electric field

     Computed dipole along edir(3) : 
        Dipole                0.0613 Ry au,          0.1558 Debye
        Dipole field          0.0002 Ry au, 

        Potential amp.       -0.0194 Ry
        Total length         43.2749 bohr


     total cpu time spent up to now is     1799.7 secs

     total energy              =   -1589.75028618 Ry
     estimated scf accuracy    <       0.00339749 Ry

     iteration # 16     ecut=    80.00 Ry     beta= 0.30
     Davidson diagonalization with overlap
     c_bands:  2 eigenvalues not converged
     c_bands:  1 eigenvalues not converged
     ethr =  2.07E-06,  avg # of iterations = 14.3

     negative rho (up, down):  1.938E+00 0.000E+00

     Adding external electric field

     Computed dipole along edir(3) : 
        Dipole               -0.0418 Ry au,         -0.1063 Debye
        Dipole field         -0.0002 Ry au, 

        Potential amp.        0.0132 Ry
        Total length         43.2749 bohr


     total cpu time spent up to now is     1928.1 secs

     total energy              =   -1589.74847600 Ry
     estimated scf accuracy    <       0.00383945 Ry

     iteration # 17     ecut=    80.00 Ry     beta= 0.30
     Davidson diagonalization with overlap
     c_bands:  1 eigenvalues not converged
     c_bands:  1 eigenvalues not converged
     ethr =  2.07E-06,  avg # of iterations = 15.2

     negative rho (up, down):  1.930E+00 0.000E+00

     Adding external electric field

     Computed dipole along edir(3) : 
        Dipole               -0.0684 Ry au,         -0.1738 Debye
        Dipole field         -0.0002 Ry au, 

        Potential amp.        0.0216 Ry
        Total length         43.2749 bohr


     total cpu time spent up to now is     2065.9 secs

     total energy              =   -1589.74844553 Ry
     estimated scf accuracy    <       0.00036664 Ry

     iteration # 18     ecut=    80.00 Ry     beta= 0.30
     Davidson diagonalization with overlap
     ethr =  2.26E-07,  avg # of iterations =  6.8

     negative rho (up, down):  1.926E+00 0.000E+00

     Adding external electric field

     Computed dipole along edir(3) : 
        Dipole               -0.0464 Ry au,         -0.1179 Debye
        Dipole field         -0.0002 Ry au, 

        Potential amp.        0.0146 Ry
        Total length         43.2749 bohr


     total cpu time spent up to now is     2187.5 secs

     total energy              =   -1589.74834957 Ry
     estimated scf accuracy    <       0.00031096 Ry

     iteration # 19     ecut=    80.00 Ry     beta= 0.30
     Davidson diagonalization with overlap
     ethr =  1.92E-07,  avg # of iterations =  7.2

     negative rho (up, down):  1.923E+00 0.000E+00

     Adding external electric field

     Computed dipole along edir(3) : 
        Dipole               -0.0387 Ry au,         -0.0984 Debye
        Dipole field         -0.0001 Ry au, 

        Potential amp.        0.0122 Ry
        Total length         43.2749 bohr


     total cpu time spent up to now is     2309.2 secs

     total energy              =   -1589.74827679 Ry
     estimated scf accuracy    <       0.00011118 Ry

     iteration # 20     ecut=    80.00 Ry     beta= 0.30
     Davidson diagonalization with overlap
     c_bands:  1 eigenvalues not converged
     ethr =  6.86E-08,  avg # of iterations =  5.1

     negative rho (up, down):  1.920E+00 0.000E+00

     Adding external electric field

     Computed dipole along edir(3) : 
        Dipole               -0.0298 Ry au,         -0.0758 Debye
        Dipole field         -0.0001 Ry au, 

        Potential amp.        0.0094 Ry
        Total length         43.2749 bohr


     total cpu time spent up to now is     2429.0 secs

     total energy              =   -1589.74825200 Ry
     estimated scf accuracy    <       0.00007735 Ry

     iteration # 21     ecut=    80.00 Ry     beta= 0.30
     Davidson diagonalization with overlap
     ethr =  4.77E-08,  avg # of iterations =  2.5

     negative rho (up, down):  1.918E+00 0.000E+00

     Adding external electric field

     Computed dipole along edir(3) : 
        Dipole               -0.0308 Ry au,         -0.0782 Debye
        Dipole field         -0.0001 Ry au, 

        Potential amp.        0.0097 Ry
        Total length         43.2749 bohr


     total cpu time spent up to now is     2538.0 secs

     total energy              =   -1589.74823786 Ry
     estimated scf accuracy    <       0.00002040 Ry

     iteration # 22     ecut=    80.00 Ry     beta= 0.30
     Davidson diagonalization with overlap
     ethr =  1.26E-08,  avg # of iterations =  2.3

     negative rho (up, down):  1.917E+00 0.000E+00

     Adding external electric field

     Computed dipole along edir(3) : 
        Dipole               -0.0223 Ry au,         -0.0567 Debye
        Dipole field         -0.0001 Ry au, 

        Potential amp.        0.0070 Ry
        Total length         43.2749 bohr


     total cpu time spent up to now is     2647.2 secs

     total energy              =   -1589.74822916 Ry
     estimated scf accuracy    <       0.00003274 Ry

     iteration # 23     ecut=    80.00 Ry     beta= 0.30
     Davidson diagonalization with overlap
     ethr =  1.26E-08,  avg # of iterations =  3.0

     negative rho (up, down):  1.917E+00 0.000E+00

     Adding external electric field

     Computed dipole along edir(3) : 
        Dipole               -0.0227 Ry au,         -0.0577 Debye
        Dipole field         -0.0001 Ry au, 

        Potential amp.        0.0072 Ry
        Total length         43.2749 bohr


     total cpu time spent up to now is     2759.0 secs

     total energy              =   -1589.74822694 Ry
     estimated scf accuracy    <       0.00000353 Ry

     iteration # 24     ecut=    80.00 Ry     beta= 0.30
     Davidson diagonalization with overlap
     ethr =  2.18E-09,  avg # of iterations =  1.4

     negative rho (up, down):  1.917E+00 0.000E+00

     Adding external electric field

     Computed dipole along edir(3) : 
        Dipole               -0.0243 Ry au,         -0.0617 Debye
        Dipole field         -0.0001 Ry au, 

        Potential amp.        0.0077 Ry
        Total length         43.2749 bohr


     total cpu time spent up to now is     2866.2 secs

     total energy              =   -1589.74822259 Ry
     estimated scf accuracy    <       0.00000172 Ry

     iteration # 25     ecut=    80.00 Ry     beta= 0.30
     Davidson diagonalization with overlap
     ethr =  1.06E-09,  avg # of iterations =  2.0

     negative rho (up, down):  1.917E+00 0.000E+00

     Adding external electric field

     Computed dipole along edir(3) : 
        Dipole               -0.0217 Ry au,         -0.0553 Debye
        Dipole field         -0.0001 Ry au, 

        Potential amp.        0.0069 Ry
        Total length         43.2749 bohr


     total cpu time spent up to now is     2981.0 secs

     End of self-consistent calculation

          k = 0.0000 0.0000 0.0000 ( 41611 PWs)   bands (ev):

   -48.9044 -48.7957 -48.7894 -48.7613 -48.7364 -48.6975 -48.6586 -48.5715
   -48.5338 -48.5068 -48.4726 -48.4189 -48.4063 -48.4010 -48.3926 -48.2862
   -48.1891 -48.1455 -19.5117 -19.1461 -19.0490 -18.7712 -18.0725 -17.9308
   -17.8668 -17.5662 -17.4930 -17.4225 -16.2709 -16.0770  -8.2322  -8.1717
    -8.0558  -7.6979  -6.7760  -6.5489  -6.4217  -6.3354  -6.3062  -5.9846
    -5.7193  -5.6679  -5.5567  -5.1541  -4.6911  -4.1515  -3.6971  -3.5106
    -3.4577  -3.2718  -3.1029  -3.0958  -3.0528  -2.9108  -2.8110  -2.7787
    -2.6407  -2.4764  -2.2475  -2.1601  -1.7931  -1.5750  -1.2724  -1.1266
    -1.0419  -1.0148  -0.8782  -0.8239  -0.7836  -0.7432  -0.7322  -0.6715
    -0.6073  -0.5962  -0.0216   0.0087   0.0885   0.6422   0.8730   0.8740
     1.4784   1.6060   1.8703   2.3231   2.3597   2.6778   3.3971   4.2123
     4.3291   4.9788   5.3192   5.6887   5.7135   5.7838   5.8746   6.0766
     6.3079

          k = 0.0000 0.1240 0.0000 ( 41688 PWs)   bands (ev):

   -48.9040 -48.7945 -48.7894 -48.7609 -48.7363 -48.6975 -48.6587 -48.5729
   -48.5337 -48.5067 -48.4726 -48.4190 -48.4063 -48.4010 -48.3927 -48.2863
   -48.1895 -48.1460 -19.3890 -18.9995 -18.9212 -18.7927 -18.1313 -18.0016
   -17.9152 -17.7080 -17.6505 -17.5359 -16.2657 -16.0739  -7.7538  -7.6782
    -7.6174  -7.5383  -6.7748  -6.4707  -6.4200  -6.2579  -6.2158  -5.8815
    -5.6674  -5.6242  -5.5565  -4.9961  -4.6992  -4.3759  -4.2246  -4.1224
    -3.9922  -3.7571  -3.7301  -3.5233  -3.3637  -3.3142  -3.1837  -2.9679
    -2.4796  -2.3622  -2.3199  -2.2670  -1.9801  -1.6869  -1.3314  -1.2178
    -1.1548  -0.9850  -0.7964  -0.6661  -0.3928  -0.2722  -0.2301  -0.1945
    -0.1354  -0.0901   0.0405   0.1525   0.2269   0.6414   0.8734   0.9585
     1.5333   1.5550   1.6805   2.1244   2.2637   2.6805   3.8409   4.6767
     4.8765   4.9794   5.4004   5.4132   5.5558   5.6097   5.7905   6.3484
     6.4999

          k = 0.0000-0.2479 0.0000 ( 41774 PWs)   bands (ev):

   -48.9036 -48.7932 -48.7894 -48.7605 -48.7362 -48.6975 -48.6588 -48.5742
   -48.5337 -48.5067 -48.4726 -48.4191 -48.4063 -48.4010 -48.3928 -48.2863
   -48.1900 -48.1465 -19.1966 -18.9447 -18.7626 -18.6103 -18.3316 -18.2230
   -17.9162 -17.8927 -17.7697 -17.6038 -16.2616 -16.0715  -7.7084  -6.8807
    -6.7722  -6.7109  -6.6963  -6.4228  -6.3775  -6.1708  -6.1125  -5.8321
    -5.6659  -5.5562  -5.3373  -5.2393  -5.1421  -5.0839  -5.0593  -4.7132
    -4.5825  -4.2558  -3.7758  -3.7442  -3.7339  -3.6359  -3.4235  -3.3320
    -2.4692  -2.4024  -2.0774  -2.0276  -1.7627  -1.7252  -1.4840  -1.4119
    -1.1140  -1.1021  -0.7091  -0.6662  -0.1250  -0.1211  -0.0002   0.0647
     0.2191   0.2929   0.4231   0.5427   0.5789   0.7133   0.8408   0.9541
     1.2699   1.4066   1.7774   1.9138   2.0472   2.7877   4.1328   4.9816
     5.0825   5.0852   5.1789   5.3256   5.3732   5.7897   5.8835   6.0792
     6.4969

          k = 0.0000-0.1240 0.0000 ( 41688 PWs)   bands (ev):

   -48.9040 -48.7945 -48.7894 -48.7609 -48.7363 -48.6975 -48.6587 -48.5729
   -48.5337 -48.5067 -48.4726 -48.4190 -48.4063 -48.4010 -48.3927 -48.2863
   -48.1895 -48.1460 -19.3890 -18.9995 -18.9212 -18.7927 -18.1313 -18.0016
   -17.9152 -17.7080 -17.6505 -17.5359 -16.2657 -16.0739  -7.7538  -7.6782
    -7.6174  -7.5383  -6.7748  -6.4707  -6.4200  -6.2579  -6.2158  -5.8815
    -5.6674  -5.6242  -5.5565  -4.9961  -4.6992  -4.3759  -4.2246  -4.1224
    -3.9922  -3.7571  -3.7301  -3.5233  -3.3637  -3.3142  -3.1837  -2.9679
    -2.4796  -2.3622  -2.3199  -2.2670  -1.9801  -1.6869  -1.3314  -1.2178
    -1.1548  -0.9850  -0.7964  -0.6661  -0.3928  -0.2722  -0.2301  -0.1945
    -0.1354  -0.0901   0.0405   0.1525   0.2269   0.6414   0.8734   0.9585
     1.5333   1.5550   1.6805   2.1244   2.2637   2.6805   3.8409   4.6767
     4.8765   4.9794   5.4004   5.4132   5.5558   5.6100   5.7906   6.3484
     6.4997

          k = 0.1250 0.0000 0.0000 ( 41611 PWs)   bands (ev):

   -48.9033 -48.7943 -48.7884 -48.7602 -48.7529 -48.6950 -48.6748 -48.5695
   -48.5495 -48.5228 -48.4716 -48.4354 -48.4097 -48.4040 -48.3999 -48.2839
   -48.1867 -48.1431 -19.3721 -19.0241 -18.9282 -18.6683 -18.0051 -17.9983
   -17.7718 -17.6463 -17.5723 -17.5057 -16.3215 -16.1220  -8.0461  -7.9931
    -7.8747  -7.5097  -6.7350  -6.5173  -6.4550  -6.2901  -6.2517  -5.8190
    -5.7937  -5.3090  -5.1932  -4.9684  -4.5292  -4.4331  -4.0156  -3.7363
    -3.6044  -3.5038  -3.4622  -3.3917  -3.3116  -3.1041  -2.8978  -2.8219
    -2.6942  -2.5258  -2.4706  -2.2923  -2.2014  -2.1093  -1.9335  -1.4344
    -1.0127  -0.9164  -0.8956  -0.7088  -0.6039  -0.4973  -0.4000  -0.3956
    -0.2128  -0.0123   0.2327   0.2946   0.4205   0.7781   0.9890   1.2599
     1.3067   1.7083   1.8233   2.2011   2.3313   2.5094   3.6140   4.3351
     4.4321   4.8258   5.1301   5.2981   5.3486   5.5020   5.5386   5.6339
     6.5423

          k = 0.1250 0.1240 0.0000 ( 41692 PWs)   bands (ev):

   -48.9030 -48.7938 -48.7883 -48.7599 -48.7523 -48.6950 -48.6750 -48.5705
   -48.5494 -48.5228 -48.4716 -48.4354 -48.4097 -48.4040 -48.3999 -48.2839
   -48.1871 -48.1435 -19.2554 -18.8828 -18.8012 -18.6878 -18.0682 -18.0080
   -17.9046 -17.7761 -17.7088 -17.5826 -16.3174 -16.1194  -7.5746  -7.5091
    -7.4672  -7.3825  -6.7353  -6.4594  -6.4229  -6.1951  -6.1651  -5.9210
    -5.5141  -5.3076  -5.1891  -4.9344  -4.5424  -4.3680  -4.3069  -4.2474
    -4.0444  -3.9650  -3.8992  -3.8565  -3.7328  -3.6057  -3.3318  -3.2276
    -2.8409  -2.6081  -2.3538  -2.1912  -2.0892  -2.0559  -1.5751  -1.2106
    -1.1706  -1.0185  -0.8838  -0.4555  -0.3015  -0.2700  -0.0269  -0.0118
     0.0545   0.1549   0.2105   0.4694   0.6200   0.8608   1.0024   1.2365
     1.3770   1.4578   1.7834   2.0741   2.1577   2.6079   3.9717   4.5488
     4.6636   4.8558   4.9094   5.1480   5.2852   5.3322   5.5895   5.7812
     6.5662

          k = 0.1250-0.2479 0.0000 ( 41706 PWs)   bands (ev):

   -48.9027 -48.7933 -48.7883 -48.7596 -48.7516 -48.6950 -48.6751 -48.5716
   -48.5494 -48.5228 -48.4716 -48.4354 -48.4096 -48.4040 -48.3999 -48.2839
   -48.1875 -48.1439 -19.0747 -18.8147 -18.6430 -18.4962 -18.2923 -18.1774
   -17.9810 -17.9602 -17.7996 -17.6129 -16.3141 -16.1173  -7.5166  -6.7365
    -6.6508  -6.5069  -6.4928  -6.4615  -6.4320  -6.3226  -6.2662  -5.9376
    -5.3102  -5.1951  -5.0765  -5.0270  -4.9109  -4.8243  -4.8094  -4.7408
    -4.7070  -4.5158  -4.4373  -4.2822  -3.8240  -3.8141  -3.6960  -3.4753
    -2.8350  -2.6242  -2.1917  -2.0289  -1.8746  -1.7347  -1.6438  -1.2431
    -1.1175  -1.0330  -0.8870  -0.2545  -0.2411  -0.1788  -0.0451   0.0544
     0.2779   0.5320   0.6922   0.7122   0.8760   1.0065   1.0111   1.1618
     1.3174   1.4049   1.6353   1.7701   2.1533   2.7132   4.2481   4.4386
     4.5216   4.6638   4.7017   5.2953   5.3064   5.4972   5.6471   5.9699
     6.6830

          k = 0.1250-0.1240 0.0000 ( 41692 PWs)   bands (ev):

   -48.9030 -48.7938 -48.7883 -48.7599 -48.7523 -48.6950 -48.6750 -48.5705
   -48.5494 -48.5228 -48.4716 -48.4354 -48.4097 -48.4040 -48.3999 -48.2839
   -48.1871 -48.1435 -19.2554 -18.8828 -18.8012 -18.6878 -18.0682 -18.0080
   -17.9046 -17.7761 -17.7088 -17.5826 -16.3174 -16.1194  -7.5746  -7.5091
    -7.4672  -7.3825  -6.7353  -6.4594  -6.4229  -6.1951  -6.1651  -5.9210
    -5.5141  -5.3076  -5.1891  -4.9344  -4.5424  -4.3680  -4.3069  -4.2474
    -4.0444  -3.9650  -3.8992  -3.8565  -3.7328  -3.6057  -3.3318  -3.2276
    -2.8409  -2.6081  -2.3538  -2.1912  -2.0892  -2.0559  -1.5751  -1.2106
    -1.1706  -1.0185  -0.8838  -0.4555  -0.3015  -0.2700  -0.0269  -0.0118
     0.0545   0.1549   0.2105   0.4694   0.6200   0.8608   1.0024   1.2365
     1.3770   1.4578   1.7834   2.0741   2.1577   2.6079   3.9717   4.5488
     4.6636   4.8558   4.9094   5.1480   5.2852   5.3322   5.5895   5.7812
     6.5662

          k = 0.2500 0.0000 0.0000 ( 41623 PWs)   bands (ev):

   -48.9006 -48.7926 -48.7909 -48.7858 -48.7574 -48.7138 -48.6889 -48.5871
   -48.5644 -48.5614 -48.4748 -48.4692 -48.4503 -48.3985 -48.3974 -48.2782
   -48.1810 -48.1373 -19.0080 -18.7223 -18.6263 -18.4239 -18.1543 -17.8804
   -17.8349 -17.7571 -17.7000 -17.5756 -16.3986 -16.1787  -7.5567  -7.5159
    -7.3906  -7.0099  -6.5410  -6.4175  -6.4072  -6.1295  -6.0188  -5.7457
    -5.5846  -5.3033  -4.9693  -4.7584  -4.7369  -4.5914  -4.5035  -4.4752
    -4.4313  -3.8129  -3.6755  -3.4626  -3.3458  -3.2267  -3.1918  -3.1501
    -3.0782  -2.9371  -2.7968  -2.6551  -2.3778  -2.1472  -1.9117  -1.3549
    -1.2073  -1.1775  -0.5425  -0.5398  -0.3849  -0.3130  -0.0603  -0.0437
     0.3061   0.4816   0.6468   0.6530   0.9366   1.0629   1.0818   1.1282
     1.3893   1.5355   1.8277   2.0498   2.1013   2.2543   3.8946   4.0961
     4.3957   4.5715   4.6678   4.7801   4.8066   4.8499   4.9394   5.6194
     7.0462

          k = 0.2500 0.1240 0.0000 ( 41653 PWs)   bands (ev):

   -48.9005 -48.8001 -48.7858 -48.7827 -48.7574 -48.7140 -48.6889 -48.5872
   -48.5649 -48.5614 -48.4747 -48.4692 -48.4501 -48.3985 -48.3974 -48.2783
   -48.1812 -48.1375 -18.9147 -18.6109 -18.5138 -18.4399 -18.1610 -18.0041
   -17.9085 -17.8686 -17.8084 -17.5561 -16.3972 -16.1779  -7.1770  -7.1362
    -7.0139  -6.9940  -6.5396  -6.4175  -6.2530  -5.9801  -5.8984  -5.8467
    -5.6348  -5.2346  -5.1680  -5.0991  -4.9927  -4.8581  -4.6301  -4.4771
    -4.2319  -3.9240  -3.7770  -3.6493  -3.5572  -3.5179  -3.4241  -3.3539
    -3.3489  -2.9876  -2.7198  -2.4504  -2.3019  -2.0414  -1.8760  -1.4144
    -1.2802  -1.1402  -0.7984  -0.5132  -0.2972   0.0155   0.1351   0.3153
     0.3607   0.5164   0.6492   0.7476   0.9628   1.0746   1.0884   1.1905
     1.3925   1.4755   1.6572   1.7894   2.2349   2.4431   3.8986   4.0140
     4.0384   4.1146   4.2704   4.8335   4.8689   5.2970   5.4729   5.8082
     7.1112

          k = 0.2500-0.2479 0.0000 ( 41680 PWs)   bands (ev):

   -48.9005 -48.8034 -48.7858 -48.7787 -48.7575 -48.7142 -48.6889 -48.5872
   -48.5655 -48.5614 -48.4745 -48.4692 -48.4499 -48.3985 -48.3974 -48.2783
   -48.1814 -48.1377 -18.7744 -18.5014 -18.3874 -18.2789 -18.2255 -18.1666
   -18.1223 -18.0680 -17.8125 -17.5498 -16.3959 -16.1772  -7.0105  -6.5531
    -6.5264  -6.4686  -6.4260  -6.3043  -6.0221  -5.9087  -5.8945  -5.8556
    -5.8433  -5.6915  -5.5813  -5.5069  -4.9482  -4.8818  -4.6281  -4.4147
    -4.3164  -4.1848  -4.1582  -4.0133  -3.9678  -3.8012  -3.6369  -3.5290
    -3.5116  -2.9077  -2.3120  -2.2532  -2.0172  -1.8202  -1.8055  -1.6021
    -1.5461  -1.1014  -0.5666  -0.4957  -0.4380  -0.1032   0.0901   0.4874
     0.5421   0.5724   0.8719   0.8889   1.0714   1.1642   1.1745   1.2986
     1.3085   1.4774   1.5312   1.6161   2.3230   2.5545   3.4800   3.6024
     3.7618   4.0588   4.2326   4.8452   5.0907   5.4716   5.8091   6.0490
     7.2247

          k = 0.2500-0.1240 0.0000 ( 41653 PWs)   bands (ev):

   -48.9005 -48.8001 -48.7858 -48.7827 -48.7574 -48.7140 -48.6889 -48.5872
   -48.5649 -48.5614 -48.4747 -48.4692 -48.4501 -48.3985 -48.3974 -48.2783
   -48.1812 -48.1375 -18.9147 -18.6109 -18.5138 -18.4399 -18.1610 -18.0041
   -17.9085 -17.8686 -17.8084 -17.5561 -16.3972 -16.1779  -7.1770  -7.1362
    -7.0139  -6.9940  -6.5396  -6.4175  -6.2530  -5.9801  -5.8984  -5.8467
    -5.6348  -5.2346  -5.1680  -5.0991  -4.9927  -4.8581  -4.6301  -4.4771
    -4.2319  -3.9240  -3.7770  -3.6493  -3.5572  -3.5179  -3.4241  -3.3539
    -3.3489  -2.9876  -2.7198  -2.4504  -2.3019  -2.0414  -1.8760  -1.4144
    -1.2802  -1.1402  -0.7984  -0.5132  -0.2972   0.0155   0.1351   0.3153
     0.3607   0.5164   0.6492   0.7476   0.9628   1.0746   1.0884   1.1905
     1.3925   1.4755   1.6572   1.7894   2.2349   2.4431   3.8986   4.0140
     4.0384   4.1146   4.2704   4.8335   4.8689   5.2970   5.4729   5.8082
     7.1112

          k = 0.3750 0.0000 0.0000 ( 41645 PWs)   bands (ev):

   -48.8978 -48.8321 -48.7875 -48.7834 -48.7546 -48.7525 -48.6829 -48.6245
   -48.5996 -48.5594 -48.5140 -48.4908 -48.4668 -48.3949 -48.3930 -48.2726
   -48.1753 -48.1315 -18.5721 -18.4378 -18.3163 -18.2646 -18.2055 -18.0171
   -17.9334 -17.8858 -17.8315 -17.4633 -16.3757 -16.1461  -6.9779  -6.9660
    -6.8043  -6.5374  -6.3668  -6.2744  -6.2303  -6.2230  -5.9699  -5.8564
    -5.6735  -5.5941  -5.4823  -5.4684  -5.0459  -4.8583  -4.5812  -4.5057
    -4.0997  -3.8906  -3.8151  -3.7570  -3.5925  -3.2975  -3.2270  -3.1730
    -2.9569  -2.7385  -2.6137  -2.6036  -2.5430  -1.9778  -1.7138  -1.4140
    -1.3421  -0.9781  -0.6188  -0.4047  -0.2181   0.0198   0.0294   0.0480
     0.1296   0.5404   0.6434   0.6651   0.8282   0.9917   1.0305   1.1826
     1.3797   1.4027   1.9069   1.9253   2.0547   2.1339   3.4453   4.0233
     4.0597   4.1608   4.2818   4.4249   4.4500   4.8658   5.0000   5.5499
     7.8442

          k = 0.3750 0.1240 0.0000 ( 41549 PWs)   bands (ev):

   -48.8981 -48.8347 -48.7846 -48.7834 -48.7550 -48.7527 -48.6828 -48.6246
   -48.5997 -48.5594 -48.5137 -48.4903 -48.4668 -48.3949 -48.3930 -48.2726
   -48.1753 -48.1315 -18.5456 -18.4226 -18.3405 -18.2810 -18.2235 -18.0408
   -17.9207 -17.8983 -17.8078 -17.4651 -16.3759 -16.1461  -6.8710  -6.8262
    -6.6605  -6.5574  -6.4358  -6.3103  -6.2453  -6.1771  -6.1108  -6.0258
    -6.0132  -5.3443  -5.2666  -5.1558  -5.0945  -4.9190  -4.6431  -4.2321
    -4.0890  -3.9777  -3.7576  -3.6921  -3.4145  -3.3811  -3.3037  -3.0713
    -3.0520  -2.8995  -2.7539  -2.4208  -2.3157  -2.1584  -1.6927  -1.6490
    -1.3410  -1.1168  -0.7970  -0.3718  -0.3323  -0.2404  -0.0783   0.1566
     0.1936   0.2307   0.2884   0.5490   0.6738   0.9035   1.3555   1.3737
     1.6021   1.6717   1.7806   1.9634   2.1282   2.2706   3.2680   3.4431
     3.5022   3.5811   4.1031   4.4328   5.1876   5.5446   5.6805   5.7669
     7.9443

          k = 0.3750-0.2479 0.0000 ( 41514 PWs)   bands (ev):

   -48.8984 -48.8371 -48.7834 -48.7820 -48.7554 -48.7529 -48.6828 -48.6246
   -48.5997 -48.5594 -48.5133 -48.4898 -48.4668 -48.3949 -48.3930 -48.2726
   -48.1753 -48.1315 -18.5068 -18.4112 -18.3741 -18.2927 -18.2429 -18.0636
   -17.9107 -17.9048 -17.7906 -17.4670 -16.3760 -16.1462  -6.7566  -6.6196
    -6.5429  -6.4919  -6.4747  -6.4460  -6.2423  -6.2093  -6.2064  -6.1564
    -6.1230  -5.3037  -5.2784  -4.9492  -4.9092  -4.7387  -4.6941  -4.1494
    -4.0977  -3.8513  -3.8266  -3.5958  -3.5209  -3.4385  -3.3937  -3.1866
    -3.1545  -3.0256  -2.6065  -2.2682  -2.2122  -1.9913  -1.6143  -1.5921
    -1.4794  -1.4695  -0.9461  -0.7784  -0.5361  -0.4434  -0.2906   0.0657
     0.3271   0.3698   0.4747   0.5459   0.5714   0.7077   1.4129   1.4541
     1.5614   1.8695   1.9198   1.9424   2.2633   2.4168   2.8471   3.0091
     3.1364   3.5182   4.1267   4.4315   5.5172   5.7484   6.1075   6.2099
     8.0478

          k = 0.3750-0.1240 0.0000 ( 41549 PWs)   bands (ev):

   -48.8981 -48.8347 -48.7846 -48.7834 -48.7550 -48.7527 -48.6828 -48.6246
   -48.5997 -48.5594 -48.5137 -48.4903 -48.4668 -48.3949 -48.3930 -48.2726
   -48.1753 -48.1315 -18.5456 -18.4226 -18.3405 -18.2810 -18.2235 -18.0408
   -17.9207 -17.8983 -17.8078 -17.4651 -16.3759 -16.1461  -6.8710  -6.8262
    -6.6605  -6.5574  -6.4358  -6.3103  -6.2453  -6.1771  -6.1108  -6.0258
    -6.0132  -5.3443  -5.2666  -5.1558  -5.0945  -4.9190  -4.6431  -4.2321
    -4.0890  -3.9777  -3.7576  -3.6921  -3.4145  -3.3811  -3.3037  -3.0713
    -3.0520  -2.8995  -2.7539  -2.4208  -2.3157  -2.1584  -1.6927  -1.6490
    -1.3410  -1.1168  -0.7970  -0.3718  -0.3323  -0.2404  -0.0783   0.1566
     0.1936   0.2307   0.2884   0.5490   0.6738   0.9035   1.3555   1.3737
     1.6021   1.6717   1.7806   1.9634   2.1282   2.2706   3.2680   3.4431
     3.5022   3.5811   4.1031   4.4328   5.1876   5.5446   5.6805   5.7669
     7.9442

          k =-0.5000 0.0000 0.0000 ( 41440 PWs)   bands (ev):

   -48.8967 -48.8483 -48.7860 -48.7824 -48.7684 -48.7535 -48.6804 -48.6399
   -48.6153 -48.5573 -48.5301 -48.5074 -48.4658 -48.3938 -48.3907 -48.2702
   -48.1730 -48.1291 -18.4241 -18.2903 -18.2216 -18.2061 -18.1533 -18.0907
   -18.0042 -17.9605 -17.8372 -17.4500 -16.3288 -16.1037  -6.8952  -6.5979
    -6.4893  -6.4720  -6.4035  -6.3486  -6.2804  -6.1282  -6.0487  -5.8320
    -5.7044  -5.6865  -5.4973  -5.4509  -5.4250  -5.2280  -4.2589  -4.2260
    -4.1139  -3.9450  -3.9176  -3.8845  -3.8085  -3.3877  -3.3332  -3.0113
    -2.9619  -2.6639  -2.4249  -2.3896  -1.9980  -1.7655  -1.7179  -1.6986
    -1.2639  -1.0694  -0.3243  -0.3187  -0.3041  -0.1440  -0.0321  -0.0052
     0.0781   0.1047   0.3986   0.6314   0.6521   0.7800   1.0460   1.2694
     1.5254   1.5599   1.6121   2.0116   2.1358   2.2737   3.2217   3.8331
     3.9891   4.0995   4.1001   4.3513   4.4411   4.8272   4.9750   5.6004
     8.4491

          k =-0.5000 0.1240 0.0000 ( 41518 PWs)   bands (ev):

   -48.8971 -48.8506 -48.7837 -48.7824 -48.7686 -48.7541 -48.6803 -48.6400
   -48.6154 -48.5571 -48.5297 -48.5068 -48.4658 -48.3938 -48.3907 -48.2702
   -48.1729 -48.1290 -18.4227 -18.4041 -18.3683 -18.2715 -18.2003 -17.9391
   -17.8724 -17.8483 -17.8429 -17.4517 -16.3282 -16.1030  -6.8785  -6.8536
    -6.6404  -6.5794  -6.5007  -6.4584  -6.3709  -6.2900  -6.0049  -5.9446
    -5.8388  -5.5532  -5.3171  -4.9768  -4.8075  -4.4599  -4.3304  -4.2800
    -4.2596  -4.1752  -4.0392  -3.8771  -3.2469  -3.2252  -3.1072  -3.0231
    -2.9460  -2.7114  -2.7020  -2.2412  -2.1683  -1.7452  -1.6792  -1.6619
    -1.5361  -1.2216  -0.5774  -0.5031  -0.3095  -0.2644  -0.2044  -0.0479
     0.0083   0.0336   0.0530   0.1075   0.1108   0.5062   1.5315   1.5615
     1.7435   1.8681   1.9321   2.0425   2.1198   2.2089   3.0507   3.2519
     3.2667   3.3369   4.1241   4.3503   5.3792   5.6664   5.6911   5.8123
     8.6043

          k =-0.5000-0.2479 0.0000 ( 41524 PWs)   bands (ev):

   -48.8975 -48.8528 -48.7824 -48.7816 -48.7688 -48.7546 -48.6803 -48.6400
   -48.6155 -48.5569 -48.5293 -48.5062 -48.4658 -48.3938 -48.3907 -48.2702
   -48.1728 -48.1289 -18.4773 -18.4517 -18.4213 -18.3408 -18.1944 -17.8550
   -17.8489 -17.7857 -17.7762 -17.4534 -16.3276 -16.1023  -7.0883  -6.8834
    -6.8125  -6.8112  -6.4498  -6.3934  -6.3747  -6.1497  -6.0207  -5.9645
    -5.8391  -5.6696  -5.4277  -4.5158  -4.3747  -4.2973  -4.2437  -4.2026
    -4.0617  -3.8950  -3.8031  -3.5115  -3.4887  -3.4522  -3.2052  -2.9243
    -2.9243  -2.8480  -2.5994  -2.1476  -2.0347  -2.0091  -1.6636  -1.6595
    -1.6221  -1.1174  -1.1074  -0.9549  -0.7478  -0.7423  -0.2945  -0.2454
     0.0319   0.0552   0.0839   0.1086   0.2028   0.2326   1.5723   1.5895
     1.7693   2.1176   2.1519   2.1554   2.1574   2.2725   2.6647   2.8422
     2.9496   3.3017   4.1487   4.3484   5.7287   5.8963   6.2028   6.3442
     8.7619

          k =-0.5000-0.1240 0.0000 ( 41518 PWs)   bands (ev):

   -48.8971 -48.8506 -48.7837 -48.7824 -48.7686 -48.7541 -48.6803 -48.6400
   -48.6154 -48.5571 -48.5297 -48.5068 -48.4658 -48.3938 -48.3907 -48.2702
   -48.1729 -48.1290 -18.4227 -18.4041 -18.3683 -18.2715 -18.2003 -17.9391
   -17.8724 -17.8483 -17.8429 -17.4517 -16.3282 -16.1030  -6.8785  -6.8536
    -6.6404  -6.5794  -6.5007  -6.4584  -6.3709  -6.2900  -6.0049  -5.9446
    -5.8388  -5.5532  -5.3171  -4.9768  -4.8075  -4.4599  -4.3304  -4.2800
    -4.2596  -4.1752  -4.0392  -3.8771  -3.2469  -3.2252  -3.1072  -3.0231
    -2.9460  -2.7114  -2.7020  -2.2412  -2.1683  -1.7452  -1.6792  -1.6619
    -1.5361  -1.2216  -0.5774  -0.5031  -0.3095  -0.2644  -0.2044  -0.0479
     0.0083   0.0336   0.0530   0.1075   0.1108   0.5062   1.5315   1.5615
     1.7435   1.8681   1.9321   2.0425   2.1198   2.2089   3.0507   3.2519
     3.2667   3.3369   4.1241   4.3503   5.3792   5.6664   5.6911   5.8123
     8.6043

          k =-0.3750 0.0000 0.0000 ( 41645 PWs)   bands (ev):

   -48.8978 -48.8321 -48.7875 -48.7834 -48.7546 -48.7525 -48.6829 -48.6245
   -48.5996 -48.5594 -48.5140 -48.4908 -48.4668 -48.3949 -48.3930 -48.2726
   -48.1753 -48.1315 -18.5721 -18.4378 -18.3163 -18.2646 -18.2055 -18.0171
   -17.9334 -17.8858 -17.8315 -17.4633 -16.3757 -16.1461  -6.9779  -6.9660
    -6.8043  -6.5374  -6.3668  -6.2744  -6.2303  -6.2230  -5.9699  -5.8564
    -5.6735  -5.5941  -5.4823  -5.4684  -5.0459  -4.8583  -4.5812  -4.5057
    -4.0997  -3.8906  -3.8151  -3.7570  -3.5925  -3.2975  -3.2270  -3.1730
    -2.9569  -2.7385  -2.6137  -2.6036  -2.5430  -1.9778  -1.7138  -1.4140
    -1.3421  -0.9781  -0.6188  -0.4047  -0.2181   0.0198   0.0294   0.0480
     0.1296   0.5404   0.6434   0.6651   0.8282   0.9917   1.0305   1.1826
     1.3797   1.4027   1.9069   1.9253   2.0547   2.1339   3.4453   4.0233
     4.0597   4.1608   4.2818   4.4249   4.4500   4.8658   5.0000   5.5499
     7.8442

          k =-0.3750 0.1240 0.0000 ( 41549 PWs)   bands (ev):

   -48.8981 -48.8347 -48.7846 -48.7834 -48.7550 -48.7527 -48.6828 -48.6246
   -48.5997 -48.5594 -48.5137 -48.4903 -48.4668 -48.3949 -48.3930 -48.2726
   -48.1753 -48.1315 -18.5456 -18.4226 -18.3405 -18.2810 -18.2235 -18.0408
   -17.9207 -17.8983 -17.8078 -17.4651 -16.3759 -16.1461  -6.8710  -6.8262
    -6.6605  -6.5574  -6.4358  -6.3103  -6.2453  -6.1771  -6.1108  -6.0258
    -6.0132  -5.3443  -5.2666  -5.1558  -5.0945  -4.9190  -4.6431  -4.2321
    -4.0890  -3.9777  -3.7576  -3.6921  -3.4145  -3.3811  -3.3037  -3.0713
    -3.0520  -2.8995  -2.7539  -2.4208  -2.3157  -2.1584  -1.6927  -1.6490
    -1.3410  -1.1168  -0.7970  -0.3718  -0.3323  -0.2404  -0.0783   0.1566
     0.1936   0.2307   0.2884   0.5490   0.6738   0.9035   1.3555   1.3737
     1.6021   1.6717   1.7806   1.9634   2.1282   2.2706   3.2680   3.4431
     3.5022   3.5811   4.1031   4.4328   5.1876   5.5446   5.6805   5.7669
     7.9443

          k =-0.3750-0.2479 0.0000 ( 41514 PWs)   bands (ev):

   -48.8984 -48.8371 -48.7834 -48.7820 -48.7554 -48.7529 -48.6828 -48.6246
   -48.5997 -48.5594 -48.5133 -48.4898 -48.4668 -48.3949 -48.3930 -48.2726
   -48.1753 -48.1315 -18.5068 -18.4112 -18.3741 -18.2927 -18.2429 -18.0636
   -17.9107 -17.9048 -17.7906 -17.4670 -16.3760 -16.1462  -6.7566  -6.6196
    -6.5429  -6.4919  -6.4747  -6.4460  -6.2423  -6.2093  -6.2064  -6.1564
    -6.1230  -5.3037  -5.2784  -4.9492  -4.9092  -4.7387  -4.6941  -4.1494
    -4.0977  -3.8513  -3.8266  -3.5958  -3.5209  -3.4385  -3.3937  -3.1866
    -3.1545  -3.0256  -2.6065  -2.2682  -2.2122  -1.9913  -1.6143  -1.5921
    -1.4794  -1.4695  -0.9461  -0.7784  -0.5361  -0.4434  -0.2906   0.0657
     0.3271   0.3698   0.4747   0.5459   0.5714   0.7077   1.4129   1.4541
     1.5614   1.8695   1.9198   1.9424   2.2633   2.4168   2.8471   3.0091
     3.1364   3.5182   4.1267   4.4315   5.5172   5.7484   6.1075   6.2099
     8.0478

          k =-0.3750-0.1240 0.0000 ( 41549 PWs)   bands (ev):

   -48.8981 -48.8347 -48.7846 -48.7834 -48.7550 -48.7527 -48.6828 -48.6246
   -48.5997 -48.5594 -48.5137 -48.4903 -48.4668 -48.3949 -48.3930 -48.2726
   -48.1753 -48.1315 -18.5456 -18.4226 -18.3405 -18.2810 -18.2235 -18.0408
   -17.9207 -17.8983 -17.8078 -17.4651 -16.3759 -16.1461  -6.8710  -6.8262
    -6.6605  -6.5574  -6.4358  -6.3103  -6.2453  -6.1771  -6.1108  -6.0258
    -6.0132  -5.3443  -5.2666  -5.1558  -5.0945  -4.9190  -4.6431  -4.2321
    -4.0890  -3.9777  -3.7576  -3.6921  -3.4145  -3.3811  -3.3037  -3.0713
    -3.0520  -2.8995  -2.7539  -2.4208  -2.3157  -2.1584  -1.6927  -1.6490
    -1.3410  -1.1168  -0.7970  -0.3718  -0.3323  -0.2404  -0.0783   0.1566
     0.1936   0.2307   0.2884   0.5490   0.6738   0.9035   1.3555   1.3737
     1.6021   1.6717   1.7806   1.9634   2.1282   2.2706   3.2680   3.4431
     3.5022   3.5811   4.1031   4.4328   5.1876   5.5446   5.6805   5.7669
     7.9442

          k =-0.2500 0.0000 0.0000 ( 41623 PWs)   bands (ev):

   -48.9006 -48.7926 -48.7909 -48.7858 -48.7574 -48.7138 -48.6889 -48.5871
   -48.5644 -48.5614 -48.4748 -48.4692 -48.4503 -48.3985 -48.3974 -48.2782
   -48.1810 -48.1373 -19.0080 -18.7223 -18.6263 -18.4239 -18.1543 -17.8804
   -17.8349 -17.7571 -17.7000 -17.5756 -16.3986 -16.1787  -7.5567  -7.5159
    -7.3906  -7.0099  -6.5410  -6.4175  -6.4072  -6.1295  -6.0188  -5.7457
    -5.5846  -5.3033  -4.9693  -4.7584  -4.7369  -4.5914  -4.5035  -4.4752
    -4.4313  -3.8129  -3.6755  -3.4626  -3.3458  -3.2267  -3.1918  -3.1501
    -3.0782  -2.9371  -2.7968  -2.6551  -2.3778  -2.1472  -1.9117  -1.3549
    -1.2073  -1.1775  -0.5425  -0.5398  -0.3849  -0.3130  -0.0603  -0.0437
     0.3061   0.4816   0.6468   0.6530   0.9366   1.0629   1.0818   1.1282
     1.3893   1.5355   1.8277   2.0498   2.1013   2.2543   3.8946   4.0961
     4.3957   4.5715   4.6678   4.7801   4.8066   4.8499   4.9394   5.6194
     7.0462

          k =-0.2500 0.1240 0.0000 ( 41653 PWs)   bands (ev):

   -48.9005 -48.8001 -48.7858 -48.7827 -48.7574 -48.7140 -48.6889 -48.5872
   -48.5649 -48.5614 -48.4747 -48.4692 -48.4501 -48.3985 -48.3974 -48.2783
   -48.1812 -48.1375 -18.9147 -18.6109 -18.5138 -18.4399 -18.1610 -18.0041
   -17.9085 -17.8686 -17.8084 -17.5561 -16.3972 -16.1779  -7.1770  -7.1362
    -7.0139  -6.9940  -6.5396  -6.4175  -6.2530  -5.9801  -5.8984  -5.8467
    -5.6348  -5.2346  -5.1680  -5.0991  -4.9927  -4.8581  -4.6301  -4.4771
    -4.2319  -3.9240  -3.7770  -3.6493  -3.5572  -3.5179  -3.4241  -3.3539
    -3.3489  -2.9876  -2.7198  -2.4504  -2.3019  -2.0414  -1.8760  -1.4144
    -1.2802  -1.1402  -0.7984  -0.5132  -0.2972   0.0155   0.1351   0.3153
     0.3607   0.5164   0.6492   0.7476   0.9628   1.0746   1.0884   1.1905
     1.3925   1.4755   1.6572   1.7894   2.2349   2.4431   3.8986   4.0140
     4.0384   4.1146   4.2704   4.8335   4.8689   5.2970   5.4729   5.8082
     7.1112

          k =-0.2500-0.2479 0.0000 ( 41680 PWs)   bands (ev):

   -48.9005 -48.8034 -48.7858 -48.7787 -48.7575 -48.7142 -48.6889 -48.5872
   -48.5655 -48.5614 -48.4745 -48.4692 -48.4499 -48.3985 -48.3974 -48.2783
   -48.1814 -48.1377 -18.7744 -18.5014 -18.3874 -18.2789 -18.2255 -18.1666
   -18.1223 -18.0680 -17.8125 -17.5498 -16.3959 -16.1772  -7.0105  -6.5531
    -6.5264  -6.4686  -6.4260  -6.3043  -6.0221  -5.9087  -5.8945  -5.8556
    -5.8433  -5.6915  -5.5813  -5.5069  -4.9482  -4.8818  -4.6281  -4.4147
    -4.3164  -4.1848  -4.1582  -4.0133  -3.9678  -3.8012  -3.6369  -3.5290
    -3.5116  -2.9077  -2.3120  -2.2532  -2.0172  -1.8202  -1.8055  -1.6021
    -1.5461  -1.1014  -0.5666  -0.4957  -0.4380  -0.1032   0.0901   0.4874
     0.5421   0.5724   0.8719   0.8889   1.0714   1.1642   1.1745   1.2986
     1.3085   1.4774   1.5312   1.6161   2.3230   2.5545   3.4800   3.6024
     3.7618   4.0588   4.2326   4.8452   5.0907   5.4716   5.8091   6.0490
     7.2247

          k =-0.2500-0.1240 0.0000 ( 41653 PWs)   bands (ev):

   -48.9005 -48.8001 -48.7858 -48.7827 -48.7574 -48.7140 -48.6889 -48.5872
   -48.5649 -48.5614 -48.4747 -48.4692 -48.4501 -48.3985 -48.3974 -48.2783
   -48.1812 -48.1375 -18.9147 -18.6109 -18.5138 -18.4399 -18.1610 -18.0041
   -17.9085 -17.8686 -17.8084 -17.5561 -16.3972 -16.1779  -7.1770  -7.1362
    -7.0139  -6.9940  -6.5396  -6.4175  -6.2530  -5.9801  -5.8984  -5.8467
    -5.6348  -5.2346  -5.1680  -5.0991  -4.9927  -4.8581  -4.6301  -4.4771
    -4.2319  -3.9240  -3.7770  -3.6493  -3.5572  -3.5179  -3.4241  -3.3539
    -3.3489  -2.9876  -2.7198  -2.4504  -2.3019  -2.0414  -1.8760  -1.4144
    -1.2802  -1.1402  -0.7984  -0.5132  -0.2972   0.0155   0.1351   0.3153
     0.3607   0.5164   0.6492   0.7476   0.9628   1.0746   1.0884   1.1905
     1.3925   1.4755   1.6572   1.7894   2.2349   2.4431   3.8986   4.0140
     4.0384   4.1146   4.2704   4.8335   4.8689   5.2970   5.4729   5.8082
     7.1112

          k =-0.1250 0.0000 0.0000 ( 41611 PWs)   bands (ev):

   -48.9033 -48.7943 -48.7884 -48.7602 -48.7529 -48.6950 -48.6748 -48.5695
   -48.5495 -48.5228 -48.4716 -48.4354 -48.4097 -48.4040 -48.3999 -48.2839
   -48.1867 -48.1431 -19.3721 -19.0241 -18.9282 -18.6683 -18.0051 -17.9983
   -17.7718 -17.6463 -17.5723 -17.5057 -16.3215 -16.1220  -8.0461  -7.9931
    -7.8747  -7.5097  -6.7350  -6.5173  -6.4550  -6.2901  -6.2517  -5.8190
    -5.7937  -5.3090  -5.1932  -4.9684  -4.5292  -4.4331  -4.0156  -3.7363
    -3.6044  -3.5038  -3.4622  -3.3917  -3.3116  -3.1041  -2.8978  -2.8219
    -2.6942  -2.5258  -2.4706  -2.2923  -2.2014  -2.1093  -1.9335  -1.4344
    -1.0127  -0.9164  -0.8956  -0.7088  -0.6039  -0.4973  -0.4000  -0.3956
    -0.2128  -0.0123   0.2327   0.2946   0.4205   0.7781   0.9890   1.2599
     1.3067   1.7083   1.8233   2.2011   2.3313   2.5094   3.6140   4.3351
     4.4321   4.8258   5.1301   5.2981   5.3486   5.5020   5.5386   5.6339
     6.5423

          k =-0.1250 0.1240 0.0000 ( 41692 PWs)   bands (ev):

   -48.9030 -48.7938 -48.7883 -48.7599 -48.7523 -48.6950 -48.6750 -48.5705
   -48.5494 -48.5228 -48.4716 -48.4354 -48.4097 -48.4040 -48.3999 -48.2839
   -48.1871 -48.1435 -19.2554 -18.8828 -18.8012 -18.6878 -18.0682 -18.0080
   -17.9046 -17.7761 -17.7088 -17.5826 -16.3174 -16.1194  -7.5746  -7.5091
    -7.4672  -7.3825  -6.7353  -6.4594  -6.4229  -6.1951  -6.1651  -5.9210
    -5.5141  -5.3076  -5.1891  -4.9344  -4.5424  -4.3680  -4.3069  -4.2474
    -4.0444  -3.9650  -3.8992  -3.8565  -3.7328  -3.6057  -3.3318  -3.2276
    -2.8409  -2.6081  -2.3538  -2.1912  -2.0892  -2.0559  -1.5751  -1.2106
    -1.1706  -1.0185  -0.8838  -0.4555  -0.3015  -0.2700  -0.0269  -0.0118
     0.0545   0.1549   0.2105   0.4694   0.6200   0.8608   1.0024   1.2365
     1.3770   1.4578   1.7834   2.0741   2.1577   2.6079   3.9717   4.5488
     4.6636   4.8558   4.9094   5.1480   5.2852   5.3322   5.5895   5.7812
     6.5662

          k =-0.1250-0.2479 0.0000 ( 41706 PWs)   bands (ev):

   -48.9027 -48.7933 -48.7883 -48.7596 -48.7516 -48.6950 -48.6751 -48.5716
   -48.5494 -48.5228 -48.4716 -48.4354 -48.4096 -48.4040 -48.3999 -48.2839
   -48.1875 -48.1439 -19.0747 -18.8147 -18.6430 -18.4962 -18.2923 -18.1774
   -17.9810 -17.9602 -17.7996 -17.6129 -16.3141 -16.1173  -7.5166  -6.7365
    -6.6508  -6.5069  -6.4928  -6.4615  -6.4320  -6.3226  -6.2662  -5.9376
    -5.3102  -5.1951  -5.0765  -5.0270  -4.9109  -4.8243  -4.8094  -4.7408
    -4.7070  -4.5158  -4.4373  -4.2822  -3.8240  -3.8141  -3.6960  -3.4753
    -2.8350  -2.6242  -2.1917  -2.0289  -1.8746  -1.7347  -1.6438  -1.2431
    -1.1175  -1.0330  -0.8870  -0.2545  -0.2411  -0.1788  -0.0451   0.0544
     0.2779   0.5320   0.6922   0.7122   0.8760   1.0065   1.0111   1.1618
     1.3174   1.4049   1.6353   1.7701   2.1533   2.7132   4.2481   4.4386
     4.5216   4.6638   4.7017   5.2953   5.3064   5.4972   5.6471   5.9699
     6.6830

          k =-0.1250-0.1240 0.0000 ( 41692 PWs)   bands (ev):

   -48.9030 -48.7938 -48.7883 -48.7599 -48.7523 -48.6950 -48.6750 -48.5705
   -48.5494 -48.5228 -48.4716 -48.4354 -48.4097 -48.4040 -48.3999 -48.2839
   -48.1871 -48.1435 -19.2554 -18.8828 -18.8012 -18.6878 -18.0682 -18.0080
   -17.9046 -17.7761 -17.7088 -17.5826 -16.3174 -16.1194  -7.5746  -7.5091
    -7.4672  -7.3825  -6.7353  -6.4594  -6.4229  -6.1951  -6.1651  -5.9210
    -5.5141  -5.3076  -5.1891  -4.9344  -4.5424  -4.3680  -4.3069  -4.2474
    -4.0444  -3.9650  -3.8992  -3.8565  -3.7328  -3.6057  -3.3318  -3.2276
    -2.8409  -2.6081  -2.3538  -2.1912  -2.0892  -2.0559  -1.5751  -1.2106
    -1.1706  -1.0185  -0.8838  -0.4555  -0.3015  -0.2700  -0.0269  -0.0118
     0.0545   0.1549   0.2105   0.4694   0.6200   0.8608   1.0024   1.2365
     1.3770   1.4578   1.7834   2.0741   2.1577   2.6079   3.9717   4.5488
     4.6636   4.8558   4.9094   5.1480   5.2852   5.3322   5.5895   5.7812
     6.5662

     the Fermi energy is     1.5173 ev

!    total energy              =   -1589.74822253 Ry
     estimated scf accuracy    <       0.00000022 Ry
     smearing contrib. (-TS)   =      -0.00016233 Ry
     internal energy E=F+TS    =   -1589.74806020 Ry

     The total energy is F=E-TS. E is the sum of the following terms:
     one-electron contribution =  -14880.21806049 Ry
     hartree contribution      =    7481.37632995 Ry
     xc contribution           =    -390.42107999 Ry
     ewald contribution        =    6313.72977162 Ry
     electric field correction =       0.00000173 Ry
     one-center paw contrib.   =    -114.21502302 Ry

     convergence has been achieved in  25 iterations

     negative rho (up, down):  1.917E+00 0.000E+00

     Forces acting on atoms (cartesian axes, Ry/au):

     atom    1 type  1   force =     0.00000007   -0.00000013    0.03399772
     atom    2 type  1   force =     0.00000003    0.00000041   -0.03973231
     atom    3 type  1   force =    -0.00000016    0.00000024    0.00117055
     atom    4 type  1   force =     0.00000027   -0.00000024   -0.00019068
     atom    5 type  1   force =     0.00000018   -0.00000034    0.00057533
     atom    6 type  1   force =     0.00000000    0.00000017   -0.00119645
     atom    7 type  2   force =    -0.00000009    0.00000005    0.00979924
     atom    8 type  2   force =     0.00000003   -0.00000001    0.03415068
     atom    9 type  2   force =    -0.00000007    0.02223198   -0.02527509
     atom   10 type  2   force =     0.00000003   -0.02223198   -0.02527519
     atom   11 type  2   force =     0.00000012    0.00000021   -0.00047314
     atom   12 type  2   force =    -0.00000016   -0.00000007    0.00965231
     atom   13 type  2   force =    -0.00000001   -0.00063571    0.00184013
     atom   14 type  2   force =    -0.00000006    0.00063560    0.00183997
     atom   15 type  2   force =    -0.00000007   -0.00000017   -0.00173538
     atom   16 type  2   force =    -0.00000009   -0.00000005    0.00044497
     atom   17 type  2   force =    -0.00000005   -0.00028762    0.00020396
     atom   18 type  2   force =     0.00000000    0.00028765    0.00020337

     Total force =     0.003799     Total SCF correction =     0.002930
     SCF correction compared to forces is large: reduce conv_thr to get better values

     Writing all to output data dir ./tmp_slab__dipole/slab__dipole.save/ :
     XML data file, charge density, pseudopotentials, collected wavefunctions

     init_run     :     51.73s CPU     54.21s WALL (       1 calls)
     electrons    :   2838.64s CPU   2926.58s WALL (       1 calls)
     forces       :     16.30s CPU     17.34s WALL (       1 calls)

     Called by init_run:
     wfcinit      :     42.52s CPU     43.77s WALL (       1 calls)
     potinit      :      2.73s CPU      3.02s WALL (       1 calls)
     hinit0       :      2.94s CPU      3.08s WALL (       1 calls)

     Called by electrons:
     c_bands      :   2166.86s CPU   2214.96s WALL (      25 calls)
     sum_band     :    449.40s CPU    467.71s WALL (      25 calls)
     v_of_rho     :     40.37s CPU     43.71s WALL (      26 calls)
     newd         :     38.73s CPU     55.22s WALL (      26 calls)
     PAW_pot      :      6.31s CPU      6.32s WALL (      26 calls)
     mix_rho      :    136.16s CPU    138.78s WALL (      25 calls)

     Called by c_bands:
     init_us_2    :     38.76s CPU     38.97s WALL (     416 calls)
     cegterg      :   2040.61s CPU   2088.51s WALL (     200 calls)

     Called by *egterg:
     cdiaghg      :     17.77s CPU     17.81s WALL (    1482 calls)
     h_psi        :   1549.13s CPU   1563.76s WALL (    1490 calls)
     s_psi        :    115.10s CPU    115.13s WALL (    1490 calls)
     g_psi        :     12.85s CPU     12.87s WALL (    1282 calls)

     Called by h_psi:
     h_psi:calbec :    123.90s CPU    123.98s WALL (    1490 calls)
     vloc_psi     :   1293.95s CPU   1295.50s WALL (    1490 calls)
                                        0.00s GPU  (    1490 calls)
     add_vuspsi   :    122.74s CPU    122.85s WALL (    1490 calls)

     General routines
     calbec       :    175.95s CPU    176.04s WALL (    1722 calls)
     fft          :     15.51s CPU     15.57s WALL (     347 calls)
     ffts         :     46.46s CPU     46.52s WALL (    3003 calls)
     fftw         :   1218.82s CPU   1219.81s WALL (  105788 calls)
     interpolate  :      3.04s CPU      3.07s WALL (      26 calls)

     Parallel routines

     PWSCF        :  48m27.34s CPU  49m59.18s WALL


   This run was terminated on:  19: 9:47   8Aug2026            

=------------------------------------------------------------------------------=
   JOB DONE.
=------------------------------------------------------------------------------=
