
     Program PWSCF v.7.5 starts on  7Aug2026 at 23:36:24 

     This program is part of the open-source Quantum ESPRESSO suite
     for quantum simulation of materials; please cite
         "P. Giannozzi et al., J. Phys.:Condens. Matter 21 395502 (2009);
         "P. Giannozzi et al., J. Phys.:Condens. Matter 29 465901 (2017);
         "P. Giannozzi et al., J. Chem. Phys. 152 154105 (2020);
          URL http://www.quantum-espresso.org", 
     in publications or presentations arising from this work. More details at
     http://www.quantum-espresso.org/quote

     Parallel version (MPI & OpenMP), running on       4 processor cores
     Number of MPI processes:                 4
     Threads/MPI process:                     1

     MPI processes distributed on     1 nodes
     52802 MiB available memory on the printing compute node when the environment starts

     Reading input from slab__vac32.run.in

     Current dimensions of program PWSCF are:
     Max number of different atomic species (ntypx) = 10
     Max number of k-points (npk) =  40000
     Max angular momentum in pseudopotentials (lmaxx) =  4
     file O.pbe-n-kjpaw_psl.0.1.UPF: wavefunction(s)  2P renormalized

     K-points division:     npool     =       4
     Subspace diagonalization in iterative solution of the eigenvalue problem:
     a serial algorithm will be used


     G-vector sticks info
     --------------------
     sticks:   dense  smooth     PW     G-vecs:    dense   smooth      PW
     Sum        3639    1825    519              1183885   418441   63305

     Using Slab Decomposition



     bravais-lattice index     =            0
     lattice parameter (alat)  =       5.9602  a.u.
     unit-cell volume          =    4332.5414 (a.u.)^3
     number of atoms/cell      =           18
     number of atomic types    =            2
     number of electrons       =       162.00
     number of Kohn-Sham states=           97
     kinetic-energy cutoff     =      80.0000  Ry
     charge density cutoff     =     640.0000  Ry
     scf convergence threshold =      1.0E-06
     mixing beta               =       0.3000
     number of iterations used =            8  local-TF  mixing
     Exchange-correlation= SLA  PW   PBX  PBC
                           (   1   4   3   4   0   0   0)

     celldm(1)=   5.960196  celldm(2)=   0.000000  celldm(3)=   0.000000
     celldm(4)=   0.000000  celldm(5)=   0.000000  celldm(6)=   0.000000

     crystal axes: (cart. coord. in units of alat)
               a(1) = (   1.000000   0.000000   0.000000 )  
               a(2) = (   0.000000   2.016846   0.000000 )  
               a(3) = (   0.000000   0.000000  10.145847 )  

     reciprocal axes: (cart. coord. in units 2 pi/alat)
               b(1) = (  1.000000  0.000000  0.000000 )  
               b(2) = (  0.000000  0.495824  0.000000 )  
               b(3) = (  0.000000  0.000000  0.098562 )  


     PseudoPot. # 1 for Ir read from file:
     /usr/share/espresso/pseudo/Ir_pbe_v1.2.uspp.F.UPF
     MD5 check sum: 8836f839c3459d2b385c504ce6d91f2c
     Pseudo is Ultrasoft + core correction, Zval = 15.0
     Generated by new atomic code, or converted to UPF format
     Using radial grid of  983 points,  7 beta functions with: 
                l(1) =   0
                l(2) =   0
                l(3) =   1
                l(4) =   1
                l(5) =   1
                l(6) =   2
                l(7) =   2
     Q(r) pseudized with  8 coefficients,  rinner =    1.400   1.400   1.400
                                                       1.400   1.400

     PseudoPot. # 2 for O  read from file:
     /usr/share/espresso/pseudo/O.pbe-n-kjpaw_psl.0.1.UPF
     MD5 check sum: 0234752ac141de4415c5fc33072bef88
     Pseudo is Projector augmented-wave + core cor, Zval =  6.0
     Generated using "atomic" code by A. Dal Corso  v.5.0.99 svn rev. 10869
     Shape of augmentation charge: BESSEL
     Using radial grid of 1095 points,  4 beta functions with: 
                l(1) =   0
                l(2) =   0
                l(3) =   1
                l(4) =   1
     Q(r) pseudized with 0 coefficients 


     atomic species   valence    mass     pseudopotential
     Ir               15.00   192.21700     Ir( 1.00)
     O                 6.00    15.99900     O ( 1.00)

     No symmetry found



   Cartesian axes

     site n.     atom                  positions (alat units)
         1        Ir     tau(   1) = (   0.0000000   1.5126346   4.0520105  )
         2        Ir     tau(   2) = (   0.5000000   0.5042115   4.0520105  )
         3        Ir     tau(   3) = (  -0.0000000   0.5042115   5.0757557  )
         4        Ir     tau(   4) = (   0.4999999   1.5126345   5.0637068  )
         5        Ir     tau(   5) = (  -0.0000001   1.5126347   6.0788552  )
         6        Ir     tau(   6) = (   0.5000000   0.5042117   6.1109873  )
         7        O      tau(   7) = (   0.0000000   0.5042115   4.4452955  )
         8        O      tau(   8) = (   0.0000000   0.5042115   3.6587255  )
         9        O      tau(   9) = (   0.5000000   1.1193496   4.0520105  )
        10        O      tau(  10) = (   0.5000000   1.9059196   4.0520105  )
        11        O      tau(  11) = (  -0.0000001   1.5126339   5.4610436  )
        12        O      tau(  12) = (   0.0000000   1.5126346   4.6671485  )
        13        O      tau(  13) = (   0.5000000   0.1171043   5.0708907  )
        14        O      tau(  14) = (   0.5000000   0.8913186   5.0708904  )
        15        O      tau(  15) = (  -0.0000000   0.5042117   6.4871211  )
        16        O      tau(  16) = (  -0.0000000   0.5042116   5.7078878  )
        17        O      tau(  17) = (   0.5000000   1.1288945   6.1216507  )
        18        O      tau(  18) = (   0.5000000   1.8963749   6.1216505  )

     number of k points=    32  Marzari-Vanderbilt smearing, width (Ry)=  0.0100
                       cart. coord. in units 2pi/alat
        k(    1) = (   0.0000000   0.0000000   0.0000000), wk =   0.0625000
        k(    2) = (   0.0000000   0.1239559   0.0000000), wk =   0.0625000
        k(    3) = (   0.0000000  -0.2479118   0.0000000), wk =   0.0625000
        k(    4) = (   0.0000000  -0.1239559   0.0000000), wk =   0.0625000
        k(    5) = (   0.1250000   0.0000000   0.0000000), wk =   0.0625000
        k(    6) = (   0.1250000   0.1239559   0.0000000), wk =   0.0625000
        k(    7) = (   0.1250000  -0.2479118   0.0000000), wk =   0.0625000
        k(    8) = (   0.1250000  -0.1239559   0.0000000), wk =   0.0625000
        k(    9) = (   0.2500000   0.0000000   0.0000000), wk =   0.0625000
        k(   10) = (   0.2500000   0.1239559   0.0000000), wk =   0.0625000
        k(   11) = (   0.2500000  -0.2479118   0.0000000), wk =   0.0625000
        k(   12) = (   0.2500000  -0.1239559   0.0000000), wk =   0.0625000
        k(   13) = (   0.3750000   0.0000000   0.0000000), wk =   0.0625000
        k(   14) = (   0.3750000   0.1239559   0.0000000), wk =   0.0625000
        k(   15) = (   0.3750000  -0.2479118   0.0000000), wk =   0.0625000
        k(   16) = (   0.3750000  -0.1239559   0.0000000), wk =   0.0625000
        k(   17) = (  -0.5000000   0.0000000   0.0000000), wk =   0.0625000
        k(   18) = (  -0.5000000   0.1239559   0.0000000), wk =   0.0625000
        k(   19) = (  -0.5000000  -0.2479118   0.0000000), wk =   0.0625000
        k(   20) = (  -0.5000000  -0.1239559   0.0000000), wk =   0.0625000
        k(   21) = (  -0.3750000   0.0000000   0.0000000), wk =   0.0625000
        k(   22) = (  -0.3750000   0.1239559   0.0000000), wk =   0.0625000
        k(   23) = (  -0.3750000  -0.2479118   0.0000000), wk =   0.0625000
        k(   24) = (  -0.3750000  -0.1239559   0.0000000), wk =   0.0625000
        k(   25) = (  -0.2500000   0.0000000   0.0000000), wk =   0.0625000
        k(   26) = (  -0.2500000   0.1239559   0.0000000), wk =   0.0625000
        k(   27) = (  -0.2500000  -0.2479118   0.0000000), wk =   0.0625000
        k(   28) = (  -0.2500000  -0.1239559   0.0000000), wk =   0.0625000
        k(   29) = (  -0.1250000   0.0000000   0.0000000), wk =   0.0625000
        k(   30) = (  -0.1250000   0.1239559   0.0000000), wk =   0.0625000
        k(   31) = (  -0.1250000  -0.2479118   0.0000000), wk =   0.0625000
        k(   32) = (  -0.1250000  -0.1239559   0.0000000), wk =   0.0625000

     Dense  grid:  1183885 G-vectors     FFT dimensions: (  48, 100, 500)

     Smooth grid:   418441 G-vectors     FFT dimensions: (  36,  72, 360)

     Estimated max dynamical RAM per process >       2.77 GB

     Estimated total dynamical RAM >      10.25 GB

     Initial potential from superposition of free atoms

     starting charge     158.9998, renormalised to     162.0000

     negative rho (up, down):  2.220E+00 0.000E+00
     Starting wfcs are  120 randomized atomic wfcs
     Checking if some PAW data can be deallocated... 

     total cpu time spent up to now is       50.6 secs

     per-process dynamical memory:  1294.7 Mb

     Self-consistent Calculation

     iteration #  1     ecut=    80.00 Ry     beta= 0.30
     Davidson diagonalization with overlap
     ethr =  1.00E-02,  avg # of iterations =  3.0

     negative rho (up, down):  2.078E+00 0.000E+00

     total cpu time spent up to now is      161.8 secs

     total energy              =   -1590.54944303 Ry
     estimated scf accuracy    <      13.99899251 Ry

     iteration #  2     ecut=    80.00 Ry     beta= 0.30
     Davidson diagonalization with overlap
     ethr =  8.64E-03,  avg # of iterations =  1.0

     negative rho (up, down):  1.905E+00 0.000E+00

     total cpu time spent up to now is      254.7 secs

     total energy              =   -1589.02705561 Ry
     estimated scf accuracy    <       5.33363093 Ry

     iteration #  3     ecut=    80.00 Ry     beta= 0.30
     Davidson diagonalization with overlap
     ethr =  3.29E-03,  avg # of iterations =  2.2

     negative rho (up, down):  1.912E+00 0.000E+00

     total cpu time spent up to now is      363.1 secs

     total energy              =   -1589.79727401 Ry
     estimated scf accuracy    <       0.41234911 Ry

     iteration #  4     ecut=    80.00 Ry     beta= 0.30
     Davidson diagonalization with overlap
     ethr =  2.55E-04,  avg # of iterations =  9.4

     negative rho (up, down):  1.937E+00 0.000E+00

     total cpu time spent up to now is      491.6 secs

     total energy              =   -1589.74623331 Ry
     estimated scf accuracy    <       0.21013590 Ry

     iteration #  5     ecut=    80.00 Ry     beta= 0.30
     Davidson diagonalization with overlap
     ethr =  1.30E-04,  avg # of iterations =  2.6

     negative rho (up, down):  1.951E+00 0.000E+00

     total cpu time spent up to now is      602.7 secs

     total energy              =   -1589.74890226 Ry
     estimated scf accuracy    <       0.06177344 Ry

     iteration #  6     ecut=    80.00 Ry     beta= 0.30
     Davidson diagonalization with overlap
     ethr =  3.81E-05,  avg # of iterations =  9.1

     negative rho (up, down):  1.967E+00 0.000E+00

     total cpu time spent up to now is      726.2 secs

     total energy              =   -1589.75468562 Ry
     estimated scf accuracy    <       0.01575536 Ry

     iteration #  7     ecut=    80.00 Ry     beta= 0.30
     Davidson diagonalization with overlap
     c_bands:  1 eigenvalues not converged
     ethr =  9.73E-06,  avg # of iterations =  6.8

     negative rho (up, down):  1.985E+00 0.000E+00

     total cpu time spent up to now is      840.8 secs

     total energy              =   -1589.75361191 Ry
     estimated scf accuracy    <       0.01270429 Ry

     iteration #  8     ecut=    80.00 Ry     beta= 0.30
     Davidson diagonalization with overlap
     ethr =  7.84E-06,  avg # of iterations =  6.8

     negative rho (up, down):  1.996E+00 0.000E+00

     total cpu time spent up to now is      951.8 secs

     total energy              =   -1589.75251485 Ry
     estimated scf accuracy    <       0.00970669 Ry

     iteration #  9     ecut=    80.00 Ry     beta= 0.30
     Davidson diagonalization with overlap
     ethr =  5.99E-06,  avg # of iterations =  6.8

     negative rho (up, down):  1.988E+00 0.000E+00

     total cpu time spent up to now is     1065.0 secs

     total energy              =   -1589.75197342 Ry
     estimated scf accuracy    <       0.00592704 Ry

     iteration # 10     ecut=    80.00 Ry     beta= 0.30
     Davidson diagonalization with overlap
     ethr =  3.66E-06,  avg # of iterations =  6.5

     negative rho (up, down):  1.964E+00 0.000E+00

     total cpu time spent up to now is     1175.7 secs

     total energy              =   -1589.75091728 Ry
     estimated scf accuracy    <       0.00394413 Ry

     iteration # 11     ecut=    80.00 Ry     beta= 0.30
     Davidson diagonalization with overlap
     c_bands:  1 eigenvalues not converged
     c_bands:  1 eigenvalues not converged
     ethr =  2.43E-06,  avg # of iterations =  9.6

     negative rho (up, down):  1.953E+00 0.000E+00

     total cpu time spent up to now is     1301.4 secs

     total energy              =   -1589.75033055 Ry
     estimated scf accuracy    <       0.00238991 Ry

     iteration # 12     ecut=    80.00 Ry     beta= 0.30
     Davidson diagonalization with overlap
     c_bands:  1 eigenvalues not converged
     c_bands:  1 eigenvalues not converged
     ethr =  1.48E-06,  avg # of iterations =  8.3

     negative rho (up, down):  1.945E+00 0.000E+00

     total cpu time spent up to now is     1421.5 secs

     total energy              =   -1589.74966278 Ry
     estimated scf accuracy    <       0.00174036 Ry

     iteration # 13     ecut=    80.00 Ry     beta= 0.30
     Davidson diagonalization with overlap
     c_bands:  1 eigenvalues not converged
     c_bands:  1 eigenvalues not converged
     c_bands:  1 eigenvalues not converged
     c_bands:  1 eigenvalues not converged
     ethr =  1.07E-06,  avg # of iterations =  8.6

     negative rho (up, down):  1.942E+00 0.000E+00

     total cpu time spent up to now is     1540.0 secs

     total energy              =   -1589.74884963 Ry
     estimated scf accuracy    <       0.00120531 Ry

     iteration # 14     ecut=    80.00 Ry     beta= 0.30
     Davidson diagonalization with overlap
     c_bands:  1 eigenvalues not converged
     c_bands:  2 eigenvalues not converged
     c_bands:  2 eigenvalues not converged
     c_bands:  2 eigenvalues not converged
     ethr =  7.44E-07,  avg # of iterations = 13.2

     negative rho (up, down):  1.939E+00 0.000E+00

     total cpu time spent up to now is     1665.4 secs

     total energy              =   -1589.74851675 Ry
     estimated scf accuracy    <       0.00068214 Ry

     iteration # 15     ecut=    80.00 Ry     beta= 0.30
     Davidson diagonalization with overlap
     c_bands:  1 eigenvalues not converged
     c_bands:  1 eigenvalues not converged
     c_bands:  1 eigenvalues not converged
     c_bands:  1 eigenvalues not converged
     ethr =  4.21E-07,  avg # of iterations = 11.1

     negative rho (up, down):  1.930E+00 0.000E+00

     total cpu time spent up to now is     1786.1 secs

     total energy              =   -1589.74827755 Ry
     estimated scf accuracy    <       0.00043801 Ry

     iteration # 16     ecut=    80.00 Ry     beta= 0.30
     Davidson diagonalization with overlap
     c_bands:  1 eigenvalues not converged
     c_bands:  1 eigenvalues not converged
     c_bands:  1 eigenvalues not converged
     c_bands:  1 eigenvalues not converged
     ethr =  2.70E-07,  avg # of iterations =  9.6

     negative rho (up, down):  1.925E+00 0.000E+00

     total cpu time spent up to now is     1902.4 secs

     total energy              =   -1589.74822497 Ry
     estimated scf accuracy    <       0.00013747 Ry

     iteration # 17     ecut=    80.00 Ry     beta= 0.30
     Davidson diagonalization with overlap
     c_bands:  1 eigenvalues not converged
     c_bands:  1 eigenvalues not converged
     c_bands:  1 eigenvalues not converged
     ethr =  8.49E-08,  avg # of iterations =  6.9

     negative rho (up, down):  1.921E+00 0.000E+00

     total cpu time spent up to now is     2013.8 secs

     total energy              =   -1589.74822729 Ry
     estimated scf accuracy    <       0.00005023 Ry

     iteration # 18     ecut=    80.00 Ry     beta= 0.30
     Davidson diagonalization with overlap
     ethr =  3.10E-08,  avg # of iterations =  2.8

     negative rho (up, down):  1.916E+00 0.000E+00

     total cpu time spent up to now is     2116.1 secs

     total energy              =   -1589.74822631 Ry
     estimated scf accuracy    <       0.00002019 Ry

     iteration # 19     ecut=    80.00 Ry     beta= 0.30
     Davidson diagonalization with overlap
     ethr =  1.25E-08,  avg # of iterations =  4.1

     negative rho (up, down):  1.915E+00 0.000E+00

     total cpu time spent up to now is     2220.2 secs

     total energy              =   -1589.74822728 Ry
     estimated scf accuracy    <       0.00000234 Ry

     iteration # 20     ecut=    80.00 Ry     beta= 0.30
     Davidson diagonalization with overlap
     ethr =  1.45E-09,  avg # of iterations =  1.6

     negative rho (up, down):  1.915E+00 0.000E+00

     total cpu time spent up to now is     2317.9 secs

     total energy              =   -1589.74822754 Ry
     estimated scf accuracy    <       0.00000101 Ry

     iteration # 21     ecut=    80.00 Ry     beta= 0.30
     Davidson diagonalization with overlap
     ethr =  6.23E-10,  avg # of iterations =  2.2

     negative rho (up, down):  1.915E+00 0.000E+00

     total cpu time spent up to now is     2414.1 secs

     End of self-consistent calculation

          k = 0.0000 0.0000 0.0000 ( 52347 PWs)   bands (ev):

   -50.4457 -50.3369 -50.3306 -50.3025 -50.2776 -50.2390 -50.2000 -50.1129
   -50.0751 -50.0480 -50.0142 -49.9604 -49.9475 -49.9422 -49.9338 -49.8274
   -49.7304 -49.6867 -21.0528 -20.6874 -20.5902 -20.3123 -19.6134 -19.4719
   -19.4078 -19.1073 -19.0341 -18.9639 -17.8124 -17.6178  -9.7733  -9.7129
    -9.5972  -9.2390  -8.3170  -8.0900  -7.9628  -7.8767  -7.8474  -7.5256
    -7.2604  -7.2089  -7.0978  -6.6952  -6.2322  -5.6927  -5.2381  -5.0516
    -4.9987  -4.8131  -4.6441  -4.6370  -4.5942  -4.4520  -4.3522  -4.3197
    -4.1818  -4.0175  -3.7886  -3.7012  -3.3342  -3.1160  -2.8135  -2.6676
    -2.5831  -2.5559  -2.4194  -2.3650  -2.3248  -2.2844  -2.2734  -2.2128
    -2.1485  -2.1374  -1.5628  -1.5324  -1.4527  -0.8987  -0.6681  -0.6674
    -0.0627   0.0649   0.3292   0.7819   0.8186   1.1367   1.8560   2.6711
     2.7880   3.4377   3.7786   4.1476   4.1723   4.2428   4.3334   4.5354
     4.7662

          k = 0.0000 0.1240 0.0000 ( 52442 PWs)   bands (ev):

   -50.4453 -50.3357 -50.3306 -50.3021 -50.2775 -50.2390 -50.2001 -50.1142
   -50.0750 -50.0480 -50.0142 -49.9605 -49.9475 -49.9422 -49.9339 -49.8274
   -49.7309 -49.6872 -20.9301 -20.5408 -20.4624 -20.3338 -19.6723 -19.5428
   -19.4563 -19.2491 -19.1916 -19.0773 -17.8072 -17.6148  -9.2949  -9.2193
    -9.1586  -9.0796  -8.3158  -8.0118  -7.9611  -7.7992  -7.7571  -7.4226
    -7.2084  -7.1653  -7.0976  -6.5372  -6.2403  -5.9169  -5.7658  -5.6635
    -5.5335  -5.2983  -5.2712  -5.0645  -4.9050  -4.8554  -4.7247  -4.5090
    -4.0209  -3.9033  -3.8609  -3.8081  -3.5211  -3.2279  -2.8725  -2.7590
    -2.6959  -2.5261  -2.3375  -2.2073  -1.9340  -1.8134  -1.7713  -1.7357
    -1.6765  -1.6313  -1.5006  -1.3886  -1.3143  -0.8994  -0.6681  -0.5826
    -0.0078   0.0139   0.1394   0.5833   0.7225   1.1393   2.2998   3.1355
     3.3354   3.4382   3.8592   3.8720   4.0154   4.0682   4.2490   4.5374
     4.8077

          k = 0.0000-0.2479 0.0000 ( 52518 PWs)   bands (ev):

   -50.4449 -50.3344 -50.3306 -50.3017 -50.2775 -50.2390 -50.2002 -50.1156
   -50.0749 -50.0479 -50.0141 -49.9606 -49.9475 -49.9422 -49.9340 -49.8274
   -49.7313 -49.6877 -20.7377 -20.4857 -20.3040 -20.1515 -19.8726 -19.7642
   -19.4573 -19.4338 -19.3108 -19.1450 -17.8031 -17.6123  -9.2495  -8.4218
    -8.3132  -8.2523  -8.2375  -7.9639  -7.9186  -7.7121  -7.6537  -7.3732
    -7.2069  -7.0973  -6.8784  -6.7804  -6.6832  -6.6251  -6.6006  -6.2543
    -6.1236  -5.7969  -5.3169  -5.2853  -5.2750  -5.1773  -4.9646  -4.8732
    -4.0104  -3.9435  -3.6184  -3.5686  -3.3037  -3.2662  -3.0251  -2.9533
    -2.6550  -2.6433  -2.2503  -2.2075  -1.6663  -1.6623  -1.5412  -1.4765
    -1.3221  -1.2482  -1.1181  -0.9986  -0.9620  -0.8278  -0.7003  -0.5872
    -0.2713  -0.1345   0.2363   0.3727   0.5061   1.2465   2.5917   3.4404
     3.5413   3.5441   3.6379   3.7844   3.8321   4.2487   4.3425   4.5380
     4.9590

          k = 0.0000-0.1240 0.0000 ( 52442 PWs)   bands (ev):

   -50.4453 -50.3357 -50.3306 -50.3021 -50.2775 -50.2390 -50.2001 -50.1142
   -50.0750 -50.0480 -50.0142 -49.9605 -49.9475 -49.9422 -49.9339 -49.8274
   -49.7309 -49.6872 -20.9301 -20.5408 -20.4624 -20.3338 -19.6723 -19.5428
   -19.4563 -19.2491 -19.1916 -19.0773 -17.8072 -17.6148  -9.2949  -9.2193
    -9.1586  -9.0796  -8.3158  -8.0118  -7.9611  -7.7992  -7.7571  -7.4226
    -7.2084  -7.1653  -7.0976  -6.5372  -6.2403  -5.9169  -5.7658  -5.6635
    -5.5335  -5.2983  -5.2712  -5.0645  -4.9050  -4.8554  -4.7247  -4.5090
    -4.0209  -3.9033  -3.8609  -3.8081  -3.5211  -3.2279  -2.8725  -2.7590
    -2.6959  -2.5261  -2.3375  -2.2073  -1.9340  -1.8134  -1.7713  -1.7357
    -1.6765  -1.6313  -1.5006  -1.3886  -1.3143  -0.8994  -0.6681  -0.5826
    -0.0078   0.0139   0.1394   0.5833   0.7225   1.1393   2.2998   3.1355
     3.3354   3.4382   3.8592   3.8720   4.0154   4.0682   4.2490   4.5374
     4.8078

          k = 0.1250 0.0000 0.0000 ( 52335 PWs)   bands (ev):

   -50.4446 -50.3355 -50.3296 -50.3014 -50.2942 -50.2365 -50.2162 -50.1108
   -50.0907 -50.0641 -50.0132 -49.9769 -49.9508 -49.9452 -49.9411 -49.8251
   -49.7281 -49.6843 -20.9132 -20.5653 -20.4695 -20.2093 -19.5460 -19.5393
   -19.3129 -19.1874 -19.1135 -19.0471 -17.8631 -17.6628  -9.5872  -9.5343
    -9.4160  -9.0508  -8.2760  -8.0584  -7.9961  -7.8313  -7.7930  -7.3600
    -7.3348  -6.8499  -6.7345  -6.5096  -6.0703  -5.9742  -5.5568  -5.2777
    -5.1455  -5.0450  -5.0033  -4.9327  -4.8526  -4.6453  -4.4391  -4.3631
    -4.2354  -4.0670  -4.0116  -3.8333  -3.7425  -3.6504  -3.4747  -2.9756
    -2.5538  -2.4575  -2.4369  -2.2499  -2.1451  -2.0385  -1.9411  -1.9368
    -1.7541  -1.5535  -1.3084  -1.2466  -1.1207  -0.7630  -0.5520  -0.2814
    -0.2344   0.1672   0.2822   0.6599   0.7900   0.9683   2.0729   2.7939
     2.8910   3.2847   3.5891   3.7570   3.8074   3.9608   3.9983   4.0925
     5.0017

          k = 0.1250 0.1240 0.0000 ( 52432 PWs)   bands (ev):

   -50.4443 -50.3350 -50.3296 -50.3011 -50.2936 -50.2365 -50.2164 -50.1119
   -50.0907 -50.0640 -50.0131 -49.9769 -49.9508 -49.9452 -49.9411 -49.8251
   -49.7284 -49.6847 -20.7965 -20.4241 -20.3424 -20.2289 -19.6092 -19.5490
   -19.4458 -19.3172 -19.2499 -19.1239 -17.8589 -17.6603  -9.1157  -9.0502
    -9.0084  -8.9238  -8.2763  -8.0005  -7.9640  -7.7363  -7.7063  -7.4621
    -7.0551  -6.8485  -6.7304  -6.4756  -6.0835  -5.9091  -5.8480  -5.7885
    -5.5856  -5.5063  -5.4403  -5.3976  -5.2741  -5.1469  -4.8729  -4.7688
    -4.3820  -4.1492  -3.8949  -3.7322  -3.6303  -3.5970  -3.1163  -2.7519
    -2.7116  -2.5596  -2.4251  -1.9966  -1.8427  -1.8112  -1.5680  -1.5530
    -1.4866  -1.3863  -1.3308  -1.0717  -0.9213  -0.6803  -0.5385  -0.3048
    -0.1641  -0.0833   0.2423   0.5330   0.6164   1.0667   2.4306   3.0076
     3.1224   3.3146   3.3682   3.6069   3.7443   3.7911   4.0485   4.2404
     5.0276

          k = 0.1250-0.2479 0.0000 ( 52498 PWs)   bands (ev):

   -50.4440 -50.3345 -50.3295 -50.3008 -50.2929 -50.2365 -50.2165 -50.1130
   -50.0907 -50.0640 -50.0131 -49.9769 -49.9508 -49.9453 -49.9411 -49.8251
   -49.7288 -49.6851 -20.6158 -20.3558 -20.1843 -20.0375 -19.8333 -19.7187
   -19.5221 -19.5012 -19.3406 -19.1541 -17.8556 -17.6581  -9.0577  -8.2775
    -8.1919  -8.0482  -8.0340  -8.0028  -7.9731  -7.8638  -7.8076  -7.4787
    -6.8511  -6.7363  -6.6175  -6.5681  -6.4519  -6.3654  -6.3506  -6.2821
    -6.2481  -6.0569  -5.9785  -5.8236  -5.3651  -5.3552  -5.2371  -5.0164
    -4.3762  -4.1652  -3.7328  -3.5700  -3.4157  -3.2757  -3.1849  -2.7844
    -2.6587  -2.5740  -2.4283  -1.7956  -1.7823  -1.7199  -1.5863  -1.4868
    -1.2633  -1.0092  -0.8490  -0.8289  -0.6652  -0.5348  -0.5299  -0.3793
    -0.2239  -0.1363   0.0941   0.2290   0.6122   1.1719   2.7071   2.8975
     2.9804   3.1226   3.1605   3.7544   3.7654   3.9560   4.1060   4.4288
     5.1452

          k = 0.1250-0.1240 0.0000 ( 52432 PWs)   bands (ev):

   -50.4443 -50.3350 -50.3296 -50.3011 -50.2936 -50.2365 -50.2164 -50.1119
   -50.0907 -50.0640 -50.0131 -49.9769 -49.9508 -49.9452 -49.9411 -49.8251
   -49.7284 -49.6847 -20.7965 -20.4241 -20.3424 -20.2289 -19.6092 -19.5490
   -19.4458 -19.3172 -19.2499 -19.1239 -17.8589 -17.6603  -9.1157  -9.0502
    -9.0084  -8.9238  -8.2763  -8.0005  -7.9640  -7.7363  -7.7063  -7.4621
    -7.0551  -6.8485  -6.7304  -6.4756  -6.0835  -5.9091  -5.8480  -5.7885
    -5.5856  -5.5063  -5.4403  -5.3976  -5.2741  -5.1469  -4.8729  -4.7688
    -4.3820  -4.1492  -3.8949  -3.7322  -3.6303  -3.5970  -3.1163  -2.7519
    -2.7116  -2.5596  -2.4251  -1.9966  -1.8427  -1.8112  -1.5680  -1.5530
    -1.4866  -1.3863  -1.3308  -1.0717  -0.9213  -0.6803  -0.5385  -0.3048
    -0.1641  -0.0833   0.2423   0.5330   0.6164   1.0667   2.4306   3.0076
     3.1224   3.3146   3.3682   3.6069   3.7443   3.7911   4.0485   4.2404
     5.0276

          k = 0.2500 0.0000 0.0000 ( 52347 PWs)   bands (ev):

   -50.4419 -50.3339 -50.3321 -50.3270 -50.2986 -50.2552 -50.2304 -50.1284
   -50.1058 -50.1026 -50.0163 -50.0107 -49.9915 -49.9397 -49.9386 -49.8194
   -49.7224 -49.6785 -20.5491 -20.2635 -20.1675 -19.9650 -19.6954 -19.4214
   -19.3760 -19.2983 -19.2414 -19.1166 -17.9403 -17.7195  -9.0978  -9.0571
    -8.9320  -8.5510  -8.0820  -7.9586  -7.9483  -7.6707  -7.5601  -7.2867
    -7.1257  -6.8444  -6.5103  -6.2996  -6.2780  -6.1326  -6.0447  -6.0163
    -5.9725  -5.3542  -5.2166  -5.0037  -4.8869  -4.7680  -4.7329  -4.6912
    -4.6194  -4.4783  -4.3379  -4.1961  -3.9191  -3.6882  -3.4530  -2.8961
    -2.7483  -2.7186  -2.0838  -2.0809  -1.9260  -1.8542  -1.6015  -1.5850
    -1.2351  -1.0595  -0.8943  -0.8883  -0.6045  -0.4782  -0.4592  -0.4129
    -0.1520  -0.0057   0.2865   0.5086   0.5603   0.7128   2.3536   2.5550
     2.8546   3.0304   3.1266   3.2389   3.2654   3.3088   3.3984   4.0784
     5.5089

          k = 0.2500 0.1240 0.0000 ( 52373 PWs)   bands (ev):

   -50.4418 -50.3414 -50.3270 -50.3239 -50.2986 -50.2554 -50.2305 -50.1284
   -50.1063 -50.1026 -50.0162 -50.0107 -49.9913 -49.9397 -49.9386 -49.8194
   -49.7225 -49.6787 -20.4558 -20.1521 -20.0550 -19.9809 -19.7021 -19.5451
   -19.4496 -19.4099 -19.3495 -19.0971 -17.9388 -17.7188  -8.7181  -8.6774
    -8.5551  -8.5353  -8.0806  -7.9586  -7.7941  -7.5213  -7.4397  -7.3878
    -7.1759  -6.7758  -6.7090  -6.6403  -6.5338  -6.3992  -6.1711  -6.0182
    -5.7731  -5.4653  -5.3181  -5.1904  -5.0983  -5.0590  -4.9654  -4.8949
    -4.8901  -4.5287  -4.2609  -3.9914  -3.8431  -3.5826  -3.4173  -2.9556
    -2.8213  -2.6812  -2.3395  -2.0545  -1.8383  -1.5257  -1.4061  -1.2260
    -1.1805  -1.0248  -0.8920  -0.7935  -0.5784  -0.4665  -0.4526  -0.3507
    -0.1487  -0.0657   0.1160   0.2484   0.6939   0.9017   2.3575   2.4729
     2.4973   2.5735   2.7292   3.2926   3.3276   3.7559   3.9318   4.2672
     5.5737

          k = 0.2500-0.2479 0.0000 ( 52384 PWs)   bands (ev):

   -50.4418 -50.3447 -50.3270 -50.3200 -50.2987 -50.2556 -50.2305 -50.1284
   -50.1068 -50.1026 -50.0160 -50.0107 -49.9911 -49.9398 -49.9386 -49.8194
   -49.7227 -49.6789 -20.3155 -20.0425 -19.9286 -19.8201 -19.7668 -19.7080
   -19.6634 -19.6091 -19.3535 -19.0908 -17.9376 -17.7181  -8.5516  -8.0941
    -8.0675  -8.0097  -7.9671  -7.8456  -7.5631  -7.4497  -7.4358  -7.3967
    -7.3845  -7.2326  -7.1226  -7.0480  -6.4892  -6.4229  -6.1691  -5.9558
    -5.8575  -5.7261  -5.6994  -5.5543  -5.5089  -5.3426  -5.1780  -5.0700
    -5.0527  -4.4488  -3.8531  -3.7943  -3.5583  -3.3613  -3.3467  -3.1433
    -3.0873  -2.6424  -2.1077  -2.0369  -1.9791  -1.6444  -1.4511  -1.0538
    -0.9991  -0.9688  -0.6692  -0.6523  -0.4696  -0.3769  -0.3667  -0.2426
    -0.2329  -0.0638  -0.0099   0.0750   0.7820   1.0132   1.9389   2.0612
     2.2206   2.5177   2.6914   3.3042   3.5496   3.9305   4.2679   4.5079
     5.6871

          k = 0.2500-0.1240 0.0000 ( 52373 PWs)   bands (ev):

   -50.4418 -50.3414 -50.3270 -50.3239 -50.2986 -50.2554 -50.2305 -50.1284
   -50.1063 -50.1026 -50.0162 -50.0107 -49.9913 -49.9397 -49.9386 -49.8194
   -49.7225 -49.6787 -20.4558 -20.1521 -20.0550 -19.9809 -19.7021 -19.5451
   -19.4496 -19.4099 -19.3495 -19.0971 -17.9388 -17.7188  -8.7181  -8.6774
    -8.5551  -8.5353  -8.0806  -7.9586  -7.7941  -7.5213  -7.4397  -7.3878
    -7.1759  -6.7758  -6.7090  -6.6403  -6.5338  -6.3992  -6.1711  -6.0182
    -5.7731  -5.4653  -5.3181  -5.1904  -5.0983  -5.0590  -4.9654  -4.8949
    -4.8901  -4.5287  -4.2609  -3.9914  -3.8431  -3.5826  -3.4173  -2.9556
    -2.8213  -2.6812  -2.3395  -2.0545  -1.8383  -1.5257  -1.4061  -1.2260
    -1.1805  -1.0248  -0.8920  -0.7935  -0.5784  -0.4665  -0.4526  -0.3507
    -0.1487  -0.0657   0.1160   0.2484   0.6939   0.9017   2.3575   2.4729
     2.4973   2.5735   2.7292   3.2926   3.3276   3.7559   3.9318   4.2672
     5.5737

          k = 0.3750 0.0000 0.0000 ( 52307 PWs)   bands (ev):

   -50.4391 -50.3734 -50.3287 -50.3246 -50.2958 -50.2939 -50.2244 -50.1658
   -50.1409 -50.1007 -50.0555 -50.0320 -50.0083 -49.9361 -49.9342 -49.8137
   -49.7167 -49.6727 -20.1131 -19.9789 -19.8575 -19.8058 -19.7466 -19.5582
   -19.4746 -19.4272 -19.3724 -19.0042 -17.9174 -17.6869  -8.5190  -8.5071
    -8.3457  -8.0785  -7.9078  -7.8155  -7.7713  -7.7640  -7.5109  -7.3976
    -7.2148  -7.1354  -7.0235  -7.0094  -6.5871  -6.3994  -6.1223  -6.0467
    -5.6408  -5.4317  -5.3563  -5.2983  -5.1336  -4.8386  -4.7682  -4.7141
    -4.4980  -4.2795  -4.1549  -4.1447  -4.0840  -3.5190  -3.2551  -2.9553
    -2.8831  -2.5192  -2.1599  -1.9460  -1.7593  -1.5214  -1.5117  -1.4933
    -1.4115  -1.0007  -0.8979  -0.8760  -0.7130  -0.5494  -0.5108  -0.3585
    -0.1614  -0.1385   0.3658   0.3842   0.5135   0.5926   1.9042   2.4822
     2.5185   2.6196   2.7405   2.8838   2.9089   3.3246   3.4590   4.0088
     6.3066

          k = 0.3750 0.1240 0.0000 ( 52293 PWs)   bands (ev):

   -50.4394 -50.3760 -50.3258 -50.3246 -50.2962 -50.2941 -50.2244 -50.1658
   -50.1409 -50.1007 -50.0552 -50.0315 -50.0083 -49.9361 -49.9342 -49.8137
   -49.7167 -49.6727 -20.0867 -19.9637 -19.8817 -19.8222 -19.7646 -19.5819
   -19.4618 -19.4397 -19.3488 -19.0061 -17.9175 -17.6870  -8.4120  -8.3673
    -8.2018  -8.0986  -7.9769  -7.8513  -7.7863  -7.7181  -7.6521  -7.5669
    -7.5544  -6.8854  -6.8078  -6.6969  -6.6357  -6.4601  -6.1842  -5.7732
    -5.6301  -5.5189  -5.2988  -5.2333  -4.9557  -4.9221  -4.8448  -4.6124
    -4.5930  -4.4406  -4.2951  -3.9618  -3.8569  -3.6996  -3.2340  -3.1902
    -2.8820  -2.6579  -2.3382  -1.9129  -1.8736  -1.7815  -1.6195  -1.3846
    -1.3477  -1.3104  -1.2528  -0.9920  -0.8675  -0.6376  -0.1857  -0.1676
     0.0610   0.1307   0.2395   0.4221   0.5872   0.7292   1.7268   1.9020
     1.9611   2.0399   2.5619   2.8917   3.6465   4.0034   4.1393   4.2258
     6.4064

          k = 0.3750-0.2479 0.0000 ( 52258 PWs)   bands (ev):

   -50.4397 -50.3784 -50.3246 -50.3232 -50.2966 -50.2943 -50.2244 -50.1659
   -50.1410 -50.1007 -50.0548 -50.0310 -50.0083 -49.9361 -49.9342 -49.8138
   -49.7166 -49.6726 -20.0479 -19.9523 -19.9152 -19.8341 -19.7840 -19.6047
   -19.4521 -19.4460 -19.3315 -19.0079 -17.9177 -17.6871  -8.2976  -8.1607
    -8.0840  -8.0332  -8.0159  -7.9871  -7.7835  -7.7504  -7.7474  -7.6975
    -7.6641  -6.8448  -6.8196  -6.4906  -6.4503  -6.2798  -6.2351  -5.6906
    -5.6388  -5.3924  -5.3680  -5.1370  -5.0620  -4.9797  -4.9348  -4.7278
    -4.6954  -4.5667  -4.1477  -3.8094  -3.7533  -3.5326  -3.1555  -3.1334
    -3.0205  -3.0105  -2.4872  -2.3195  -2.0773  -1.9846  -1.8319  -1.4756
    -1.2141  -1.1714  -1.0664  -0.9952  -0.9697  -0.8336  -0.1281  -0.0872
     0.0203   0.3283   0.3786   0.4013   0.7222   0.8754   1.3060   1.4679
     1.5953   1.9771   2.5855   2.8904   3.9762   4.2073   4.5663   4.6688
     6.5097

          k = 0.3750-0.1240 0.0000 ( 52293 PWs)   bands (ev):

   -50.4394 -50.3760 -50.3258 -50.3246 -50.2962 -50.2941 -50.2244 -50.1658
   -50.1409 -50.1007 -50.0552 -50.0315 -50.0083 -49.9361 -49.9342 -49.8137
   -49.7167 -49.6727 -20.0867 -19.9637 -19.8817 -19.8222 -19.7646 -19.5819
   -19.4618 -19.4397 -19.3488 -19.0061 -17.9175 -17.6870  -8.4120  -8.3673
    -8.2018  -8.0986  -7.9769  -7.8513  -7.7863  -7.7181  -7.6521  -7.5669
    -7.5544  -6.8854  -6.8078  -6.6969  -6.6357  -6.4601  -6.1842  -5.7732
    -5.6301  -5.5189  -5.2988  -5.2333  -4.9557  -4.9221  -4.8448  -4.6124
    -4.5930  -4.4406  -4.2951  -3.9618  -3.8569  -3.6996  -3.2340  -3.1902
    -2.8820  -2.6579  -2.3382  -1.9129  -1.8736  -1.7815  -1.6195  -1.3846
    -1.3477  -1.3104  -1.2528  -0.9920  -0.8675  -0.6376  -0.1857  -0.1676
     0.0610   0.1307   0.2395   0.4221   0.5872   0.7292   1.7268   1.9020
     1.9611   2.0399   2.5619   2.8917   3.6465   4.0034   4.1393   4.2258
     6.4064

          k =-0.5000 0.0000 0.0000 ( 52152 PWs)   bands (ev):

   -50.4380 -50.3896 -50.3273 -50.3236 -50.3099 -50.2947 -50.2219 -50.1811
   -50.1566 -50.0986 -50.0716 -50.0486 -50.0073 -49.9350 -49.9320 -49.8114
   -49.7143 -49.6702 -19.9652 -19.8314 -19.7627 -19.7471 -19.6948 -19.6317
   -19.5454 -19.5019 -19.3781 -18.9910 -17.8704 -17.6445  -8.4363  -8.1390
    -8.0304  -8.0131  -7.9448  -7.8897  -7.8215  -7.6692  -7.5900  -7.3731
    -7.2455  -7.2277  -7.0383  -6.9921  -6.9661  -6.7690  -5.8000  -5.7672
    -5.6553  -5.4862  -5.4586  -5.4254  -5.3495  -4.9288  -4.8744  -4.5524
    -4.5030  -4.2049  -3.9659  -3.9307  -3.5392  -3.3065  -3.2585  -3.2404
    -2.8053  -2.6105  -1.8655  -1.8599  -1.8454  -1.6852  -1.5734  -1.5465
    -1.4630  -1.4365  -1.1425  -0.9097  -0.8891  -0.7611  -0.4952  -0.2718
    -0.0159   0.0187   0.0710   0.4704   0.5947   0.7325   1.6806   2.2920
     2.4478   2.5584   2.5589   2.8103   2.8999   3.2860   3.4339   4.0593
     6.9097

          k =-0.5000 0.1240 0.0000 ( 52218 PWs)   bands (ev):

   -50.4384 -50.3919 -50.3249 -50.3236 -50.3101 -50.2953 -50.2219 -50.1812
   -50.1567 -50.0984 -50.0712 -50.0480 -50.0073 -49.9350 -49.9320 -49.8114
   -49.7142 -49.6702 -19.9638 -19.9452 -19.9094 -19.8129 -19.7414 -19.4802
   -19.4136 -19.3898 -19.3838 -18.9927 -17.8698 -17.6439  -8.4196  -8.3947
    -8.1816  -8.1207  -8.0418  -7.9995  -7.9119  -7.8314  -7.5459  -7.4856
    -7.3799  -7.0944  -6.8582  -6.5179  -6.3487  -6.0011  -5.8715  -5.8211
    -5.8009  -5.7163  -5.5805  -5.4181  -4.7881  -4.7663  -4.6483  -4.5642
    -4.4870  -4.2525  -4.2430  -3.7824  -3.7094  -3.2862  -3.2208  -3.2029
    -3.0773  -2.7628  -2.1185  -2.0442  -1.8508  -1.8057  -1.7456  -1.5890
    -1.5329  -1.5077  -1.4881  -1.4338  -1.4303  -1.0349  -0.0097   0.0202
     0.2024   0.3269   0.3909   0.5013   0.5786   0.6676   1.5095   1.7107
     1.7256   1.7957   2.5830   2.8093   3.8381   4.1254   4.1498   4.2712
     7.0649

          k =-0.5000-0.2479 0.0000 ( 52228 PWs)   bands (ev):

   -50.4388 -50.3941 -50.3236 -50.3228 -50.3102 -50.2958 -50.2219 -50.1813
   -50.1568 -50.0982 -50.0708 -50.0474 -50.0073 -49.9350 -49.9320 -49.8114
   -49.7141 -49.6701 -20.0184 -19.9928 -19.9623 -19.8822 -19.7354 -19.3961
   -19.3898 -19.3269 -19.3177 -18.9944 -17.8692 -17.6432  -8.6294  -8.4245
    -8.3538  -8.3523  -7.9909  -7.9344  -7.9158  -7.6910  -7.5617  -7.5055
    -7.3803  -7.2107  -6.9687  -6.0571  -5.9159  -5.8384  -5.7849  -5.7437
    -5.6030  -5.4361  -5.3441  -5.0528  -5.0297  -4.9933  -4.7463  -4.4654
    -4.4654  -4.3892  -4.1405  -3.6886  -3.5759  -3.5502  -3.2046  -3.2009
    -3.1632  -2.6585  -2.6486  -2.4961  -2.2889  -2.2834  -1.8357  -1.7866
    -1.5094  -1.4861  -1.4571  -1.4326  -1.3383  -1.3085   0.0312   0.0482
     0.2282   0.5765   0.6105   0.6143   0.6162   0.7313   1.1236   1.3010
     1.4084   1.7606   2.6075   2.8073   4.1877   4.3552   4.6615   4.8031
     7.2225

          k =-0.5000-0.1240 0.0000 ( 52218 PWs)   bands (ev):

   -50.4384 -50.3919 -50.3249 -50.3236 -50.3101 -50.2953 -50.2219 -50.1812
   -50.1567 -50.0984 -50.0712 -50.0480 -50.0073 -49.9350 -49.9320 -49.8114
   -49.7142 -49.6702 -19.9638 -19.9452 -19.9094 -19.8129 -19.7414 -19.4802
   -19.4136 -19.3898 -19.3838 -18.9927 -17.8698 -17.6439  -8.4196  -8.3947
    -8.1816  -8.1207  -8.0418  -7.9995  -7.9119  -7.8314  -7.5459  -7.4856
    -7.3799  -7.0944  -6.8582  -6.5179  -6.3487  -6.0011  -5.8715  -5.8211
    -5.8009  -5.7163  -5.5805  -5.4181  -4.7881  -4.7663  -4.6483  -4.5642
    -4.4870  -4.2525  -4.2430  -3.7824  -3.7094  -3.2862  -3.2208  -3.2029
    -3.0773  -2.7628  -2.1185  -2.0442  -1.8508  -1.8057  -1.7456  -1.5890
    -1.5329  -1.5077  -1.4881  -1.4338  -1.4303  -1.0349  -0.0097   0.0202
     0.2024   0.3269   0.3909   0.5013   0.5786   0.6676   1.5095   1.7107
     1.7256   1.7957   2.5830   2.8093   3.8381   4.1254   4.1498   4.2712
     7.0649

          k =-0.3750 0.0000 0.0000 ( 52307 PWs)   bands (ev):

   -50.4391 -50.3734 -50.3287 -50.3246 -50.2958 -50.2939 -50.2244 -50.1658
   -50.1409 -50.1007 -50.0555 -50.0320 -50.0083 -49.9361 -49.9342 -49.8137
   -49.7167 -49.6727 -20.1131 -19.9789 -19.8575 -19.8058 -19.7466 -19.5582
   -19.4746 -19.4272 -19.3724 -19.0042 -17.9174 -17.6869  -8.5190  -8.5071
    -8.3457  -8.0785  -7.9078  -7.8155  -7.7713  -7.7640  -7.5109  -7.3976
    -7.2148  -7.1354  -7.0235  -7.0094  -6.5871  -6.3994  -6.1223  -6.0467
    -5.6408  -5.4317  -5.3563  -5.2983  -5.1336  -4.8386  -4.7682  -4.7141
    -4.4980  -4.2795  -4.1549  -4.1447  -4.0840  -3.5190  -3.2551  -2.9553
    -2.8831  -2.5192  -2.1599  -1.9460  -1.7593  -1.5214  -1.5117  -1.4933
    -1.4115  -1.0007  -0.8979  -0.8760  -0.7130  -0.5494  -0.5108  -0.3585
    -0.1614  -0.1385   0.3658   0.3842   0.5135   0.5926   1.9042   2.4822
     2.5185   2.6196   2.7405   2.8838   2.9089   3.3246   3.4590   4.0088
     6.3066

          k =-0.3750 0.1240 0.0000 ( 52293 PWs)   bands (ev):

   -50.4394 -50.3760 -50.3258 -50.3246 -50.2962 -50.2941 -50.2244 -50.1658
   -50.1409 -50.1007 -50.0552 -50.0315 -50.0083 -49.9361 -49.9342 -49.8137
   -49.7167 -49.6727 -20.0867 -19.9637 -19.8817 -19.8222 -19.7646 -19.5819
   -19.4618 -19.4397 -19.3488 -19.0061 -17.9175 -17.6870  -8.4120  -8.3673
    -8.2018  -8.0986  -7.9769  -7.8513  -7.7863  -7.7181  -7.6521  -7.5669
    -7.5544  -6.8854  -6.8078  -6.6969  -6.6357  -6.4601  -6.1842  -5.7732
    -5.6301  -5.5189  -5.2988  -5.2333  -4.9557  -4.9221  -4.8448  -4.6124
    -4.5930  -4.4406  -4.2951  -3.9618  -3.8569  -3.6996  -3.2340  -3.1902
    -2.8820  -2.6579  -2.3382  -1.9129  -1.8736  -1.7815  -1.6195  -1.3846
    -1.3477  -1.3104  -1.2528  -0.9920  -0.8675  -0.6376  -0.1857  -0.1676
     0.0610   0.1307   0.2395   0.4221   0.5872   0.7292   1.7268   1.9020
     1.9611   2.0399   2.5619   2.8917   3.6465   4.0034   4.1393   4.2258
     6.4064

          k =-0.3750-0.2479 0.0000 ( 52258 PWs)   bands (ev):

   -50.4397 -50.3784 -50.3246 -50.3232 -50.2966 -50.2943 -50.2244 -50.1659
   -50.1410 -50.1007 -50.0548 -50.0310 -50.0083 -49.9361 -49.9342 -49.8138
   -49.7166 -49.6726 -20.0479 -19.9523 -19.9152 -19.8341 -19.7840 -19.6047
   -19.4521 -19.4460 -19.3315 -19.0079 -17.9177 -17.6871  -8.2976  -8.1607
    -8.0840  -8.0332  -8.0159  -7.9871  -7.7835  -7.7504  -7.7474  -7.6975
    -7.6641  -6.8448  -6.8196  -6.4906  -6.4503  -6.2798  -6.2351  -5.6906
    -5.6388  -5.3924  -5.3680  -5.1370  -5.0620  -4.9797  -4.9348  -4.7278
    -4.6954  -4.5667  -4.1477  -3.8094  -3.7533  -3.5326  -3.1555  -3.1334
    -3.0205  -3.0105  -2.4872  -2.3195  -2.0773  -1.9846  -1.8319  -1.4756
    -1.2141  -1.1714  -1.0664  -0.9952  -0.9697  -0.8336  -0.1281  -0.0872
     0.0203   0.3283   0.3786   0.4013   0.7222   0.8754   1.3060   1.4679
     1.5953   1.9771   2.5855   2.8904   3.9762   4.2073   4.5663   4.6688
     6.5097

          k =-0.3750-0.1240 0.0000 ( 52293 PWs)   bands (ev):

   -50.4394 -50.3760 -50.3258 -50.3246 -50.2962 -50.2941 -50.2244 -50.1658
   -50.1409 -50.1007 -50.0552 -50.0315 -50.0083 -49.9361 -49.9342 -49.8137
   -49.7167 -49.6727 -20.0867 -19.9637 -19.8817 -19.8222 -19.7646 -19.5819
   -19.4618 -19.4397 -19.3488 -19.0061 -17.9175 -17.6870  -8.4120  -8.3673
    -8.2018  -8.0986  -7.9769  -7.8513  -7.7863  -7.7181  -7.6521  -7.5669
    -7.5544  -6.8854  -6.8078  -6.6969  -6.6357  -6.4601  -6.1842  -5.7732
    -5.6301  -5.5189  -5.2988  -5.2333  -4.9557  -4.9221  -4.8448  -4.6124
    -4.5930  -4.4406  -4.2951  -3.9618  -3.8569  -3.6996  -3.2340  -3.1902
    -2.8820  -2.6579  -2.3382  -1.9129  -1.8736  -1.7815  -1.6195  -1.3846
    -1.3477  -1.3104  -1.2528  -0.9920  -0.8675  -0.6376  -0.1857  -0.1676
     0.0610   0.1307   0.2395   0.4221   0.5872   0.7292   1.7268   1.9020
     1.9611   2.0399   2.5619   2.8917   3.6465   4.0034   4.1393   4.2258
     6.4064

          k =-0.2500 0.0000 0.0000 ( 52347 PWs)   bands (ev):

   -50.4419 -50.3339 -50.3321 -50.3270 -50.2986 -50.2552 -50.2304 -50.1284
   -50.1058 -50.1026 -50.0163 -50.0107 -49.9915 -49.9397 -49.9386 -49.8194
   -49.7224 -49.6785 -20.5491 -20.2635 -20.1675 -19.9650 -19.6954 -19.4214
   -19.3760 -19.2983 -19.2414 -19.1166 -17.9403 -17.7195  -9.0978  -9.0571
    -8.9320  -8.5510  -8.0820  -7.9586  -7.9483  -7.6707  -7.5601  -7.2867
    -7.1257  -6.8444  -6.5103  -6.2996  -6.2780  -6.1326  -6.0447  -6.0163
    -5.9725  -5.3542  -5.2166  -5.0037  -4.8869  -4.7680  -4.7329  -4.6912
    -4.6194  -4.4783  -4.3379  -4.1961  -3.9191  -3.6882  -3.4530  -2.8961
    -2.7483  -2.7186  -2.0838  -2.0809  -1.9260  -1.8542  -1.6015  -1.5850
    -1.2351  -1.0595  -0.8943  -0.8883  -0.6045  -0.4782  -0.4592  -0.4129
    -0.1520  -0.0057   0.2865   0.5086   0.5603   0.7128   2.3536   2.5550
     2.8546   3.0304   3.1266   3.2389   3.2654   3.3088   3.3984   4.0784
     5.5089

          k =-0.2500 0.1240 0.0000 ( 52373 PWs)   bands (ev):

   -50.4418 -50.3414 -50.3270 -50.3239 -50.2986 -50.2554 -50.2305 -50.1284
   -50.1063 -50.1026 -50.0162 -50.0107 -49.9913 -49.9397 -49.9386 -49.8194
   -49.7225 -49.6787 -20.4558 -20.1521 -20.0550 -19.9809 -19.7021 -19.5451
   -19.4496 -19.4099 -19.3495 -19.0971 -17.9388 -17.7188  -8.7181  -8.6774
    -8.5551  -8.5353  -8.0806  -7.9586  -7.7941  -7.5213  -7.4397  -7.3878
    -7.1759  -6.7758  -6.7090  -6.6403  -6.5338  -6.3992  -6.1711  -6.0182
    -5.7731  -5.4653  -5.3181  -5.1904  -5.0983  -5.0590  -4.9654  -4.8949
    -4.8901  -4.5287  -4.2609  -3.9914  -3.8431  -3.5826  -3.4173  -2.9556
    -2.8213  -2.6812  -2.3395  -2.0545  -1.8383  -1.5257  -1.4061  -1.2260
    -1.1805  -1.0248  -0.8920  -0.7935  -0.5784  -0.4665  -0.4526  -0.3507
    -0.1487  -0.0657   0.1160   0.2484   0.6939   0.9017   2.3575   2.4729
     2.4973   2.5735   2.7292   3.2926   3.3276   3.7559   3.9318   4.2672
     5.5737

          k =-0.2500-0.2479 0.0000 ( 52384 PWs)   bands (ev):

   -50.4418 -50.3447 -50.3270 -50.3200 -50.2987 -50.2556 -50.2305 -50.1284
   -50.1068 -50.1026 -50.0160 -50.0107 -49.9911 -49.9398 -49.9386 -49.8194
   -49.7227 -49.6789 -20.3155 -20.0425 -19.9286 -19.8201 -19.7668 -19.7080
   -19.6634 -19.6091 -19.3535 -19.0908 -17.9376 -17.7181  -8.5516  -8.0941
    -8.0675  -8.0097  -7.9671  -7.8456  -7.5631  -7.4497  -7.4358  -7.3967
    -7.3845  -7.2326  -7.1226  -7.0480  -6.4892  -6.4229  -6.1691  -5.9558
    -5.8575  -5.7261  -5.6994  -5.5543  -5.5089  -5.3426  -5.1780  -5.0700
    -5.0527  -4.4488  -3.8531  -3.7943  -3.5583  -3.3613  -3.3467  -3.1433
    -3.0873  -2.6424  -2.1077  -2.0369  -1.9791  -1.6444  -1.4511  -1.0538
    -0.9991  -0.9688  -0.6692  -0.6523  -0.4696  -0.3769  -0.3667  -0.2426
    -0.2329  -0.0638  -0.0099   0.0750   0.7820   1.0132   1.9389   2.0612
     2.2206   2.5177   2.6914   3.3042   3.5496   3.9305   4.2679   4.5079
     5.6871

          k =-0.2500-0.1240 0.0000 ( 52373 PWs)   bands (ev):

   -50.4418 -50.3414 -50.3270 -50.3239 -50.2986 -50.2554 -50.2305 -50.1284
   -50.1063 -50.1026 -50.0162 -50.0107 -49.9913 -49.9397 -49.9386 -49.8194
   -49.7225 -49.6787 -20.4558 -20.1521 -20.0550 -19.9809 -19.7021 -19.5451
   -19.4496 -19.4099 -19.3495 -19.0971 -17.9388 -17.7188  -8.7181  -8.6774
    -8.5551  -8.5353  -8.0806  -7.9586  -7.7941  -7.5213  -7.4397  -7.3878
    -7.1759  -6.7758  -6.7090  -6.6403  -6.5338  -6.3992  -6.1711  -6.0182
    -5.7731  -5.4653  -5.3181  -5.1904  -5.0983  -5.0590  -4.9654  -4.8949
    -4.8901  -4.5287  -4.2609  -3.9914  -3.8431  -3.5826  -3.4173  -2.9556
    -2.8213  -2.6812  -2.3395  -2.0545  -1.8383  -1.5257  -1.4061  -1.2260
    -1.1805  -1.0248  -0.8920  -0.7935  -0.5784  -0.4665  -0.4526  -0.3507
    -0.1487  -0.0657   0.1160   0.2484   0.6939   0.9017   2.3575   2.4729
     2.4973   2.5735   2.7292   3.2926   3.3276   3.7559   3.9318   4.2672
     5.5737

          k =-0.1250 0.0000 0.0000 ( 52335 PWs)   bands (ev):

   -50.4446 -50.3355 -50.3296 -50.3014 -50.2942 -50.2365 -50.2162 -50.1108
   -50.0907 -50.0641 -50.0132 -49.9769 -49.9508 -49.9452 -49.9411 -49.8251
   -49.7281 -49.6843 -20.9132 -20.5653 -20.4695 -20.2093 -19.5460 -19.5393
   -19.3129 -19.1874 -19.1135 -19.0471 -17.8631 -17.6628  -9.5872  -9.5343
    -9.4160  -9.0508  -8.2760  -8.0584  -7.9961  -7.8313  -7.7930  -7.3600
    -7.3348  -6.8499  -6.7345  -6.5096  -6.0703  -5.9742  -5.5568  -5.2777
    -5.1455  -5.0450  -5.0033  -4.9327  -4.8526  -4.6453  -4.4391  -4.3631
    -4.2354  -4.0670  -4.0116  -3.8333  -3.7425  -3.6504  -3.4747  -2.9756
    -2.5538  -2.4575  -2.4369  -2.2499  -2.1451  -2.0385  -1.9411  -1.9368
    -1.7541  -1.5535  -1.3084  -1.2466  -1.1207  -0.7630  -0.5520  -0.2814
    -0.2344   0.1672   0.2822   0.6599   0.7900   0.9683   2.0729   2.7939
     2.8910   3.2847   3.5891   3.7570   3.8074   3.9608   3.9983   4.0925
     5.0017

          k =-0.1250 0.1240 0.0000 ( 52432 PWs)   bands (ev):

   -50.4443 -50.3350 -50.3296 -50.3011 -50.2936 -50.2365 -50.2164 -50.1119
   -50.0907 -50.0640 -50.0131 -49.9769 -49.9508 -49.9452 -49.9411 -49.8251
   -49.7284 -49.6847 -20.7965 -20.4241 -20.3424 -20.2289 -19.6092 -19.5490
   -19.4458 -19.3172 -19.2499 -19.1239 -17.8589 -17.6603  -9.1157  -9.0502
    -9.0084  -8.9238  -8.2763  -8.0005  -7.9640  -7.7363  -7.7063  -7.4621
    -7.0551  -6.8485  -6.7304  -6.4756  -6.0835  -5.9091  -5.8480  -5.7885
    -5.5856  -5.5063  -5.4403  -5.3976  -5.2741  -5.1469  -4.8729  -4.7688
    -4.3820  -4.1492  -3.8949  -3.7322  -3.6303  -3.5970  -3.1163  -2.7519
    -2.7116  -2.5596  -2.4251  -1.9966  -1.8427  -1.8112  -1.5680  -1.5530
    -1.4866  -1.3863  -1.3308  -1.0717  -0.9213  -0.6803  -0.5385  -0.3048
    -0.1641  -0.0833   0.2423   0.5330   0.6164   1.0667   2.4306   3.0076
     3.1224   3.3146   3.3682   3.6069   3.7443   3.7911   4.0485   4.2404
     5.0276

          k =-0.1250-0.2479 0.0000 ( 52498 PWs)   bands (ev):

   -50.4440 -50.3345 -50.3295 -50.3008 -50.2929 -50.2365 -50.2165 -50.1130
   -50.0907 -50.0640 -50.0131 -49.9769 -49.9508 -49.9453 -49.9411 -49.8251
   -49.7288 -49.6851 -20.6158 -20.3558 -20.1843 -20.0375 -19.8333 -19.7187
   -19.5221 -19.5012 -19.3406 -19.1541 -17.8556 -17.6581  -9.0577  -8.2775
    -8.1919  -8.0482  -8.0340  -8.0028  -7.9731  -7.8638  -7.8076  -7.4787
    -6.8511  -6.7363  -6.6175  -6.5681  -6.4519  -6.3654  -6.3506  -6.2821
    -6.2481  -6.0569  -5.9785  -5.8236  -5.3651  -5.3552  -5.2371  -5.0164
    -4.3762  -4.1652  -3.7328  -3.5700  -3.4157  -3.2757  -3.1849  -2.7844
    -2.6587  -2.5740  -2.4283  -1.7956  -1.7823  -1.7199  -1.5863  -1.4868
    -1.2633  -1.0092  -0.8490  -0.8289  -0.6652  -0.5348  -0.5299  -0.3793
    -0.2239  -0.1363   0.0941   0.2290   0.6122   1.1719   2.7071   2.8975
     2.9804   3.1226   3.1605   3.7544   3.7654   3.9560   4.1060   4.4288
     5.1452

          k =-0.1250-0.1240 0.0000 ( 52432 PWs)   bands (ev):

   -50.4443 -50.3350 -50.3296 -50.3011 -50.2936 -50.2365 -50.2164 -50.1119
   -50.0907 -50.0640 -50.0131 -49.9769 -49.9508 -49.9452 -49.9411 -49.8251
   -49.7284 -49.6847 -20.7965 -20.4241 -20.3424 -20.2289 -19.6092 -19.5490
   -19.4458 -19.3172 -19.2499 -19.1239 -17.8589 -17.6603  -9.1157  -9.0502
    -9.0084  -8.9238  -8.2763  -8.0005  -7.9640  -7.7363  -7.7063  -7.4621
    -7.0551  -6.8485  -6.7304  -6.4756  -6.0835  -5.9091  -5.8480  -5.7885
    -5.5856  -5.5063  -5.4403  -5.3976  -5.2741  -5.1469  -4.8729  -4.7688
    -4.3820  -4.1492  -3.8949  -3.7322  -3.6303  -3.5970  -3.1163  -2.7519
    -2.7116  -2.5596  -2.4251  -1.9966  -1.8427  -1.8112  -1.5680  -1.5530
    -1.4866  -1.3863  -1.3308  -1.0717  -0.9213  -0.6803  -0.5385  -0.3048
    -0.1641  -0.0833   0.2423   0.5330   0.6164   1.0667   2.4306   3.0076
     3.1224   3.3146   3.3682   3.6069   3.7443   3.7911   4.0485   4.2404
     5.0275

     the Fermi energy is    -0.0239 ev

!    total energy              =   -1589.74822735 Ry
     estimated scf accuracy    <       0.00000031 Ry
     smearing contrib. (-TS)   =      -0.00016268 Ry
     internal energy E=F+TS    =   -1589.74806467 Ry

     The total energy is F=E-TS. E is the sum of the following terms:
     one-electron contribution =  -23342.17937551 Ry
     hartree contribution      =   11703.14576100 Ry
     xc contribution           =    -390.42119959 Ry
     ewald contribution        =   10553.92178331 Ry
     one-center paw contrib.   =    -114.21503389 Ry

     convergence has been achieved in  21 iterations

     negative rho (up, down):  1.915E+00 0.000E+00

     Forces acting on atoms (cartesian axes, Ry/au):

     atom    1 type  1   force =    -0.00000046   -0.00000036    0.03395893
     atom    2 type  1   force =     0.00000012    0.00000041   -0.03979187
     atom    3 type  1   force =     0.00000039    0.00000041    0.00113949
     atom    4 type  1   force =     0.00000002   -0.00000031   -0.00022414
     atom    5 type  1   force =     0.00000014   -0.00000173    0.00054327
     atom    6 type  1   force =     0.00000017    0.00000100   -0.00127516
     atom    7 type  2   force =    -0.00000016    0.00000014    0.00980516
     atom    8 type  2   force =    -0.00000001    0.00000022    0.03428758
     atom    9 type  2   force =    -0.00000023    0.02224366   -0.02525867
     atom   10 type  2   force =     0.00000013   -0.02224372   -0.02525832
     atom   11 type  2   force =     0.00000037   -0.00000044   -0.00055818
     atom   12 type  2   force =     0.00000007    0.00000048    0.00966424
     atom   13 type  2   force =    -0.00000022   -0.00061206    0.00182724
     atom   14 type  2   force =     0.00000016    0.00061196    0.00182734
     atom   15 type  2   force =    -0.00000038    0.00000008   -0.00161845
     atom   16 type  2   force =    -0.00000017    0.00000013    0.00044225
     atom   17 type  2   force =     0.00000007   -0.00028276    0.00024458
     atom   18 type  2   force =    -0.00000000    0.00028289    0.00024469

     Total force =     0.003755     Total SCF correction =     0.000901
     SCF correction compared to forces is large: reduce conv_thr to get better values

     Writing all to output data dir ./tmp_slab__vac32/slab__vac32.save/ :
     XML data file, charge density, pseudopotentials, collected wavefunctions

     init_run     :     47.86s CPU     50.39s WALL (       1 calls)
     electrons    :   2289.54s CPU   2363.55s WALL (       1 calls)
     forces       :     16.98s CPU     18.26s WALL (       1 calls)

     Called by init_run:
     wfcinit      :     40.12s CPU     41.40s WALL (       1 calls)
     potinit      :      2.77s CPU      3.15s WALL (       1 calls)
     hinit0       :      2.95s CPU      3.09s WALL (       1 calls)

     Called by electrons:
     c_bands      :   1799.03s CPU   1839.11s WALL (      21 calls)
     sum_band     :    330.33s CPU    345.69s WALL (      21 calls)
     v_of_rho     :     29.40s CPU     32.96s WALL (      22 calls)
     newd         :     35.28s CPU     49.04s WALL (      22 calls)
     PAW_pot      :      7.48s CPU      7.48s WALL (      22 calls)
     mix_rho      :     88.05s CPU     90.23s WALL (      21 calls)

     Called by c_bands:
     init_us_2    :     30.23s CPU     30.42s WALL (     352 calls)
     cegterg      :   1701.54s CPU   1741.52s WALL (     168 calls)

     Called by *egterg:
     cdiaghg      :     16.77s CPU     16.80s WALL (    1522 calls)
     h_psi        :   1205.95s CPU   1218.40s WALL (    1530 calls)
     s_psi        :    116.81s CPU    116.85s WALL (    1530 calls)
     g_psi        :     13.22s CPU     13.24s WALL (    1354 calls)

     Called by h_psi:
     h_psi:calbec :    122.90s CPU    122.95s WALL (    1530 calls)
     vloc_psi     :    948.82s CPU    949.63s WALL (    1530 calls)
                                        0.00s GPU  (    1530 calls)
     add_vuspsi   :    126.95s CPU    127.00s WALL (    1530 calls)

     General routines
     calbec       :    173.80s CPU    173.86s WALL (    1730 calls)
     fft          :     13.86s CPU     13.90s WALL (     295 calls)
     ffts         :     35.55s CPU     35.58s WALL (    2503 calls)
     fftw         :    923.01s CPU    923.53s WALL (   90358 calls)
     interpolate  :      2.75s CPU      2.78s WALL (      22 calls)

     Parallel routines

     PWSCF        :  39m14.93s CPU  40m33.08s WALL


   This run was terminated on:   0:16:57   8Aug2026            

=------------------------------------------------------------------------------=
   JOB DONE.
=------------------------------------------------------------------------------=
