
     Program PWSCF v.7.5 starts on 12Sep2026 at  1:45:43 

     This program is part of the open-source Quantum ESPRESSO suite
     for quantum simulation of materials; please cite
         "P. Giannozzi et al., J. Phys.:Condens. Matter 21 395502 (2009);
         "P. Giannozzi et al., J. Phys.:Condens. Matter 29 465901 (2017);
         "P. Giannozzi et al., J. Chem. Phys. 152 154105 (2020);
          URL http://www.quantum-espresso.org", 
     in publications or presentations arising from this work. More details at
     http://www.quantum-espresso.org/quote

     Parallel version (MPI & OpenMP), running on     128 processor cores
     Number of MPI processes:               128
     Threads/MPI process:                     1

     MPI processes distributed on     1 nodes
     225283 MiB available memory on the printing compute node when the environment starts

     Reading input from hi__leader_pull2.10__ortho__smearing_init.run.in

     Current dimensions of program PWSCF are:
     Max number of different atomic species (ntypx) = 10
     Max number of k-points (npk) =  40000
     Max angular momentum in pseudopotentials (lmaxx) =  4
     file Cu.paw.z_11.ld1.psl.v1.0.0-low.upf: wavefunction(s)  4S 3D renormalized
     file O.pbe-n-kjpaw_psl.0.1.UPF: wavefunction(s)  2P renormalized
     file O.pbe-n-kjpaw_psl.0.1.UPF: wavefunction(s)  2P renormalized

     K-points division:     npool     =       8
     R & G space division:  proc/nbgrp/npool/nimage =      16
     Subspace diagonalization in iterative solution of the eigenvalue problem:
     one sub-group per band group will be used
     ELPA distributed-memory algorithm (size of sub-group:  4*  4 procs)


     Parallelization info
     --------------------
     sticks:   dense  smooth     PW     G-vecs:    dense   smooth      PW
     Min         833     417    111               211433    74767   10361
     Max         834     418    112               211440    74775   10370
     Sum       13331    6681   1789              3382951  1196337  165863

     Using Slab Decomposition



     bravais-lattice index     =            0
     lattice parameter (alat)  =      11.0662  a.u.
     unit-cell volume          =   12372.6966 (a.u.)^3
     number of atoms/cell      =           75
     number of atomic types    =            7
     number of electrons       =       674.00
     number of Kohn-Sham states=          404
     kinetic-energy cutoff     =      80.0000  Ry
     charge density cutoff     =     640.0000  Ry
     scf convergence threshold =      1.0E-08
     mixing beta               =       0.3000
     number of iterations used =            8  local-TF  mixing
     Exchange-correlation= PBE
                           (   1   4   3   4   0   0   0)
     Hubbard projectors: ortho-atomic
     Hubbard parameters of DFT+U (Dudarev formulation) in eV:
     U(Cr-3d) =  3.7000
     U(Mn-3d) =  3.9000
     U(Ni-3d) =  6.2000

     Internal variables: lda_plus_u =T, lda_plus_u_kind = 0

     Internal variables: orbital_resolved =F, hub_pot_fix =F, apply_U = F

     celldm(1)=  11.066235  celldm(2)=   0.000000  celldm(3)=   0.000000
     celldm(4)=   0.000000  celldm(5)=   0.000000  celldm(6)=   0.000000

     crystal axes: (cart. coord. in units of alat)
               a(1) = (   1.000000   0.000000   0.000000 )  
               a(2) = (   0.000000   2.136571   0.000000 )  
               a(3) = (   0.000000   0.000000   4.273142 )  

     reciprocal axes: (cart. coord. in units 2 pi/alat)
               b(1) = (  1.000000 -0.000000  0.000000 )  
               b(2) = (  0.000000  0.468040  0.000000 )  
               b(3) = ( -0.000000 -0.000000  0.234020 )  


     PseudoPot. # 1 for Cr read from file:
     /anvil/projects/x-che260157/pseudo/cr_pbe_v1.5.uspp.F.UPF
     MD5 check sum: 0d52af634a40206e4dee301ad30da4bf
     Pseudo is Ultrasoft + core correction, Zval = 14.0
     Generated by new atomic code, or converted to UPF format
     Using radial grid of  857 points,  6 beta functions with: 
                l(1) =   0
                l(2) =   0
                l(3) =   1
                l(4) =   1
                l(5) =   2
                l(6) =   2
     Q(r) pseudized with  8 coefficients,  rinner =    0.950   0.950   0.950
                                                       0.950   0.950

     PseudoPot. # 2 for Cu read from file:
     /anvil/projects/x-che260157/pseudo/Cu.paw.z_11.ld1.psl.v1.0.0-low.upf
     MD5 check sum: 619f40885d92a09a85a8b37550532d0c
     Pseudo is Projector augmented-wave + core cor, Zval = 11.0
     Generated using &quot;atomic&quot; code by A. Dal Corso  v.6.3MaX
     Shape of augmentation charge: PSQ
     Using radial grid of 1199 points,  6 beta functions with: 
                l(1) =   0
                l(2) =   0
                l(3) =   1
                l(4) =   1
                l(5) =   2
                l(6) =   2
     Q(r) pseudized with 0 coefficients 


     PseudoPot. # 3 for Mn read from file:
     /anvil/projects/x-che260157/pseudo/mn_pbe_v1.5.uspp.F.UPF
     MD5 check sum: 82ef2b46521d7a7d9e736dc3972e4928
     Pseudo is Ultrasoft + core correction, Zval = 15.0
     Generated by new atomic code, or converted to UPF format
     Using radial grid of  859 points,  6 beta functions with: 
                l(1) =   0
                l(2) =   0
                l(3) =   1
                l(4) =   1
                l(5) =   2
                l(6) =   2
     Q(r) pseudized with  8 coefficients,  rinner =    0.950   0.950   0.950
                                                       0.950   0.950

     PseudoPot. # 4 for Ni read from file:
     /anvil/projects/x-che260157/pseudo/ni_pbe_v1.4.uspp.F.UPF
     MD5 check sum: 1ee80287db30b12d2bc1f57a5b5d6409
     Pseudo is Ultrasoft + core correction, Zval = 18.0
     Generated by new atomic code, or converted to UPF format
     Using radial grid of  865 points,  6 beta functions with: 
                l(1) =   0
                l(2) =   0
                l(3) =   1
                l(4) =   1
                l(5) =   2
                l(6) =   2
     Q(r) pseudized with 10 coefficients,  rinner =    0.980   0.980   0.980
                                                       0.980   0.980

     PseudoPot. # 5 for O  read from file:
     /anvil/projects/x-che260157/pseudo/O.pbe-n-kjpaw_psl.0.1.UPF
     MD5 check sum: 0234752ac141de4415c5fc33072bef88
     Pseudo is Projector augmented-wave + core cor, Zval =  6.0
     Generated using "atomic" code by A. Dal Corso  v.5.0.99 svn rev. 10869
     Shape of augmentation charge: BESSEL
     Using radial grid of 1095 points,  4 beta functions with: 
                l(1) =   0
                l(2) =   0
                l(3) =   1
                l(4) =   1
     Q(r) pseudized with 0 coefficients 


     PseudoPot. # 6 for O  read from file:
     /anvil/projects/x-che260157/pseudo/O.pbe-n-kjpaw_psl.0.1.UPF
     MD5 check sum: 0234752ac141de4415c5fc33072bef88
     Pseudo is Projector augmented-wave + core cor, Zval =  6.0
     Generated using "atomic" code by A. Dal Corso  v.5.0.99 svn rev. 10869
     Shape of augmentation charge: BESSEL
     Using radial grid of 1095 points,  4 beta functions with: 
                l(1) =   0
                l(2) =   0
                l(3) =   1
                l(4) =   1
     Q(r) pseudized with 0 coefficients 


     PseudoPot. # 7 for H  read from file:
     /anvil/projects/x-che260157/pseudo/H.pbe-rrkjus_psl.1.0.0.UPF
     MD5 check sum: f52b6d4d1c606e5624b1dc7b2218f220
     Pseudo is Ultrasoft, Zval =  1.0
     Generated using "atomic" code by A. Dal Corso  v.5.1
     Using radial grid of  929 points,  2 beta functions with: 
                l(1) =   0
                l(2) =   0
     Q(r) pseudized with 0 coefficients 


     atomic species   valence    mass     pseudopotential
     Cr               14.00    51.99600     Cr( 1.00)
     Cu               11.00    63.54600     Cu( 1.00)
     Mn               15.00    54.93800     Mn( 1.00)
     Ni               18.00    58.69300     Ni( 1.00)
     O1                6.00    15.99900     O ( 1.00)
     O2                6.00    15.99900     O ( 1.00)
     H                 1.00     1.00800     H ( 1.00)

     Starting magnetic structure 
     atomic species   magnetization
     Cr              0.600
     Cu              0.200
     Mn              0.500
     Ni              0.300
     O1              0.000
     O2              0.167
     H               0.000

     No symmetry found



   Cartesian axes

     site n.     atom                  positions (alat units)
         1        Mn     tau(   1) = (   0.0000000   0.8012142   1.6024283  )
         2        Ni     tau(   2) = (   0.0000000   1.8694997   1.6024283  )
         3        Mn     tau(   3) = (   0.5000000   0.8012142   1.6024283  )
         4        Cr     tau(   4) = (   0.5000000   1.8694997   1.6024283  )
         5        Cr     tau(   5) = (   0.2500000   0.2670714   1.6024283  )
         6        Ni     tau(   6) = (   0.2500000   1.3353569   1.6024283  )
         7        Mn     tau(   7) = (   0.7500000   0.2670714   1.6024283  )
         8        Ni     tau(   8) = (   0.7500000   1.3353569   1.6024283  )
         9        Mn     tau(   9) = (   0.0023900   0.2710931   2.1518423  )
        10        Ni     tau(  10) = (   0.0053136   1.3381044   2.1402638  )
        11        Mn     tau(  11) = (   0.5002991   0.2733669   2.1484698  )
        12        Cr     tau(  12) = (   0.4947068   1.3476023   2.1711776  )
        13        Ni     tau(  13) = (   0.2544114   0.8081648   2.1439766  )
        14        Mn     tau(  14) = (   0.2450019   1.8719961   2.1441196  )
        15        Cr     tau(  15) = (   0.7350391   0.8151311   2.1389858  )
        16        Mn     tau(  16) = (   0.7551459   1.8723733   2.1448744  )
        17        Cr     tau(  17) = (   0.0024490   0.8133000   2.6665301  )
        18        Ni     tau(  18) = (  -0.0105324   1.8717440   2.6926726  )
        19        Ni     tau(  19) = (   0.5052491   0.8217292   2.7056225  )
        20        Mn     tau(  20) = (   0.5016836   1.8693965   2.6884306  )
        21        Cr     tau(  21) = (   0.2690017   0.2553812   2.7074357  )
        22        Cr     tau(  22) = (   0.2200040   1.3559468   2.8237890  )
        23        Ni     tau(  23) = (   0.7535945   0.2712787   2.7016710  )
        24        Cu     tau(  24) = (   0.7466497   1.3432399   2.7290737  )
        25        O1     tau(  25) = (   0.0000000   0.2670714   1.8107440  )
        26        O1     tau(  26) = (   0.0000000   1.3353569   1.8107440  )
        27        O1     tau(  27) = (   0.5000000   0.2670714   1.8107440  )
        28        O1     tau(  28) = (   0.5000000   1.3353569   1.8107440  )
        29        O1     tau(  29) = (   0.0000000   0.2670714   1.3941126  )
        30        O1     tau(  30) = (   0.0000000   1.3353569   1.3941126  )
        31        O1     tau(  31) = (   0.5000000   0.2670714   1.3941126  )
        32        O1     tau(  32) = (   0.5000000   1.3353569   1.3941126  )
        33        O1     tau(  33) = (   0.2500000   0.5928985   1.6024283  )
        34        O1     tau(  34) = (   0.2500000   1.6611840   1.6024283  )
        35        O1     tau(  35) = (   0.7500000   0.5928985   1.6024283  )
        36        O1     tau(  36) = (   0.7500000   1.6611840   1.6024283  )
        37        O1     tau(  37) = (   0.2500000   1.0095298   1.6024283  )
        38        O1     tau(  38) = (   0.2500000   2.0778154   1.6024283  )
        39        O1     tau(  39) = (   0.7500000   1.0095298   1.6024283  )
        40        O1     tau(  40) = (   0.7500000   2.0778154   1.6024283  )
        41        O1     tau(  41) = (  -0.0060478   0.8147867   2.3816814  )
        42        O1     tau(  42) = (  -0.0005693   1.8583711   2.3570800  )
        43        O1     tau(  43) = (   0.5109132   0.8117223   2.3573830  )
        44        O1     tau(  44) = (   0.5008215   1.8670348   2.3649740  )
        45        O1     tau(  45) = (   0.0000000   0.8012142   1.9282554  )
        46        O1     tau(  46) = (   0.0000000   1.8694997   1.9282554  )
        47        O1     tau(  47) = (   0.5000000   0.8012142   1.9282554  )
        48        O1     tau(  48) = (   0.5000000   1.8694997   1.9282554  )
        49        O1     tau(  49) = (   0.2515789   0.0611286   2.1498146  )
        50        O1     tau(  50) = (   0.2627216   1.1323663   2.1378798  )
        51        O1     tau(  51) = (   0.7506623   0.0632560   2.1611809  )
        52        O1     tau(  52) = (   0.7492489   1.1191047   2.1517666  )
        53        O1     tau(  53) = (   0.2506772   0.4798031   2.1478610  )
        54        O1     tau(  54) = (   0.2624101   1.5481461   2.1354468  )
        55        O1     tau(  55) = (   0.7531653   0.4873741   2.1559521  )
        56        O1     tau(  56) = (   0.7377761   1.5424566   2.1384982  )
        57        O1     tau(  57) = (   0.0019864   0.2602293   2.9288854  )
        58        O1     tau(  58) = (   0.0660505   1.3541934   3.0483669  )
        59        O1     tau(  59) = (   0.4648735   0.3047284   2.9095354  )
        60        O1     tau(  60) = (   0.4913546   1.3158021   2.9145363  )
        61        O1     tau(  61) = (   0.0211138   0.2860495   2.4924820  )
        62        O1     tau(  62) = (   0.0261969   1.3399387   2.5794335  )
        63        O1     tau(  63) = (   0.4839728   0.2855241   2.4886368  )
        64        O1     tau(  64) = (   0.4957222   1.3317940   2.4530336  )
        65        O1     tau(  65) = (   0.2207520   0.6190397   2.7405694  )
        66        O1     tau(  66) = (   0.2512503   1.6524311   2.7590504  )
        67        O1     tau(  67) = (   0.7801746   0.6275712   2.7506617  )
        68        O1     tau(  68) = (   0.7366176   1.6600440   2.7549943  )
        69        O1     tau(  69) = (   0.2161760   1.0214995   2.7553132  )
        70        O1     tau(  70) = (   0.2570466   2.0899513   2.7233432  )
        71        O1     tau(  71) = (   0.7719988   1.0243813   2.7546504  )
        72        O1     tau(  72) = (   0.7280136   2.0780582   2.7362930  )
        73        O2     tau(  73) = (   0.3659103   0.8452148   3.2687696  )
        74        O2     tau(  74) = (   0.1640873   0.8438125   3.3268912  )
        75        H      tau(  75) = (   0.0041843   0.4016437   3.0154802  )

     number of k points=     8  Marzari-Vanderbilt smearing, width (Ry)=  0.0050
                       cart. coord. in units 2pi/alat
        k(    1) = (   0.0000000   0.0000000   0.0000000), wk =   0.1250000
        k(    2) = (   0.0000000  -0.2340198   0.0000000), wk =   0.1250000
        k(    3) = (   0.2500000  -0.0000000   0.0000000), wk =   0.1250000
        k(    4) = (   0.2500000  -0.2340198   0.0000000), wk =   0.1250000
        k(    5) = (  -0.5000000   0.0000000   0.0000000), wk =   0.1250000
        k(    6) = (  -0.5000000  -0.2340198   0.0000000), wk =   0.1250000
        k(    7) = (  -0.2500000   0.0000000   0.0000000), wk =   0.1250000
        k(    8) = (  -0.2500000  -0.2340198   0.0000000), wk =   0.1250000

     Dense  grid:  3382951 G-vectors     FFT dimensions: (  90, 192, 384)

     Smooth grid:  1196337 G-vectors     FFT dimensions: (  64, 135, 270)

     Estimated max dynamical RAM per process >     942.07 MB

     Estimated total dynamical RAM >     106.47 GB

     Writing config-init to output data dir ./tmp_hs__leader_pull2.10__ortho__smearing/hc__leader_pull2.10__ortho__fragment.save/ :
     XML data file


     Called by init_run:

     Called by electrons:

     Called by c_bands:

     Called by *egterg:

     Called by h_psi:

     General routines

     Parallel routines

     Hubbard U routines

     PWSCF        :      0.76s CPU      0.95s WALL


   This run was terminated on:   1:45:44  12Sep2026            

=------------------------------------------------------------------------------=
   JOB DONE.
=------------------------------------------------------------------------------=
