
     Program PWSCF v.7.5 starts on 10Aug2026 at  0:58:27 

     This program is part of the open-source Quantum ESPRESSO suite
     for quantum simulation of materials; please cite
         "P. Giannozzi et al., J. Phys.:Condens. Matter 21 395502 (2009);
         "P. Giannozzi et al., J. Phys.:Condens. Matter 29 465901 (2017);
         "P. Giannozzi et al., J. Chem. Phys. 152 154105 (2020);
          URL http://www.quantum-espresso.org", 
     in publications or presentations arising from this work. More details at
     http://www.quantum-espresso.org/quote

     Parallel version (MPI & OpenMP), running on      20 processor cores
     Number of MPI processes:                20
     Threads/MPI process:                     1

     MPI processes distributed on     1 nodes
     249166 MiB available memory on the printing compute node when the environment starts

     Reading input from s0_OOH__hess_a20xm.run.in

     Current dimensions of program PWSCF are:
     Max number of different atomic species (ntypx) = 10
     Max number of k-points (npk) =  40000
     Max angular momentum in pseudopotentials (lmaxx) =  4
     file O.pbe-n-kjpaw_psl.0.1.UPF: wavefunction(s)  2P renormalized

     K-points division:     npool     =       4
     R & G space division:  proc/nbgrp/npool/nimage =       5
     Subspace diagonalization in iterative solution of the eigenvalue problem:
     a serial algorithm will be used


     Parallelization info
     --------------------
     sticks:   dense  smooth     PW     G-vecs:    dense   smooth      PW
     Min         727     364    103               188273    66522   10059
     Max         728     366    104               188278    66527   10068
     Sum        3639    1825    519               941385   332621   50331

     Using Slab Decomposition



     bravais-lattice index     =            0
     lattice parameter (alat)  =       5.9602  a.u.
     unit-cell volume          =    3444.9838 (a.u.)^3
     number of atoms/cell      =           21
     number of atomic types    =            3
     number of electrons       =       175.00
     number of Kohn-Sham states=          106
     kinetic-energy cutoff     =      80.0000  Ry
     charge density cutoff     =     640.0000  Ry
     scf convergence threshold =      1.0E-10
     mixing beta               =       0.3000
     number of iterations used =            8  local-TF  mixing
     Exchange-correlation= SLA  PW   PBX  PBC
                           (   1   4   3   4   0   0   0)

     celldm(1)=   5.960196  celldm(2)=   0.000000  celldm(3)=   0.000000
     celldm(4)=   0.000000  celldm(5)=   0.000000  celldm(6)=   0.000000

     crystal axes: (cart. coord. in units of alat)
               a(1) = (   1.000000   0.000000   0.000000 )  
               a(2) = (   0.000000   2.016846   0.000000 )  
               a(3) = (   0.000000   0.000000   8.067384 )  

     reciprocal axes: (cart. coord. in units 2 pi/alat)
               b(1) = (  1.000000  0.000000  0.000000 )  
               b(2) = (  0.000000  0.495824  0.000000 )  
               b(3) = (  0.000000  0.000000  0.123956 )  


     PseudoPot. # 1 for H  read from file:
     /usr/share/espresso/pseudo/H.pbe-rrkjus_psl.1.0.0.UPF
     MD5 check sum: f52b6d4d1c606e5624b1dc7b2218f220
     Pseudo is Ultrasoft, Zval =  1.0
     Generated using "atomic" code by A. Dal Corso  v.5.1
     Using radial grid of  929 points,  2 beta functions with: 
                l(1) =   0
                l(2) =   0
     Q(r) pseudized with 0 coefficients 


     PseudoPot. # 2 for Ir read from file:
     /usr/share/espresso/pseudo/Ir_pbe_v1.2.uspp.F.UPF
     MD5 check sum: 8836f839c3459d2b385c504ce6d91f2c
     Pseudo is Ultrasoft + core correction, Zval = 15.0
     Generated by new atomic code, or converted to UPF format
     Using radial grid of  983 points,  7 beta functions with: 
                l(1) =   0
                l(2) =   0
                l(3) =   1
                l(4) =   1
                l(5) =   1
                l(6) =   2
                l(7) =   2
     Q(r) pseudized with  8 coefficients,  rinner =    1.400   1.400   1.400
                                                       1.400   1.400

     PseudoPot. # 3 for O  read from file:
     /usr/share/espresso/pseudo/O.pbe-n-kjpaw_psl.0.1.UPF
     MD5 check sum: 0234752ac141de4415c5fc33072bef88
     Pseudo is Projector augmented-wave + core cor, Zval =  6.0
     Generated using "atomic" code by A. Dal Corso  v.5.0.99 svn rev. 10869
     Shape of augmentation charge: BESSEL
     Using radial grid of 1095 points,  4 beta functions with: 
                l(1) =   0
                l(2) =   0
                l(3) =   1
                l(4) =   1
     Q(r) pseudized with 0 coefficients 


     atomic species   valence    mass     pseudopotential
     H                 1.00     1.00800     H ( 1.00)
     Ir               15.00   192.21700     Ir( 1.00)
     O                 6.00    15.99900     O ( 1.00)

     No symmetry found



   Cartesian axes

     site n.     atom                  positions (alat units)
         1        Ir     tau(   1) = (   0.0000000   1.5126346   3.0252692  )
         2        Ir     tau(   2) = (   0.5000000   0.5042115   3.0252692  )
         3        Ir     tau(   3) = (  -0.0023840   0.5042115   4.0424363  )
         4        Ir     tau(   4) = (   0.4990610   1.5126346   4.0354930  )
         5        Ir     tau(   5) = (   0.0012848   1.5126346   5.0614101  )
         6        Ir     tau(   6) = (   0.4948989   0.5042115   5.0639483  )
         7        O      tau(   7) = (   0.0000000   0.5042115   3.4185541  )
         8        O      tau(   8) = (   0.0000000   0.5042115   2.6319842  )
         9        O      tau(   9) = (   0.5000000   1.1193496   3.0252692  )
        10        O      tau(  10) = (   0.5000000   1.9059196   3.0252692  )
        11        O      tau(  11) = (  -0.0006886   1.5126346   4.4334117  )
        12        O      tau(  12) = (   0.0000000   1.5126346   3.6404072  )
        13        O      tau(  13) = (   0.4978055   0.1177569   4.0372497  )
        14        O      tau(  14) = (   0.4978055   0.8906661   4.0372497  )
        15        O      tau(  15) = (  -0.0045322   0.5042115   5.4396437  )
        16        O      tau(  16) = (  -0.0052389   0.5042115   4.6686027  )
        17        O      tau(  17) = (   0.4950664   1.1230207   5.0499889  )
        18        O      tau(  18) = (   0.4950664   1.9022485   5.0499889  )
        19        O      tau(  19) = (  -0.1157108   1.5126346   5.6562437  )
        20        O      tau(  20) = (   0.1651463   1.5126346   6.0083143  )
        21        H      tau(  21) = (  -0.0522583   1.5126346   6.2279178  )

     number of k points=    32  Marzari-Vanderbilt smearing, width (Ry)=  0.0100
                       cart. coord. in units 2pi/alat
        k(    1) = (   0.0000000   0.0000000   0.0000000), wk =   0.0625000
        k(    2) = (   0.0000000   0.1239559   0.0000000), wk =   0.0625000
        k(    3) = (   0.0000000  -0.2479118   0.0000000), wk =   0.0625000
        k(    4) = (   0.0000000  -0.1239559   0.0000000), wk =   0.0625000
        k(    5) = (   0.1250000   0.0000000   0.0000000), wk =   0.0625000
        k(    6) = (   0.1250000   0.1239559   0.0000000), wk =   0.0625000
        k(    7) = (   0.1250000  -0.2479118   0.0000000), wk =   0.0625000
        k(    8) = (   0.1250000  -0.1239559   0.0000000), wk =   0.0625000
        k(    9) = (   0.2500000   0.0000000   0.0000000), wk =   0.0625000
        k(   10) = (   0.2500000   0.1239559   0.0000000), wk =   0.0625000
        k(   11) = (   0.2500000  -0.2479118   0.0000000), wk =   0.0625000
        k(   12) = (   0.2500000  -0.1239559   0.0000000), wk =   0.0625000
        k(   13) = (   0.3750000   0.0000000   0.0000000), wk =   0.0625000
        k(   14) = (   0.3750000   0.1239559   0.0000000), wk =   0.0625000
        k(   15) = (   0.3750000  -0.2479118   0.0000000), wk =   0.0625000
        k(   16) = (   0.3750000  -0.1239559   0.0000000), wk =   0.0625000
        k(   17) = (  -0.5000000   0.0000000   0.0000000), wk =   0.0625000
        k(   18) = (  -0.5000000   0.1239559   0.0000000), wk =   0.0625000
        k(   19) = (  -0.5000000  -0.2479118   0.0000000), wk =   0.0625000
        k(   20) = (  -0.5000000  -0.1239559   0.0000000), wk =   0.0625000
        k(   21) = (  -0.3750000   0.0000000   0.0000000), wk =   0.0625000
        k(   22) = (  -0.3750000   0.1239559   0.0000000), wk =   0.0625000
        k(   23) = (  -0.3750000  -0.2479118   0.0000000), wk =   0.0625000
        k(   24) = (  -0.3750000  -0.1239559   0.0000000), wk =   0.0625000
        k(   25) = (  -0.2500000   0.0000000   0.0000000), wk =   0.0625000
        k(   26) = (  -0.2500000   0.1239559   0.0000000), wk =   0.0625000
        k(   27) = (  -0.2500000  -0.2479118   0.0000000), wk =   0.0625000
        k(   28) = (  -0.2500000  -0.1239559   0.0000000), wk =   0.0625000
        k(   29) = (  -0.1250000   0.0000000   0.0000000), wk =   0.0625000
        k(   30) = (  -0.1250000   0.1239559   0.0000000), wk =   0.0625000
        k(   31) = (  -0.1250000  -0.2479118   0.0000000), wk =   0.0625000
        k(   32) = (  -0.1250000  -0.1239559   0.0000000), wk =   0.0625000

     Dense  grid:   941385 G-vectors     FFT dimensions: (  48, 100, 400)

     Smooth grid:   332621 G-vectors     FFT dimensions: (  36,  72, 288)

     Estimated max dynamical RAM per process >     481.92 MB

     Estimated total dynamical RAM >       8.74 GB

     Initial potential from superposition of free atoms

     starting charge     171.9998, renormalised to     175.0000

     negative rho (up, down):  2.222E+00 0.000E+00
     Starting wfcs are  129 randomized atomic wfcs
     Checking if some PAW data can be deallocated... 

     total cpu time spent up to now is       10.7 secs

     per-process dynamical memory:   266.2 Mb

     Self-consistent Calculation

     iteration #  1     ecut=    80.00 Ry     beta= 0.30
     Davidson diagonalization with overlap
     ethr =  1.00E-02,  avg # of iterations =  3.3

     negative rho (up, down):  2.045E+00 0.000E+00

     total cpu time spent up to now is       32.8 secs

     total energy              =   -1674.71702247 Ry
     estimated scf accuracy    <      66.83640283 Ry

     iteration #  2     ecut=    80.00 Ry     beta= 0.30
     Davidson diagonalization with overlap
     ethr =  1.00E-02,  avg # of iterations =  1.0

     negative rho (up, down):  1.906E+00 0.000E+00

     total cpu time spent up to now is       50.4 secs

     total energy              =   -1674.06928695 Ry
     estimated scf accuracy    <      12.62686957 Ry

     iteration #  3     ecut=    80.00 Ry     beta= 0.30
     Davidson diagonalization with overlap
     ethr =  7.22E-03,  avg # of iterations =  1.1

     negative rho (up, down):  1.843E+00 0.000E+00

     total cpu time spent up to now is       68.4 secs

     total energy              =   -1673.98678312 Ry
     estimated scf accuracy    <       3.72252789 Ry

     iteration #  4     ecut=    80.00 Ry     beta= 0.30
     Davidson diagonalization with overlap
     ethr =  2.13E-03,  avg # of iterations =  4.9

     negative rho (up, down):  1.886E+00 0.000E+00

     total cpu time spent up to now is       89.8 secs

     total energy              =   -1674.13392747 Ry
     estimated scf accuracy    <       0.57267483 Ry

     iteration #  5     ecut=    80.00 Ry     beta= 0.30
     Davidson diagonalization with overlap
     ethr =  3.27E-04,  avg # of iterations =  5.6

     negative rho (up, down):  1.914E+00 0.000E+00

     total cpu time spent up to now is      111.8 secs

     total energy              =   -1674.13044593 Ry
     estimated scf accuracy    <       1.48032718 Ry

     iteration #  6     ecut=    80.00 Ry     beta= 0.30
     Davidson diagonalization with overlap
     ethr =  3.27E-04,  avg # of iterations =  1.1

     negative rho (up, down):  1.943E+00 0.000E+00

     total cpu time spent up to now is      129.8 secs

     total energy              =   -1674.10114838 Ry
     estimated scf accuracy    <       1.03971341 Ry

     iteration #  7     ecut=    80.00 Ry     beta= 0.30
     Davidson diagonalization with overlap
     ethr =  3.27E-04,  avg # of iterations =  2.2

     negative rho (up, down):  1.964E+00 0.000E+00

     total cpu time spent up to now is      148.8 secs

     total energy              =   -1674.10179488 Ry
     estimated scf accuracy    <       0.19968242 Ry

     iteration #  8     ecut=    80.00 Ry     beta= 0.30
     Davidson diagonalization with overlap
     ethr =  1.14E-04,  avg # of iterations =  3.9

     negative rho (up, down):  1.973E+00 0.000E+00

     total cpu time spent up to now is      170.4 secs

     total energy              =   -1674.09325969 Ry
     estimated scf accuracy    <       0.10541677 Ry

     iteration #  9     ecut=    80.00 Ry     beta= 0.30
     Davidson diagonalization with overlap
     ethr =  6.02E-05,  avg # of iterations =  8.6

     negative rho (up, down):  1.964E+00 0.000E+00

     total cpu time spent up to now is      193.1 secs

     total energy              =   -1674.09416509 Ry
     estimated scf accuracy    <       0.01887925 Ry

     iteration # 10     ecut=    80.00 Ry     beta= 0.30
     Davidson diagonalization with overlap
     ethr =  1.08E-05,  avg # of iterations =  7.2

     negative rho (up, down):  1.945E+00 0.000E+00

     total cpu time spent up to now is      216.1 secs

     total energy              =   -1674.09279635 Ry
     estimated scf accuracy    <       0.00810126 Ry

     iteration # 11     ecut=    80.00 Ry     beta= 0.30
     Davidson diagonalization with overlap
     ethr =  4.63E-06,  avg # of iterations =  9.2

     negative rho (up, down):  1.922E+00 0.000E+00

     total cpu time spent up to now is      239.4 secs

     total energy              =   -1674.09201467 Ry
     estimated scf accuracy    <       0.00496293 Ry

     iteration # 12     ecut=    80.00 Ry     beta= 0.30
     Davidson diagonalization with overlap
     ethr =  2.84E-06,  avg # of iterations =  7.0

     negative rho (up, down):  1.900E+00 0.000E+00

     total cpu time spent up to now is      261.7 secs

     total energy              =   -1674.09153168 Ry
     estimated scf accuracy    <       0.00607837 Ry

     iteration # 13     ecut=    80.00 Ry     beta= 0.30
     Davidson diagonalization with overlap
     ethr =  2.84E-06,  avg # of iterations =  6.7

     negative rho (up, down):  1.902E+00 0.000E+00

     total cpu time spent up to now is      283.8 secs

     total energy              =   -1674.09154759 Ry
     estimated scf accuracy    <       0.00136677 Ry

     iteration # 14     ecut=    80.00 Ry     beta= 0.30
     Davidson diagonalization with overlap
     ethr =  7.81E-07,  avg # of iterations =  3.4

     negative rho (up, down):  1.906E+00 0.000E+00

     total cpu time spent up to now is      303.9 secs

     total energy              =   -1674.09152010 Ry
     estimated scf accuracy    <       0.00078583 Ry

     iteration # 15     ecut=    80.00 Ry     beta= 0.30
     Davidson diagonalization with overlap
     ethr =  4.49E-07,  avg # of iterations =  6.5

     negative rho (up, down):  1.913E+00 0.000E+00

     total cpu time spent up to now is      326.5 secs

     total energy              =   -1674.09151938 Ry
     estimated scf accuracy    <       0.00054451 Ry

     iteration # 16     ecut=    80.00 Ry     beta= 0.30
     Davidson diagonalization with overlap
     ethr =  3.11E-07,  avg # of iterations =  6.6

     negative rho (up, down):  1.915E+00 0.000E+00

     total cpu time spent up to now is      348.6 secs

     total energy              =   -1674.09154361 Ry
     estimated scf accuracy    <       0.00029537 Ry

     iteration # 17     ecut=    80.00 Ry     beta= 0.30
     Davidson diagonalization with overlap
     ethr =  1.69E-07,  avg # of iterations =  4.1

     negative rho (up, down):  1.915E+00 0.000E+00

     total cpu time spent up to now is      369.2 secs

     total energy              =   -1674.09157242 Ry
     estimated scf accuracy    <       0.00023225 Ry

     iteration # 18     ecut=    80.00 Ry     beta= 0.30
     Davidson diagonalization with overlap
     ethr =  1.33E-07,  avg # of iterations =  4.9

     negative rho (up, down):  1.913E+00 0.000E+00

     total cpu time spent up to now is      389.9 secs

     total energy              =   -1674.09161756 Ry
     estimated scf accuracy    <       0.00011028 Ry

     iteration # 19     ecut=    80.00 Ry     beta= 0.30
     Davidson diagonalization with overlap
     ethr =  6.30E-08,  avg # of iterations =  3.6

     negative rho (up, down):  1.912E+00 0.000E+00

     total cpu time spent up to now is      410.2 secs

     total energy              =   -1674.09164895 Ry
     estimated scf accuracy    <       0.00004624 Ry

     iteration # 20     ecut=    80.00 Ry     beta= 0.30
     Davidson diagonalization with overlap
     ethr =  2.64E-08,  avg # of iterations =  3.9

     negative rho (up, down):  1.910E+00 0.000E+00

     total cpu time spent up to now is      430.3 secs

     total energy              =   -1674.09164365 Ry
     estimated scf accuracy    <       0.00002281 Ry

     iteration # 21     ecut=    80.00 Ry     beta= 0.30
     Davidson diagonalization with overlap
     c_bands:  1 eigenvalues not converged
     c_bands:  1 eigenvalues not converged
     ethr =  1.30E-08,  avg # of iterations =  7.4

     negative rho (up, down):  1.910E+00 0.000E+00

     total cpu time spent up to now is      453.0 secs

     total energy              =   -1674.09163902 Ry
     estimated scf accuracy    <       0.00000582 Ry

     iteration # 22     ecut=    80.00 Ry     beta= 0.30
     Davidson diagonalization with overlap
     ethr =  3.33E-09,  avg # of iterations =  6.6

     negative rho (up, down):  1.909E+00 0.000E+00

     total cpu time spent up to now is      475.2 secs

     total energy              =   -1674.09163627 Ry
     estimated scf accuracy    <       0.00000225 Ry

     iteration # 23     ecut=    80.00 Ry     beta= 0.30
     Davidson diagonalization with overlap
     ethr =  1.29E-09,  avg # of iterations =  4.7

     negative rho (up, down):  1.909E+00 0.000E+00

     total cpu time spent up to now is      496.1 secs

     total energy              =   -1674.09163531 Ry
     estimated scf accuracy    <       0.00000127 Ry

     iteration # 24     ecut=    80.00 Ry     beta= 0.30
     Davidson diagonalization with overlap
     ethr =  7.23E-10,  avg # of iterations =  1.7

     negative rho (up, down):  1.909E+00 0.000E+00

     total cpu time spent up to now is      515.1 secs

     total energy              =   -1674.09163560 Ry
     estimated scf accuracy    <       0.00000018 Ry

     iteration # 25     ecut=    80.00 Ry     beta= 0.30
     Davidson diagonalization with overlap
     ethr =  1.04E-10,  avg # of iterations =  3.7

     negative rho (up, down):  1.909E+00 0.000E+00

     total cpu time spent up to now is      536.1 secs

     total energy              =   -1674.09163566 Ry
     estimated scf accuracy    <       0.00000010 Ry

     iteration # 26     ecut=    80.00 Ry     beta= 0.30
     Davidson diagonalization with overlap
     ethr =  5.59E-11,  avg # of iterations =  2.6

     negative rho (up, down):  1.909E+00 0.000E+00

     total cpu time spent up to now is      556.7 secs

     total energy              =   -1674.09163564 Ry
     estimated scf accuracy    <       0.00000003 Ry

     iteration # 27     ecut=    80.00 Ry     beta= 0.30
     Davidson diagonalization with overlap
     ethr =  1.83E-11,  avg # of iterations =  3.5

     negative rho (up, down):  1.909E+00 0.000E+00

     total cpu time spent up to now is      578.6 secs

     total energy              =   -1674.09163566 Ry
     estimated scf accuracy    <          5.9E-09 Ry

     iteration # 28     ecut=    80.00 Ry     beta= 0.30
     Davidson diagonalization with overlap
     ethr =  3.38E-12,  avg # of iterations =  3.4

     negative rho (up, down):  1.909E+00 0.000E+00

     total cpu time spent up to now is      599.7 secs

     total energy              =   -1674.09163567 Ry
     estimated scf accuracy    <          1.9E-09 Ry

     iteration # 29     ecut=    80.00 Ry     beta= 0.30
     Davidson diagonalization with overlap
     ethr =  1.11E-12,  avg # of iterations =  1.9

     negative rho (up, down):  1.909E+00 0.000E+00

     total cpu time spent up to now is      619.2 secs

     total energy              =   -1674.09163567 Ry
     estimated scf accuracy    <          5.4E-10 Ry

     iteration # 30     ecut=    80.00 Ry     beta= 0.30
     Davidson diagonalization with overlap
     ethr =  3.11E-13,  avg # of iterations =  2.8

     negative rho (up, down):  1.909E+00 0.000E+00

     total cpu time spent up to now is      639.6 secs

     End of self-consistent calculation

          k = 0.0000 0.0000 0.0000 ( 41611 PWs)   bands (ev):

   -48.2211 -48.1419 -48.0342 -47.9989 -47.9946 -47.9669 -47.9357 -47.9119
   -47.8788 -47.8559 -47.8118 -47.7391 -47.6623 -47.6439 -47.6430 -47.5613
   -47.5290 -47.3445 -21.2385 -18.6631 -18.3278 -18.1937 -17.8910 -17.3402
   -17.1377 -16.9788 -16.6995 -16.6410 -16.5970 -15.4872 -15.2345 -14.6140
    -7.3977  -7.3690  -7.3096  -6.9185  -6.1440  -6.0811  -5.7092  -5.6634
    -5.5384  -5.4481  -5.2278  -5.0056  -4.9735  -4.7796  -4.5455  -4.2307
    -3.5855  -3.5380  -2.8510  -2.8384  -2.6534  -2.6332  -2.3295  -2.2652
    -2.1720  -2.0140  -1.9648  -1.8981  -1.8917  -1.6765  -1.4904  -1.4587
    -1.3320  -1.1318  -0.9419  -0.7560  -0.6197  -0.3072  -0.2111  -0.1859
    -0.1432  -0.0391  -0.0211   0.0191   0.0784   0.1309   0.1572   0.2308
     0.7359   0.7567   0.8920   1.2013   1.4954   1.5911   1.9754   2.4960
     2.6221   2.7266   3.1630   3.5031   3.9063   4.5551   5.0732   5.4840
     5.8261   6.0477   6.4189   6.5627   6.5739   6.6299   6.6452   6.9326
     7.1592   7.4141

          k = 0.0000 0.1240 0.0000 ( 41688 PWs)   bands (ev):

   -48.2211 -48.1406 -48.0338 -47.9979 -47.9946 -47.9669 -47.9371 -47.9116
   -47.8790 -47.8559 -47.8118 -47.7402 -47.6623 -47.6439 -47.6430 -47.5614
   -47.5290 -47.3450 -21.2382 -18.5357 -18.1786 -18.0638 -17.9244 -17.3808
   -17.2422 -16.9790 -16.8332 -16.7956 -16.7563 -15.4834 -15.2310 -14.6131
    -6.9772  -6.8621  -6.8223  -6.7612  -6.1411  -6.0817  -5.6265  -5.5876
    -5.5372  -5.3582  -5.1109  -5.0042  -4.8898  -4.7785  -4.3653  -4.2311
    -3.7263  -3.5299  -3.4416  -3.3356  -3.1923  -3.0607  -2.9016  -2.7089
    -2.5209  -2.4647  -2.4572  -2.2487  -1.9696  -1.6318  -1.6013  -1.4638
    -1.2973  -1.1494  -1.1065  -0.8974  -0.4988  -0.3740  -0.2094  -0.1456
     0.1281   0.1926   0.3431   0.4786   0.5606   0.6196   0.6236   0.7114
     0.7807   0.8411   0.9170   1.2357   1.4966   1.6036   2.0220   2.3933
     2.5428   2.7324   2.9267   3.3024   4.4013   5.0378   5.4969   5.6739
     5.8698   6.1217   6.1496   6.2719   6.2787   6.6353   6.8086   6.9349
     7.1840   7.4262

          k = 0.0000-0.2479 0.0000 ( 41774 PWs)   bands (ev):

   -48.2211 -48.1392 -48.0334 -47.9968 -47.9946 -47.9668 -47.9385 -47.9114
   -47.8793 -47.8560 -47.8119 -47.7414 -47.6622 -47.6439 -47.6430 -47.5615
   -47.5291 -47.3454 -21.2380 -18.3164 -18.1231 -17.9235 -17.7237 -17.5409
   -17.4884 -17.0299 -16.9600 -16.9390 -16.8545 -15.4805 -15.2282 -14.6125
    -6.9380  -6.2204  -6.0849  -6.0200  -5.9324  -5.8385  -5.5389  -5.5266
    -5.5107  -5.2556  -5.0670  -5.0015  -4.7763  -4.5061  -4.4412  -4.3695
    -4.3488  -4.3108  -4.2317  -3.8283  -3.8243  -3.4174  -2.9898  -2.9573
    -2.8866  -2.8454  -2.7243  -2.4224  -2.2378  -1.6438  -1.6243  -1.2432
    -1.1687  -1.1663  -0.9404  -0.8525  -0.6451  -0.2860  -0.2573  -0.1912
     0.1353   0.2562   0.6352   0.7208   0.7353   0.8606   0.9189   0.9986
     1.0938   1.1588   1.2942   1.4610   1.5357   1.7320   1.7604   2.2574
     2.3847   2.7333   2.7510   3.1436   4.9345   5.0820   5.7613   5.7975
     5.9404   5.9676   6.0161   6.2613   6.4290   6.6361   6.8048   6.9362
     7.2774   7.5179

          k = 0.0000-0.1240 0.0000 ( 41688 PWs)   bands (ev):

   -48.2211 -48.1406 -48.0338 -47.9979 -47.9946 -47.9669 -47.9371 -47.9116
   -47.8790 -47.8559 -47.8118 -47.7402 -47.6623 -47.6439 -47.6430 -47.5614
   -47.5290 -47.3450 -21.2382 -18.5357 -18.1786 -18.0638 -17.9244 -17.3808
   -17.2422 -16.9790 -16.8332 -16.7956 -16.7563 -15.4834 -15.2310 -14.6131
    -6.9772  -6.8621  -6.8223  -6.7612  -6.1411  -6.0817  -5.6265  -5.5876
    -5.5372  -5.3582  -5.1109  -5.0042  -4.8898  -4.7785  -4.3653  -4.2311
    -3.7263  -3.5299  -3.4416  -3.3356  -3.1923  -3.0607  -2.9016  -2.7089
    -2.5209  -2.4647  -2.4572  -2.2487  -1.9696  -1.6318  -1.6013  -1.4638
    -1.2973  -1.1494  -1.1065  -0.8974  -0.4988  -0.3740  -0.2094  -0.1456
     0.1281   0.1926   0.3431   0.4786   0.5606   0.6196   0.6236   0.7114
     0.7807   0.8411   0.9170   1.2357   1.4966   1.6036   2.0220   2.3933
     2.5428   2.7324   2.9267   3.3024   4.4013   5.0378   5.4969   5.6739
     5.8698   6.1217   6.1496   6.2719   6.2787   6.6353   6.8086   6.9349
     7.1840   7.4263

          k = 0.1250 0.0000 0.0000 ( 41611 PWs)   bands (ev):

   -48.2210 -48.1404 -48.0330 -48.0100 -47.9976 -47.9658 -47.9337 -47.9278
   -47.8955 -47.8535 -47.8281 -47.7370 -47.6780 -47.6420 -47.6416 -47.5778
   -47.5268 -47.3421 -21.2074 -18.5228 -18.2049 -18.0747 -17.7882 -17.2722
   -17.0507 -17.0447 -16.7793 -16.7202 -16.6810 -15.5378 -15.2762 -14.6182
    -7.2186  -7.1861  -7.1310  -6.7761  -6.1576  -6.0453  -5.6931  -5.6043
    -5.5638  -5.4160  -5.0847  -5.0177  -4.5545  -4.4864  -4.4219  -4.3607
    -3.6090  -3.4577  -3.3025  -2.8204  -2.7511  -2.7372  -2.6612  -2.5801
    -2.5504  -2.5061  -2.2484  -2.0633  -1.8260  -1.7847  -1.6585  -1.6413
    -1.4299  -1.3867  -1.2880  -1.2003  -0.8704  -0.6800  -0.1928  -0.1574
     0.0831   0.1333   0.1682   0.3206   0.4101   0.4285   0.5872   0.8290
     0.9486   0.9718   1.0116   1.3199   1.8129   1.9039   2.0189   2.3723
     2.5684   2.7770   3.0149   3.3428   4.1138   4.7659   5.2327   5.3410
     5.7550   5.9614   6.0475   6.1695   6.2069   6.2713   6.4762   6.8250
     7.3211   7.5998

          k = 0.1250 0.1240 0.0000 ( 41692 PWs)   bands (ev):

   -48.2210 -48.1395 -48.0328 -48.0098 -47.9969 -47.9658 -47.9349 -47.9276
   -47.8955 -47.8535 -47.8280 -47.7379 -47.6780 -47.6420 -47.6416 -47.5778
   -47.5268 -47.3425 -21.2071 -18.4011 -18.0617 -17.9447 -17.8219 -17.3078
   -17.1745 -17.0363 -16.8994 -16.8674 -16.8104 -15.5348 -15.2734 -14.6173
    -6.8358  -6.7052  -6.6689  -6.6170  -6.1541  -6.0463  -5.5973  -5.5687
    -5.5090  -5.3187  -5.1737  -4.7493  -4.5581  -4.4861  -4.4262  -4.2421
    -3.6452  -3.5129  -3.4492  -3.4190  -3.2660  -3.1391  -3.1049  -3.0022
    -2.9537  -2.8819  -2.5951  -2.4621  -2.2171  -1.9794  -1.7748  -1.4712
    -1.3515  -1.2672  -1.2139  -0.9450  -0.7575  -0.4034  -0.3044  -0.1850
     0.2642   0.3239   0.5348   0.5747   0.6754   0.8004   0.8541   0.9028
     1.0040   1.0422   1.1936   1.3974   1.8170   1.9502   2.0109   2.3142
     2.4241   2.7158   2.8965   3.1920   4.5062   5.1129   5.3651   5.4885
     5.6803   5.7329   5.9432   5.9930   6.1350   6.3509   6.4754   6.9527
     7.3575   7.4923

          k = 0.1250-0.2479 0.0000 ( 41706 PWs)   bands (ev):

   -48.2210 -48.1385 -48.0325 -48.0096 -47.9962 -47.9658 -47.9362 -47.9275
   -47.8954 -47.8535 -47.8280 -47.7388 -47.6779 -47.6420 -47.6416 -47.5778
   -47.5268 -47.3429 -21.2069 -18.1935 -17.9954 -17.8047 -17.6118 -17.4751
   -17.4437 -17.1014 -17.0066 -17.0007 -16.8720 -15.5323 -15.2710 -14.6166
    -6.7972  -6.2106  -6.0474  -5.7964  -5.7358  -5.6357  -5.6278  -5.6077
    -5.5543  -5.4641  -5.1895  -4.5642  -4.4940  -4.4583  -4.2848  -4.2151
    -4.0905  -4.0442  -4.0018  -3.9314  -3.8927  -3.6734  -3.5608  -3.4582
    -3.3083  -2.8927  -2.8268  -2.6729  -2.3616  -2.0409  -1.7760  -1.3553
    -1.2274  -1.0206  -0.9915  -0.8227  -0.6565  -0.4857  -0.2556  -0.1997
     0.2825   0.5551   0.5636   0.6476   0.7350   0.8201   0.9406   1.0944
     1.3845   1.4346   1.6221   1.6242   1.8274   1.8298   2.0635   2.2048
     2.3181   2.6324   2.6649   3.1584   4.8770   5.1602   5.2648   5.3226
     5.3889   5.5585   6.0914   6.1414   6.3725   6.4891   6.5346   6.8670
     7.4578   7.6594

          k = 0.1250-0.1240 0.0000 ( 41692 PWs)   bands (ev):

   -48.2210 -48.1395 -48.0328 -48.0098 -47.9969 -47.9658 -47.9349 -47.9276
   -47.8955 -47.8535 -47.8280 -47.7379 -47.6780 -47.6420 -47.6416 -47.5778
   -47.5268 -47.3425 -21.2071 -18.4011 -18.0617 -17.9447 -17.8219 -17.3078
   -17.1745 -17.0363 -16.8994 -16.8674 -16.8104 -15.5348 -15.2734 -14.6173
    -6.8358  -6.7052  -6.6689  -6.6170  -6.1541  -6.0463  -5.5973  -5.5687
    -5.5090  -5.3187  -5.1737  -4.7493  -4.5581  -4.4861  -4.4262  -4.2421
    -3.6452  -3.5129  -3.4492  -3.4190  -3.2660  -3.1391  -3.1049  -3.0022
    -2.9537  -2.8819  -2.5951  -2.4621  -2.2171  -1.9794  -1.7748  -1.4712
    -1.3515  -1.2672  -1.2139  -0.9450  -0.7575  -0.4034  -0.3044  -0.1850
     0.2642   0.3239   0.5348   0.5747   0.6754   0.8004   0.8541   0.9028
     1.0040   1.0422   1.1936   1.3974   1.8170   1.9502   2.0109   2.3142
     2.4241   2.7158   2.8965   3.1920   4.5062   5.1129   5.3651   5.4885
     5.6803   5.7329   5.9432   5.9930   6.1350   6.3509   6.4754   6.9527
     7.3575   7.4923

          k = 0.2500 0.0000 0.0000 ( 41623 PWs)   bands (ev):

   -48.2213 -48.1370 -48.0461 -48.0303 -47.9943 -47.9661 -47.9634 -47.9354
   -47.9289 -47.8670 -47.8477 -47.7318 -47.7157 -47.6396 -47.6359 -47.6172
   -47.5213 -47.3365 -21.1306 -18.1569 -17.8981 -17.7779 -17.5512 -17.1990
   -17.1426 -16.9672 -16.9058 -16.8757 -16.8702 -15.6117 -15.3266 -14.6311
    -6.7887  -6.6979  -6.6534  -6.5366  -6.0240  -5.8527  -5.5982  -5.5878
    -5.4280  -5.2062  -5.0437  -4.7460  -4.6667  -4.5140  -4.1730  -3.9627
    -3.9023  -3.8481  -3.7464  -3.7049  -3.2786  -3.1482  -3.0372  -2.6501
    -2.5819  -2.4938  -2.4176  -2.3758  -2.2840  -2.1928  -2.1527  -2.0251
    -1.7944  -1.5114  -1.2210  -1.0917  -0.5135  -0.5059  -0.4699  -0.3699
     0.1079   0.3424   0.5029   0.5329   0.5823   0.8126   1.0654   1.1298
     1.3299   1.4552   1.6233   1.8255   1.8895   1.9567   2.1662   2.2110
     2.3848   2.6751   2.9101   2.9225   4.4088   4.8482   5.0749   5.2981
     5.3372   5.4378   5.5252   5.6511   5.7187   5.9212   6.4648   6.8856
     7.7181   7.8109

          k = 0.2500 0.1240 0.0000 ( 41653 PWs)   bands (ev):

   -48.2214 -48.1370 -48.0454 -48.0303 -47.9951 -47.9661 -47.9634 -47.9343
   -47.9299 -47.8667 -47.8477 -47.7323 -47.7157 -47.6396 -47.6359 -47.6171
   -47.5213 -47.3366 -21.1305 -18.0584 -17.7854 -17.6630 -17.5843 -17.2475
   -17.1645 -17.0599 -17.0288 -17.0156 -16.8411 -15.6106 -15.3258 -14.6304
    -6.6410  -6.3285  -6.3082  -6.2739  -6.0217  -5.8521  -5.5874  -5.4397
    -5.2634  -5.1176  -5.0701  -4.8073  -4.7356  -4.3560  -4.3059  -4.2718
    -4.2204  -4.0933  -3.9488  -3.6260  -3.3339  -3.1393  -3.0094  -2.9502
    -2.8150  -2.7136  -2.6915  -2.6497  -2.4528  -2.2652  -2.0796  -1.8432
    -1.6023  -1.5547  -1.2487  -1.0549  -0.7306  -0.4610  -0.3753  -0.3000
    -0.0482   0.3958   0.6224   0.8152   0.9103   0.9931   1.0668   1.1903
     1.2173   1.5635   1.6694   1.8270   1.9006   1.9939   2.2135   2.2323
     2.3270   2.5287   2.7204   3.0882   4.5181   4.7175   4.7812   4.9136
     4.9378   5.3707   5.6849   5.7648   6.1213   6.2809   6.5863   6.9780
     7.8160   7.8789

          k = 0.2500-0.2479 0.0000 ( 41680 PWs)   bands (ev):

   -48.2214 -48.1370 -48.0446 -48.0303 -47.9957 -47.9661 -47.9634 -47.9332
   -47.9309 -47.8664 -47.8477 -47.7328 -47.7158 -47.6396 -47.6359 -47.6169
   -47.5213 -47.3368 -21.1304 -17.8928 -17.6933 -17.5333 -17.4487 -17.3734
   -17.3515 -17.2463 -17.1166 -17.0559 -16.8388 -15.6096 -15.3250 -14.6298
    -6.6178  -6.0494  -5.8581  -5.6988  -5.6656  -5.6183  -5.5922  -5.1710
    -5.1571  -5.1138  -5.0125  -5.0090  -4.9279  -4.8354  -4.7935  -4.5718
    -4.1920  -3.9753  -3.7808  -3.7082  -3.4890  -3.4547  -3.3443  -3.3027
    -3.0964  -2.9756  -2.9068  -2.7279  -2.7083  -2.3789  -1.9839  -1.4890
    -1.4180  -1.1582  -1.1384  -0.9570  -0.9435  -0.7151  -0.3381  -0.2610
     0.1944   0.3682   0.5700   0.6562   0.8411   1.0264   1.2380   1.3818
     1.4160   1.6700   1.8087   1.9135   1.9164   2.0372   2.2369   2.3405
     2.3580   2.4577   2.5079   3.1718   4.2781   4.3345   4.4610   4.6063
     4.9679   5.4851   5.6901   5.9925   6.2872   6.6703   6.8020   6.9297
     7.9935   8.0494

          k = 0.2500-0.1240 0.0000 ( 41653 PWs)   bands (ev):

   -48.2214 -48.1370 -48.0454 -48.0303 -47.9951 -47.9661 -47.9634 -47.9343
   -47.9299 -47.8667 -47.8477 -47.7323 -47.7157 -47.6396 -47.6359 -47.6171
   -47.5213 -47.3366 -21.1305 -18.0584 -17.7854 -17.6630 -17.5843 -17.2475
   -17.1645 -17.0599 -17.0288 -17.0156 -16.8411 -15.6106 -15.3258 -14.6304
    -6.6410  -6.3285  -6.3082  -6.2739  -6.0217  -5.8521  -5.5874  -5.4397
    -5.2634  -5.1176  -5.0701  -4.8073  -4.7356  -4.3560  -4.3059  -4.2718
    -4.2204  -4.0933  -3.9488  -3.6260  -3.3339  -3.1393  -3.0094  -2.9502
    -2.8150  -2.7136  -2.6915  -2.6497  -2.4528  -2.2652  -2.0796  -1.8432
    -1.6023  -1.5547  -1.2487  -1.0549  -0.7306  -0.4610  -0.3753  -0.3000
    -0.0482   0.3958   0.6224   0.8152   0.9103   0.9931   1.0668   1.1903
     1.2173   1.5635   1.6694   1.8270   1.9006   1.9939   2.2135   2.2323
     2.3270   2.5287   2.7204   3.0882   4.5181   4.7175   4.7812   4.9136
     4.9378   5.3707   5.6849   5.7648   6.1213   6.2809   6.5863   6.9780
     7.8160   7.8789

          k = 0.3750 0.0000 0.0000 ( 41645 PWs)   bands (ev):

   -48.2232 -48.1336 -48.0805 -48.0276 -48.0041 -47.9911 -47.9756 -47.9610
   -47.9241 -47.9054 -47.8418 -47.7531 -47.7266 -47.6565 -47.6372 -47.6303
   -47.5157 -47.3308 -21.0516 -17.7222 -17.5843 -17.4657 -17.4170 -17.2352
   -17.1486 -17.1140 -17.0853 -17.0595 -16.7655 -15.5859 -15.2914 -14.6487
    -6.6902  -6.1653  -6.1156  -6.0743  -5.7943  -5.6274  -5.5337  -5.4295
    -5.3890  -5.3266  -5.1550  -4.8820  -4.8654  -4.7784  -4.6517  -4.4850
    -4.1155  -3.8758  -3.8054  -3.6612  -3.3801  -3.1864  -3.0321  -2.9716
    -2.8349  -2.6708  -2.4622  -2.3260  -2.3163  -2.1466  -1.9636  -1.8122
    -1.7797  -1.6539  -1.0654  -0.9150  -0.5397  -0.5140  -0.2866  -0.2716
    -0.0545   0.5141   0.5579   0.5639   0.6651   0.8986   0.9328   1.3143
     1.4322   1.4754   1.6453   1.6461   1.7798   1.8815   2.1362   2.2413
     2.4600   2.7164   2.7557   2.9044   4.2616   4.3835   4.7907   4.8893
     5.0182   5.2342   5.2608   5.4978   5.8163   5.9196   6.4638   7.0693
     8.3182   8.6093

          k = 0.3750 0.1240 0.0000 ( 41549 PWs)   bands (ev):

   -48.2234 -48.1352 -48.0785 -48.0279 -48.0042 -47.9968 -47.9698 -47.9609
   -47.9259 -47.9037 -47.8418 -47.7532 -47.7267 -47.6561 -47.6372 -47.6303
   -47.5157 -47.3308 -21.0516 -17.6909 -17.5655 -17.4977 -17.4460 -17.2724
   -17.2102 -17.0692 -17.0632 -17.0312 -16.7684 -15.5857 -15.2915 -14.6485
    -6.6833  -6.0380  -6.0037  -5.9558  -5.7933  -5.6631  -5.5800  -5.4932
    -5.4682  -5.3429  -5.3181  -5.1771  -4.7649  -4.5324  -4.4769  -4.2706
    -4.1982  -3.9515  -3.8622  -3.4697  -3.2747  -3.1341  -3.0762  -2.8521
    -2.8197  -2.5723  -2.4692  -2.3969  -2.2522  -2.2147  -2.1266  -1.9205
    -1.5307  -1.4387  -1.3514  -0.9081  -0.8133  -0.5289  -0.3895  -0.2464
    -0.1793   0.3741   0.5610   0.6192   0.7166   0.7735   0.7997   1.0088
     1.0629   1.3263   1.4493   1.5671   1.8762   2.3565   2.4002   2.4345
     2.5710   2.6072   2.7917   2.9391   4.0736   4.1387   4.3175   4.3368
     4.4203   5.2581   5.6055   6.0693   6.4044   6.5370   6.6485   7.1273
     8.4384   8.7127

          k = 0.3750-0.2479 0.0000 ( 41514 PWs)   bands (ev):

   -48.2235 -48.1366 -48.0766 -48.0281 -48.0043 -48.0007 -47.9660 -47.9607
   -47.9275 -47.9023 -47.8418 -47.7533 -47.7267 -47.6557 -47.6372 -47.6303
   -47.5157 -47.3307 -21.0515 -17.6373 -17.5567 -17.5313 -17.4845 -17.2968
   -17.2514 -17.0476 -17.0409 -17.0140 -16.7713 -15.5855 -15.2916 -14.6482
    -6.6801  -5.9094  -5.8335  -5.8203  -5.7111  -5.6456  -5.6157  -5.5868
    -5.5161  -5.5031  -5.4393  -5.3716  -4.8164  -4.5279  -4.2239  -4.0545
    -3.9689  -3.9063  -3.8916  -3.3769  -3.2269  -3.2228  -3.0842  -2.9511
    -2.7036  -2.6685  -2.4803  -2.4703  -2.3684  -2.2908  -1.9494  -1.8270
    -1.4861  -1.4293  -1.1632  -0.9802  -0.7499  -0.6473  -0.6333  -0.4268
    -0.0694   0.0585   0.1327   0.3977   0.6429   0.8661   0.8877   0.9152
     1.1839   1.3238   1.3955   1.4634   1.8407   2.3630   2.4286   2.5656
     2.7340   2.7556   2.8075   3.0752   3.6396   3.6905   3.8711   4.3773
     4.4121   5.2596   5.6844   6.4444   6.5755   6.9657   7.0775   7.1438
     8.6153   8.8218

          k = 0.3750-0.1240 0.0000 ( 41549 PWs)   bands (ev):

   -48.2234 -48.1352 -48.0785 -48.0279 -48.0042 -47.9968 -47.9698 -47.9609
   -47.9259 -47.9037 -47.8418 -47.7532 -47.7267 -47.6561 -47.6372 -47.6303
   -47.5157 -47.3308 -21.0516 -17.6909 -17.5655 -17.4977 -17.4460 -17.2724
   -17.2102 -17.0692 -17.0632 -17.0312 -16.7684 -15.5857 -15.2915 -14.6485
    -6.6833  -6.0380  -6.0037  -5.9558  -5.7933  -5.6631  -5.5800  -5.4932
    -5.4682  -5.3429  -5.3181  -5.1771  -4.7649  -4.5324  -4.4769  -4.2706
    -4.1982  -3.9515  -3.8622  -3.4697  -3.2747  -3.1341  -3.0762  -2.8521
    -2.8197  -2.5723  -2.4692  -2.3969  -2.2522  -2.2147  -2.1266  -1.9205
    -1.5307  -1.4387  -1.3514  -0.9081  -0.8133  -0.5289  -0.3895  -0.2464
    -0.1793   0.3741   0.5610   0.6192   0.7166   0.7735   0.7997   1.0088
     1.0629   1.3263   1.4493   1.5671   1.8762   2.3565   2.4002   2.4345
     2.5710   2.6072   2.7917   2.9391   4.0736   4.1387   4.3175   4.3368
     4.4203   5.2581   5.6055   6.0693   6.4044   6.5370   6.6485   7.1273
     8.4384   8.7127

          k =-0.5000 0.0000 0.0000 ( 41440 PWs)   bands (ev):

   -48.2247 -48.1322 -48.0939 -48.0265 -48.0197 -47.9919 -47.9897 -47.9606
   -47.9221 -47.9208 -47.8394 -47.7685 -47.7245 -47.6726 -47.6363 -47.6279
   -47.5135 -47.3284 -21.0182 -17.5473 -17.4250 -17.3706 -17.3299 -17.2571
   -17.2219 -17.1581 -17.1326 -17.1125 -16.7526 -15.5394 -15.2495 -14.6574
    -6.7358  -6.0664  -5.8496  -5.7695  -5.7421  -5.6000  -5.5877  -5.4918
    -5.3907  -5.3310  -5.2581  -4.9855  -4.9551  -4.8312  -4.6469  -4.5287
    -4.4735  -3.9924  -3.4916  -3.3820  -3.3630  -3.1230  -3.1182  -3.0720
    -2.9983  -2.9754  -2.5664  -2.3187  -2.1834  -2.0537  -1.8269  -1.7179
    -1.6005  -1.0487  -0.9431  -0.9251  -0.8702  -0.4596  -0.3067  -0.2341
     0.1148   0.5085   0.5289   0.5412   0.5636   0.7676   0.8477   0.9486
     1.2234   1.2823   1.4612   1.6403   1.8222   1.9056   1.9926   2.4201
     2.5522   2.5620   2.9242   3.1181   4.1019   4.2721   4.6009   4.7001
     4.8465   5.1658   5.2760   5.6242   5.7897   5.8378   6.5191   7.2115
     8.8474   9.2444

          k =-0.5000 0.1240 0.0000 ( 41518 PWs)   bands (ev):

   -48.2249 -48.1349 -48.0910 -48.0269 -48.0199 -48.0030 -47.9786 -47.9606
   -47.9276 -47.9152 -47.8394 -47.7686 -47.7243 -47.6721 -47.6363 -47.6279
   -47.5135 -47.3283 -21.0181 -17.5451 -17.5299 -17.5030 -17.4931 -17.2430
   -17.1273 -17.0609 -17.0242 -17.0073 -16.7550 -15.5382 -15.2488 -14.6575
    -6.7364  -6.0411  -5.9869  -5.9277  -5.7985  -5.7582  -5.7094  -5.6413
    -5.6016  -5.4728  -5.2975  -5.1009  -4.6786  -4.5728  -4.2901  -4.1235
    -4.0121  -3.6387  -3.4670  -3.4390  -3.4129  -3.3124  -3.1557  -3.1264
    -3.0564  -2.3547  -2.2610  -2.2050  -2.1897  -2.1017  -1.9914  -1.8652
    -1.4036  -1.2932  -0.9355  -0.8471  -0.8319  -0.7048  -0.5283  -0.2741
    -0.0104   0.3429   0.5032   0.5262   0.5355   0.5886   0.6320   0.7683
     0.8867   0.9127   0.9776   1.1887   1.8423   2.4929   2.5519   2.5961
     2.6542   2.7714   2.8505   3.0453   3.8617   3.9055   4.1123   4.1596
     4.3011   5.1682   5.7375   6.2178   6.5336   6.5921   6.6739   7.2548
     8.9243   9.4008

          k =-0.5000-0.2479 0.0000 ( 41524 PWs)   bands (ev):

   -48.2252 -48.1372 -48.0884 -48.0273 -48.0200 -48.0080 -47.9736 -47.9606
   -47.9302 -47.9127 -47.8394 -47.7687 -47.7242 -47.6717 -47.6363 -47.6279
   -47.5135 -47.3282 -21.0181 -17.5970 -17.5878 -17.5765 -17.5426 -17.2234
   -17.1471 -16.9763 -16.9402 -16.9211 -16.7573 -15.5371 -15.2481 -14.6576
    -6.7376  -6.2389  -6.1586  -6.0314  -5.8691  -5.7853  -5.6769  -5.5880
    -5.5727  -5.5040  -5.3346  -5.1057  -4.7919  -4.6975  -4.1962  -3.5446
    -3.4593  -3.4577  -3.4398  -3.3759  -3.2150  -3.1621  -3.1083  -2.9416
    -2.7989  -2.7388  -2.4544  -2.2618  -2.0989  -2.0536  -1.8175  -1.7431
    -1.2940  -1.2346  -1.1949  -0.8665  -0.8139  -0.7812  -0.6601  -0.4345
    -0.3046  -0.1464   0.1367   0.2132   0.5351   0.5511   0.5644   0.6082
     0.7684   0.9082   0.9551   1.0782   1.8327   2.5159   2.5627   2.6594
     2.9040   2.9852   2.9852   3.0617   3.4510   3.4981   3.7037   4.2022
     4.3253   5.1704   5.7907   6.6569   6.7223   7.0599   7.2087   7.2861
     9.0138   9.5604

          k =-0.5000-0.1240 0.0000 ( 41518 PWs)   bands (ev):

   -48.2249 -48.1349 -48.0910 -48.0269 -48.0199 -48.0030 -47.9786 -47.9606
   -47.9276 -47.9152 -47.8394 -47.7686 -47.7243 -47.6721 -47.6363 -47.6279
   -47.5135 -47.3283 -21.0181 -17.5451 -17.5299 -17.5030 -17.4931 -17.2430
   -17.1273 -17.0609 -17.0242 -17.0073 -16.7550 -15.5382 -15.2488 -14.6575
    -6.7364  -6.0411  -5.9869  -5.9277  -5.7985  -5.7582  -5.7094  -5.6413
    -5.6016  -5.4728  -5.2975  -5.1009  -4.6786  -4.5728  -4.2901  -4.1235
    -4.0121  -3.6387  -3.4670  -3.4390  -3.4129  -3.3124  -3.1557  -3.1264
    -3.0564  -2.3547  -2.2610  -2.2050  -2.1897  -2.1017  -1.9914  -1.8652
    -1.4036  -1.2932  -0.9355  -0.8471  -0.8319  -0.7048  -0.5283  -0.2741
    -0.0104   0.3429   0.5032   0.5262   0.5355   0.5886   0.6320   0.7683
     0.8867   0.9127   0.9776   1.1887   1.8423   2.4929   2.5519   2.5961
     2.6542   2.7714   2.8505   3.0453   3.8617   3.9055   4.1123   4.1596
     4.3011   5.1682   5.7375   6.2178   6.5336   6.5921   6.6739   7.2548
     8.9243   9.4008

          k =-0.3750 0.0000 0.0000 ( 41645 PWs)   bands (ev):

   -48.2232 -48.1336 -48.0805 -48.0276 -48.0041 -47.9911 -47.9756 -47.9610
   -47.9241 -47.9054 -47.8418 -47.7531 -47.7266 -47.6565 -47.6372 -47.6303
   -47.5157 -47.3308 -21.0516 -17.7222 -17.5843 -17.4657 -17.4170 -17.2352
   -17.1486 -17.1140 -17.0853 -17.0595 -16.7655 -15.5859 -15.2914 -14.6487
    -6.6902  -6.1653  -6.1156  -6.0743  -5.7943  -5.6274  -5.5337  -5.4295
    -5.3890  -5.3266  -5.1550  -4.8820  -4.8654  -4.7784  -4.6517  -4.4850
    -4.1155  -3.8758  -3.8054  -3.6612  -3.3801  -3.1864  -3.0321  -2.9716
    -2.8349  -2.6708  -2.4622  -2.3260  -2.3163  -2.1466  -1.9636  -1.8122
    -1.7797  -1.6539  -1.0654  -0.9150  -0.5397  -0.5140  -0.2866  -0.2716
    -0.0545   0.5141   0.5579   0.5639   0.6651   0.8986   0.9328   1.3143
     1.4322   1.4754   1.6453   1.6461   1.7798   1.8815   2.1362   2.2413
     2.4600   2.7164   2.7557   2.9044   4.2616   4.3835   4.7907   4.8893
     5.0182   5.2342   5.2608   5.4978   5.8163   5.9196   6.4638   7.0693
     8.3182   8.6093

          k =-0.3750 0.1240 0.0000 ( 41549 PWs)   bands (ev):

   -48.2234 -48.1352 -48.0785 -48.0279 -48.0042 -47.9968 -47.9698 -47.9609
   -47.9259 -47.9037 -47.8418 -47.7532 -47.7267 -47.6561 -47.6372 -47.6303
   -47.5157 -47.3308 -21.0516 -17.6909 -17.5655 -17.4977 -17.4460 -17.2724
   -17.2102 -17.0692 -17.0632 -17.0312 -16.7684 -15.5857 -15.2915 -14.6485
    -6.6833  -6.0380  -6.0037  -5.9558  -5.7933  -5.6631  -5.5800  -5.4932
    -5.4682  -5.3429  -5.3181  -5.1771  -4.7649  -4.5324  -4.4769  -4.2706
    -4.1982  -3.9515  -3.8622  -3.4697  -3.2747  -3.1341  -3.0762  -2.8521
    -2.8197  -2.5723  -2.4692  -2.3969  -2.2522  -2.2147  -2.1266  -1.9205
    -1.5307  -1.4387  -1.3514  -0.9081  -0.8133  -0.5289  -0.3895  -0.2464
    -0.1793   0.3741   0.5610   0.6192   0.7166   0.7735   0.7997   1.0088
     1.0629   1.3263   1.4493   1.5671   1.8762   2.3565   2.4002   2.4345
     2.5710   2.6072   2.7917   2.9391   4.0736   4.1387   4.3175   4.3368
     4.4203   5.2581   5.6055   6.0693   6.4044   6.5370   6.6485   7.1273
     8.4384   8.7127

          k =-0.3750-0.2479 0.0000 ( 41514 PWs)   bands (ev):

   -48.2235 -48.1366 -48.0766 -48.0281 -48.0043 -48.0007 -47.9660 -47.9607
   -47.9275 -47.9023 -47.8418 -47.7533 -47.7267 -47.6557 -47.6372 -47.6303
   -47.5157 -47.3307 -21.0515 -17.6373 -17.5567 -17.5313 -17.4845 -17.2968
   -17.2514 -17.0476 -17.0409 -17.0140 -16.7713 -15.5855 -15.2916 -14.6482
    -6.6801  -5.9094  -5.8335  -5.8203  -5.7111  -5.6456  -5.6157  -5.5868
    -5.5161  -5.5031  -5.4393  -5.3716  -4.8164  -4.5279  -4.2239  -4.0545
    -3.9689  -3.9063  -3.8916  -3.3769  -3.2269  -3.2228  -3.0842  -2.9511
    -2.7036  -2.6685  -2.4803  -2.4703  -2.3684  -2.2908  -1.9494  -1.8270
    -1.4861  -1.4293  -1.1632  -0.9802  -0.7499  -0.6473  -0.6333  -0.4268
    -0.0694   0.0585   0.1327   0.3977   0.6429   0.8661   0.8877   0.9152
     1.1839   1.3238   1.3955   1.4634   1.8407   2.3630   2.4286   2.5656
     2.7340   2.7556   2.8075   3.0752   3.6396   3.6905   3.8711   4.3773
     4.4121   5.2596   5.6844   6.4444   6.5755   6.9657   7.0775   7.1438
     8.6153   8.8218

          k =-0.3750-0.1240 0.0000 ( 41549 PWs)   bands (ev):

   -48.2234 -48.1352 -48.0785 -48.0279 -48.0042 -47.9968 -47.9698 -47.9609
   -47.9259 -47.9037 -47.8418 -47.7532 -47.7267 -47.6561 -47.6372 -47.6303
   -47.5157 -47.3308 -21.0516 -17.6909 -17.5655 -17.4977 -17.4460 -17.2724
   -17.2102 -17.0692 -17.0632 -17.0312 -16.7684 -15.5857 -15.2915 -14.6485
    -6.6833  -6.0380  -6.0037  -5.9558  -5.7933  -5.6631  -5.5800  -5.4932
    -5.4682  -5.3429  -5.3181  -5.1771  -4.7649  -4.5324  -4.4769  -4.2706
    -4.1982  -3.9515  -3.8622  -3.4697  -3.2747  -3.1341  -3.0762  -2.8521
    -2.8197  -2.5723  -2.4692  -2.3969  -2.2522  -2.2147  -2.1266  -1.9205
    -1.5307  -1.4387  -1.3514  -0.9081  -0.8133  -0.5289  -0.3895  -0.2464
    -0.1793   0.3741   0.5610   0.6192   0.7166   0.7735   0.7997   1.0088
     1.0629   1.3263   1.4493   1.5671   1.8762   2.3565   2.4002   2.4345
     2.5710   2.6072   2.7917   2.9391   4.0736   4.1387   4.3175   4.3368
     4.4203   5.2581   5.6055   6.0693   6.4044   6.5370   6.6485   7.1273
     8.4384   8.7127

          k =-0.2500 0.0000 0.0000 ( 41623 PWs)   bands (ev):

   -48.2213 -48.1370 -48.0461 -48.0303 -47.9943 -47.9661 -47.9634 -47.9354
   -47.9289 -47.8670 -47.8477 -47.7318 -47.7157 -47.6396 -47.6359 -47.6172
   -47.5213 -47.3365 -21.1306 -18.1569 -17.8981 -17.7779 -17.5512 -17.1990
   -17.1426 -16.9672 -16.9058 -16.8757 -16.8702 -15.6117 -15.3266 -14.6311
    -6.7887  -6.6979  -6.6534  -6.5366  -6.0240  -5.8527  -5.5982  -5.5878
    -5.4280  -5.2062  -5.0437  -4.7460  -4.6667  -4.5140  -4.1730  -3.9627
    -3.9023  -3.8481  -3.7464  -3.7049  -3.2786  -3.1482  -3.0372  -2.6501
    -2.5819  -2.4938  -2.4176  -2.3758  -2.2840  -2.1928  -2.1527  -2.0251
    -1.7944  -1.5114  -1.2210  -1.0917  -0.5135  -0.5059  -0.4699  -0.3699
     0.1079   0.3424   0.5029   0.5329   0.5823   0.8126   1.0654   1.1298
     1.3299   1.4552   1.6233   1.8255   1.8895   1.9567   2.1662   2.2110
     2.3848   2.6751   2.9101   2.9225   4.4088   4.8482   5.0749   5.2981
     5.3372   5.4378   5.5252   5.6511   5.7187   5.9212   6.4648   6.8856
     7.7181   7.8109

          k =-0.2500 0.1240 0.0000 ( 41653 PWs)   bands (ev):

   -48.2214 -48.1370 -48.0454 -48.0303 -47.9951 -47.9661 -47.9634 -47.9343
   -47.9299 -47.8667 -47.8477 -47.7323 -47.7157 -47.6396 -47.6359 -47.6171
   -47.5213 -47.3366 -21.1305 -18.0584 -17.7854 -17.6630 -17.5843 -17.2475
   -17.1645 -17.0599 -17.0288 -17.0156 -16.8411 -15.6106 -15.3258 -14.6304
    -6.6410  -6.3285  -6.3082  -6.2739  -6.0217  -5.8521  -5.5874  -5.4397
    -5.2634  -5.1176  -5.0701  -4.8073  -4.7356  -4.3560  -4.3059  -4.2718
    -4.2204  -4.0933  -3.9488  -3.6260  -3.3339  -3.1393  -3.0094  -2.9502
    -2.8150  -2.7136  -2.6915  -2.6497  -2.4528  -2.2652  -2.0796  -1.8432
    -1.6023  -1.5547  -1.2487  -1.0549  -0.7306  -0.4610  -0.3753  -0.3000
    -0.0482   0.3958   0.6224   0.8152   0.9103   0.9931   1.0668   1.1903
     1.2173   1.5635   1.6694   1.8270   1.9006   1.9939   2.2135   2.2323
     2.3270   2.5287   2.7204   3.0882   4.5181   4.7175   4.7812   4.9136
     4.9378   5.3707   5.6849   5.7648   6.1213   6.2809   6.5863   6.9780
     7.8160   7.8789

          k =-0.2500-0.2479 0.0000 ( 41680 PWs)   bands (ev):

   -48.2214 -48.1370 -48.0446 -48.0303 -47.9957 -47.9661 -47.9634 -47.9332
   -47.9309 -47.8664 -47.8477 -47.7328 -47.7158 -47.6396 -47.6359 -47.6169
   -47.5213 -47.3368 -21.1304 -17.8928 -17.6933 -17.5333 -17.4487 -17.3734
   -17.3515 -17.2463 -17.1166 -17.0559 -16.8388 -15.6096 -15.3250 -14.6298
    -6.6178  -6.0494  -5.8581  -5.6988  -5.6656  -5.6183  -5.5922  -5.1710
    -5.1571  -5.1138  -5.0125  -5.0090  -4.9279  -4.8354  -4.7935  -4.5718
    -4.1920  -3.9753  -3.7808  -3.7082  -3.4890  -3.4547  -3.3443  -3.3027
    -3.0964  -2.9756  -2.9068  -2.7279  -2.7083  -2.3789  -1.9839  -1.4890
    -1.4180  -1.1582  -1.1384  -0.9570  -0.9435  -0.7151  -0.3381  -0.2610
     0.1944   0.3682   0.5700   0.6562   0.8411   1.0264   1.2380   1.3818
     1.4160   1.6700   1.8087   1.9135   1.9164   2.0372   2.2369   2.3405
     2.3580   2.4577   2.5079   3.1718   4.2781   4.3345   4.4610   4.6063
     4.9679   5.4851   5.6901   5.9925   6.2872   6.6703   6.8020   6.9297
     7.9935   8.0494

          k =-0.2500-0.1240 0.0000 ( 41653 PWs)   bands (ev):

   -48.2214 -48.1370 -48.0454 -48.0303 -47.9951 -47.9661 -47.9634 -47.9343
   -47.9299 -47.8667 -47.8477 -47.7323 -47.7157 -47.6396 -47.6359 -47.6171
   -47.5213 -47.3366 -21.1305 -18.0584 -17.7854 -17.6630 -17.5843 -17.2475
   -17.1645 -17.0599 -17.0288 -17.0156 -16.8411 -15.6106 -15.3258 -14.6304
    -6.6410  -6.3285  -6.3082  -6.2739  -6.0217  -5.8521  -5.5874  -5.4397
    -5.2634  -5.1176  -5.0701  -4.8073  -4.7356  -4.3560  -4.3059  -4.2718
    -4.2204  -4.0933  -3.9488  -3.6260  -3.3339  -3.1393  -3.0094  -2.9502
    -2.8150  -2.7136  -2.6915  -2.6497  -2.4528  -2.2652  -2.0796  -1.8432
    -1.6023  -1.5547  -1.2487  -1.0549  -0.7306  -0.4610  -0.3753  -0.3000
    -0.0482   0.3958   0.6224   0.8152   0.9103   0.9931   1.0668   1.1903
     1.2173   1.5635   1.6694   1.8270   1.9006   1.9939   2.2135   2.2323
     2.3270   2.5287   2.7204   3.0882   4.5181   4.7175   4.7812   4.9136
     4.9378   5.3707   5.6849   5.7648   6.1213   6.2809   6.5863   6.9780
     7.8160   7.8789

          k =-0.1250 0.0000 0.0000 ( 41611 PWs)   bands (ev):

   -48.2210 -48.1404 -48.0330 -48.0100 -47.9976 -47.9658 -47.9337 -47.9278
   -47.8955 -47.8535 -47.8281 -47.7370 -47.6780 -47.6420 -47.6416 -47.5778
   -47.5268 -47.3421 -21.2074 -18.5228 -18.2049 -18.0747 -17.7882 -17.2722
   -17.0507 -17.0447 -16.7793 -16.7202 -16.6810 -15.5378 -15.2762 -14.6182
    -7.2186  -7.1861  -7.1310  -6.7761  -6.1576  -6.0453  -5.6931  -5.6043
    -5.5638  -5.4160  -5.0847  -5.0177  -4.5545  -4.4864  -4.4219  -4.3607
    -3.6090  -3.4577  -3.3025  -2.8204  -2.7511  -2.7372  -2.6612  -2.5801
    -2.5504  -2.5061  -2.2484  -2.0633  -1.8260  -1.7847  -1.6585  -1.6413
    -1.4299  -1.3867  -1.2880  -1.2003  -0.8704  -0.6800  -0.1928  -0.1574
     0.0831   0.1333   0.1682   0.3206   0.4101   0.4285   0.5872   0.8290
     0.9486   0.9718   1.0116   1.3199   1.8129   1.9039   2.0189   2.3723
     2.5684   2.7770   3.0149   3.3428   4.1138   4.7659   5.2327   5.3410
     5.7550   5.9614   6.0475   6.1695   6.2069   6.2713   6.4762   6.8250
     7.3211   7.5997

          k =-0.1250 0.1240 0.0000 ( 41692 PWs)   bands (ev):

   -48.2210 -48.1395 -48.0328 -48.0098 -47.9969 -47.9658 -47.9349 -47.9276
   -47.8955 -47.8535 -47.8280 -47.7379 -47.6780 -47.6420 -47.6416 -47.5778
   -47.5268 -47.3425 -21.2071 -18.4011 -18.0617 -17.9447 -17.8219 -17.3078
   -17.1745 -17.0363 -16.8994 -16.8674 -16.8104 -15.5348 -15.2734 -14.6173
    -6.8358  -6.7052  -6.6689  -6.6170  -6.1541  -6.0463  -5.5973  -5.5687
    -5.5090  -5.3187  -5.1737  -4.7493  -4.5581  -4.4861  -4.4262  -4.2421
    -3.6452  -3.5129  -3.4492  -3.4190  -3.2660  -3.1391  -3.1049  -3.0022
    -2.9537  -2.8819  -2.5951  -2.4621  -2.2171  -1.9794  -1.7748  -1.4712
    -1.3515  -1.2672  -1.2139  -0.9450  -0.7575  -0.4034  -0.3044  -0.1850
     0.2642   0.3239   0.5348   0.5747   0.6754   0.8004   0.8541   0.9028
     1.0040   1.0422   1.1936   1.3974   1.8170   1.9502   2.0109   2.3142
     2.4241   2.7158   2.8965   3.1920   4.5062   5.1129   5.3651   5.4885
     5.6803   5.7329   5.9432   5.9930   6.1350   6.3509   6.4754   6.9527
     7.3575   7.4923

          k =-0.1250-0.2479 0.0000 ( 41706 PWs)   bands (ev):

   -48.2210 -48.1385 -48.0325 -48.0096 -47.9962 -47.9658 -47.9362 -47.9275
   -47.8954 -47.8535 -47.8280 -47.7388 -47.6779 -47.6420 -47.6416 -47.5778
   -47.5268 -47.3429 -21.2069 -18.1935 -17.9954 -17.8047 -17.6118 -17.4751
   -17.4437 -17.1014 -17.0066 -17.0007 -16.8720 -15.5323 -15.2710 -14.6166
    -6.7972  -6.2106  -6.0474  -5.7964  -5.7358  -5.6357  -5.6278  -5.6077
    -5.5543  -5.4641  -5.1895  -4.5642  -4.4940  -4.4583  -4.2848  -4.2151
    -4.0905  -4.0442  -4.0018  -3.9314  -3.8927  -3.6734  -3.5608  -3.4582
    -3.3083  -2.8927  -2.8268  -2.6729  -2.3616  -2.0409  -1.7760  -1.3553
    -1.2274  -1.0206  -0.9915  -0.8227  -0.6565  -0.4857  -0.2556  -0.1997
     0.2825   0.5551   0.5636   0.6476   0.7350   0.8201   0.9406   1.0944
     1.3845   1.4346   1.6221   1.6242   1.8274   1.8298   2.0635   2.2048
     2.3181   2.6324   2.6649   3.1584   4.8770   5.1602   5.2648   5.3226
     5.3889   5.5585   6.0914   6.1414   6.3725   6.4891   6.5346   6.8670
     7.4578   7.6594

          k =-0.1250-0.1240 0.0000 ( 41692 PWs)   bands (ev):

   -48.2210 -48.1395 -48.0328 -48.0098 -47.9969 -47.9658 -47.9349 -47.9276
   -47.8955 -47.8535 -47.8280 -47.7379 -47.6780 -47.6420 -47.6416 -47.5778
   -47.5268 -47.3425 -21.2071 -18.4011 -18.0617 -17.9447 -17.8219 -17.3078
   -17.1745 -17.0363 -16.8994 -16.8674 -16.8104 -15.5348 -15.2734 -14.6173
    -6.8358  -6.7052  -6.6689  -6.6170  -6.1541  -6.0463  -5.5973  -5.5687
    -5.5090  -5.3187  -5.1737  -4.7493  -4.5581  -4.4861  -4.4262  -4.2421
    -3.6452  -3.5129  -3.4492  -3.4190  -3.2660  -3.1391  -3.1049  -3.0022
    -2.9537  -2.8819  -2.5951  -2.4621  -2.2171  -1.9794  -1.7748  -1.4712
    -1.3515  -1.2672  -1.2139  -0.9450  -0.7575  -0.4034  -0.3044  -0.1850
     0.2642   0.3239   0.5348   0.5747   0.6754   0.8004   0.8541   0.9028
     1.0040   1.0422   1.1936   1.3974   1.8170   1.9502   2.0109   2.3142
     2.4241   2.7158   2.8965   3.1920   4.5062   5.1129   5.3651   5.4885
     5.6803   5.7329   5.9432   5.9930   6.1350   6.3509   6.4754   6.9527
     7.3575   7.4923

     the Fermi energy is     2.3888 ev

!    total energy              =   -1674.09163567 Ry
     estimated scf accuracy    <          7.9E-11 Ry
     smearing contrib. (-TS)   =      -0.00220856 Ry
     internal energy E=F+TS    =   -1674.08942711 Ry

     The total energy is F=E-TS. E is the sum of the following terms:
     one-electron contribution =  -15403.37890437 Ry
     hartree contribution      =    7753.74375556 Ry
     xc contribution           =    -405.85811592 Ry
     ewald contribution        =    6514.67529499 Ry
     one-center paw contrib.   =    -133.27145737 Ry

     convergence has been achieved in  30 iterations

     negative rho (up, down):  1.909E+00 0.000E+00

     Forces acting on atoms (cartesian axes, Ry/au):

     atom    1 type  2   force =    -0.00006871   -0.00000001    0.03848544
     atom    2 type  2   force =     0.00019747    0.00000000   -0.03906450
     atom    3 type  2   force =     0.00051268   -0.00000001   -0.00037642
     atom    4 type  2   force =     0.00077885    0.00000001   -0.00015051
     atom    5 type  2   force =     0.00058211    0.00000000   -0.00138623
     atom    6 type  2   force =    -0.00019733    0.00000000    0.00063290
     atom    7 type  3   force =    -0.00107165    0.00000000   -0.00202232
     atom    8 type  3   force =     0.00008408    0.00000000    0.03277578
     atom    9 type  3   force =     0.00014740    0.02166155   -0.02533222
     atom   10 type  3   force =     0.00014740   -0.02166154   -0.02533223
     atom   11 type  3   force =     0.00084775    0.00000000    0.00016537
     atom   12 type  3   force =    -0.00192609    0.00000000    0.01965806
     atom   13 type  3   force =     0.00064387    0.00082316    0.00058579
     atom   14 type  3   force =     0.00064387   -0.00082315    0.00058579
     atom   15 type  3   force =    -0.00117174    0.00000000    0.00112745
     atom   16 type  3   force =     0.00057889   -0.00000001   -0.00020771
     atom   17 type  3   force =    -0.00008757    0.00054825   -0.00048045
     atom   18 type  3   force =    -0.00008757   -0.00054826   -0.00048046
     atom   19 type  3   force =    -0.00436317    0.00000000   -0.00094140
     atom   20 type  3   force =     0.01405574   -0.00000000   -0.00535592
     atom   21 type  1   force =    -0.01024627   -0.00000000    0.00711378

     Total force =     0.020328     Total SCF correction =     0.000011

     Writing all to output data dir ./tmp_s0_OOH__hess_a20xm/s0_OOH__hess_a20xm.save/ :
     XML data file, charge density, pseudopotentials, collected wavefunctions

     init_run     :      9.65s CPU     10.24s WALL (       1 calls)
     electrons    :    598.52s CPU    628.95s WALL (       1 calls)
     forces       :      3.55s CPU      3.78s WALL (       1 calls)

     Called by init_run:
     wfcinit      :      7.29s CPU      7.64s WALL (       1 calls)
     potinit      :      0.98s CPU      1.04s WALL (       1 calls)
     hinit0       :      0.69s CPU      0.72s WALL (       1 calls)

     Called by electrons:
     c_bands      :    463.19s CPU    482.05s WALL (      30 calls)
     sum_band     :     92.06s CPU     98.92s WALL (      30 calls)
     v_of_rho     :     10.67s CPU     11.16s WALL (      31 calls)
     newd         :      8.74s CPU     12.12s WALL (      31 calls)
     PAW_pot      :      2.61s CPU      2.61s WALL (      31 calls)
     mix_rho      :     20.60s CPU     21.53s WALL (      30 calls)

     Called by c_bands:
     init_us_2    :     13.10s CPU     13.14s WALL (     496 calls)
     cegterg      :    432.52s CPU    451.28s WALL (     240 calls)

     Called by *egterg:
     cdiaghg      :     21.31s CPU     21.32s WALL (    1574 calls)
     h_psi        :    285.69s CPU    300.40s WALL (    1582 calls)
     s_psi        :     28.69s CPU     28.71s WALL (    1582 calls)
     g_psi        :      3.19s CPU      3.19s WALL (    1334 calls)

     Called by h_psi:
     h_psi:calbec :     31.18s CPU     31.46s WALL (    1582 calls)
     vloc_psi     :    222.53s CPU    234.10s WALL (    1582 calls)
                                        0.00s GPU  (    1582 calls)
     add_vuspsi   :     29.92s CPU     29.94s WALL (    1582 calls)

     General routines
     calbec       :     45.05s CPU     45.46s WALL (    1854 calls)
     fft          :      7.64s CPU      8.24s WALL (     412 calls)
     ffts         :      8.80s CPU      9.68s WALL (    3628 calls)
     fftw         :    227.15s CPU    239.30s WALL (  136422 calls)
     interpolate  :      1.22s CPU      1.28s WALL (      31 calls)

     Parallel routines

     PWSCF        :  10m12.37s CPU  10m44.01s WALL


   This run was terminated on:   1: 9:11  10Aug2026            

=------------------------------------------------------------------------------=
   JOB DONE.
=------------------------------------------------------------------------------=
