
     Program PWSCF v.7.5 starts on  1Sep2026 at  4:26:24 

     This program is part of the open-source Quantum ESPRESSO suite
     for quantum simulation of materials; please cite
         "P. Giannozzi et al., J. Phys.:Condens. Matter 21 395502 (2009);
         "P. Giannozzi et al., J. Phys.:Condens. Matter 29 465901 (2017);
         "P. Giannozzi et al., J. Chem. Phys. 152 154105 (2020);
          URL http://www.quantum-espresso.org", 
     in publications or presentations arising from this work. More details at
     http://www.quantum-espresso.org/quote

     Parallel version (MPI & OpenMP), running on     128 processor cores
     Number of MPI processes:               128
     Threads/MPI process:                     1

     MPI processes distributed on     1 nodes
     228802 MiB available memory on the printing compute node when the environment starts

     Reading input from s0_OH__u000__sp2m030.run.in

     Current dimensions of program PWSCF are:
     Max number of different atomic species (ntypx) = 10
     Max number of k-points (npk) =  40000
     Max angular momentum in pseudopotentials (lmaxx) =  4
     file Fe.pbe-spn-kjpaw_psl.0.2.1.UPF: wavefunction(s)  3D renormalized
     file O.pbe-n-kjpaw_psl.0.1.UPF: wavefunction(s)  2P renormalized

     K-points division:     npool     =       4
     R & G space division:  proc/nbgrp/npool/nimage =      32
     Subspace diagonalization in iterative solution of the eigenvalue problem:
     a serial algorithm will be used


     Parallelization info
     --------------------
     sticks:   dense  smooth     PW     G-vecs:    dense   smooth      PW
     Min         108      54     15                28014     9900    1507
     Max         109      55     16                28043     9911    1522
     Sum        3469    1737    497               896767   316913   48471

     Using Slab Decomposition



     bravais-lattice index     =            0
     lattice parameter (alat)  =       5.6692  a.u.
     unit-cell volume          =    3279.6906 (a.u.)^3
     number of atoms/cell      =           20
     number of atomic types    =            3
     number of electrons       =       175.00
     number of Kohn-Sham states=          106
     kinetic-energy cutoff     =      80.0000  Ry
     charge density cutoff     =     640.0000  Ry
     scf convergence threshold =      1.0E-06
     mixing beta               =       0.3000
     number of iterations used =            8  local-TF  mixing
     Exchange-correlation= SLA  PW   PBX  PBC
                           (   1   4   3   4   0   0   0)

     celldm(1)=   5.669178  celldm(2)=   0.000000  celldm(3)=   0.000000
     celldm(4)=   0.000000  celldm(5)=   0.000000  celldm(6)=   0.000000

     crystal axes: (cart. coord. in units of alat)
               a(1) = (   1.000000   0.000000   0.000000 )  
               a(2) = (   0.000000   2.121320   0.000000 )  
               a(3) = (   0.000000   0.000000   8.485281 )  

     reciprocal axes: (cart. coord. in units 2 pi/alat)
               b(1) = (  1.000000  0.000000  0.000000 )  
               b(2) = (  0.000000  0.471405  0.000000 )  
               b(3) = (  0.000000  0.000000  0.117851 )  


     PseudoPot. # 1 for Fe read from file:
     /anvil/projects/x-che260157/pseudo/Fe.pbe-spn-kjpaw_psl.0.2.1.UPF
     MD5 check sum: e86618425769142926afa95317d90200
     Pseudo is Projector augmented-wave + core cor, Zval = 16.0
     Generated using "atomic" code by A. Dal Corso  v.5.0.99 svn rev. 10869
     Shape of augmentation charge: PSQ
     Using radial grid of 1191 points,  6 beta functions with: 
                l(1) =   0
                l(2) =   0
                l(3) =   1
                l(4) =   1
                l(5) =   2
                l(6) =   2
     Q(r) pseudized with 0 coefficients 


     PseudoPot. # 2 for H  read from file:
     /anvil/projects/x-che260157/pseudo/H.pbe-rrkjus_psl.1.0.0.UPF
     MD5 check sum: f52b6d4d1c606e5624b1dc7b2218f220
     Pseudo is Ultrasoft, Zval =  1.0
     Generated using "atomic" code by A. Dal Corso  v.5.1
     Using radial grid of  929 points,  2 beta functions with: 
                l(1) =   0
                l(2) =   0
     Q(r) pseudized with 0 coefficients 


     PseudoPot. # 3 for O  read from file:
     /anvil/projects/x-che260157/pseudo/O.pbe-n-kjpaw_psl.0.1.UPF
     MD5 check sum: 0234752ac141de4415c5fc33072bef88
     Pseudo is Projector augmented-wave + core cor, Zval =  6.0
     Generated using "atomic" code by A. Dal Corso  v.5.0.99 svn rev. 10869
     Shape of augmentation charge: BESSEL
     Using radial grid of 1095 points,  4 beta functions with: 
                l(1) =   0
                l(2) =   0
                l(3) =   1
                l(4) =   1
     Q(r) pseudized with 0 coefficients 


     atomic species   valence    mass     pseudopotential
     Fe               16.00    55.84500     Fe( 1.00)
     H                 1.00     1.00800     H ( 1.00)
     O                 6.00    15.99900     O ( 1.00)

     Starting magnetic structure 
     atomic species   magnetization
     Fe              0.300
     H               0.000
     O               0.000

     No symmetry found



   Cartesian axes

     site n.     atom                  positions (alat units)
         1        Fe     tau(   1) = (   0.0000000   1.5909903   3.1819805  )
         2        Fe     tau(   2) = (   0.5000000   0.5303301   3.1819805  )
         3        Fe     tau(   3) = (  -0.0011543   0.5302874   4.2603477  )
         4        Fe     tau(   4) = (   0.4974350   1.5909450   4.2525979  )
         5        Fe     tau(   5) = (   0.0000873   1.5910939   5.3411536  )
         6        Fe     tau(   6) = (   0.4953664   0.5304022   5.3331882  )
         7        O      tau(   7) = (   0.0000000   0.5303301   3.5956380  )
         8        O      tau(   8) = (   0.0000000   0.5303301   2.7683231  )
         9        O      tau(   9) = (   0.5000000   1.1773328   3.1819805  )
        10        O      tau(  10) = (   0.5000000   2.0046477   3.1819805  )
        11        O      tau(  11) = (  -0.0039000   1.5909754   4.6715201  )
        12        O      tau(  12) = (   0.0000000   1.5909903   3.8289832  )
        13        O      tau(  13) = (   0.4986689   0.1247052   4.2572164  )
        14        O      tau(  14) = (   0.4986699   0.9358754   4.2572062  )
        15        O      tau(  15) = (  -0.0046650   0.5302956   5.7109953  )
        16        O      tau(  16) = (  -0.0040698   0.5305693   4.9171029  )
        17        O      tau(  17) = (   0.4972541   1.1874945   5.3174043  )
        18        O      tau(  18) = (   0.4972872   1.9946742   5.3171247  )
        19        O      tau(  19) = (  -0.0187731   1.5913708   5.9573346  )
        20        H      tau(  20) = (   0.2895620   1.5904433   6.0702312  )

     number of k points=    32  Marzari-Vanderbilt smearing, width (Ry)=  0.0100
                       cart. coord. in units 2pi/alat
        k(    1) = (   0.0000000   0.0000000   0.0000000), wk =   0.0312500
        k(    2) = (   0.0000000   0.1178511   0.0000000), wk =   0.0312500
        k(    3) = (   0.0000000  -0.2357023   0.0000000), wk =   0.0312500
        k(    4) = (   0.0000000  -0.1178511   0.0000000), wk =   0.0312500
        k(    5) = (   0.1250000   0.0000000   0.0000000), wk =   0.0312500
        k(    6) = (   0.1250000   0.1178511   0.0000000), wk =   0.0312500
        k(    7) = (   0.1250000  -0.2357023   0.0000000), wk =   0.0312500
        k(    8) = (   0.1250000  -0.1178511   0.0000000), wk =   0.0312500
        k(    9) = (   0.2500000   0.0000000   0.0000000), wk =   0.0312500
        k(   10) = (   0.2500000   0.1178511   0.0000000), wk =   0.0312500
        k(   11) = (   0.2500000  -0.2357023   0.0000000), wk =   0.0312500
        k(   12) = (   0.2500000  -0.1178511   0.0000000), wk =   0.0312500
        k(   13) = (   0.3750000   0.0000000   0.0000000), wk =   0.0312500
        k(   14) = (   0.3750000   0.1178511   0.0000000), wk =   0.0312500
        k(   15) = (   0.3750000  -0.2357023   0.0000000), wk =   0.0312500
        k(   16) = (   0.3750000  -0.1178511   0.0000000), wk =   0.0312500
        k(   17) = (  -0.5000000   0.0000000   0.0000000), wk =   0.0312500
        k(   18) = (  -0.5000000   0.1178511   0.0000000), wk =   0.0312500
        k(   19) = (  -0.5000000  -0.2357023   0.0000000), wk =   0.0312500
        k(   20) = (  -0.5000000  -0.1178511   0.0000000), wk =   0.0312500
        k(   21) = (  -0.3750000   0.0000000   0.0000000), wk =   0.0312500
        k(   22) = (  -0.3750000   0.1178511   0.0000000), wk =   0.0312500
        k(   23) = (  -0.3750000  -0.2357023   0.0000000), wk =   0.0312500
        k(   24) = (  -0.3750000  -0.1178511   0.0000000), wk =   0.0312500
        k(   25) = (  -0.2500000   0.0000000   0.0000000), wk =   0.0312500
        k(   26) = (  -0.2500000   0.1178511   0.0000000), wk =   0.0312500
        k(   27) = (  -0.2500000  -0.2357023   0.0000000), wk =   0.0312500
        k(   28) = (  -0.2500000  -0.1178511   0.0000000), wk =   0.0312500
        k(   29) = (  -0.1250000   0.0000000   0.0000000), wk =   0.0312500
        k(   30) = (  -0.1250000   0.1178511   0.0000000), wk =   0.0312500
        k(   31) = (  -0.1250000  -0.2357023   0.0000000), wk =   0.0312500
        k(   32) = (  -0.1250000  -0.1178511   0.0000000), wk =   0.0312500

     Dense  grid:   896767 G-vectors     FFT dimensions: (  45, 100, 400)

     Smooth grid:   316913 G-vectors     FFT dimensions: (  36,  72, 288)

     Estimated max dynamical RAM per process >      96.56 MB

     Estimated total dynamical RAM >      10.79 GB

     Check: negative core charge=   -0.000004
     Generating pointlists ...
     new r_m :   0.2543 (alat units)  1.4416 (a.u.) for type    1
     new r_m :   0.1354 (alat units)  0.7679 (a.u.) for type    2
     new r_m :   0.1354 (alat units)  0.7679 (a.u.) for type    3

     Initial potential from superposition of free atoms

     starting charge     174.9973, renormalised to     175.0000

     negative rho (up, down):  9.659E-04 5.075E-04
     Starting wfcs are  131 randomized atomic wfcs
     Checking if some PAW data can be deallocated... 

     total cpu time spent up to now is        5.3 secs

     per-process dynamical memory:   124.7 Mb

     Self-consistent Calculation

     iteration #  1     ecut=    80.00 Ry     beta= 0.30
     Davidson diagonalization with overlap
     ethr =  1.00E-02,  avg # of iterations =  2.0

     negative rho (up, down):  4.783E-04 2.928E-04

     total cpu time spent up to now is       15.2 secs

     total energy              =   -2516.97153230 Ry
     estimated scf accuracy    <      11.55711373 Ry

     total magnetization       =    23.00 Bohr mag/cell
     absolute magnetization    =    23.75 Bohr mag/cell

     iteration #  2     ecut=    80.00 Ry     beta= 0.30
     Davidson diagonalization with overlap
     ethr =  6.60E-03,  avg # of iterations =  1.0

     negative rho (up, down):  3.739E-04 5.345E-04

     total cpu time spent up to now is       22.7 secs

     total energy              =   -2517.44738938 Ry
     estimated scf accuracy    <       1.68187882 Ry

     total magnetization       =    22.99 Bohr mag/cell
     absolute magnetization    =    23.55 Bohr mag/cell

     iteration #  3     ecut=    80.00 Ry     beta= 0.30
     Davidson diagonalization with overlap
     ethr =  9.61E-04,  avg # of iterations =  3.8

     negative rho (up, down):  9.718E-05 4.322E-04

     total cpu time spent up to now is       31.8 secs

     total energy              =   -2517.79013509 Ry
     estimated scf accuracy    <       1.04708783 Ry

     total magnetization       =    20.15 Bohr mag/cell
     absolute magnetization    =    20.72 Bohr mag/cell

     iteration #  4     ecut=    80.00 Ry     beta= 0.30
     Davidson diagonalization with overlap
     ethr =  5.98E-04,  avg # of iterations =  1.3

     negative rho (up, down):  2.474E-04 7.758E-04

     total cpu time spent up to now is       39.0 secs

     total energy              =   -2517.91497635 Ry
     estimated scf accuracy    <       0.21331304 Ry

     total magnetization       =    21.69 Bohr mag/cell
     absolute magnetization    =    22.19 Bohr mag/cell

     iteration #  5     ecut=    80.00 Ry     beta= 0.30
     Davidson diagonalization with overlap
     ethr =  1.22E-04,  avg # of iterations =  4.6

     negative rho (up, down):  2.619E-04 8.292E-04

     total cpu time spent up to now is       49.1 secs

     total energy              =   -2518.01314484 Ry
     estimated scf accuracy    <       0.44523615 Ry

     total magnetization       =    19.82 Bohr mag/cell
     absolute magnetization    =    20.38 Bohr mag/cell

     iteration #  6     ecut=    80.00 Ry     beta= 0.30
     Davidson diagonalization with overlap
     ethr =  1.22E-04,  avg # of iterations =  1.0

     negative rho (up, down):  2.990E-04 8.050E-04

     total cpu time spent up to now is       56.3 secs

     total energy              =   -2518.01887712 Ry
     estimated scf accuracy    <       0.23459931 Ry

     total magnetization       =    19.54 Bohr mag/cell
     absolute magnetization    =    20.09 Bohr mag/cell

     iteration #  7     ecut=    80.00 Ry     beta= 0.30
     Davidson diagonalization with overlap
     ethr =  1.22E-04,  avg # of iterations =  1.0

     negative rho (up, down):  1.586E-04 7.362E-04

     total cpu time spent up to now is       63.1 secs

     total energy              =   -2518.03017243 Ry
     estimated scf accuracy    <       0.10724893 Ry

     total magnetization       =    19.18 Bohr mag/cell
     absolute magnetization    =    19.73 Bohr mag/cell

     iteration #  8     ecut=    80.00 Ry     beta= 0.30
     Davidson diagonalization with overlap
     ethr =  6.13E-05,  avg # of iterations =  1.0

     negative rho (up, down):  9.091E-05 6.638E-04

     total cpu time spent up to now is       70.0 secs

     total energy              =   -2518.03719731 Ry
     estimated scf accuracy    <       0.13162676 Ry

     total magnetization       =    18.86 Bohr mag/cell
     absolute magnetization    =    19.40 Bohr mag/cell

     iteration #  9     ecut=    80.00 Ry     beta= 0.30
     Davidson diagonalization with overlap
     ethr =  6.13E-05,  avg # of iterations =  1.0

     negative rho (up, down):  1.244E-04 5.146E-04

     total cpu time spent up to now is       76.9 secs

     total energy              =   -2518.03233516 Ry
     estimated scf accuracy    <       0.16602325 Ry

     total magnetization       =    18.59 Bohr mag/cell
     absolute magnetization    =    19.12 Bohr mag/cell

     iteration # 10     ecut=    80.00 Ry     beta= 0.30
     Davidson diagonalization with overlap
     ethr =  6.13E-05,  avg # of iterations =  1.0

     negative rho (up, down):  2.511E-04 3.879E-04

     total cpu time spent up to now is       84.2 secs

     total energy              =   -2518.03278100 Ry
     estimated scf accuracy    <       0.04576790 Ry

     total magnetization       =    18.46 Bohr mag/cell
     absolute magnetization    =    18.95 Bohr mag/cell

     iteration # 11     ecut=    80.00 Ry     beta= 0.30
     Davidson diagonalization with overlap
     ethr =  2.62E-05,  avg # of iterations =  1.1

     negative rho (up, down):  1.823E-04 3.614E-04

     total cpu time spent up to now is       93.0 secs

     total energy              =   -2518.03675416 Ry
     estimated scf accuracy    <       0.01052220 Ry

     total magnetization       =    18.21 Bohr mag/cell
     absolute magnetization    =    18.66 Bohr mag/cell

     iteration # 12     ecut=    80.00 Ry     beta= 0.30
     Davidson diagonalization with overlap
     ethr =  6.01E-06,  avg # of iterations =  1.1

     negative rho (up, down):  1.375E-04 3.533E-04

     total cpu time spent up to now is      100.0 secs

     total energy              =   -2518.03715430 Ry
     estimated scf accuracy    <       0.00631314 Ry

     total magnetization       =    18.02 Bohr mag/cell
     absolute magnetization    =    18.45 Bohr mag/cell

     iteration # 13     ecut=    80.00 Ry     beta= 0.30
     Davidson diagonalization with overlap
     ethr =  3.61E-06,  avg # of iterations =  1.4

     negative rho (up, down):  6.099E-05 3.582E-04

     total cpu time spent up to now is      107.3 secs

     total energy              =   -2518.03777822 Ry
     estimated scf accuracy    <       0.00636446 Ry

     total magnetization       =    17.84 Bohr mag/cell
     absolute magnetization    =    18.25 Bohr mag/cell

     iteration # 14     ecut=    80.00 Ry     beta= 0.30
     Davidson diagonalization with overlap
     ethr =  3.61E-06,  avg # of iterations =  1.0

     negative rho (up, down):  9.306E-05 4.055E-04

     total cpu time spent up to now is      114.2 secs

     total energy              =   -2518.03755904 Ry
     estimated scf accuracy    <       0.00495132 Ry

     total magnetization       =    17.78 Bohr mag/cell
     absolute magnetization    =    18.19 Bohr mag/cell

     iteration # 15     ecut=    80.00 Ry     beta= 0.30
     Davidson diagonalization with overlap
     ethr =  2.83E-06,  avg # of iterations =  1.0

     negative rho (up, down):  5.663E-05 4.023E-04

     total cpu time spent up to now is      121.0 secs

     total energy              =   -2518.03798447 Ry
     estimated scf accuracy    <       0.00230143 Ry

     total magnetization       =    17.70 Bohr mag/cell
     absolute magnetization    =    18.08 Bohr mag/cell

     iteration # 16     ecut=    80.00 Ry     beta= 0.30
     Davidson diagonalization with overlap
     ethr =  1.32E-06,  avg # of iterations =  1.1

     negative rho (up, down):  1.097E-04 4.680E-04

     total cpu time spent up to now is      128.0 secs

     total energy              =   -2518.03779005 Ry
     estimated scf accuracy    <       0.00218384 Ry

     total magnetization       =    17.70 Bohr mag/cell
     absolute magnetization    =    18.08 Bohr mag/cell

     iteration # 17     ecut=    80.00 Ry     beta= 0.30
     Davidson diagonalization with overlap
     ethr =  1.25E-06,  avg # of iterations =  1.3

     negative rho (up, down):  5.887E-05 4.294E-04

     total cpu time spent up to now is      135.9 secs

     total energy              =   -2518.03804807 Ry
     estimated scf accuracy    <       0.00154050 Ry

     total magnetization       =    17.66 Bohr mag/cell
     absolute magnetization    =    18.04 Bohr mag/cell

     iteration # 18     ecut=    80.00 Ry     beta= 0.30
     Davidson diagonalization with overlap
     ethr =  8.80E-07,  avg # of iterations =  1.0

     negative rho (up, down):  1.217E-04 4.712E-04

     total cpu time spent up to now is      143.2 secs

     total energy              =   -2518.03793467 Ry
     estimated scf accuracy    <       0.00092835 Ry

     total magnetization       =    17.69 Bohr mag/cell
     absolute magnetization    =    18.07 Bohr mag/cell

     iteration # 19     ecut=    80.00 Ry     beta= 0.30
     Davidson diagonalization with overlap
     ethr =  5.30E-07,  avg # of iterations =  1.5

     negative rho (up, down):  6.367E-05 3.906E-04

     total cpu time spent up to now is      150.6 secs

     total energy              =   -2518.03812018 Ry
     estimated scf accuracy    <       0.00201220 Ry

     total magnetization       =    17.67 Bohr mag/cell
     absolute magnetization    =    18.04 Bohr mag/cell

     iteration # 20     ecut=    80.00 Ry     beta= 0.30
     Davidson diagonalization with overlap
     ethr =  5.30E-07,  avg # of iterations =  1.0

     negative rho (up, down):  2.635E-04 6.166E-04

     total cpu time spent up to now is      158.3 secs

     total energy              =   -2518.03812685 Ry
     estimated scf accuracy    <       0.00078466 Ry

     total magnetization       =    17.68 Bohr mag/cell
     absolute magnetization    =    18.07 Bohr mag/cell

     iteration # 21     ecut=    80.00 Ry     beta= 0.30
     Davidson diagonalization with overlap
     ethr =  4.48E-07,  avg # of iterations =  1.5

     negative rho (up, down):  5.461E-04 8.908E-04

     total cpu time spent up to now is      165.7 secs

     total energy              =   -2518.03819398 Ry
     estimated scf accuracy    <       0.00035536 Ry

     total magnetization       =    17.70 Bohr mag/cell
     absolute magnetization    =    18.09 Bohr mag/cell

     iteration # 22     ecut=    80.00 Ry     beta= 0.30
     Davidson diagonalization with overlap
     ethr =  2.03E-07,  avg # of iterations =  1.2

     negative rho (up, down):  4.151E-04 7.134E-04

     total cpu time spent up to now is      173.2 secs

     total energy              =   -2518.03823653 Ry
     estimated scf accuracy    <       0.00052442 Ry

     total magnetization       =    17.72 Bohr mag/cell
     absolute magnetization    =    18.11 Bohr mag/cell

     iteration # 23     ecut=    80.00 Ry     beta= 0.30
     Davidson diagonalization with overlap
     ethr =  2.03E-07,  avg # of iterations =  1.0

     negative rho (up, down):  4.795E-04 7.555E-04

     total cpu time spent up to now is      180.0 secs

     total energy              =   -2518.03826204 Ry
     estimated scf accuracy    <       0.00026784 Ry

     total magnetization       =    17.72 Bohr mag/cell
     absolute magnetization    =    18.11 Bohr mag/cell

     iteration # 24     ecut=    80.00 Ry     beta= 0.30
     Davidson diagonalization with overlap
     ethr =  1.53E-07,  avg # of iterations =  1.0

     negative rho (up, down):  3.919E-04 6.025E-04

     total cpu time spent up to now is      186.9 secs

     total energy              =   -2518.03829805 Ry
     estimated scf accuracy    <       0.00028998 Ry

     total magnetization       =    17.73 Bohr mag/cell
     absolute magnetization    =    18.12 Bohr mag/cell

     iteration # 25     ecut=    80.00 Ry     beta= 0.30
     Davidson diagonalization with overlap
     ethr =  1.53E-07,  avg # of iterations =  1.5

     negative rho (up, down):  4.478E-04 6.166E-04

     total cpu time spent up to now is      194.9 secs

     total energy              =   -2518.03832714 Ry
     estimated scf accuracy    <       0.00010984 Ry

     total magnetization       =    17.74 Bohr mag/cell
     absolute magnetization    =    18.14 Bohr mag/cell

     iteration # 26     ecut=    80.00 Ry     beta= 0.30
     Davidson diagonalization with overlap
     ethr =  6.28E-08,  avg # of iterations =  1.5

     negative rho (up, down):  6.496E-04 7.636E-04

     total cpu time spent up to now is      203.3 secs

     total energy              =   -2518.03834021 Ry
     estimated scf accuracy    <       0.00004174 Ry

     total magnetization       =    17.75 Bohr mag/cell
     absolute magnetization    =    18.15 Bohr mag/cell

     iteration # 27     ecut=    80.00 Ry     beta= 0.30
     Davidson diagonalization with overlap
     ethr =  2.39E-08,  avg # of iterations =  1.0

     negative rho (up, down):  8.475E-04 9.337E-04

     total cpu time spent up to now is      210.5 secs

     total energy              =   -2518.03834485 Ry
     estimated scf accuracy    <       0.00002717 Ry

     total magnetization       =    17.75 Bohr mag/cell
     absolute magnetization    =    18.15 Bohr mag/cell

     iteration # 28     ecut=    80.00 Ry     beta= 0.30
     Davidson diagonalization with overlap
     ethr =  1.55E-08,  avg # of iterations =  1.5

     negative rho (up, down):  9.481E-04 1.015E-03

     total cpu time spent up to now is      219.0 secs

     total energy              =   -2518.03834769 Ry
     estimated scf accuracy    <       0.00000841 Ry

     total magnetization       =    17.74 Bohr mag/cell
     absolute magnetization    =    18.14 Bohr mag/cell

     iteration # 29     ecut=    80.00 Ry     beta= 0.30
     Davidson diagonalization with overlap
     ethr =  4.81E-09,  avg # of iterations =  2.8

     negative rho (up, down):  1.011E-03 1.076E-03

     total cpu time spent up to now is      228.3 secs

     total energy              =   -2518.03835014 Ry
     estimated scf accuracy    <       0.00000956 Ry

     total magnetization       =    17.74 Bohr mag/cell
     absolute magnetization    =    18.14 Bohr mag/cell

     iteration # 30     ecut=    80.00 Ry     beta= 0.30
     Davidson diagonalization with overlap
     ethr =  4.81E-09,  avg # of iterations =  1.0

     negative rho (up, down):  9.922E-04 1.054E-03

     total cpu time spent up to now is      236.0 secs

     total energy              =   -2518.03835094 Ry
     estimated scf accuracy    <       0.00000264 Ry

     total magnetization       =    17.74 Bohr mag/cell
     absolute magnetization    =    18.14 Bohr mag/cell

     iteration # 31     ecut=    80.00 Ry     beta= 0.30
     Davidson diagonalization with overlap
     ethr =  1.51E-09,  avg # of iterations =  1.4

     negative rho (up, down):  9.830E-04 1.043E-03

     total cpu time spent up to now is      243.5 secs

     total energy              =   -2518.03835131 Ry
     estimated scf accuracy    <       0.00000267 Ry

     total magnetization       =    17.74 Bohr mag/cell
     absolute magnetization    =    18.14 Bohr mag/cell

     iteration # 32     ecut=    80.00 Ry     beta= 0.30
     Davidson diagonalization with overlap
     ethr =  1.51E-09,  avg # of iterations =  1.2

     negative rho (up, down):  9.579E-04 1.016E-03

     total cpu time spent up to now is      250.7 secs

     total energy              =   -2518.03835167 Ry
     estimated scf accuracy    <       0.00000128 Ry

     total magnetization       =    17.74 Bohr mag/cell
     absolute magnetization    =    18.14 Bohr mag/cell

     iteration # 33     ecut=    80.00 Ry     beta= 0.30
     Davidson diagonalization with overlap
     ethr =  7.33E-10,  avg # of iterations =  1.5

     negative rho (up, down):  9.495E-04 1.007E-03

     total cpu time spent up to now is      258.8 secs

     total energy              =   -2518.03835177 Ry
     estimated scf accuracy    <       0.00000110 Ry

     total magnetization       =    17.74 Bohr mag/cell
     absolute magnetization    =    18.13 Bohr mag/cell

     iteration # 34     ecut=    80.00 Ry     beta= 0.30
     Davidson diagonalization with overlap
     ethr =  6.31E-10,  avg # of iterations =  1.5

     negative rho (up, down):  1.002E-03 1.056E-03

     Magnetic moment per site  (integrated on atomic sphere of radius R)
     atom   1 (R=0.254)  charge= 12.6771  magn=  2.9127
     atom   2 (R=0.254)  charge= 12.6440  magn=  2.1702
     atom   3 (R=0.254)  charge= 12.6602  magn=  2.2634
     atom   4 (R=0.254)  charge= 12.6574  magn=  2.0547
     atom   5 (R=0.254)  charge= 12.6612  magn=  1.9216
     atom   6 (R=0.254)  charge= 12.6499  magn=  2.1188
     atom   7 (R=0.135)  charge=  1.9446  magn=  0.0680
     atom   8 (R=0.135)  charge=  1.9274  magn=  0.1213
     atom   9 (R=0.135)  charge=  1.9452  magn=  0.0733
     atom  10 (R=0.135)  charge=  1.9452  magn=  0.0733
     atom  11 (R=0.135)  charge=  1.9419  magn=  0.0823
     atom  12 (R=0.135)  charge=  1.9443  magn=  0.0925
     atom  13 (R=0.135)  charge=  1.9460  magn=  0.0678
     atom  14 (R=0.135)  charge=  1.9460  magn=  0.0678
     atom  15 (R=0.135)  charge=  1.9348  magn=  0.1432
     atom  16 (R=0.135)  charge=  1.9454  magn=  0.0669
     atom  17 (R=0.135)  charge=  1.9446  magn=  0.0542
     atom  18 (R=0.135)  charge=  1.9445  magn=  0.0542
     atom  19 (R=0.135)  charge=  1.9599  magn=  0.0606
     atom  20 (R=0.135)  charge=  0.3933  magn=  0.0027

     total cpu time spent up to now is      266.8 secs

     End of self-consistent calculation

 ------ SPIN UP ------------


          k = 0.0000 0.0000 0.0000 ( 39531 PWs)   bands (ev):

   -90.9035 -90.4791 -90.4032 -90.3833 -90.1983 -90.0915 -57.0550 -56.8932
   -56.7043 -56.6020 -56.5011 -56.4553 -56.4467 -56.4217 -56.4038 -56.3080
   -56.2797 -56.2743 -56.2294 -56.1991 -56.1846 -56.0403 -56.0224 -55.8714
   -19.9169 -19.6741 -19.3900 -19.0587 -18.8964 -18.6129 -18.4063 -18.3777
   -18.2433 -18.1018 -18.0637 -17.8251 -17.7058  -7.9672  -7.7709  -7.5370
    -7.2176  -7.0075  -6.6743  -6.5537  -6.3668  -6.3120  -6.2113  -6.1216
    -6.0694  -5.9979  -5.8945  -5.8681  -5.1903  -4.9122  -4.5787  -4.4544
    -4.3296  -4.3123  -4.3078  -4.1622  -4.1045  -4.0744  -4.0499  -4.0101
    -3.8573  -3.8560  -3.7844  -3.6382  -3.6274  -3.5135  -3.5091  -3.4328
    -3.4260  -3.3467  -3.2846  -3.1756  -2.9578  -2.7826  -2.5756  -2.5123
    -2.4381  -2.3131  -2.2493  -2.2197  -2.1132  -1.8789  -1.7833  -1.6193
    -1.5178  -1.4928  -1.4515  -1.3850  -1.3026  -1.1528  -1.1336  -0.8136
    -0.3805  -0.0506   0.6402   0.7620   0.8809   1.0326   1.0728   1.3472
     1.3589   1.4152

          k = 0.0000 0.1179 0.0000 ( 39518 PWs)   bands (ev):

   -90.9035 -90.4791 -90.4032 -90.3833 -90.1983 -90.0915 -57.0549 -56.8932
   -56.7043 -56.6019 -56.5010 -56.4553 -56.4467 -56.4217 -56.4038 -56.3080
   -56.2797 -56.2742 -56.2295 -56.1993 -56.1846 -56.0403 -56.0223 -55.8715
   -19.8153 -19.5853 -19.3478 -19.1034 -19.0343 -18.7814 -18.5809 -18.2610
   -18.1946 -18.0777 -18.0165 -17.8201 -17.6973  -7.7138  -7.5404  -7.3179
    -7.2027  -7.0029  -6.6969  -6.5164  -6.2738  -6.2106  -6.1934  -6.1277
    -6.0275  -5.9961  -5.8973  -5.6958  -5.1634  -5.1360  -4.9561  -4.8743
    -4.7808  -4.5232  -4.4460  -4.3403  -4.2950  -4.2348  -4.1821  -4.0824
    -4.0291  -3.9907  -3.9462  -3.7072  -3.5192  -3.4323  -3.2593  -3.2272
    -3.1446  -3.0260  -2.9955  -2.8824  -2.7676  -2.7411  -2.5986  -2.5341
    -2.4750  -2.3532  -2.3005  -2.2301  -2.1841  -2.0115  -1.8969  -1.7751
    -1.6647  -1.5018  -1.4771  -1.4510  -1.3144  -1.2251  -1.1617  -0.3497
     0.1025   0.1959   0.5528   0.7340   0.8814   0.9970   1.0341   1.2670
     1.3132   1.3748

          k = 0.0000-0.2357 0.0000 ( 39538 PWs)   bands (ev):

   -90.9035 -90.4791 -90.4032 -90.3833 -90.1983 -90.0915 -57.0549 -56.8932
   -56.7043 -56.6019 -56.5011 -56.4553 -56.4466 -56.4217 -56.4037 -56.3080
   -56.2797 -56.2741 -56.2295 -56.1995 -56.1846 -56.0403 -56.0223 -55.8715
   -19.5661 -19.5417 -19.4218 -19.1794 -19.0468 -18.9389 -18.7508 -18.1994
   -18.1724 -18.0500 -17.9873 -17.8152 -17.6884  -7.3791  -7.2893  -7.1919
    -7.0077  -6.9507  -6.7205  -6.4758  -6.2319  -6.2085  -6.1566  -5.9947
    -5.9810  -5.9001  -5.7606  -5.6826  -5.4349  -5.3329  -5.2455  -5.1831
    -5.0646  -4.9866  -4.6634  -4.5628  -4.4210  -4.3081  -4.2981  -4.2963
    -4.1602  -4.0499  -3.9846  -3.5835  -3.3494  -3.2619  -3.0440  -3.0410
    -3.0150  -3.0086  -2.8471  -2.7015  -2.6791  -2.6050  -2.5621  -2.5541
    -2.3534  -2.3252  -2.3184  -2.2722  -2.2109  -2.0208  -1.9819  -1.9201
    -1.7372  -1.6981  -1.5307  -1.5181  -1.3781  -1.3120  -1.0638  -0.0771
     0.3667   0.4595   0.6245   0.8780   0.8880   0.9217   0.9714   1.0334
     1.1978   1.3773

          k = 0.0000-0.1179 0.0000 ( 39518 PWs)   bands (ev):

   -90.9035 -90.4791 -90.4032 -90.3833 -90.1983 -90.0915 -57.0549 -56.8932
   -56.7043 -56.6019 -56.5010 -56.4553 -56.4467 -56.4217 -56.4038 -56.3080
   -56.2797 -56.2742 -56.2295 -56.1993 -56.1846 -56.0403 -56.0223 -55.8715
   -19.8153 -19.5853 -19.3478 -19.1034 -19.0343 -18.7814 -18.5809 -18.2610
   -18.1946 -18.0777 -18.0165 -17.8201 -17.6973  -7.7138  -7.5404  -7.3179
    -7.2027  -7.0029  -6.6969  -6.5164  -6.2738  -6.2106  -6.1934  -6.1277
    -6.0275  -5.9961  -5.8973  -5.6958  -5.1634  -5.1360  -4.9561  -4.8743
    -4.7808  -4.5232  -4.4460  -4.3403  -4.2950  -4.2348  -4.1821  -4.0824
    -4.0291  -3.9907  -3.9462  -3.7072  -3.5192  -3.4323  -3.2593  -3.2272
    -3.1446  -3.0260  -2.9955  -2.8824  -2.7676  -2.7411  -2.5986  -2.5341
    -2.4750  -2.3532  -2.3005  -2.2301  -2.1841  -2.0115  -1.8969  -1.7751
    -1.6647  -1.5018  -1.4771  -1.4510  -1.3144  -1.2251  -1.1617  -0.3497
     0.1025   0.1959   0.5528   0.7340   0.8814   0.9970   1.0341   1.2670
     1.3132   1.3748

          k = 0.1250 0.0000 0.0000 ( 39512 PWs)   bands (ev):

   -90.9031 -90.4787 -90.4028 -90.3830 -90.1979 -90.0911 -57.0604 -56.8924
   -56.7039 -56.6074 -56.5003 -56.4550 -56.4525 -56.4210 -56.4095 -56.3077
   -56.2851 -56.2735 -56.2291 -56.1988 -56.1842 -56.0395 -56.0281 -55.8706
   -19.8009 -19.5709 -19.3050 -18.9915 -18.8284 -18.5609 -18.3849 -18.3802
   -18.2535 -18.1095 -18.0743 -17.8461 -17.7126  -7.8176  -7.6287  -7.4120
    -7.1042  -6.9182  -6.6493  -6.5929  -6.4304  -6.3020  -6.2863  -6.0938
    -6.0884  -5.9826  -5.9165  -5.6799  -5.0554  -4.9535  -4.7384  -4.6188
    -4.5119  -4.4988  -4.3587  -4.3425  -4.3194  -4.2172  -4.1519  -4.0134
    -4.0079  -3.8867  -3.7982  -3.7673  -3.6423  -3.6226  -3.6224  -3.5550
    -3.4770  -3.4288  -3.3042  -3.1247  -3.0146  -2.8942  -2.5579  -2.4621
    -2.4588  -2.3299  -2.1855  -2.1076  -1.9639  -1.8026  -1.7545  -1.6097
    -1.5556  -1.5351  -1.4157  -1.3796  -1.3758  -1.2303  -1.2052  -0.6219
    -0.1912   0.0065   0.3924   0.4357   0.6463   0.8151   0.9095   1.0527
     1.1030   1.3786

          k = 0.1250 0.1179 0.0000 ( 39558 PWs)   bands (ev):

   -90.9031 -90.4787 -90.4028 -90.3830 -90.1979 -90.0911 -57.0604 -56.8925
   -56.7040 -56.6074 -56.5003 -56.4550 -56.4525 -56.4210 -56.4095 -56.3077
   -56.2851 -56.2734 -56.2291 -56.1990 -56.1843 -56.0395 -56.0281 -55.8707
   -19.7034 -19.4876 -19.2643 -19.0232 -18.9666 -18.7276 -18.5412 -18.2701
   -18.2099 -18.0871 -18.0345 -17.8408 -17.7046  -7.5586  -7.3939  -7.1828
    -7.0891  -6.9109  -6.6398  -6.5733  -6.3643  -6.3172  -6.1852  -6.0954
    -6.0557  -5.9537  -5.8635  -5.5606  -5.0875  -5.0165  -4.9572  -4.8728
    -4.7575  -4.6887  -4.6236  -4.5313  -4.4444  -4.3887  -4.3407  -4.2612
    -4.2132  -4.1805  -4.0072  -3.7743  -3.6623  -3.5842  -3.5330  -3.4102
    -3.3050  -3.1555  -3.0113  -2.9292  -2.7567  -2.7136  -2.5687  -2.4096
    -2.3586  -2.2840  -2.2389  -2.0764  -1.9783  -1.8924  -1.7973  -1.7372
    -1.6709  -1.5812  -1.5359  -1.4958  -1.3530  -1.2823  -1.1402  -0.2977
     0.0216   0.1677   0.2864   0.5432   0.6559   0.7632   0.9242   0.9894
     1.0939   1.3692

          k = 0.1250-0.2357 0.0000 ( 39644 PWs)   bands (ev):

   -90.9031 -90.4787 -90.4028 -90.3830 -90.1979 -90.0911 -57.0604 -56.8925
   -56.7040 -56.6074 -56.5003 -56.4551 -56.4525 -56.4210 -56.4095 -56.3077
   -56.2852 -56.2733 -56.2292 -56.1992 -56.1843 -56.0396 -56.0281 -55.8708
   -19.4697 -19.4401 -19.3348 -19.0938 -18.9804 -18.8720 -18.7032 -18.2143
   -18.1894 -18.0633 -18.0095 -17.8359 -17.6967  -7.2092  -7.1565  -7.0582
    -6.8919  -6.7988  -6.6790  -6.5205  -6.3253  -6.2907  -6.1178  -6.0822
    -6.0431  -5.9432  -5.5720  -5.5317  -5.3103  -5.2460  -5.1854  -5.0557
    -5.0100  -4.9011  -4.8518  -4.7497  -4.7341  -4.6992  -4.5681  -4.3846
    -4.3149  -4.3092  -4.0211  -3.7066  -3.6230  -3.5436  -3.4794  -3.2449
    -3.1757  -2.9240  -2.8661  -2.6950  -2.5767  -2.5434  -2.4942  -2.4000
    -2.2837  -2.2805  -2.1817  -2.1221  -1.9900  -1.9445  -1.8643  -1.8260
    -1.7460  -1.6784  -1.6115  -1.5351  -1.4156  -1.4042  -1.0429  -0.0808
    -0.0048   0.1871   0.4561   0.5101   0.7310   0.7800   0.9061   1.0762
     1.1281   1.2342

          k = 0.1250-0.1179 0.0000 ( 39558 PWs)   bands (ev):

   -90.9031 -90.4787 -90.4028 -90.3830 -90.1979 -90.0911 -57.0604 -56.8925
   -56.7040 -56.6074 -56.5003 -56.4550 -56.4525 -56.4210 -56.4095 -56.3077
   -56.2851 -56.2734 -56.2291 -56.1990 -56.1843 -56.0395 -56.0281 -55.8707
   -19.7034 -19.4876 -19.2643 -19.0232 -18.9666 -18.7276 -18.5412 -18.2701
   -18.2099 -18.0871 -18.0346 -17.8408 -17.7046  -7.5586  -7.3939  -7.1828
    -7.0891  -6.9109  -6.6398  -6.5733  -6.3643  -6.3169  -6.1852  -6.0956
    -6.0557  -5.9537  -5.8633  -5.5610  -5.0875  -5.0164  -4.9572  -4.8728
    -4.7577  -4.6885  -4.6235  -4.5313  -4.4440  -4.3887  -4.3407  -4.2611
    -4.2132  -4.1806  -4.0073  -3.7744  -3.6623  -3.5841  -3.5329  -3.4100
    -3.3054  -3.1556  -3.0113  -2.9295  -2.7567  -2.7138  -2.5674  -2.4098
    -2.3584  -2.2843  -2.2387  -2.0774  -1.9783  -1.8924  -1.7971  -1.7371
    -1.6708  -1.5813  -1.5358  -1.4956  -1.3531  -1.2822  -1.1402  -0.2977
     0.0216   0.1676   0.2864   0.5432   0.6559   0.7632   0.9243   0.9896
     1.0938   1.3690

          k = 0.2500 0.0000 0.0000 ( 39608 PWs)   bands (ev):

   -90.9023 -90.4779 -90.4020 -90.3821 -90.1971 -90.0902 -57.0736 -56.8907
   -56.7031 -56.6206 -56.4985 -56.4669 -56.4540 -56.4233 -56.4191 -56.3069
   -56.2982 -56.2715 -56.2282 -56.1980 -56.1833 -56.0420 -56.0377 -55.8687
   -19.4870 -19.2996 -19.0897 -18.8277 -18.6582 -18.4415 -18.4030 -18.3466
   -18.2787 -18.1357 -18.1004 -17.8961 -17.7230  -7.4306  -7.2591  -7.1186
    -6.8960  -6.7253  -6.7152  -6.6207  -6.5249  -6.4771  -6.2996  -6.0775
    -5.7784  -5.7378  -5.6940  -5.5695  -5.3986  -5.2933  -5.2853  -5.1472
    -4.9630  -4.8607  -4.7745  -4.7657  -4.4264  -4.3511  -4.2999  -4.2461
    -4.1906  -4.1868  -4.0028  -3.9234  -3.8172  -3.7261  -3.5635  -3.4986
    -3.3001  -3.2894  -3.1674  -3.0293  -2.9846  -2.7406  -2.5578  -2.4976
    -2.3364  -2.2898  -2.1634  -2.1117  -2.0281  -1.8781  -1.8332  -1.7229
    -1.6958  -1.6008  -1.4935  -1.4818  -1.4060  -1.3242  -1.2686  -0.5081
    -0.1489  -0.0589  -0.0255   0.1215   0.2926   0.3459   0.4555   0.6604
     0.9963   1.2085

          k = 0.2500 0.1179 0.0000 ( 39638 PWs)   bands (ev):

   -90.9023 -90.4779 -90.4020 -90.3821 -90.1971 -90.0902 -57.0736 -56.8907
   -56.7031 -56.6206 -56.4985 -56.4669 -56.4540 -56.4233 -56.4191 -56.3069
   -56.2982 -56.2715 -56.2282 -56.1981 -56.1833 -56.0420 -56.0377 -55.8688
   -19.4028 -19.2335 -19.0520 -18.8228 -18.7968 -18.5993 -18.4563 -18.2949
   -18.2555 -18.1168 -18.0854 -17.8913 -17.7176  -7.1713  -7.0413  -6.9386
    -6.8066  -6.7071  -6.6496  -6.5978  -6.4936  -6.4464  -6.2487  -6.1436
    -5.8036  -5.7418  -5.6591  -5.6136  -5.4839  -5.4304  -5.3686  -5.2002
    -5.0791  -4.9018  -4.8793  -4.6666  -4.5582  -4.5022  -4.4082  -4.3314
    -4.2525  -4.1265  -4.0638  -3.9687  -3.8838  -3.8115  -3.7158  -3.5706
    -3.5437  -3.2489  -3.1424  -2.9564  -2.7079  -2.6290  -2.4620  -2.3017
    -2.2870  -2.2347  -2.1151  -2.1096  -2.0570  -1.8978  -1.8416  -1.8170
    -1.7315  -1.6485  -1.5398  -1.5253  -1.4612  -1.3488  -1.2236  -0.6366
    -0.4456  -0.3140  -0.0980   0.1003   0.4074   0.6481   0.6955   0.9350
     1.0310   1.3116

          k = 0.2500-0.2357 0.0000 ( 39652 PWs)   bands (ev):

   -90.9023 -90.4779 -90.4020 -90.3821 -90.1971 -90.0902 -57.0736 -56.8907
   -56.7030 -56.6206 -56.4985 -56.4669 -56.4539 -56.4234 -56.4190 -56.3069
   -56.2982 -56.2714 -56.2282 -56.1982 -56.1833 -56.0420 -56.0377 -55.8688
   -19.2196 -19.1713 -19.1083 -18.8771 -18.8137 -18.7094 -18.5890 -18.2572
   -18.2416 -18.1014 -18.0739 -17.8878 -17.7125  -6.9657  -6.8154  -6.7212
    -6.6698  -6.6207  -6.5183  -6.4762  -6.4075  -6.2906  -6.1633  -6.1487
    -6.0163  -5.8702  -5.7667  -5.7162  -5.6693  -5.6141  -5.3169  -5.1912
    -5.0792  -4.9621  -4.8149  -4.7996  -4.7099  -4.6989  -4.5833  -4.5093
    -4.4162  -4.4037  -4.0909  -4.0113  -3.9198  -3.7476  -3.7317  -3.5911
    -3.5550  -3.1632  -2.9798  -2.8718  -2.5318  -2.4714  -2.3864  -2.2398
    -2.1823  -2.1201  -2.1082  -2.0723  -2.0249  -2.0029  -1.9190  -1.8318
    -1.8135  -1.6753  -1.6128  -1.5363  -1.4861  -1.4443  -1.1795  -0.9131
    -0.5458  -0.4074  -0.2642   0.1193   0.4234   0.7805   0.9015   1.1074
     1.2465   1.3719

          k = 0.2500-0.1179 0.0000 ( 39638 PWs)   bands (ev):

   -90.9023 -90.4779 -90.4020 -90.3821 -90.1971 -90.0902 -57.0736 -56.8907
   -56.7031 -56.6206 -56.4985 -56.4669 -56.4540 -56.4233 -56.4191 -56.3069
   -56.2982 -56.2715 -56.2282 -56.1981 -56.1833 -56.0420 -56.0377 -55.8688
   -19.4028 -19.2335 -19.0520 -18.8228 -18.7968 -18.5993 -18.4563 -18.2949
   -18.2555 -18.1168 -18.0854 -17.8913 -17.7176  -7.1713  -7.0414  -6.9386
    -6.8065  -6.7071  -6.6496  -6.5978  -6.4935  -6.4464  -6.2485  -6.1439
    -5.8036  -5.7418  -5.6590  -5.6136  -5.4843  -5.4304  -5.3688  -5.2003
    -5.0794  -4.9014  -4.8789  -4.6668  -4.5583  -4.5023  -4.4080  -4.3313
    -4.2524  -4.1263  -4.0638  -3.9687  -3.8839  -3.8116  -3.7159  -3.5706
    -3.5439  -3.2491  -3.1422  -2.9564  -2.7079  -2.6290  -2.4619  -2.3016
    -2.2869  -2.2350  -2.1152  -2.1096  -2.0569  -1.8978  -1.8416  -1.8169
    -1.7314  -1.6486  -1.5399  -1.5252  -1.4613  -1.3484  -1.2237  -0.6366
    -0.4457  -0.3141  -0.0981   0.1003   0.4074   0.6482   0.6955   0.9352
     1.0309   1.3114

          k = 0.3750 0.0000 0.0000 ( 39708 PWs)   bands (ev):

   -90.9014 -90.4770 -90.4011 -90.3812 -90.1962 -90.0894 -57.0866 -56.8889
   -56.7022 -56.6337 -56.4967 -56.4810 -56.4531 -56.4370 -56.4173 -56.3115
   -56.3059 -56.2696 -56.2273 -56.1973 -56.1824 -56.0558 -56.0359 -55.8669
   -19.0796 -18.9771 -18.8521 -18.6540 -18.4891 -18.4220 -18.3936 -18.3522
   -18.3049 -18.1825 -18.1271 -17.9433 -17.7219  -7.2918  -7.0379  -6.8680
    -6.7169  -6.6516  -6.6458  -6.6158  -6.4837  -6.4462  -6.2490  -6.1728
    -6.1510  -5.9790  -5.7941  -5.7203  -5.5906  -5.4607  -5.1868  -5.1658
    -4.9980  -4.8702  -4.8555  -4.8041  -4.6874  -4.5471  -4.5049  -4.3897
    -4.2773  -4.1198  -3.9778  -3.8911  -3.8527  -3.8332  -3.7607  -3.4398
    -3.4263  -3.2746  -3.2649  -3.1593  -3.0791  -2.9766  -2.7915  -2.7000
    -2.6392  -2.2549  -2.1712  -2.0376  -1.9955  -1.9377  -1.9101  -1.8382
    -1.7826  -1.7146  -1.5936  -1.4440  -1.4299  -1.3253  -1.1985  -0.8831
    -0.3709  -0.2550  -0.0115   0.0371   0.1168   0.2166   0.2578   0.3510
     1.0368   1.1679

          k = 0.3750 0.1179 0.0000 ( 39703 PWs)   bands (ev):

   -90.9014 -90.4770 -90.4011 -90.3812 -90.1962 -90.0894 -57.0867 -56.8889
   -56.7022 -56.6337 -56.4967 -56.4811 -56.4531 -56.4370 -56.4173 -56.3115
   -56.3059 -56.2695 -56.2273 -56.1973 -56.1824 -56.0558 -56.0359 -55.8669
   -19.0194 -18.9406 -18.8122 -18.6185 -18.5974 -18.4852 -18.4033 -18.3408
   -18.3212 -18.1814 -18.1443 -17.9430 -17.7204  -7.2834  -6.8973  -6.7793
    -6.7448  -6.6414  -6.5907  -6.5323  -6.4999  -6.4538  -6.3293  -6.2505
    -6.0075  -5.8880  -5.7409  -5.6501  -5.6094  -5.5151  -5.3114  -5.1358
    -4.9323  -4.8154  -4.7986  -4.7419  -4.6232  -4.5406  -4.4396  -4.3451
    -4.2752  -4.1624  -4.0692  -3.8739  -3.8437  -3.7699  -3.7014  -3.6779
    -3.5672  -3.4448  -3.4028  -3.2571  -3.0553  -2.9632  -2.8008  -2.7232
    -2.5552  -2.2990  -2.2168  -2.1794  -2.1154  -2.0251  -1.9183  -1.8464
    -1.7732  -1.5820  -1.4674  -1.4256  -1.3560  -1.3300  -1.2582  -1.1661
    -0.8750  -0.8426  -0.5761  -0.0912   0.2328   0.7830   0.8807   1.0747
     1.1118   1.2614

          k = 0.3750-0.2357 0.0000 ( 39694 PWs)   bands (ev):

   -90.9014 -90.4770 -90.4011 -90.3812 -90.1962 -90.0894 -57.0867 -56.8889
   -56.7022 -56.6337 -56.4967 -56.4811 -56.4531 -56.4370 -56.4173 -56.3116
   -56.3059 -56.2695 -56.2273 -56.1973 -56.1824 -56.0558 -56.0359 -55.8668
   -18.9410 -18.8371 -18.8295 -18.6484 -18.6275 -18.5317 -18.4771 -18.3340
   -18.3298 -18.1757 -18.1613 -17.9434 -17.7191  -7.2796  -6.8953  -6.7656
    -6.6590  -6.6350  -6.5855  -6.4780  -6.4331  -6.4089  -6.1341  -6.0657
    -6.0508  -6.0166  -5.8161  -5.6229  -5.5854  -5.4407  -5.2296  -5.1844
    -5.0314  -4.7824  -4.6394  -4.6179  -4.5336  -4.4975  -4.4829  -4.4230
    -4.2798  -4.1871  -4.1634  -4.0434  -3.9417  -3.8417  -3.7755  -3.7383
    -3.6230  -3.4905  -3.4110  -3.2595  -3.0243  -2.8736  -2.8673  -2.7795
    -2.4405  -2.3528  -2.2986  -2.2410  -2.2028  -2.0717  -1.9784  -1.7824
    -1.7798  -1.5827  -1.5423  -1.4676  -1.3714  -1.3437  -1.3315  -1.2714
    -1.1559  -0.9995  -0.8176  -0.0676   0.2362   1.0053   1.1273   1.2717
     1.3582   1.5347

          k = 0.3750-0.1179 0.0000 ( 39703 PWs)   bands (ev):

   -90.9014 -90.4770 -90.4011 -90.3812 -90.1962 -90.0894 -57.0867 -56.8889
   -56.7022 -56.6337 -56.4967 -56.4811 -56.4531 -56.4370 -56.4173 -56.3115
   -56.3059 -56.2695 -56.2273 -56.1973 -56.1824 -56.0558 -56.0359 -55.8669
   -19.0194 -18.9406 -18.8122 -18.6185 -18.5974 -18.4852 -18.4033 -18.3407
   -18.3212 -18.1814 -18.1443 -17.9430 -17.7204  -7.2834  -6.8973  -6.7793
    -6.7447  -6.6414  -6.5907  -6.5322  -6.4999  -6.4538  -6.3293  -6.2504
    -6.0075  -5.8881  -5.7409  -5.6501  -5.6096  -5.5151  -5.3115  -5.1358
    -4.9322  -4.8160  -4.7983  -4.7421  -4.6234  -4.5404  -4.4395  -4.3445
    -4.2751  -4.1624  -4.0694  -3.8739  -3.8434  -3.7704  -3.7015  -3.6779
    -3.5674  -3.4449  -3.4025  -3.2572  -3.0553  -2.9632  -2.8008  -2.7231
    -2.5553  -2.2990  -2.2167  -2.1795  -2.1154  -2.0249  -1.9183  -1.8463
    -1.7732  -1.5820  -1.4674  -1.4256  -1.3560  -1.3301  -1.2580  -1.1661
    -0.8750  -0.8427  -0.5762  -0.0912   0.2328   0.7830   0.8807   1.0748
     1.1119   1.2611

          k =-0.5000 0.0000 0.0000 ( 39696 PWs)   bands (ev):

   -90.9011 -90.4766 -90.4007 -90.3808 -90.1959 -90.0890 -57.0921 -56.8882
   -56.7018 -56.6391 -56.4959 -56.4869 -56.4526 -56.4426 -56.4165 -56.3168
   -56.3056 -56.2688 -56.2270 -56.1970 -56.1820 -56.0615 -56.0352 -55.8661
   -18.8255 -18.8114 -18.7165 -18.5542 -18.5383 -18.4302 -18.4292 -18.3556
   -18.3160 -18.1945 -18.1383 -17.9620 -17.7175  -7.4758  -6.9560  -6.8371
    -6.7403  -6.6561  -6.5881  -6.5555  -6.5407  -6.3460  -6.3332  -6.3208
    -5.9650  -5.9297  -5.8913  -5.8495  -5.7540  -5.4173  -5.3764  -5.0941
    -5.0128  -4.9175  -4.7943  -4.6679  -4.4783  -4.4282  -4.2441  -4.1645
    -4.0524  -4.0424  -4.0274  -3.9875  -3.9471  -3.8751  -3.8293  -3.6022
    -3.5785  -3.4790  -3.4473  -3.3187  -3.2335  -3.2267  -3.1214  -3.0663
    -2.7414  -2.3161  -2.1981  -2.0978  -2.0357  -2.0226  -1.9551  -1.8503
    -1.7141  -1.5866  -1.5205  -1.3179  -1.3022  -1.2249  -1.1090  -1.0863
    -0.5112  -0.1904  -0.1620  -0.0709   0.1001   0.2103   0.2337   0.2508
     1.0607   1.2042

          k =-0.5000 0.1179 0.0000 ( 39700 PWs)   bands (ev):

   -90.9011 -90.4766 -90.4007 -90.3808 -90.1959 -90.0890 -57.0921 -56.8882
   -56.7018 -56.6391 -56.4960 -56.4869 -56.4527 -56.4427 -56.4165 -56.3168
   -56.3056 -56.2687 -56.2269 -56.1969 -56.1820 -56.0615 -56.0352 -55.8661
   -18.8223 -18.7612 -18.6692 -18.5246 -18.5058 -18.4853 -18.4395 -18.3699
   -18.3568 -18.2011 -18.1933 -17.9651 -17.7174  -7.4720  -7.0433  -6.8873
    -6.8396  -6.8137  -6.7098  -6.5089  -6.4490  -6.3207  -6.2712  -6.1744
    -5.9415  -5.8452  -5.7211  -5.6031  -5.4436  -5.3562  -5.2238  -5.1160
    -5.0758  -4.8898  -4.8357  -4.6848  -4.3602  -4.3409  -4.2080  -4.1348
    -4.1262  -4.0244  -3.9970  -3.9343  -3.9153  -3.8835  -3.8263  -3.7469
    -3.6012  -3.5757  -3.5310  -3.4341  -3.3814  -3.2331  -3.2231  -3.0722
    -2.7416  -2.3678  -2.2740  -2.2265  -2.2093  -2.1193  -2.1051  -1.9226
    -1.5626  -1.5047  -1.4481  -1.3359  -1.3252  -1.2512  -1.2011  -1.1488
    -1.0836  -1.0398  -0.8336  -0.1530   0.2132   0.8541   1.0092   1.0955
     1.2018   1.2217

          k =-0.5000-0.2357 0.0000 ( 39704 PWs)   bands (ev):

   -90.9011 -90.4766 -90.4007 -90.3808 -90.1959 -90.0890 -57.0921 -56.8882
   -56.7018 -56.6391 -56.4960 -56.4869 -56.4527 -56.4427 -56.4165 -56.3169
   -56.3056 -56.2687 -56.2269 -56.1969 -56.1820 -56.0614 -56.0352 -55.8660
   -18.8193 -18.6586 -18.6200 -18.5605 -18.4920 -18.4773 -18.4660 -18.4127
   -18.3558 -18.2784 -18.2076 -17.9682 -17.7174  -7.4701  -7.1765  -7.0318
    -6.9114  -6.8187  -6.6801  -6.4728  -6.2921  -6.1964  -6.1794  -6.1149
    -5.9846  -5.9359  -5.6605  -5.3512  -5.3105  -5.2753  -5.1531  -4.9028
    -4.8360  -4.7908  -4.6367  -4.5668  -4.5454  -4.4093  -4.2973  -4.2048
    -4.1810  -4.0113  -3.9880  -3.9376  -3.9316  -3.9274  -3.7681  -3.7224
    -3.7054  -3.7014  -3.6242  -3.5816  -3.4594  -3.2774  -3.2256  -3.0809
    -2.7418  -2.4539  -2.4109  -2.4004  -2.2841  -2.2391  -2.1298  -1.9780
    -1.8482  -1.5557  -1.5254  -1.3947  -1.3557  -1.3035  -1.2735  -1.2099
    -1.1869  -1.1028  -1.0053  -0.1344   0.2158   1.1306   1.2332   1.3267
     1.4020   1.6099

          k =-0.5000-0.1179 0.0000 ( 39700 PWs)   bands (ev):

   -90.9011 -90.4766 -90.4007 -90.3808 -90.1959 -90.0890 -57.0921 -56.8882
   -56.7018 -56.6391 -56.4960 -56.4869 -56.4527 -56.4427 -56.4165 -56.3168
   -56.3056 -56.2687 -56.2269 -56.1969 -56.1820 -56.0615 -56.0352 -55.8661
   -18.8223 -18.7612 -18.6692 -18.5246 -18.5058 -18.4853 -18.4395 -18.3699
   -18.3568 -18.2011 -18.1933 -17.9651 -17.7174  -7.4720  -7.0433  -6.8873
    -6.8396  -6.8137  -6.7098  -6.5089  -6.4490  -6.3207  -6.2712  -6.1744
    -5.9415  -5.8452  -5.7211  -5.6031  -5.4436  -5.3562  -5.2238  -5.1160
    -5.0758  -4.8898  -4.8357  -4.6848  -4.3602  -4.3409  -4.2080  -4.1348
    -4.1262  -4.0244  -3.9970  -3.9343  -3.9153  -3.8835  -3.8263  -3.7469
    -3.6012  -3.5757  -3.5310  -3.4341  -3.3814  -3.2331  -3.2231  -3.0722
    -2.7416  -2.3678  -2.2740  -2.2265  -2.2093  -2.1193  -2.1051  -1.9226
    -1.5626  -1.5047  -1.4481  -1.3359  -1.3252  -1.2512  -1.2011  -1.1488
    -1.0836  -1.0398  -0.8336  -0.1530   0.2132   0.8541   1.0092   1.0955
     1.2018   1.2217

          k =-0.3750 0.0000 0.0000 ( 39708 PWs)   bands (ev):

   -90.9014 -90.4770 -90.4011 -90.3812 -90.1962 -90.0894 -57.0866 -56.8889
   -56.7022 -56.6337 -56.4967 -56.4810 -56.4531 -56.4370 -56.4173 -56.3115
   -56.3059 -56.2696 -56.2273 -56.1973 -56.1824 -56.0558 -56.0359 -55.8669
   -19.0796 -18.9771 -18.8521 -18.6540 -18.4891 -18.4220 -18.3936 -18.3522
   -18.3049 -18.1825 -18.1271 -17.9433 -17.7219  -7.2918  -7.0379  -6.8680
    -6.7169  -6.6516  -6.6458  -6.6158  -6.4837  -6.4462  -6.2490  -6.1728
    -6.1510  -5.9790  -5.7941  -5.7203  -5.5906  -5.4607  -5.1868  -5.1658
    -4.9980  -4.8702  -4.8555  -4.8041  -4.6874  -4.5471  -4.5049  -4.3897
    -4.2773  -4.1198  -3.9778  -3.8911  -3.8527  -3.8332  -3.7607  -3.4398
    -3.4263  -3.2746  -3.2649  -3.1593  -3.0791  -2.9766  -2.7915  -2.7000
    -2.6392  -2.2549  -2.1712  -2.0376  -1.9955  -1.9377  -1.9101  -1.8382
    -1.7826  -1.7146  -1.5936  -1.4440  -1.4299  -1.3253  -1.1985  -0.8831
    -0.3709  -0.2550  -0.0115   0.0371   0.1168   0.2166   0.2578   0.3510
     1.0368   1.1679

          k =-0.3750 0.1179 0.0000 ( 39703 PWs)   bands (ev):

   -90.9014 -90.4770 -90.4011 -90.3812 -90.1962 -90.0894 -57.0867 -56.8889
   -56.7022 -56.6337 -56.4967 -56.4811 -56.4531 -56.4370 -56.4173 -56.3115
   -56.3059 -56.2695 -56.2273 -56.1973 -56.1824 -56.0558 -56.0359 -55.8669
   -19.0194 -18.9406 -18.8122 -18.6185 -18.5974 -18.4852 -18.4033 -18.3407
   -18.3212 -18.1814 -18.1443 -17.9430 -17.7204  -7.2834  -6.8973  -6.7793
    -6.7447  -6.6414  -6.5907  -6.5322  -6.4999  -6.4538  -6.3293  -6.2504
    -6.0075  -5.8881  -5.7409  -5.6501  -5.6096  -5.5151  -5.3115  -5.1358
    -4.9322  -4.8160  -4.7983  -4.7421  -4.6234  -4.5404  -4.4395  -4.3445
    -4.2751  -4.1624  -4.0694  -3.8739  -3.8434  -3.7704  -3.7015  -3.6779
    -3.5674  -3.4449  -3.4025  -3.2572  -3.0553  -2.9632  -2.8008  -2.7231
    -2.5553  -2.2990  -2.2167  -2.1795  -2.1154  -2.0249  -1.9183  -1.8463
    -1.7732  -1.5820  -1.4674  -1.4256  -1.3560  -1.3301  -1.2580  -1.1661
    -0.8750  -0.8427  -0.5762  -0.0912   0.2328   0.7830   0.8807   1.0748
     1.1119   1.2611

          k =-0.3750-0.2357 0.0000 ( 39694 PWs)   bands (ev):

   -90.9014 -90.4770 -90.4011 -90.3812 -90.1962 -90.0894 -57.0867 -56.8889
   -56.7022 -56.6337 -56.4967 -56.4811 -56.4531 -56.4370 -56.4173 -56.3116
   -56.3059 -56.2695 -56.2273 -56.1973 -56.1824 -56.0558 -56.0359 -55.8668
   -18.9410 -18.8371 -18.8295 -18.6484 -18.6275 -18.5317 -18.4771 -18.3340
   -18.3298 -18.1757 -18.1613 -17.9434 -17.7191  -7.2796  -6.8953  -6.7656
    -6.6590  -6.6350  -6.5855  -6.4780  -6.4331  -6.4089  -6.1341  -6.0657
    -6.0508  -6.0166  -5.8161  -5.6229  -5.5854  -5.4407  -5.2296  -5.1844
    -5.0314  -4.7824  -4.6394  -4.6179  -4.5336  -4.4975  -4.4829  -4.4230
    -4.2798  -4.1871  -4.1634  -4.0434  -3.9417  -3.8417  -3.7755  -3.7383
    -3.6230  -3.4905  -3.4110  -3.2595  -3.0243  -2.8736  -2.8673  -2.7795
    -2.4405  -2.3528  -2.2986  -2.2410  -2.2028  -2.0717  -1.9784  -1.7824
    -1.7798  -1.5827  -1.5423  -1.4676  -1.3714  -1.3437  -1.3315  -1.2714
    -1.1559  -0.9995  -0.8176  -0.0676   0.2362   1.0053   1.1273   1.2717
     1.3582   1.5347

          k =-0.3750-0.1179 0.0000 ( 39703 PWs)   bands (ev):

   -90.9014 -90.4770 -90.4011 -90.3812 -90.1962 -90.0894 -57.0867 -56.8889
   -56.7022 -56.6337 -56.4967 -56.4811 -56.4531 -56.4370 -56.4173 -56.3115
   -56.3059 -56.2695 -56.2273 -56.1973 -56.1824 -56.0558 -56.0359 -55.8669
   -19.0194 -18.9406 -18.8122 -18.6185 -18.5974 -18.4852 -18.4033 -18.3408
   -18.3212 -18.1814 -18.1443 -17.9430 -17.7204  -7.2834  -6.8973  -6.7793
    -6.7448  -6.6414  -6.5907  -6.5323  -6.4999  -6.4538  -6.3293  -6.2505
    -6.0075  -5.8880  -5.7409  -5.6501  -5.6094  -5.5151  -5.3114  -5.1358
    -4.9323  -4.8154  -4.7986  -4.7419  -4.6232  -4.5406  -4.4396  -4.3451
    -4.2752  -4.1624  -4.0692  -3.8739  -3.8437  -3.7699  -3.7014  -3.6779
    -3.5672  -3.4448  -3.4028  -3.2571  -3.0553  -2.9632  -2.8008  -2.7232
    -2.5552  -2.2990  -2.2168  -2.1794  -2.1154  -2.0251  -1.9183  -1.8464
    -1.7732  -1.5820  -1.4674  -1.4256  -1.3560  -1.3300  -1.2582  -1.1661
    -0.8750  -0.8426  -0.5761  -0.0912   0.2328   0.7830   0.8807   1.0747
     1.1118   1.2614

          k =-0.2500 0.0000 0.0000 ( 39608 PWs)   bands (ev):

   -90.9023 -90.4779 -90.4020 -90.3821 -90.1971 -90.0902 -57.0736 -56.8907
   -56.7031 -56.6206 -56.4985 -56.4669 -56.4540 -56.4233 -56.4191 -56.3069
   -56.2982 -56.2715 -56.2282 -56.1980 -56.1833 -56.0420 -56.0377 -55.8687
   -19.4870 -19.2996 -19.0897 -18.8277 -18.6582 -18.4415 -18.4030 -18.3466
   -18.2787 -18.1357 -18.1004 -17.8961 -17.7230  -7.4306  -7.2591  -7.1186
    -6.8960  -6.7253  -6.7152  -6.6207  -6.5249  -6.4771  -6.2996  -6.0775
    -5.7784  -5.7378  -5.6940  -5.5695  -5.3986  -5.2933  -5.2853  -5.1472
    -4.9630  -4.8607  -4.7745  -4.7657  -4.4264  -4.3511  -4.2999  -4.2461
    -4.1906  -4.1868  -4.0028  -3.9234  -3.8172  -3.7261  -3.5635  -3.4986
    -3.3001  -3.2894  -3.1674  -3.0293  -2.9846  -2.7406  -2.5578  -2.4976
    -2.3364  -2.2898  -2.1634  -2.1117  -2.0281  -1.8781  -1.8332  -1.7229
    -1.6958  -1.6008  -1.4935  -1.4818  -1.4060  -1.3242  -1.2686  -0.5081
    -0.1489  -0.0589  -0.0255   0.1215   0.2926   0.3459   0.4555   0.6604
     0.9963   1.2085

          k =-0.2500 0.1179 0.0000 ( 39638 PWs)   bands (ev):

   -90.9023 -90.4779 -90.4020 -90.3821 -90.1971 -90.0902 -57.0736 -56.8907
   -56.7031 -56.6206 -56.4985 -56.4669 -56.4540 -56.4233 -56.4191 -56.3069
   -56.2982 -56.2715 -56.2282 -56.1981 -56.1833 -56.0420 -56.0377 -55.8688
   -19.4028 -19.2335 -19.0520 -18.8228 -18.7968 -18.5993 -18.4563 -18.2949
   -18.2555 -18.1168 -18.0854 -17.8913 -17.7176  -7.1713  -7.0414  -6.9386
    -6.8065  -6.7071  -6.6496  -6.5978  -6.4935  -6.4464  -6.2485  -6.1439
    -5.8036  -5.7418  -5.6590  -5.6136  -5.4843  -5.4304  -5.3688  -5.2003
    -5.0794  -4.9014  -4.8789  -4.6668  -4.5583  -4.5023  -4.4080  -4.3313
    -4.2524  -4.1263  -4.0638  -3.9687  -3.8839  -3.8116  -3.7159  -3.5706
    -3.5439  -3.2491  -3.1422  -2.9564  -2.7079  -2.6290  -2.4619  -2.3016
    -2.2869  -2.2350  -2.1152  -2.1096  -2.0569  -1.8978  -1.8416  -1.8169
    -1.7314  -1.6486  -1.5399  -1.5252  -1.4613  -1.3484  -1.2237  -0.6366
    -0.4457  -0.3141  -0.0981   0.1003   0.4074   0.6482   0.6955   0.9352
     1.0309   1.3114

          k =-0.2500-0.2357 0.0000 ( 39652 PWs)   bands (ev):

   -90.9023 -90.4779 -90.4020 -90.3821 -90.1971 -90.0902 -57.0736 -56.8907
   -56.7030 -56.6206 -56.4985 -56.4669 -56.4539 -56.4234 -56.4190 -56.3069
   -56.2982 -56.2714 -56.2282 -56.1982 -56.1833 -56.0420 -56.0377 -55.8688
   -19.2196 -19.1713 -19.1083 -18.8771 -18.8137 -18.7094 -18.5890 -18.2572
   -18.2416 -18.1014 -18.0739 -17.8878 -17.7125  -6.9657  -6.8154  -6.7212
    -6.6698  -6.6207  -6.5183  -6.4762  -6.4075  -6.2906  -6.1633  -6.1487
    -6.0163  -5.8702  -5.7667  -5.7162  -5.6693  -5.6141  -5.3169  -5.1912
    -5.0792  -4.9621  -4.8149  -4.7996  -4.7099  -4.6989  -4.5833  -4.5093
    -4.4162  -4.4037  -4.0909  -4.0113  -3.9198  -3.7476  -3.7317  -3.5911
    -3.5550  -3.1632  -2.9798  -2.8718  -2.5318  -2.4714  -2.3864  -2.2398
    -2.1823  -2.1201  -2.1082  -2.0723  -2.0249  -2.0029  -1.9190  -1.8318
    -1.8135  -1.6753  -1.6128  -1.5363  -1.4861  -1.4443  -1.1795  -0.9131
    -0.5458  -0.4074  -0.2642   0.1193   0.4234   0.7805   0.9015   1.1074
     1.2465   1.3719

          k =-0.2500-0.1179 0.0000 ( 39638 PWs)   bands (ev):

   -90.9023 -90.4779 -90.4020 -90.3821 -90.1971 -90.0902 -57.0736 -56.8907
   -56.7031 -56.6206 -56.4985 -56.4669 -56.4540 -56.4233 -56.4191 -56.3069
   -56.2982 -56.2715 -56.2282 -56.1981 -56.1833 -56.0420 -56.0377 -55.8688
   -19.4028 -19.2335 -19.0520 -18.8228 -18.7968 -18.5993 -18.4563 -18.2949
   -18.2555 -18.1168 -18.0854 -17.8913 -17.7176  -7.1713  -7.0413  -6.9386
    -6.8066  -6.7071  -6.6496  -6.5978  -6.4936  -6.4464  -6.2487  -6.1436
    -5.8036  -5.7418  -5.6591  -5.6136  -5.4839  -5.4304  -5.3686  -5.2002
    -5.0791  -4.9018  -4.8793  -4.6666  -4.5582  -4.5022  -4.4082  -4.3314
    -4.2525  -4.1265  -4.0638  -3.9687  -3.8838  -3.8115  -3.7158  -3.5706
    -3.5437  -3.2489  -3.1424  -2.9564  -2.7079  -2.6290  -2.4620  -2.3017
    -2.2870  -2.2347  -2.1151  -2.1096  -2.0570  -1.8978  -1.8416  -1.8170
    -1.7315  -1.6485  -1.5398  -1.5253  -1.4612  -1.3488  -1.2236  -0.6366
    -0.4456  -0.3140  -0.0980   0.1003   0.4074   0.6481   0.6955   0.9350
     1.0310   1.3116

          k =-0.1250 0.0000 0.0000 ( 39512 PWs)   bands (ev):

   -90.9031 -90.4787 -90.4028 -90.3830 -90.1979 -90.0911 -57.0604 -56.8924
   -56.7039 -56.6074 -56.5003 -56.4550 -56.4525 -56.4210 -56.4095 -56.3077
   -56.2851 -56.2735 -56.2291 -56.1988 -56.1842 -56.0395 -56.0281 -55.8706
   -19.8009 -19.5709 -19.3050 -18.9915 -18.8284 -18.5609 -18.3849 -18.3802
   -18.2535 -18.1095 -18.0743 -17.8461 -17.7126  -7.8176  -7.6287  -7.4120
    -7.1042  -6.9182  -6.6493  -6.5929  -6.4304  -6.3020  -6.2863  -6.0938
    -6.0884  -5.9826  -5.9165  -5.6799  -5.0554  -4.9535  -4.7384  -4.6188
    -4.5119  -4.4988  -4.3587  -4.3425  -4.3194  -4.2172  -4.1519  -4.0134
    -4.0079  -3.8867  -3.7982  -3.7673  -3.6423  -3.6226  -3.6224  -3.5550
    -3.4770  -3.4288  -3.3042  -3.1247  -3.0146  -2.8942  -2.5579  -2.4621
    -2.4588  -2.3299  -2.1855  -2.1076  -1.9639  -1.8026  -1.7545  -1.6097
    -1.5556  -1.5351  -1.4157  -1.3796  -1.3758  -1.2303  -1.2052  -0.6219
    -0.1912   0.0065   0.3924   0.4357   0.6463   0.8151   0.9095   1.0527
     1.1030   1.3786

          k =-0.1250 0.1179 0.0000 ( 39558 PWs)   bands (ev):

   -90.9031 -90.4787 -90.4028 -90.3830 -90.1979 -90.0911 -57.0604 -56.8925
   -56.7040 -56.6074 -56.5003 -56.4550 -56.4525 -56.4210 -56.4095 -56.3077
   -56.2851 -56.2734 -56.2291 -56.1990 -56.1843 -56.0395 -56.0281 -55.8707
   -19.7034 -19.4876 -19.2643 -19.0232 -18.9666 -18.7276 -18.5412 -18.2701
   -18.2099 -18.0871 -18.0346 -17.8408 -17.7046  -7.5586  -7.3939  -7.1828
    -7.0891  -6.9109  -6.6398  -6.5733  -6.3643  -6.3169  -6.1852  -6.0956
    -6.0557  -5.9537  -5.8633  -5.5610  -5.0875  -5.0164  -4.9572  -4.8728
    -4.7577  -4.6885  -4.6235  -4.5313  -4.4440  -4.3887  -4.3407  -4.2611
    -4.2132  -4.1806  -4.0073  -3.7744  -3.6623  -3.5841  -3.5329  -3.4100
    -3.3054  -3.1556  -3.0113  -2.9295  -2.7567  -2.7138  -2.5674  -2.4098
    -2.3584  -2.2843  -2.2387  -2.0774  -1.9783  -1.8924  -1.7971  -1.7371
    -1.6708  -1.5813  -1.5358  -1.4956  -1.3531  -1.2822  -1.1402  -0.2977
     0.0216   0.1676   0.2864   0.5432   0.6559   0.7632   0.9243   0.9896
     1.0938   1.3690

          k =-0.1250-0.2357 0.0000 ( 39644 PWs)   bands (ev):

   -90.9031 -90.4787 -90.4028 -90.3830 -90.1979 -90.0911 -57.0604 -56.8925
   -56.7040 -56.6074 -56.5003 -56.4551 -56.4525 -56.4210 -56.4095 -56.3077
   -56.2852 -56.2733 -56.2292 -56.1992 -56.1843 -56.0396 -56.0281 -55.8708
   -19.4697 -19.4401 -19.3348 -19.0938 -18.9804 -18.8720 -18.7032 -18.2143
   -18.1894 -18.0633 -18.0095 -17.8359 -17.6967  -7.2092  -7.1565  -7.0582
    -6.8919  -6.7988  -6.6790  -6.5205  -6.3253  -6.2907  -6.1178  -6.0822
    -6.0431  -5.9432  -5.5720  -5.5317  -5.3103  -5.2460  -5.1854  -5.0557
    -5.0100  -4.9011  -4.8518  -4.7497  -4.7341  -4.6992  -4.5681  -4.3846
    -4.3149  -4.3092  -4.0211  -3.7066  -3.6230  -3.5436  -3.4794  -3.2449
    -3.1757  -2.9240  -2.8661  -2.6950  -2.5767  -2.5434  -2.4942  -2.4000
    -2.2837  -2.2805  -2.1817  -2.1221  -1.9900  -1.9445  -1.8643  -1.8260
    -1.7460  -1.6784  -1.6115  -1.5351  -1.4156  -1.4042  -1.0429  -0.0808
    -0.0048   0.1871   0.4561   0.5101   0.7310   0.7800   0.9061   1.0762
     1.1281   1.2342

          k =-0.1250-0.1179 0.0000 ( 39558 PWs)   bands (ev):

   -90.9031 -90.4787 -90.4028 -90.3830 -90.1979 -90.0911 -57.0604 -56.8925
   -56.7040 -56.6074 -56.5003 -56.4550 -56.4525 -56.4210 -56.4095 -56.3077
   -56.2851 -56.2734 -56.2291 -56.1990 -56.1843 -56.0395 -56.0281 -55.8707
   -19.7034 -19.4876 -19.2643 -19.0232 -18.9666 -18.7276 -18.5412 -18.2701
   -18.2099 -18.0871 -18.0345 -17.8408 -17.7046  -7.5586  -7.3939  -7.1828
    -7.0891  -6.9109  -6.6398  -6.5733  -6.3643  -6.3172  -6.1852  -6.0954
    -6.0557  -5.9537  -5.8635  -5.5606  -5.0875  -5.0165  -4.9572  -4.8728
    -4.7575  -4.6887  -4.6236  -4.5313  -4.4444  -4.3887  -4.3407  -4.2612
    -4.2132  -4.1805  -4.0072  -3.7743  -3.6623  -3.5842  -3.5330  -3.4102
    -3.3050  -3.1555  -3.0113  -2.9292  -2.7567  -2.7136  -2.5687  -2.4096
    -2.3586  -2.2840  -2.2389  -2.0764  -1.9783  -1.8924  -1.7973  -1.7372
    -1.6709  -1.5812  -1.5359  -1.4958  -1.3530  -1.2823  -1.1402  -0.2977
     0.0216   0.1677   0.2864   0.5432   0.6559   0.7632   0.9242   0.9894
     1.0939   1.3692

 ------ SPIN DOWN ----------


          k = 0.0000 0.0000 0.0000 ( 39531 PWs)   bands (ev):

   -87.6632 -87.6395 -87.6093 -87.5498 -87.4698 -87.1089 -53.8417 -53.8181
   -53.7307 -53.7223 -53.6866 -53.6550 -53.6398 -53.6395 -53.6006 -53.5891
   -53.5340 -53.5279 -53.5146 -53.4565 -53.4412 -53.3556 -53.2635 -52.9218
   -19.6365 -19.3995 -19.1140 -18.7750 -18.5796 -18.3050 -18.0805 -18.0705
   -17.9707 -17.8421 -17.7651 -17.3430 -17.2487  -7.3493  -7.1413  -7.0376
    -6.5124  -6.1865  -5.9054  -5.7793  -5.4002  -5.3634  -5.3376  -5.3326
    -5.3085  -5.1427  -5.0526  -4.7841  -4.2531  -4.0806  -3.9528  -3.7645
    -3.7415  -3.5023  -3.4838  -3.3441  -3.2716  -3.1065  -3.0284  -2.8949
    -2.8733  -2.7131  -2.5652  -2.2798  -2.2354  -2.1695  -2.0639  -1.6434
    -1.5185  -1.4832  -1.0986  -1.0832  -1.0592  -0.9493  -0.8865  -0.8728
    -0.8388  -0.8194  -0.7688  -0.5183  -0.4740  -0.2799  -0.2793  -0.1349
    -0.1153   0.3302   0.3718   0.6609   0.7731   0.8233   0.9186   0.9276
     1.2191   1.6041   2.1142   2.1487   2.2092   2.4123   2.4941   2.5095
     2.5361   2.7162

          k = 0.0000 0.1179 0.0000 ( 39518 PWs)   bands (ev):

   -87.6632 -87.6395 -87.6093 -87.5498 -87.4698 -87.1089 -53.8417 -53.8180
   -53.7307 -53.7223 -53.6866 -53.6550 -53.6398 -53.6395 -53.6005 -53.5889
   -53.5338 -53.5282 -53.5145 -53.4565 -53.4414 -53.3556 -53.2636 -52.9218
   -19.5359 -19.3173 -19.0726 -18.7701 -18.7512 -18.4984 -18.2749 -17.9607
   -17.8890 -17.7830 -17.7443 -17.3338 -17.2378  -7.1060  -6.9025  -6.8306
    -6.5153  -6.1949  -5.9349  -5.7939  -5.3727  -5.3630  -5.3092  -5.2887
    -5.1388  -5.1371  -5.0555  -4.6202  -4.3532  -4.3213  -4.1996  -4.0627
    -3.7694  -3.7224  -3.5364  -3.4722  -3.3848  -3.2741  -3.1456  -2.9215
    -2.9067  -2.7487  -2.6717  -2.4246  -2.3999  -2.2968  -1.9446  -1.7961
    -1.6333  -1.4686  -1.3002  -0.9618  -0.8246  -0.7627  -0.7052  -0.6901
    -0.6640  -0.5980  -0.5434  -0.4983  -0.4661  -0.2799  -0.2714  -0.1142
    -0.0730   0.3191   0.5608   0.6393   0.6582   0.7004   0.8381   1.2079
     1.4771   1.6567   2.1147   2.1476   2.1505   2.2996   2.3872   2.4251
     2.5223   2.6078

          k = 0.0000-0.2357 0.0000 ( 39538 PWs)   bands (ev):

   -87.6632 -87.6395 -87.6093 -87.5498 -87.4698 -87.1089 -53.8416 -53.8180
   -53.7307 -53.7223 -53.6866 -53.6550 -53.6398 -53.6394 -53.6006 -53.5886
   -53.5337 -53.5285 -53.5145 -53.4565 -53.4416 -53.3556 -53.2637 -52.9218
   -19.3161 -19.2601 -19.1309 -18.8530 -18.7563 -18.6174 -18.5037 -17.8970
   -17.8483 -17.7449 -17.7278 -17.3251 -17.2268  -6.7581  -6.6785  -6.5634
    -6.4248  -6.2420  -5.9844  -5.8080  -5.3629  -5.3430  -5.2812  -5.2659
    -5.1295  -5.0593  -4.7794  -4.7557  -4.5770  -4.5441  -4.4472  -4.1939
    -4.0391  -3.9474  -3.6194  -3.5430  -3.4959  -3.3090  -3.2786  -2.9410
    -2.9367  -2.9154  -2.7465  -2.6199  -2.3566  -2.3256  -2.0304  -1.6823
    -1.5688  -1.3572  -1.3346  -1.1443  -0.8068  -0.6197  -0.5832  -0.5472
    -0.4900  -0.4700  -0.4031  -0.3790  -0.3305  -0.3244  -0.2495  -0.1002
     0.1829   0.2508   0.4044   0.4682   0.6892   0.6924   0.9222   1.3349
     1.6598   1.9848   2.1135   2.1398   2.1648   2.1809   2.2697   2.2832
     2.3207   2.5213

          k = 0.0000-0.1179 0.0000 ( 39518 PWs)   bands (ev):

   -87.6632 -87.6395 -87.6093 -87.5498 -87.4698 -87.1089 -53.8417 -53.8180
   -53.7307 -53.7223 -53.6866 -53.6550 -53.6398 -53.6395 -53.6005 -53.5889
   -53.5338 -53.5282 -53.5145 -53.4565 -53.4414 -53.3556 -53.2636 -52.9218
   -19.5359 -19.3173 -19.0726 -18.7701 -18.7512 -18.4984 -18.2749 -17.9607
   -17.8890 -17.7830 -17.7443 -17.3338 -17.2378  -7.1060  -6.9025  -6.8306
    -6.5153  -6.1949  -5.9349  -5.7939  -5.3727  -5.3630  -5.3092  -5.2887
    -5.1388  -5.1371  -5.0555  -4.6202  -4.3532  -4.3213  -4.1996  -4.0627
    -3.7694  -3.7224  -3.5364  -3.4722  -3.3848  -3.2741  -3.1456  -2.9215
    -2.9067  -2.7487  -2.6717  -2.4246  -2.3999  -2.2968  -1.9446  -1.7961
    -1.6333  -1.4686  -1.3002  -0.9618  -0.8246  -0.7627  -0.7052  -0.6901
    -0.6640  -0.5980  -0.5434  -0.4983  -0.4661  -0.2799  -0.2714  -0.1142
    -0.0730   0.3191   0.5608   0.6393   0.6582   0.7004   0.8381   1.2079
     1.4771   1.6567   2.1147   2.1476   2.1505   2.2996   2.3872   2.4251
     2.5223   2.6078

          k = 0.1250 0.0000 0.0000 ( 39512 PWs)   bands (ev):

   -87.6628 -87.6391 -87.6089 -87.5494 -87.4694 -87.1085 -53.8486 -53.8245
   -53.7310 -53.7285 -53.6927 -53.6618 -53.6390 -53.6389 -53.5995 -53.5886
   -53.5335 -53.5270 -53.5136 -53.4561 -53.4403 -53.3624 -53.2625 -52.9213
   -19.5203 -19.2977 -19.0294 -18.7126 -18.5084 -18.2538 -18.0838 -18.0470
   -17.9775 -17.8503 -17.7725 -17.3568 -17.2491  -7.2067  -7.0356  -6.9358
    -6.4397  -6.1295  -5.8999  -5.8450  -5.6487  -5.5773  -5.4543  -5.3016
    -5.2084  -5.0872  -5.0762  -4.5219  -4.2485  -4.1289  -3.8444  -3.8103
    -3.6947  -3.6910  -3.6238  -3.5147  -3.4856  -3.3593  -3.3003  -3.1175
    -2.8242  -2.7834  -2.7267  -2.6321  -2.4161  -2.2469  -2.1630  -1.9597
    -1.7874  -1.7555  -1.3797  -0.9295  -0.9227  -0.8713  -0.6968  -0.6621
    -0.6479  -0.5896  -0.4102  -0.3409  -0.3019  -0.2248  -0.1248  -0.1193
     0.0892   0.2721   0.5554   0.5661   0.6698   0.7360   0.8545   1.0078
     1.3131   1.5964   1.7645   1.8939   2.1837   2.1936   2.2641   2.2831
     2.3142   2.6104

          k = 0.1250 0.1179 0.0000 ( 39558 PWs)   bands (ev):

   -87.6628 -87.6391 -87.6089 -87.5494 -87.4694 -87.1085 -53.8486 -53.8245
   -53.7310 -53.7285 -53.6927 -53.6618 -53.6390 -53.6389 -53.5996 -53.5884
   -53.5333 -53.5273 -53.5136 -53.4561 -53.4405 -53.3624 -53.2626 -52.9213
   -19.4242 -19.2211 -18.9885 -18.6951 -18.6826 -18.4427 -18.2362 -17.9681
   -17.9013 -17.7972 -17.7539 -17.3480 -17.2393  -6.9642  -6.7844  -6.7146
    -6.4397  -6.1362  -5.9149  -5.8744  -5.5653  -5.5002  -5.4108  -5.3213
    -5.2278  -5.1072  -4.8550  -4.4996  -4.2530  -4.1851  -4.0868  -4.0104
    -3.9162  -3.9013  -3.8108  -3.7578  -3.6531  -3.4729  -3.3518  -3.2846
    -3.0600  -2.9534  -2.7907  -2.5816  -2.4016  -2.2799  -2.0044  -1.8670
    -1.8302  -1.6231  -1.4018  -1.0225  -0.6973  -0.6298  -0.5748  -0.5056
    -0.4939  -0.4440  -0.4200  -0.3047  -0.2673  -0.1852  -0.1211  -0.1026
     0.0987   0.2498   0.5051   0.5660   0.6087   0.7312   0.7932   1.2150
     1.4787   1.6086   1.7478   1.8680   2.0233   2.0998   2.2223   2.2383
     2.3378   2.6055

          k = 0.1250-0.2357 0.0000 ( 39644 PWs)   bands (ev):

   -87.6628 -87.6391 -87.6089 -87.5494 -87.4694 -87.1085 -53.8487 -53.8245
   -53.7310 -53.7285 -53.6928 -53.6618 -53.6390 -53.6389 -53.5996 -53.5882
   -53.5332 -53.5275 -53.5137 -53.4561 -53.4407 -53.3624 -53.2627 -52.9213
   -19.2218 -19.1589 -19.0417 -18.7697 -18.6908 -18.5521 -18.4549 -17.9106
   -17.8640 -17.7648 -17.7383 -17.3398 -17.2297  -6.6391  -6.5450  -6.4193
    -6.3098  -6.1776  -5.9549  -5.9015  -5.4432  -5.4411  -5.3862  -5.3290
    -5.2263  -5.1094  -4.5720  -4.4995  -4.4810  -4.3987  -4.3274  -4.3124
    -4.1772  -4.1350  -4.0485  -3.9474  -3.7082  -3.5458  -3.4446  -3.3286
    -3.1883  -3.0759  -2.8000  -2.7593  -2.2378  -2.1796  -1.9484  -1.7322
    -1.6311  -1.5840  -1.4673  -1.1641  -0.6897  -0.5432  -0.4991  -0.4692
    -0.4265  -0.3053  -0.2448  -0.2225  -0.1374  -0.1200  -0.0773   0.0921
     0.1268   0.2332   0.3331   0.3935   0.6073   0.6133   0.9833   1.3441
     1.5110   1.6426   1.7128   1.7705   1.9544   2.0333   2.2364   2.3031
     2.3593   2.4655

          k = 0.1250-0.1179 0.0000 ( 39558 PWs)   bands (ev):

   -87.6628 -87.6391 -87.6089 -87.5494 -87.4694 -87.1085 -53.8486 -53.8245
   -53.7310 -53.7285 -53.6927 -53.6618 -53.6390 -53.6389 -53.5996 -53.5884
   -53.5333 -53.5273 -53.5136 -53.4561 -53.4405 -53.3624 -53.2626 -52.9213
   -19.4242 -19.2211 -18.9885 -18.6951 -18.6826 -18.4427 -18.2361 -17.9681
   -17.9013 -17.7972 -17.7539 -17.3480 -17.2393  -6.9642  -6.7844  -6.7146
    -6.4397  -6.1362  -5.9149  -5.8744  -5.5653  -5.5002  -5.4108  -5.3213
    -5.2278  -5.1072  -4.8550  -4.4997  -4.2530  -4.1852  -4.0870  -4.0104
    -3.9162  -3.9013  -3.8109  -3.7581  -3.6528  -3.4723  -3.3521  -3.2847
    -3.0600  -2.9535  -2.7907  -2.5808  -2.4018  -2.2799  -2.0039  -1.8676
    -1.8300  -1.6245  -1.4020  -1.0213  -0.6973  -0.6298  -0.5748  -0.5056
    -0.4939  -0.4440  -0.4200  -0.3048  -0.2672  -0.1854  -0.1210  -0.1026
     0.0987   0.2498   0.5052   0.5661   0.6087   0.7312   0.7932   1.2150
     1.4787   1.6086   1.7478   1.8680   2.0233   2.0999   2.2223   2.2383
     2.3377   2.6054

          k = 0.2500 0.0000 0.0000 ( 39608 PWs)   bands (ev):

   -87.6618 -87.6381 -87.6079 -87.5485 -87.4684 -87.1075 -53.8653 -53.8400
   -53.7439 -53.7325 -53.7062 -53.6782 -53.6379 -53.6366 -53.5971 -53.5873
   -53.5323 -53.5249 -53.5114 -53.4550 -53.4380 -53.3788 -53.2602 -52.9202
   -19.2065 -19.0311 -18.8146 -18.5604 -18.3312 -18.1388 -18.0926 -18.0210
   -17.9948 -17.8708 -17.7971 -17.3854 -17.2435  -6.8402  -6.7954  -6.7357
    -6.4362  -6.1312  -5.9021  -5.8955  -5.8324  -5.7510  -5.5455  -5.3865
    -5.1896  -4.9747  -4.8866  -4.7509  -4.6067  -4.5439  -4.4379  -4.2718
    -4.0650  -4.0411  -3.9523  -3.4627  -3.4456  -3.3620  -3.3346  -3.2121
    -3.1616  -2.7316  -2.6983  -2.6537  -2.6338  -2.5980  -2.3152  -2.2189
    -2.1944  -1.8360  -1.2919  -1.1650  -0.7305  -0.7274  -0.7226  -0.5357
    -0.4903  -0.4092  -0.1315  -0.1099  -0.0395  -0.0079   0.0182   0.1949
     0.2211   0.3172   0.3908   0.4460   0.5359   0.6504   0.7859   1.0224
     1.2094   1.4840   1.5356   1.6762   1.7891   1.7956   1.8450   1.9073
     2.2257   2.3424

          k = 0.2500 0.1179 0.0000 ( 39638 PWs)   bands (ev):

   -87.6618 -87.6381 -87.6079 -87.5485 -87.4684 -87.1075 -53.8654 -53.8400
   -53.7439 -53.7325 -53.7062 -53.6782 -53.6380 -53.6366 -53.5971 -53.5872
   -53.5322 -53.5250 -53.5114 -53.4550 -53.4381 -53.3788 -53.2602 -52.9202
   -19.1249 -18.9714 -18.7737 -18.5305 -18.4903 -18.3080 -18.1536 -17.9912
   -17.9402 -17.8416 -17.7820 -17.3791 -17.2375  -6.6513  -6.5404  -6.5149
    -6.3308  -6.1274  -5.8909  -5.8255  -5.8031  -5.6858  -5.5149  -5.4278
    -5.1819  -5.0402  -4.9444  -4.8423  -4.7099  -4.6118  -4.4629  -4.3733
    -4.1871  -4.0388  -3.8875  -3.8215  -3.7419  -3.6531  -3.4973  -3.3391
    -3.1349  -2.9485  -2.6982  -2.5905  -2.4917  -2.3608  -2.2982  -2.2321
    -2.0263  -1.7767  -1.4164  -1.1714  -0.7396  -0.5496  -0.5229  -0.4495
    -0.4201  -0.2535  -0.1971  -0.1201  -0.0681  -0.0417   0.0455   0.1857
     0.2048   0.3367   0.3598   0.4036   0.4681   0.5889   0.8718   1.0748
     1.1498   1.2692   1.2949   1.4802   1.6513   1.9531   2.0184   2.2004
     2.3419   2.4770

          k = 0.2500-0.2357 0.0000 ( 39652 PWs)   bands (ev):

   -87.6618 -87.6381 -87.6079 -87.5485 -87.4684 -87.1075 -53.8654 -53.8400
   -53.7439 -53.7325 -53.7063 -53.6782 -53.6380 -53.6366 -53.5971 -53.5870
   -53.5321 -53.5252 -53.5114 -53.4550 -53.4382 -53.3788 -53.2603 -52.9202
   -18.9793 -18.8911 -18.8072 -18.5598 -18.5260 -18.3944 -18.3380 -17.9528
   -17.9126 -17.8239 -17.7699 -17.3736 -17.2318  -6.5708  -6.2578  -6.2004
    -6.0107  -5.9857  -5.8916  -5.8569  -5.6065  -5.5204  -5.4814  -5.4371
    -5.2473  -5.2123  -5.1951  -4.9573  -4.8417  -4.8109  -4.6374  -4.4893
    -4.2829  -4.2090  -4.1741  -3.9577  -3.7909  -3.6633  -3.5506  -3.3799
    -3.3533  -2.9233  -2.7538  -2.6597  -2.3515  -2.3446  -2.1236  -2.0705
    -1.7891  -1.7521  -1.6272  -1.2276  -0.5608  -0.5138  -0.5089  -0.3731
    -0.3179  -0.2545  -0.2178  -0.0593  -0.0546   0.0383   0.0644   0.1450
     0.2699   0.2834   0.3635   0.3992   0.4514   0.5084   0.9260   0.9813
     0.9916   1.0431   1.1300   1.4587   1.6616   2.0557   2.0779   2.4357
     2.4593   2.5554

          k = 0.2500-0.1179 0.0000 ( 39638 PWs)   bands (ev):

   -87.6618 -87.6381 -87.6079 -87.5485 -87.4684 -87.1075 -53.8654 -53.8400
   -53.7439 -53.7325 -53.7062 -53.6782 -53.6380 -53.6366 -53.5971 -53.5872
   -53.5322 -53.5250 -53.5114 -53.4550 -53.4381 -53.3788 -53.2602 -52.9202
   -19.1249 -18.9713 -18.7737 -18.5305 -18.4903 -18.3080 -18.1536 -17.9912
   -17.9402 -17.8417 -17.7820 -17.3791 -17.2375  -6.6514  -6.5403  -6.5149
    -6.3307  -6.1275  -5.8909  -5.8255  -5.8031  -5.6856  -5.5147  -5.4279
    -5.1819  -5.0402  -4.9444  -4.8423  -4.7099  -4.6118  -4.4630  -4.3735
    -4.1871  -4.0385  -3.8878  -3.8215  -3.7418  -3.6534  -3.4974  -3.3392
    -3.1346  -2.9485  -2.6982  -2.5900  -2.4917  -2.3602  -2.2977  -2.2324
    -2.0261  -1.7788  -1.4163  -1.1710  -0.7393  -0.5496  -0.5228  -0.4495
    -0.4198  -0.2535  -0.1972  -0.1201  -0.0681  -0.0417   0.0455   0.1857
     0.2049   0.3366   0.3596   0.4036   0.4682   0.5890   0.8718   1.0748
     1.1498   1.2692   1.2949   1.4803   1.6513   1.9532   2.0184   2.2004
     2.3418   2.4768

          k = 0.3750 0.0000 0.0000 ( 39708 PWs)   bands (ev):

   -87.6609 -87.6371 -87.6069 -87.5475 -87.4674 -87.1065 -53.8820 -53.8555
   -53.7590 -53.7384 -53.7154 -53.6945 -53.6369 -53.6344 -53.5947 -53.5861
   -53.5312 -53.5228 -53.5093 -53.4540 -53.4358 -53.3952 -53.2579 -52.9191
   -18.8036 -18.7160 -18.5738 -18.4032 -18.1515 -18.1022 -18.0870 -18.0564
   -18.0131 -17.8919 -17.8320 -17.4045 -17.2267  -6.9903  -6.6469  -6.4698
    -6.3116  -6.2401  -5.9567  -5.9326  -5.8104  -5.6993  -5.6581  -5.6015
    -5.3900  -5.2813  -5.1345  -4.9991  -4.9313  -4.8728  -4.4796  -4.2865
    -4.0860  -4.0717  -3.9224  -3.8600  -3.8273  -3.5601  -3.3470  -3.1695
    -3.0346  -2.8206  -2.8169  -2.7247  -2.5623  -2.5277  -2.2368  -2.2079
    -2.1453  -1.7887  -1.6508  -1.4093  -0.7193  -0.6761  -0.6194  -0.4953
    -0.4676  -0.3900  -0.3200  -0.2207  -0.0854   0.0245   0.0962   0.1906
     0.2876   0.3256   0.4222   0.4504   0.6328   0.6431   0.7293   0.7429
     1.2468   1.4516   1.4916   1.5367   1.5691   1.5711   1.6274   1.6662
     2.2233   2.2909

          k = 0.3750 0.1179 0.0000 ( 39703 PWs)   bands (ev):

   -87.6609 -87.6371 -87.6069 -87.5475 -87.4674 -87.1065 -53.8820 -53.8555
   -53.7590 -53.7384 -53.7154 -53.6945 -53.6369 -53.6344 -53.5947 -53.5860
   -53.5311 -53.5228 -53.5093 -53.4540 -53.4358 -53.3951 -53.2579 -52.9191
   -18.7554 -18.6745 -18.5288 -18.3634 -18.2755 -18.1755 -18.1025 -18.0421
   -18.0074 -17.9139 -17.8233 -17.4033 -17.2252  -6.9742  -6.3983  -6.3188
    -6.2576  -6.1091  -5.9814  -5.9156  -5.8577  -5.8435  -5.6581  -5.4951
    -5.4171  -5.1673  -5.1000  -5.0335  -4.9233  -4.9021  -4.5070  -4.4241
    -4.3477  -4.0866  -4.0065  -3.9427  -3.6778  -3.5902  -3.3014  -3.1559
    -3.0670  -2.8808  -2.8049  -2.7719  -2.6698  -2.5292  -2.3146  -2.1999
    -1.8851  -1.7455  -1.6756  -1.4830  -0.7200  -0.6387  -0.6108  -0.5764
    -0.4947  -0.4407  -0.3674  -0.3055  -0.2279  -0.1863  -0.0765   0.1932
     0.3981   0.4434   0.5373   0.5668   0.6265   0.6769   0.7226   0.7350
     0.8633   0.9226   0.9410   1.4047   1.4596   2.1105   2.1971   2.3212
     2.3703   2.4070

          k = 0.3750-0.2357 0.0000 ( 39694 PWs)   bands (ev):

   -87.6609 -87.6371 -87.6069 -87.5475 -87.4674 -87.1064 -53.8820 -53.8555
   -53.7590 -53.7384 -53.7155 -53.6946 -53.6369 -53.6344 -53.5947 -53.5859
   -53.5310 -53.5228 -53.5093 -53.4540 -53.4358 -53.3951 -53.2579 -52.9191
   -18.7107 -18.5571 -18.5203 -18.3412 -18.3354 -18.2276 -18.2244 -18.0323
   -18.0023 -17.9211 -17.8209 -17.4024 -17.2237  -6.9648  -6.2913  -6.2306
    -6.0834  -5.9324  -5.8890  -5.8491  -5.8117  -5.7454  -5.6142  -5.5863
    -5.2990  -5.2722  -5.2064  -5.0572  -5.0265  -4.9248  -4.6723  -4.5085
    -4.4740  -4.2416  -4.0736  -3.9760  -3.7235  -3.3758  -3.3498  -3.1370
    -3.1080  -2.8760  -2.8160  -2.7378  -2.6866  -2.6658  -2.3072  -2.1886
    -1.7684  -1.6762  -1.5734  -1.4951  -0.9046  -0.7796  -0.6843  -0.5382
    -0.5128  -0.5051  -0.4062  -0.3371  -0.2904  -0.1525  -0.1217   0.1481
     0.3703   0.4696   0.5047   0.5652   0.5929   0.6208   0.6454   0.7147
     0.7732   0.8001   0.8111   1.4466   1.4638   2.2333   2.2813   2.5645
     2.6650   2.6804

          k = 0.3750-0.1179 0.0000 ( 39703 PWs)   bands (ev):

   -87.6609 -87.6371 -87.6069 -87.5475 -87.4674 -87.1065 -53.8820 -53.8555
   -53.7590 -53.7384 -53.7154 -53.6945 -53.6369 -53.6344 -53.5947 -53.5860
   -53.5311 -53.5228 -53.5093 -53.4540 -53.4358 -53.3951 -53.2579 -52.9191
   -18.7553 -18.6745 -18.5288 -18.3634 -18.2755 -18.1755 -18.1025 -18.0421
   -18.0074 -17.9140 -17.8233 -17.4033 -17.2252  -6.9743  -6.3983  -6.3188
    -6.2576  -6.1089  -5.9814  -5.9156  -5.8577  -5.8434  -5.6580  -5.4951
    -5.4172  -5.1672  -5.1001  -5.0334  -4.9233  -4.9021  -4.5070  -4.4241
    -4.3477  -4.0866  -4.0065  -3.9431  -3.6777  -3.5904  -3.3015  -3.1559
    -3.0670  -2.8811  -2.8050  -2.7718  -2.6698  -2.5277  -2.3144  -2.2004
    -1.8852  -1.7456  -1.6766  -1.4829  -0.7200  -0.6387  -0.6107  -0.5759
    -0.4947  -0.4407  -0.3674  -0.3055  -0.2280  -0.1863  -0.0763   0.1930
     0.3981   0.4433   0.5373   0.5669   0.6265   0.6770   0.7227   0.7350
     0.8633   0.9226   0.9410   1.4047   1.4596   2.1106   2.1972   2.3212
     2.3703   2.4068

          k =-0.5000 0.0000 0.0000 ( 39696 PWs)   bands (ev):

   -87.6605 -87.6366 -87.6065 -87.5471 -87.4670 -87.1060 -53.8889 -53.8619
   -53.7652 -53.7426 -53.7174 -53.7012 -53.6364 -53.6334 -53.5937 -53.5855
   -53.5307 -53.5219 -53.5083 -53.4535 -53.4349 -53.4019 -53.2569 -52.9186
   -18.5945 -18.5135 -18.4407 -18.3287 -18.2166 -18.1065 -18.0948 -18.0538
   -18.0210 -17.9008 -17.8408 -17.4086 -17.2163  -7.1775  -6.6502  -6.4517
    -6.3884  -6.0812  -5.9818  -5.9594  -5.8763  -5.8522  -5.7930  -5.5847
    -5.4704  -5.1687  -5.1673  -5.0426  -4.8924  -4.8017  -4.5339  -4.4072
    -4.2896  -4.2378  -4.1833  -4.1241  -3.5339  -3.1601  -3.1265  -3.1058
    -2.9773  -2.8824  -2.8156  -2.7391  -2.7138  -2.5121  -2.4305  -2.2992
    -2.1964  -1.8719  -1.6486  -1.4372  -0.7005  -0.6428  -0.5834  -0.5525
    -0.5370  -0.4564  -0.2691  -0.2630  -0.2117  -0.1716  -0.0415   0.0963
     0.3315   0.4398   0.4796   0.5124   0.5846   0.6780   0.7286   0.8602
     1.3253   1.3496   1.4338   1.4658   1.4874   1.5351   1.5789   1.6320
     2.2341   2.3520

          k =-0.5000 0.1179 0.0000 ( 39700 PWs)   bands (ev):

   -87.6605 -87.6366 -87.6065 -87.5471 -87.4670 -87.1060 -53.8889 -53.8619
   -53.7652 -53.7426 -53.7175 -53.7012 -53.6365 -53.6334 -53.5937 -53.5855
   -53.5306 -53.5219 -53.5083 -53.4535 -53.4349 -53.4019 -53.2569 -52.9186
   -18.5921 -18.4621 -18.3933 -18.2846 -18.1986 -18.1631 -18.1034 -18.0757
   -18.0568 -17.9560 -17.8485 -17.4101 -17.2161  -7.1681  -6.5362  -6.4505
    -6.2789  -6.2569  -6.1453  -5.8977  -5.8246  -5.7780  -5.7392  -5.6051
    -5.2351  -5.1663  -5.0263  -4.8257  -4.7513  -4.6634  -4.5719  -4.5662
    -4.4504  -4.4212  -4.3637  -4.0857  -3.5844  -3.3164  -3.1028  -3.0132
    -2.9574  -2.9040  -2.8465  -2.7019  -2.6396  -2.6225  -2.4264  -2.2606
    -1.9560  -1.8721  -1.7583  -1.4918  -0.6941  -0.6775  -0.6391  -0.6087
    -0.5564  -0.5537  -0.5482  -0.4625  -0.3618  -0.3105  -0.2607   0.0992
     0.4590   0.5156   0.5879   0.6250   0.6418   0.7141   0.7433   0.7733
     0.7925   0.8304   0.8449   1.3912   1.4358   2.2400   2.2740   2.3745
     2.3864   2.4011

          k =-0.5000-0.2357 0.0000 ( 39704 PWs)   bands (ev):

   -87.6605 -87.6366 -87.6065 -87.5471 -87.4670 -87.1060 -53.8889 -53.8619
   -53.7652 -53.7426 -53.7175 -53.7013 -53.6365 -53.6334 -53.5938 -53.5854
   -53.5306 -53.5219 -53.5084 -53.4535 -53.4349 -53.4018 -53.2569 -52.9186
   -18.5898 -18.3596 -18.3379 -18.2437 -18.2335 -18.1684 -18.1445 -18.1288
   -18.0546 -18.0390 -17.8566 -17.4116 -17.2160  -7.1615  -6.5210  -6.4831
    -6.3734  -6.1700  -6.1464  -5.9020  -5.6835  -5.6023  -5.4130  -5.4076
    -5.2687  -5.1750  -5.0549  -4.9852  -4.9441  -4.9046  -4.6086  -4.5823
    -4.3824  -4.2796  -4.1719  -4.0585  -3.6596  -3.3514  -3.1434  -3.1150
    -2.9833  -2.9699  -2.9584  -2.8512  -2.7985  -2.5042  -2.0478  -1.9884
    -1.9496  -1.8152  -1.8115  -1.5691  -1.0058  -0.8753  -0.8052  -0.6889
    -0.6354  -0.5842  -0.5616  -0.5582  -0.4672  -0.3649  -0.2565   0.1070
     0.4153   0.4567   0.4756   0.4803   0.5312   0.5712   0.7069   0.8019
     0.8463   0.8870   0.8947   1.4317   1.4358   2.3085   2.3945   2.6348
     2.7341   2.7690

          k =-0.5000-0.1179 0.0000 ( 39700 PWs)   bands (ev):

   -87.6605 -87.6366 -87.6065 -87.5471 -87.4670 -87.1060 -53.8889 -53.8619
   -53.7652 -53.7426 -53.7175 -53.7012 -53.6365 -53.6334 -53.5937 -53.5855
   -53.5306 -53.5219 -53.5083 -53.4535 -53.4349 -53.4019 -53.2569 -52.9186
   -18.5921 -18.4621 -18.3933 -18.2846 -18.1986 -18.1631 -18.1034 -18.0757
   -18.0568 -17.9560 -17.8485 -17.4101 -17.2161  -7.1681  -6.5362  -6.4505
    -6.2789  -6.2569  -6.1453  -5.8977  -5.8246  -5.7780  -5.7392  -5.6051
    -5.2351  -5.1663  -5.0263  -4.8257  -4.7513  -4.6634  -4.5719  -4.5662
    -4.4504  -4.4212  -4.3637  -4.0857  -3.5844  -3.3164  -3.1028  -3.0132
    -2.9574  -2.9040  -2.8465  -2.7019  -2.6396  -2.6225  -2.4264  -2.2606
    -1.9560  -1.8721  -1.7583  -1.4918  -0.6941  -0.6775  -0.6391  -0.6087
    -0.5564  -0.5537  -0.5482  -0.4625  -0.3618  -0.3105  -0.2607   0.0992
     0.4590   0.5156   0.5879   0.6250   0.6418   0.7141   0.7433   0.7733
     0.7925   0.8304   0.8449   1.3912   1.4358   2.2400   2.2740   2.3745
     2.3864   2.4011

          k =-0.3750 0.0000 0.0000 ( 39708 PWs)   bands (ev):

   -87.6609 -87.6371 -87.6069 -87.5475 -87.4674 -87.1065 -53.8820 -53.8555
   -53.7590 -53.7384 -53.7154 -53.6945 -53.6369 -53.6344 -53.5947 -53.5861
   -53.5312 -53.5228 -53.5093 -53.4540 -53.4358 -53.3952 -53.2579 -52.9191
   -18.8036 -18.7160 -18.5738 -18.4032 -18.1515 -18.1022 -18.0870 -18.0564
   -18.0131 -17.8919 -17.8320 -17.4045 -17.2267  -6.9903  -6.6469  -6.4698
    -6.3116  -6.2401  -5.9567  -5.9326  -5.8104  -5.6993  -5.6581  -5.6015
    -5.3900  -5.2813  -5.1345  -4.9991  -4.9313  -4.8728  -4.4796  -4.2865
    -4.0860  -4.0717  -3.9224  -3.8600  -3.8273  -3.5601  -3.3470  -3.1695
    -3.0346  -2.8206  -2.8169  -2.7247  -2.5623  -2.5277  -2.2368  -2.2079
    -2.1453  -1.7887  -1.6508  -1.4093  -0.7193  -0.6761  -0.6194  -0.4953
    -0.4676  -0.3900  -0.3200  -0.2207  -0.0854   0.0245   0.0962   0.1906
     0.2876   0.3256   0.4222   0.4504   0.6328   0.6431   0.7293   0.7429
     1.2468   1.4516   1.4916   1.5367   1.5691   1.5711   1.6274   1.6662
     2.2233   2.2909

          k =-0.3750 0.1179 0.0000 ( 39703 PWs)   bands (ev):

   -87.6609 -87.6371 -87.6069 -87.5475 -87.4674 -87.1065 -53.8820 -53.8555
   -53.7590 -53.7384 -53.7154 -53.6945 -53.6369 -53.6344 -53.5947 -53.5860
   -53.5311 -53.5228 -53.5093 -53.4540 -53.4358 -53.3951 -53.2579 -52.9191
   -18.7553 -18.6745 -18.5288 -18.3634 -18.2755 -18.1755 -18.1025 -18.0421
   -18.0074 -17.9140 -17.8233 -17.4033 -17.2252  -6.9743  -6.3983  -6.3188
    -6.2576  -6.1089  -5.9814  -5.9156  -5.8577  -5.8434  -5.6580  -5.4951
    -5.4172  -5.1672  -5.1001  -5.0334  -4.9233  -4.9021  -4.5070  -4.4241
    -4.3477  -4.0866  -4.0065  -3.9431  -3.6777  -3.5904  -3.3015  -3.1559
    -3.0670  -2.8811  -2.8050  -2.7718  -2.6698  -2.5277  -2.3144  -2.2004
    -1.8852  -1.7456  -1.6766  -1.4829  -0.7200  -0.6387  -0.6107  -0.5759
    -0.4947  -0.4407  -0.3674  -0.3055  -0.2280  -0.1863  -0.0763   0.1930
     0.3981   0.4433   0.5373   0.5669   0.6265   0.6770   0.7227   0.7350
     0.8633   0.9226   0.9410   1.4047   1.4596   2.1106   2.1972   2.3212
     2.3703   2.4068

          k =-0.3750-0.2357 0.0000 ( 39694 PWs)   bands (ev):

   -87.6609 -87.6371 -87.6069 -87.5475 -87.4674 -87.1064 -53.8820 -53.8555
   -53.7590 -53.7384 -53.7155 -53.6946 -53.6369 -53.6344 -53.5947 -53.5859
   -53.5310 -53.5228 -53.5093 -53.4540 -53.4358 -53.3951 -53.2579 -52.9191
   -18.7107 -18.5571 -18.5203 -18.3412 -18.3354 -18.2276 -18.2244 -18.0323
   -18.0023 -17.9211 -17.8209 -17.4024 -17.2237  -6.9648  -6.2913  -6.2306
    -6.0834  -5.9324  -5.8890  -5.8491  -5.8117  -5.7454  -5.6142  -5.5863
    -5.2990  -5.2722  -5.2064  -5.0572  -5.0265  -4.9248  -4.6723  -4.5085
    -4.4740  -4.2416  -4.0736  -3.9760  -3.7235  -3.3758  -3.3498  -3.1370
    -3.1080  -2.8760  -2.8160  -2.7378  -2.6866  -2.6658  -2.3072  -2.1886
    -1.7684  -1.6762  -1.5734  -1.4951  -0.9046  -0.7796  -0.6843  -0.5382
    -0.5128  -0.5051  -0.4062  -0.3371  -0.2904  -0.1525  -0.1217   0.1481
     0.3703   0.4696   0.5047   0.5652   0.5929   0.6208   0.6454   0.7147
     0.7732   0.8001   0.8111   1.4466   1.4638   2.2333   2.2813   2.5645
     2.6650   2.6804

          k =-0.3750-0.1179 0.0000 ( 39703 PWs)   bands (ev):

   -87.6609 -87.6371 -87.6069 -87.5475 -87.4674 -87.1065 -53.8820 -53.8555
   -53.7590 -53.7384 -53.7154 -53.6945 -53.6369 -53.6344 -53.5947 -53.5860
   -53.5311 -53.5228 -53.5093 -53.4540 -53.4358 -53.3951 -53.2579 -52.9191
   -18.7554 -18.6745 -18.5288 -18.3634 -18.2755 -18.1755 -18.1025 -18.0421
   -18.0074 -17.9139 -17.8233 -17.4033 -17.2252  -6.9742  -6.3983  -6.3188
    -6.2576  -6.1091  -5.9814  -5.9156  -5.8577  -5.8435  -5.6581  -5.4951
    -5.4171  -5.1673  -5.1000  -5.0335  -4.9233  -4.9021  -4.5070  -4.4241
    -4.3477  -4.0866  -4.0065  -3.9427  -3.6778  -3.5902  -3.3014  -3.1559
    -3.0670  -2.8808  -2.8049  -2.7719  -2.6698  -2.5292  -2.3146  -2.1999
    -1.8851  -1.7455  -1.6756  -1.4830  -0.7200  -0.6387  -0.6108  -0.5764
    -0.4947  -0.4407  -0.3674  -0.3055  -0.2279  -0.1863  -0.0765   0.1932
     0.3981   0.4434   0.5373   0.5668   0.6265   0.6769   0.7226   0.7350
     0.8633   0.9226   0.9410   1.4047   1.4596   2.1105   2.1971   2.3212
     2.3703   2.4070

          k =-0.2500 0.0000 0.0000 ( 39608 PWs)   bands (ev):

   -87.6618 -87.6381 -87.6079 -87.5485 -87.4684 -87.1075 -53.8653 -53.8400
   -53.7439 -53.7325 -53.7062 -53.6782 -53.6379 -53.6366 -53.5971 -53.5873
   -53.5323 -53.5249 -53.5114 -53.4550 -53.4380 -53.3788 -53.2602 -52.9202
   -19.2065 -19.0311 -18.8146 -18.5604 -18.3312 -18.1388 -18.0926 -18.0210
   -17.9948 -17.8708 -17.7971 -17.3854 -17.2435  -6.8402  -6.7954  -6.7357
    -6.4362  -6.1312  -5.9021  -5.8955  -5.8324  -5.7510  -5.5455  -5.3865
    -5.1896  -4.9747  -4.8866  -4.7509  -4.6067  -4.5439  -4.4379  -4.2718
    -4.0650  -4.0411  -3.9523  -3.4627  -3.4456  -3.3620  -3.3346  -3.2121
    -3.1616  -2.7316  -2.6983  -2.6537  -2.6338  -2.5980  -2.3152  -2.2189
    -2.1944  -1.8360  -1.2919  -1.1650  -0.7305  -0.7274  -0.7226  -0.5357
    -0.4903  -0.4092  -0.1315  -0.1099  -0.0395  -0.0079   0.0182   0.1949
     0.2211   0.3172   0.3908   0.4460   0.5359   0.6504   0.7859   1.0224
     1.2094   1.4840   1.5356   1.6762   1.7891   1.7956   1.8450   1.9073
     2.2257   2.3424

          k =-0.2500 0.1179 0.0000 ( 39638 PWs)   bands (ev):

   -87.6618 -87.6381 -87.6079 -87.5485 -87.4684 -87.1075 -53.8654 -53.8400
   -53.7439 -53.7325 -53.7062 -53.6782 -53.6380 -53.6366 -53.5971 -53.5872
   -53.5322 -53.5250 -53.5114 -53.4550 -53.4381 -53.3788 -53.2602 -52.9202
   -19.1249 -18.9713 -18.7737 -18.5305 -18.4903 -18.3080 -18.1536 -17.9912
   -17.9402 -17.8417 -17.7820 -17.3791 -17.2375  -6.6514  -6.5403  -6.5149
    -6.3307  -6.1275  -5.8909  -5.8255  -5.8031  -5.6856  -5.5147  -5.4279
    -5.1819  -5.0402  -4.9444  -4.8423  -4.7099  -4.6118  -4.4630  -4.3735
    -4.1871  -4.0385  -3.8878  -3.8215  -3.7418  -3.6534  -3.4974  -3.3392
    -3.1346  -2.9485  -2.6982  -2.5900  -2.4917  -2.3602  -2.2977  -2.2324
    -2.0261  -1.7788  -1.4163  -1.1710  -0.7393  -0.5496  -0.5228  -0.4495
    -0.4198  -0.2535  -0.1972  -0.1201  -0.0681  -0.0417   0.0455   0.1857
     0.2049   0.3366   0.3596   0.4036   0.4682   0.5890   0.8718   1.0748
     1.1498   1.2692   1.2949   1.4803   1.6513   1.9532   2.0184   2.2004
     2.3418   2.4768

          k =-0.2500-0.2357 0.0000 ( 39652 PWs)   bands (ev):

   -87.6618 -87.6381 -87.6079 -87.5485 -87.4684 -87.1075 -53.8654 -53.8400
   -53.7439 -53.7325 -53.7063 -53.6782 -53.6380 -53.6366 -53.5971 -53.5870
   -53.5321 -53.5252 -53.5114 -53.4550 -53.4382 -53.3788 -53.2603 -52.9202
   -18.9793 -18.8911 -18.8072 -18.5598 -18.5260 -18.3944 -18.3380 -17.9528
   -17.9126 -17.8239 -17.7699 -17.3736 -17.2318  -6.5708  -6.2578  -6.2004
    -6.0107  -5.9857  -5.8916  -5.8569  -5.6065  -5.5204  -5.4814  -5.4371
    -5.2473  -5.2123  -5.1951  -4.9573  -4.8417  -4.8109  -4.6374  -4.4893
    -4.2829  -4.2090  -4.1741  -3.9577  -3.7909  -3.6633  -3.5506  -3.3799
    -3.3533  -2.9233  -2.7538  -2.6597  -2.3515  -2.3446  -2.1236  -2.0705
    -1.7891  -1.7521  -1.6272  -1.2276  -0.5608  -0.5138  -0.5089  -0.3731
    -0.3179  -0.2545  -0.2178  -0.0593  -0.0546   0.0383   0.0644   0.1450
     0.2699   0.2834   0.3635   0.3992   0.4514   0.5084   0.9260   0.9813
     0.9916   1.0431   1.1300   1.4587   1.6616   2.0557   2.0779   2.4357
     2.4593   2.5554

          k =-0.2500-0.1179 0.0000 ( 39638 PWs)   bands (ev):

   -87.6618 -87.6381 -87.6079 -87.5485 -87.4684 -87.1075 -53.8654 -53.8400
   -53.7439 -53.7325 -53.7062 -53.6782 -53.6380 -53.6366 -53.5971 -53.5872
   -53.5322 -53.5250 -53.5114 -53.4550 -53.4381 -53.3788 -53.2602 -52.9202
   -19.1249 -18.9714 -18.7737 -18.5305 -18.4903 -18.3080 -18.1536 -17.9912
   -17.9402 -17.8416 -17.7820 -17.3791 -17.2375  -6.6513  -6.5404  -6.5149
    -6.3308  -6.1274  -5.8909  -5.8255  -5.8031  -5.6858  -5.5149  -5.4278
    -5.1819  -5.0402  -4.9444  -4.8423  -4.7099  -4.6118  -4.4629  -4.3733
    -4.1871  -4.0388  -3.8875  -3.8215  -3.7419  -3.6531  -3.4973  -3.3391
    -3.1349  -2.9485  -2.6982  -2.5905  -2.4917  -2.3608  -2.2982  -2.2321
    -2.0263  -1.7767  -1.4164  -1.1714  -0.7396  -0.5496  -0.5229  -0.4495
    -0.4201  -0.2535  -0.1971  -0.1201  -0.0681  -0.0417   0.0455   0.1857
     0.2048   0.3367   0.3598   0.4036   0.4681   0.5889   0.8718   1.0748
     1.1498   1.2692   1.2949   1.4802   1.6513   1.9531   2.0184   2.2004
     2.3419   2.4770

          k =-0.1250 0.0000 0.0000 ( 39512 PWs)   bands (ev):

   -87.6628 -87.6391 -87.6089 -87.5494 -87.4694 -87.1085 -53.8486 -53.8245
   -53.7310 -53.7285 -53.6927 -53.6618 -53.6390 -53.6389 -53.5995 -53.5886
   -53.5335 -53.5270 -53.5136 -53.4561 -53.4403 -53.3624 -53.2625 -52.9213
   -19.5203 -19.2977 -19.0294 -18.7126 -18.5084 -18.2538 -18.0838 -18.0470
   -17.9775 -17.8503 -17.7725 -17.3568 -17.2491  -7.2067  -7.0356  -6.9358
    -6.4397  -6.1295  -5.8999  -5.8450  -5.6487  -5.5773  -5.4543  -5.3016
    -5.2084  -5.0872  -5.0762  -4.5219  -4.2485  -4.1289  -3.8444  -3.8103
    -3.6947  -3.6910  -3.6238  -3.5147  -3.4856  -3.3593  -3.3003  -3.1175
    -2.8242  -2.7834  -2.7267  -2.6321  -2.4161  -2.2469  -2.1630  -1.9597
    -1.7874  -1.7555  -1.3797  -0.9295  -0.9227  -0.8713  -0.6968  -0.6621
    -0.6479  -0.5896  -0.4102  -0.3409  -0.3019  -0.2248  -0.1248  -0.1193
     0.0892   0.2721   0.5554   0.5661   0.6698   0.7360   0.8545   1.0078
     1.3131   1.5964   1.7645   1.8939   2.1837   2.1936   2.2641   2.2831
     2.3142   2.6104

          k =-0.1250 0.1179 0.0000 ( 39558 PWs)   bands (ev):

   -87.6628 -87.6391 -87.6089 -87.5494 -87.4694 -87.1085 -53.8486 -53.8245
   -53.7310 -53.7285 -53.6927 -53.6618 -53.6390 -53.6389 -53.5996 -53.5884
   -53.5333 -53.5273 -53.5136 -53.4561 -53.4405 -53.3624 -53.2626 -52.9213
   -19.4242 -19.2211 -18.9885 -18.6951 -18.6826 -18.4427 -18.2361 -17.9681
   -17.9013 -17.7972 -17.7539 -17.3480 -17.2393  -6.9642  -6.7844  -6.7146
    -6.4397  -6.1362  -5.9149  -5.8744  -5.5653  -5.5002  -5.4108  -5.3213
    -5.2278  -5.1072  -4.8550  -4.4997  -4.2530  -4.1852  -4.0870  -4.0104
    -3.9162  -3.9013  -3.8109  -3.7581  -3.6528  -3.4723  -3.3521  -3.2847
    -3.0600  -2.9535  -2.7907  -2.5808  -2.4018  -2.2799  -2.0039  -1.8676
    -1.8300  -1.6245  -1.4020  -1.0213  -0.6973  -0.6298  -0.5748  -0.5056
    -0.4939  -0.4440  -0.4200  -0.3048  -0.2672  -0.1854  -0.1210  -0.1026
     0.0987   0.2498   0.5052   0.5661   0.6087   0.7312   0.7932   1.2150
     1.4787   1.6086   1.7478   1.8680   2.0233   2.0999   2.2223   2.2383
     2.3377   2.6054

          k =-0.1250-0.2357 0.0000 ( 39644 PWs)   bands (ev):

   -87.6628 -87.6391 -87.6089 -87.5494 -87.4694 -87.1085 -53.8487 -53.8245
   -53.7310 -53.7285 -53.6928 -53.6618 -53.6390 -53.6389 -53.5996 -53.5882
   -53.5332 -53.5275 -53.5137 -53.4561 -53.4407 -53.3624 -53.2627 -52.9213
   -19.2218 -19.1589 -19.0417 -18.7697 -18.6908 -18.5521 -18.4549 -17.9106
   -17.8640 -17.7648 -17.7383 -17.3398 -17.2297  -6.6391  -6.5450  -6.4193
    -6.3098  -6.1776  -5.9549  -5.9015  -5.4432  -5.4411  -5.3862  -5.3290
    -5.2263  -5.1094  -4.5720  -4.4995  -4.4810  -4.3987  -4.3274  -4.3124
    -4.1772  -4.1350  -4.0485  -3.9474  -3.7082  -3.5458  -3.4446  -3.3286
    -3.1883  -3.0759  -2.8000  -2.7593  -2.2378  -2.1796  -1.9484  -1.7322
    -1.6311  -1.5840  -1.4673  -1.1641  -0.6897  -0.5432  -0.4991  -0.4692
    -0.4265  -0.3053  -0.2448  -0.2225  -0.1374  -0.1200  -0.0773   0.0921
     0.1268   0.2332   0.3331   0.3935   0.6073   0.6133   0.9833   1.3441
     1.5110   1.6426   1.7128   1.7705   1.9544   2.0333   2.2364   2.3031
     2.3593   2.4655

          k =-0.1250-0.1179 0.0000 ( 39558 PWs)   bands (ev):

   -87.6628 -87.6391 -87.6089 -87.5494 -87.4694 -87.1085 -53.8486 -53.8245
   -53.7310 -53.7285 -53.6927 -53.6618 -53.6390 -53.6389 -53.5996 -53.5884
   -53.5333 -53.5273 -53.5136 -53.4561 -53.4405 -53.3624 -53.2626 -52.9213
   -19.4242 -19.2211 -18.9885 -18.6951 -18.6826 -18.4427 -18.2362 -17.9681
   -17.9013 -17.7972 -17.7539 -17.3480 -17.2393  -6.9642  -6.7844  -6.7146
    -6.4397  -6.1362  -5.9149  -5.8744  -5.5653  -5.5002  -5.4108  -5.3213
    -5.2278  -5.1072  -4.8550  -4.4996  -4.2530  -4.1851  -4.0868  -4.0104
    -3.9162  -3.9013  -3.8108  -3.7578  -3.6531  -3.4729  -3.3518  -3.2846
    -3.0600  -2.9534  -2.7907  -2.5816  -2.4016  -2.2799  -2.0044  -1.8670
    -1.8302  -1.6231  -1.4018  -1.0225  -0.6973  -0.6298  -0.5748  -0.5056
    -0.4939  -0.4440  -0.4200  -0.3047  -0.2673  -0.1852  -0.1211  -0.1026
     0.0987   0.2498   0.5051   0.5660   0.6087   0.7312   0.7932   1.2150
     1.4787   1.6086   1.7478   1.8680   2.0233   2.0998   2.2223   2.2383
     2.3378   2.6055

     the Fermi energy is    -0.6074 ev

!    total energy              =   -2518.03835192 Ry
     estimated scf accuracy    <       0.00000061 Ry
     smearing contrib. (-TS)   =      -0.00307425 Ry
     internal energy E=F+TS    =   -2518.03527766 Ry

     The total energy is F=E-TS. E is the sum of the following terms:
     one-electron contribution =  -18121.72933849 Ry
     hartree contribution      =    9087.58251502 Ry
     xc contribution           =    -303.69006053 Ry
     ewald contribution        =    7400.59369543 Ry
     one-center paw contrib.   =    -580.79208909 Ry

     total magnetization       =    17.74 Bohr mag/cell
     absolute magnetization    =    18.14 Bohr mag/cell

     convergence has been achieved in  34 iterations

     negative rho (up, down):  1.002E-03 1.056E-03

     Forces acting on atoms (cartesian axes, Ry/au):

     atom    1 type  1   force =     0.00000114    0.00000207    0.05109061
     atom    2 type  1   force =     0.00004389   -0.00000177   -0.06515266
     atom    3 type  1   force =    -0.00021761    0.00004871    0.00299713
     atom    4 type  1   force =     0.00000512    0.00001291    0.01912691
     atom    5 type  1   force =    -0.00065905    0.00001645    0.01845004
     atom    6 type  1   force =    -0.00012277   -0.00002337    0.03224095
     atom    7 type  3   force =    -0.00042541   -0.00001102    0.00786059
     atom    8 type  3   force =     0.00000047    0.00000064    0.08311199
     atom    9 type  3   force =     0.00005047    0.01781192   -0.02870220
     atom   10 type  3   force =     0.00005071   -0.01781301   -0.02870227
     atom   11 type  3   force =     0.00233878   -0.00002204   -0.03437029
     atom   12 type  3   force =    -0.00093264   -0.00002204    0.04855938
     atom   13 type  3   force =    -0.00031350   -0.00365696   -0.00185031
     atom   14 type  3   force =    -0.00031596    0.00369729   -0.00188974
     atom   15 type  3   force =     0.00104207    0.00004702   -0.04416715
     atom   16 type  3   force =     0.00077912   -0.00008357   -0.02216266
     atom   17 type  3   force =    -0.00206330   -0.00107755    0.00029778
     atom   18 type  3   force =    -0.00194563    0.00110554    0.00031190
     atom   19 type  3   force =     0.00090331   -0.00004388   -0.03645451
     atom   20 type  2   force =     0.00178077    0.00001266   -0.00059550

     Total force =     0.082242     Total SCF correction =     0.001547

     Writing all to output data dir ./tmp_s0_OH__u000__sp2m030/s0_OH__u000__sp2m030.save/ :
     XML data file, charge density, pseudopotentials, collected wavefunctions

     init_run     :      4.86s CPU      5.01s WALL (       1 calls)
     electrons    :    258.17s CPU    261.51s WALL (       1 calls)
     forces       :      1.36s CPU      1.38s WALL (       1 calls)

     Called by init_run:
     wfcinit      :      3.24s CPU      3.32s WALL (       1 calls)
     potinit      :      0.68s CPU      0.71s WALL (       1 calls)
     hinit0       :      0.42s CPU      0.43s WALL (       1 calls)

     Called by electrons:
     c_bands      :    202.83s CPU    205.26s WALL (      34 calls)
     sum_band     :     39.72s CPU     40.37s WALL (      34 calls)
     v_of_rho     :      4.17s CPU      4.25s WALL (      35 calls)
     newd         :      2.31s CPU      2.34s WALL (      35 calls)
     PAW_pot      :      5.18s CPU      5.21s WALL (      35 calls)
     mix_rho      :      3.58s CPU      3.64s WALL (      34 calls)

     Called by c_bands:
     init_us_2    :      4.71s CPU      4.79s WALL (    1120 calls)
     cegterg      :    177.99s CPU    180.06s WALL (     544 calls)

     Called by *egterg:
     cdiaghg      :     18.62s CPU     18.73s WALL (    1420 calls)
     h_psi        :    120.72s CPU    122.45s WALL (    1436 calls)
     s_psi        :      8.27s CPU      8.33s WALL (    1436 calls)
     g_psi        :      0.60s CPU      0.60s WALL (     876 calls)

     Called by h_psi:
     h_psi:calbec :     11.12s CPU     11.21s WALL (    1436 calls)
     vloc_psi     :     99.96s CPU    101.51s WALL (    1436 calls)
                                        0.00s GPU  (    1436 calls)
     add_vuspsi   :      8.31s CPU      8.38s WALL (    1436 calls)

     General routines
     calbec       :     16.96s CPU     17.10s WALL (    2044 calls)
     fft          :      2.76s CPU      2.81s WALL (     888 calls)
     ffts         :      2.54s CPU      2.57s WALL (    4197 calls)
     fftw         :    116.53s CPU    118.32s WALL (  299196 calls)
     interpolate  :      0.68s CPU      0.68s WALL (      70 calls)

     Parallel routines

     PWSCF        :   4m26.89s CPU   4m32.37s WALL


   This run was terminated on:   4:30:57   1Sep2026            

=------------------------------------------------------------------------------=
   JOB DONE.
=------------------------------------------------------------------------------=
Note: The following floating-point exceptions are signalling: IEEE_DENORMAL
Note: The following floating-point exceptions are signalling: IEEE_DENORMAL
Note: The following floating-point exceptions are signalling: IEEE_DENORMAL
Note: The following floating-point exceptions are signalling: IEEE_DENORMAL
Note: The following floating-point exceptions are signalling: IEEE_DENORMAL
Note: The following floating-point exceptions are signalling: IEEE_DENORMAL
Note: The following floating-point exceptions are signalling: IEEE_DENORMAL
Note: The following floating-point exceptions are signalling: IEEE_DENORMAL
Note: The following floating-point exceptions are signalling: IEEE_DENORMAL
Note: The following floating-point exceptions are signalling: IEEE_DENORMAL
Note: The following floating-point exceptions are signalling: IEEE_DENORMAL
Note: The following floating-point exceptions are signalling: IEEE_DENORMAL
Note: The following floating-point exceptions are signalling: IEEE_DENORMAL
Note: The following floating-point exceptions are signalling: IEEE_DENORMAL
Note: The following floating-point exceptions are signalling: IEEE_DENORMAL
Note: The following floating-point exceptions are signalling: IEEE_DENORMAL
Note: The following floating-point exceptions are signalling: IEEE_DENORMAL
Note: The following floating-point exceptions are signalling: IEEE_DENORMAL
Note: The following floating-point exceptions are signalling: IEEE_DENORMAL
Note: The following floating-point exceptions are signalling: IEEE_DENORMAL
Note: The following floating-point exceptions are signalling: IEEE_DENORMAL
Note: The following floating-point exceptions are signalling: IEEE_DENORMAL
Note: The following floating-point exceptions are signalling: IEEE_DENORMAL
Note: The following floating-point exceptions are signalling: IEEE_DENORMAL
Note: The following floating-point exceptions are signalling: IEEE_DENORMAL
Note: The following floating-point exceptions are signalling: IEEE_DENORMAL
Note: The following floating-point exceptions are signalling: IEEE_DENORMAL
Note: The following floating-point exceptions are signalling: IEEE_DENORMAL
Note: The following floating-point exceptions are signalling: IEEE_DENORMAL
Note: The following floating-point exceptions are signalling: IEEE_DENORMAL
Note: The following floating-point exceptions are signalling: IEEE_DENORMAL
Note: The following floating-point exceptions are signalling: IEEE_DENORMAL
Note: The following floating-point exceptions are signalling: IEEE_DENORMAL
Note: The following floating-point exceptions are signalling: IEEE_DENORMAL
Note: The following floating-point exceptions are signalling: IEEE_DENORMAL
Note: The following floating-point exceptions are signalling: IEEE_DENORMAL
Note: The following floating-point exceptions are signalling: IEEE_DENORMAL
Note: The following floating-point exceptions are signalling: IEEE_DENORMAL
Note: The following floating-point exceptions are signalling: IEEE_DENORMAL
Note: The following floating-point exceptions are signalling: IEEE_DENORMAL
Note: The following floating-point exceptions are signalling: IEEE_DENORMAL
Note: The following floating-point exceptions are signalling: IEEE_DENORMAL
Note: The following floating-point exceptions are signalling: IEEE_DENORMAL
Note: The following floating-point exceptions are signalling: IEEE_DENORMAL
Note: The following floating-point exceptions are signalling: IEEE_DENORMAL
