
     Program PWSCF v.7.5 starts on  1Sep2026 at  2:48:22 

     This program is part of the open-source Quantum ESPRESSO suite
     for quantum simulation of materials; please cite
         "P. Giannozzi et al., J. Phys.:Condens. Matter 21 395502 (2009);
         "P. Giannozzi et al., J. Phys.:Condens. Matter 29 465901 (2017);
         "P. Giannozzi et al., J. Chem. Phys. 152 154105 (2020);
          URL http://www.quantum-espresso.org", 
     in publications or presentations arising from this work. More details at
     http://www.quantum-espresso.org/quote

     Parallel version (MPI & OpenMP), running on     128 processor cores
     Number of MPI processes:               128
     Threads/MPI process:                     1

     MPI processes distributed on     1 nodes
     229669 MiB available memory on the printing compute node when the environment starts

     Reading input from s0_OH__u000__sp2m050.run.in

     Current dimensions of program PWSCF are:
     Max number of different atomic species (ntypx) = 10
     Max number of k-points (npk) =  40000
     Max angular momentum in pseudopotentials (lmaxx) =  4
     file O.pbe-n-kjpaw_psl.0.1.UPF: wavefunction(s)  2P renormalized

     K-points division:     npool     =       8
     R & G space division:  proc/nbgrp/npool/nimage =      16
     Subspace diagonalization in iterative solution of the eigenvalue problem:
     a serial algorithm will be used


     Parallelization info
     --------------------
     sticks:   dense  smooth     PW     G-vecs:    dense   smooth      PW
     Min         218     108     31                57602    20340    3111
     Max         219     109     32                57627    20361    3126
     Sum        3495    1739    505               921821   325653   49881

     Using Slab Decomposition



     bravais-lattice index     =            0
     lattice parameter (alat)  =       5.5911  a.u.
     unit-cell volume          =    3370.6432 (a.u.)^3
     number of atoms/cell      =           20
     number of atomic types    =            3
     number of electrons       =       151.00
     number of Kohn-Sham states=           91
     kinetic-energy cutoff     =      80.0000  Ry
     charge density cutoff     =     640.0000  Ry
     scf convergence threshold =      1.0E-06
     mixing beta               =       0.3000
     number of iterations used =            8  local-TF  mixing
     Exchange-correlation= SLA  PW   PBX  PBC
                           (   1   4   3   4   0   0   0)

     celldm(1)=   5.591133  celldm(2)=   0.000000  celldm(3)=   0.000000
     celldm(4)=   0.000000  celldm(5)=   0.000000  celldm(6)=   0.000000

     crystal axes: (cart. coord. in units of alat)
               a(1) = (   1.000000   0.000000   0.000000 )  
               a(2) = (   0.000000   2.195719   0.000000 )  
               a(3) = (   0.000000   0.000000   8.782875 )  

     reciprocal axes: (cart. coord. in units 2 pi/alat)
               b(1) = (  1.000000  0.000000  0.000000 )  
               b(2) = (  0.000000  0.455432  0.000000 )  
               b(3) = (  0.000000  0.000000  0.113858 )  


     PseudoPot. # 1 for H  read from file:
     /anvil/projects/x-che260157/pseudo/H.pbe-rrkjus_psl.1.0.0.UPF
     MD5 check sum: f52b6d4d1c606e5624b1dc7b2218f220
     Pseudo is Ultrasoft, Zval =  1.0
     Generated using "atomic" code by A. Dal Corso  v.5.1
     Using radial grid of  929 points,  2 beta functions with: 
                l(1) =   0
                l(2) =   0
     Q(r) pseudized with 0 coefficients 


     PseudoPot. # 2 for Ti read from file:
     /anvil/projects/x-che260157/pseudo/ti_pbe_v1.4.uspp.F.UPF
     MD5 check sum: 88a00a6731bd790ddea75d31a80cb452
     Pseudo is Ultrasoft + core correction, Zval = 12.0
     Generated by new atomic code, or converted to UPF format
     Using radial grid of  851 points,  6 beta functions with: 
                l(1) =   0
                l(2) =   0
                l(3) =   1
                l(4) =   1
                l(5) =   2
                l(6) =   2
     Q(r) pseudized with  6 coefficients,  rinner =    1.000   1.000   1.000
                                                       1.000   1.000

     PseudoPot. # 3 for O  read from file:
     /anvil/projects/x-che260157/pseudo/O.pbe-n-kjpaw_psl.0.1.UPF
     MD5 check sum: 0234752ac141de4415c5fc33072bef88
     Pseudo is Projector augmented-wave + core cor, Zval =  6.0
     Generated using "atomic" code by A. Dal Corso  v.5.0.99 svn rev. 10869
     Shape of augmentation charge: BESSEL
     Using radial grid of 1095 points,  4 beta functions with: 
                l(1) =   0
                l(2) =   0
                l(3) =   1
                l(4) =   1
     Q(r) pseudized with 0 coefficients 


     atomic species   valence    mass     pseudopotential
     H                 1.00     1.00800     H ( 1.00)
     Ti               12.00    47.86700     Ti( 1.00)
     O                 6.00    15.99900     O ( 1.00)

     Starting magnetic structure 
     atomic species   magnetization
     H               0.000
     Ti              0.500
     O               0.000

     No symmetry found



   Cartesian axes

     site n.     atom                  positions (alat units)
         1        Ti     tau(   1) = (   0.0000000   1.6467890   3.2935780  )
         2        Ti     tau(   2) = (   0.5000000   0.5489297   3.2935780  )
         3        Ti     tau(   3) = (  -0.0041510   0.5489297   4.4390297  )
         4        Ti     tau(   4) = (   0.4960848   1.6467890   4.4316977  )
         5        Ti     tau(   5) = (  -0.0075957   1.6467890   5.5931891  )
         6        Ti     tau(   6) = (   0.4859661   0.5489297   5.5744680  )
         7        O      tau(   7) = (   0.0000000   0.5489297   3.7217432  )
         8        O      tau(   8) = (   0.0000000   0.5489297   2.8654129  )
         9        O      tau(   9) = (   0.5000000   1.2186239   3.2935780  )
        10        O      tau(  10) = (   0.5000000   2.0749541   3.2935780  )
        11        O      tau(  11) = (  -0.0029345   1.6467890   4.8278864  )
        12        O      tau(  12) = (   0.0000000   1.6467890   3.9632722  )
        13        O      tau(  13) = (   0.4966025   0.1160480   4.3967316  )
        14        O      tau(  14) = (   0.4966025   0.9818113   4.3967316  )
        15        O      tau(  15) = (  -0.0111296   0.5489297   5.9377016  )
        16        O      tau(  16) = (  -0.0061564   0.5489297   5.0632104  )
        17        O      tau(  17) = (   0.4918186   1.2207191   5.5234658  )
        18        O      tau(  18) = (   0.4918186   2.0728589   5.5234658  )
        19        O      tau(  19) = (  -0.0067025   1.6467890   6.2114519  )
        20        H      tau(  20) = (   0.2851101   1.6467890   6.3687342  )

     number of k points=    32  Marzari-Vanderbilt smearing, width (Ry)=  0.0100
                       cart. coord. in units 2pi/alat
        k(    1) = (   0.0000000   0.0000000   0.0000000), wk =   0.0312500
        k(    2) = (   0.0000000   0.1138579   0.0000000), wk =   0.0312500
        k(    3) = (   0.0000000  -0.2277159   0.0000000), wk =   0.0312500
        k(    4) = (   0.0000000  -0.1138579   0.0000000), wk =   0.0312500
        k(    5) = (   0.1250000   0.0000000   0.0000000), wk =   0.0312500
        k(    6) = (   0.1250000   0.1138579   0.0000000), wk =   0.0312500
        k(    7) = (   0.1250000  -0.2277159   0.0000000), wk =   0.0312500
        k(    8) = (   0.1250000  -0.1138579   0.0000000), wk =   0.0312500
        k(    9) = (   0.2500000   0.0000000   0.0000000), wk =   0.0312500
        k(   10) = (   0.2500000   0.1138579   0.0000000), wk =   0.0312500
        k(   11) = (   0.2500000  -0.2277159   0.0000000), wk =   0.0312500
        k(   12) = (   0.2500000  -0.1138579   0.0000000), wk =   0.0312500
        k(   13) = (   0.3750000   0.0000000   0.0000000), wk =   0.0312500
        k(   14) = (   0.3750000   0.1138579   0.0000000), wk =   0.0312500
        k(   15) = (   0.3750000  -0.2277159   0.0000000), wk =   0.0312500
        k(   16) = (   0.3750000  -0.1138579   0.0000000), wk =   0.0312500
        k(   17) = (  -0.5000000   0.0000000   0.0000000), wk =   0.0312500
        k(   18) = (  -0.5000000   0.1138579   0.0000000), wk =   0.0312500
        k(   19) = (  -0.5000000  -0.2277159   0.0000000), wk =   0.0312500
        k(   20) = (  -0.5000000  -0.1138579   0.0000000), wk =   0.0312500
        k(   21) = (  -0.3750000   0.0000000   0.0000000), wk =   0.0312500
        k(   22) = (  -0.3750000   0.1138579   0.0000000), wk =   0.0312500
        k(   23) = (  -0.3750000  -0.2277159   0.0000000), wk =   0.0312500
        k(   24) = (  -0.3750000  -0.1138579   0.0000000), wk =   0.0312500
        k(   25) = (  -0.2500000   0.0000000   0.0000000), wk =   0.0312500
        k(   26) = (  -0.2500000   0.1138579   0.0000000), wk =   0.0312500
        k(   27) = (  -0.2500000  -0.2277159   0.0000000), wk =   0.0312500
        k(   28) = (  -0.2500000  -0.1138579   0.0000000), wk =   0.0312500
        k(   29) = (  -0.1250000   0.0000000   0.0000000), wk =   0.0312500
        k(   30) = (  -0.1250000   0.1138579   0.0000000), wk =   0.0312500
        k(   31) = (  -0.1250000  -0.2277159   0.0000000), wk =   0.0312500
        k(   32) = (  -0.1250000  -0.1138579   0.0000000), wk =   0.0312500

     Dense  grid:   921821 G-vectors     FFT dimensions: (  45, 100, 400)

     Smooth grid:   325653 G-vectors     FFT dimensions: (  32,  72, 288)

     Estimated max dynamical RAM per process >     128.49 MB

     Estimated total dynamical RAM >      12.98 GB

     Check: negative core charge=   -0.000001
     Generating pointlists ...
     new r_m :   0.1367 (alat units)  0.7646 (a.u.) for type    1
     new r_m :   0.2540 (alat units)  1.4199 (a.u.) for type    2
     new r_m :   0.1367 (alat units)  0.7646 (a.u.) for type    3

     Initial potential from superposition of free atoms

     starting charge     144.9997, renormalised to     151.0000

     negative rho (up, down):  6.396E-03 2.059E-03
     Starting wfcs are  113 randomized atomic wfcs
     Checking if some PAW data can be deallocated... 

     total cpu time spent up to now is        9.1 secs

     per-process dynamical memory:   140.7 Mb

     Self-consistent Calculation

     iteration #  1     ecut=    80.00 Ry     beta= 0.30
     Davidson diagonalization with overlap
     ethr =  1.00E-02,  avg # of iterations =  2.8

     negative rho (up, down):  4.317E-03 3.413E-03

     total cpu time spent up to now is       18.2 secs

     total energy              =   -1258.28019142 Ry
     estimated scf accuracy    <      41.33579969 Ry

     total magnetization       =     4.17 Bohr mag/cell
     absolute magnetization    =     7.95 Bohr mag/cell

     iteration #  2     ecut=    80.00 Ry     beta= 0.30
     Davidson diagonalization with overlap
     ethr =  1.00E-02,  avg # of iterations =  1.1

     negative rho (up, down):  3.855E-03 4.309E-03

     total cpu time spent up to now is       28.2 secs

     total energy              =   -1259.67421786 Ry
     estimated scf accuracy    <       5.17395703 Ry

     total magnetization       =     1.14 Bohr mag/cell
     absolute magnetization    =     5.33 Bohr mag/cell

     iteration #  3     ecut=    80.00 Ry     beta= 0.30
     Davidson diagonalization with overlap
     ethr =  3.43E-03,  avg # of iterations =  1.8

     negative rho (up, down):  3.236E-03 5.538E-03

     total cpu time spent up to now is       35.6 secs

     total energy              =   -1260.16025141 Ry
     estimated scf accuracy    <       2.67832732 Ry

     total magnetization       =     0.40 Bohr mag/cell
     absolute magnetization    =     4.80 Bohr mag/cell

     iteration #  4     ecut=    80.00 Ry     beta= 0.30
     Davidson diagonalization with overlap
     ethr =  1.77E-03,  avg # of iterations =  2.7

     negative rho (up, down):  2.696E-03 5.745E-03

     total cpu time spent up to now is       43.0 secs

     total energy              =   -1260.33394591 Ry
     estimated scf accuracy    <       4.26475350 Ry

     total magnetization       =     0.50 Bohr mag/cell
     absolute magnetization    =     3.99 Bohr mag/cell

     iteration #  5     ecut=    80.00 Ry     beta= 0.30
     Davidson diagonalization with overlap
     ethr =  1.77E-03,  avg # of iterations =  1.4

     negative rho (up, down):  2.683E-03 5.363E-03

     total cpu time spent up to now is       50.9 secs

     total energy              =   -1260.41645639 Ry
     estimated scf accuracy    <       1.07402489 Ry

     total magnetization       =    -0.21 Bohr mag/cell
     absolute magnetization    =     2.57 Bohr mag/cell

     iteration #  6     ecut=    80.00 Ry     beta= 0.30
     Davidson diagonalization with overlap
     ethr =  7.11E-04,  avg # of iterations =  1.5

     negative rho (up, down):  3.151E-03 4.482E-03

     total cpu time spent up to now is       58.6 secs

     total energy              =   -1260.34924304 Ry
     estimated scf accuracy    <       0.89513014 Ry

     total magnetization       =    -0.32 Bohr mag/cell
     absolute magnetization    =     2.00 Bohr mag/cell

     iteration #  7     ecut=    80.00 Ry     beta= 0.30
     Davidson diagonalization with overlap
     ethr =  5.93E-04,  avg # of iterations =  5.2

     negative rho (up, down):  3.444E-03 4.249E-03

     total cpu time spent up to now is       66.9 secs

     total energy              =   -1260.38246063 Ry
     estimated scf accuracy    <       0.23895981 Ry

     total magnetization       =    -0.76 Bohr mag/cell
     absolute magnetization    =     1.42 Bohr mag/cell

     iteration #  8     ecut=    80.00 Ry     beta= 0.30
     Davidson diagonalization with overlap
     c_bands:  2 eigenvalues not converged
     ethr =  1.58E-04,  avg # of iterations =  8.7

     negative rho (up, down):  4.598E-03 4.485E-03

     total cpu time spent up to now is       77.8 secs

     total energy              =   -1260.37422755 Ry
     estimated scf accuracy    <       0.21445509 Ry

     total magnetization       =    -0.72 Bohr mag/cell
     absolute magnetization    =     1.20 Bohr mag/cell

     iteration #  9     ecut=    80.00 Ry     beta= 0.30
     Davidson diagonalization with overlap
     c_bands:  2 eigenvalues not converged
     c_bands:  2 eigenvalues not converged
     ethr =  1.42E-04,  avg # of iterations =  3.0

     negative rho (up, down):  5.217E-03 4.689E-03

     total cpu time spent up to now is       85.7 secs

     total energy              =   -1260.37686068 Ry
     estimated scf accuracy    <       0.06174739 Ry

     total magnetization       =    -0.68 Bohr mag/cell
     absolute magnetization    =     1.13 Bohr mag/cell

     iteration # 10     ecut=    80.00 Ry     beta= 0.30
     Davidson diagonalization with overlap
     ethr =  4.09E-05,  avg # of iterations =  9.0

     negative rho (up, down):  4.843E-03 4.546E-03

     total cpu time spent up to now is       96.8 secs

     total energy              =   -1260.37837829 Ry
     estimated scf accuracy    <       0.02897468 Ry

     total magnetization       =    -0.65 Bohr mag/cell
     absolute magnetization    =     1.04 Bohr mag/cell

     iteration # 11     ecut=    80.00 Ry     beta= 0.30
     Davidson diagonalization with overlap
     ethr =  1.92E-05,  avg # of iterations =  5.2

     negative rho (up, down):  4.332E-03 4.236E-03

     total cpu time spent up to now is      105.6 secs

     total energy              =   -1260.37897206 Ry
     estimated scf accuracy    <       0.02039150 Ry

     total magnetization       =    -0.68 Bohr mag/cell
     absolute magnetization    =     0.98 Bohr mag/cell

     iteration # 12     ecut=    80.00 Ry     beta= 0.30
     Davidson diagonalization with overlap
     ethr =  1.35E-05,  avg # of iterations =  1.9

     negative rho (up, down):  3.649E-03 3.938E-03

     total cpu time spent up to now is      112.5 secs

     total energy              =   -1260.37600624 Ry
     estimated scf accuracy    <       0.01364992 Ry

     total magnetization       =    -0.65 Bohr mag/cell
     absolute magnetization    =     0.91 Bohr mag/cell

     iteration # 13     ecut=    80.00 Ry     beta= 0.30
     Davidson diagonalization with overlap
     c_bands:  1 eigenvalues not converged
     ethr =  9.04E-06,  avg # of iterations =  4.2

     negative rho (up, down):  3.711E-03 3.865E-03

     total cpu time spent up to now is      120.9 secs

     total energy              =   -1260.37678514 Ry
     estimated scf accuracy    <       0.00714562 Ry

     total magnetization       =    -0.57 Bohr mag/cell
     absolute magnetization    =     0.80 Bohr mag/cell

     iteration # 14     ecut=    80.00 Ry     beta= 0.30
     Davidson diagonalization with overlap
     ethr =  4.73E-06,  avg # of iterations =  4.9

     negative rho (up, down):  3.745E-03 3.822E-03

     total cpu time spent up to now is      129.2 secs

     total energy              =   -1260.37646940 Ry
     estimated scf accuracy    <       0.00619772 Ry

     total magnetization       =    -0.57 Bohr mag/cell
     absolute magnetization    =     0.78 Bohr mag/cell

     iteration # 15     ecut=    80.00 Ry     beta= 0.30
     Davidson diagonalization with overlap
     ethr =  4.10E-06,  avg # of iterations =  6.6

     negative rho (up, down):  5.077E-03 5.086E-03

     total cpu time spent up to now is      137.3 secs

     total energy              =   -1260.37573809 Ry
     estimated scf accuracy    <       0.00851495 Ry

     total magnetization       =    -0.54 Bohr mag/cell
     absolute magnetization    =     0.74 Bohr mag/cell

     iteration # 16     ecut=    80.00 Ry     beta= 0.30
     Davidson diagonalization with overlap
     ethr =  4.10E-06,  avg # of iterations =  4.1

     negative rho (up, down):  5.165E-03 5.176E-03

     total cpu time spent up to now is      144.1 secs

     total energy              =   -1260.37560857 Ry
     estimated scf accuracy    <       0.00269752 Ry

     total magnetization       =    -0.57 Bohr mag/cell
     absolute magnetization    =     0.72 Bohr mag/cell

     iteration # 17     ecut=    80.00 Ry     beta= 0.30
     Davidson diagonalization with overlap
     ethr =  1.79E-06,  avg # of iterations =  3.7

     negative rho (up, down):  6.367E-03 6.446E-03

     total cpu time spent up to now is      151.9 secs

     total energy              =   -1260.37552096 Ry
     estimated scf accuracy    <       0.00217892 Ry

     total magnetization       =    -0.60 Bohr mag/cell
     absolute magnetization    =     0.73 Bohr mag/cell

     iteration # 18     ecut=    80.00 Ry     beta= 0.30
     Davidson diagonalization with overlap
     ethr =  1.44E-06,  avg # of iterations =  2.1

     negative rho (up, down):  8.206E-03 8.326E-03

     total cpu time spent up to now is      158.9 secs

     total energy              =   -1260.37550854 Ry
     estimated scf accuracy    <       0.00130704 Ry

     total magnetization       =    -0.59 Bohr mag/cell
     absolute magnetization    =     0.75 Bohr mag/cell

     iteration # 19     ecut=    80.00 Ry     beta= 0.30
     Davidson diagonalization with overlap
     ethr =  8.66E-07,  avg # of iterations =  1.2

     negative rho (up, down):  7.347E-03 7.471E-03

     total cpu time spent up to now is      164.8 secs

     total energy              =   -1260.37544997 Ry
     estimated scf accuracy    <       0.00069046 Ry

     total magnetization       =    -0.57 Bohr mag/cell
     absolute magnetization    =     0.74 Bohr mag/cell

     iteration # 20     ecut=    80.00 Ry     beta= 0.30
     Davidson diagonalization with overlap
     ethr =  4.57E-07,  avg # of iterations =  1.6

     negative rho (up, down):  5.815E-03 5.935E-03

     total cpu time spent up to now is      170.8 secs

     total energy              =   -1260.37538857 Ry
     estimated scf accuracy    <       0.00039740 Ry

     total magnetization       =    -0.57 Bohr mag/cell
     absolute magnetization    =     0.74 Bohr mag/cell

     iteration # 21     ecut=    80.00 Ry     beta= 0.30
     Davidson diagonalization with overlap
     ethr =  2.63E-07,  avg # of iterations =  2.4

     negative rho (up, down):  5.346E-03 5.451E-03

     total cpu time spent up to now is      177.5 secs

     total energy              =   -1260.37541412 Ry
     estimated scf accuracy    <       0.00024960 Ry

     total magnetization       =    -0.56 Bohr mag/cell
     absolute magnetization    =     0.72 Bohr mag/cell

     iteration # 22     ecut=    80.00 Ry     beta= 0.30
     Davidson diagonalization with overlap
     ethr =  1.65E-07,  avg # of iterations =  1.4

     negative rho (up, down):  4.692E-03 4.796E-03

     total cpu time spent up to now is      183.6 secs

     total energy              =   -1260.37542690 Ry
     estimated scf accuracy    <       0.00008544 Ry

     total magnetization       =    -0.56 Bohr mag/cell
     absolute magnetization    =     0.72 Bohr mag/cell

     iteration # 23     ecut=    80.00 Ry     beta= 0.30
     Davidson diagonalization with overlap
     ethr =  5.66E-08,  avg # of iterations =  1.7

     negative rho (up, down):  4.119E-03 4.233E-03

     total cpu time spent up to now is      189.6 secs

     total energy              =   -1260.37544149 Ry
     estimated scf accuracy    <       0.00004147 Ry

     total magnetization       =    -0.57 Bohr mag/cell
     absolute magnetization    =     0.72 Bohr mag/cell

     iteration # 24     ecut=    80.00 Ry     beta= 0.30
     Davidson diagonalization with overlap
     ethr =  2.75E-08,  avg # of iterations =  2.2

     negative rho (up, down):  4.133E-03 4.254E-03

     total cpu time spent up to now is      195.9 secs

     total energy              =   -1260.37545999 Ry
     estimated scf accuracy    <       0.00001439 Ry

     total magnetization       =    -0.57 Bohr mag/cell
     absolute magnetization    =     0.73 Bohr mag/cell

     iteration # 25     ecut=    80.00 Ry     beta= 0.30
     Davidson diagonalization with overlap
     ethr =  9.53E-09,  avg # of iterations =  2.1

     negative rho (up, down):  4.020E-03 4.145E-03

     total cpu time spent up to now is      202.2 secs

     total energy              =   -1260.37546654 Ry
     estimated scf accuracy    <       0.00000654 Ry

     total magnetization       =    -0.57 Bohr mag/cell
     absolute magnetization    =     0.73 Bohr mag/cell

     iteration # 26     ecut=    80.00 Ry     beta= 0.30
     Davidson diagonalization with overlap
     ethr =  4.33E-09,  avg # of iterations =  2.7

     negative rho (up, down):  3.888E-03 4.012E-03

     total cpu time spent up to now is      208.7 secs

     total energy              =   -1260.37546874 Ry
     estimated scf accuracy    <       0.00000168 Ry

     total magnetization       =    -0.57 Bohr mag/cell
     absolute magnetization    =     0.73 Bohr mag/cell

     iteration # 27     ecut=    80.00 Ry     beta= 0.30
     Davidson diagonalization with overlap
     c_bands:  1 eigenvalues not converged
     c_bands:  1 eigenvalues not converged
     ethr =  1.12E-09,  avg # of iterations =  4.7

     negative rho (up, down):  3.818E-03 3.945E-03

     Magnetic moment per site  (integrated on atomic sphere of radius R)
     atom   1 (R=0.254)  charge=  8.1257  magn=  0.0044
     atom   2 (R=0.254)  charge=  8.1206  magn=  0.0274
     atom   3 (R=0.254)  charge=  8.1179  magn=  0.0077
     atom   4 (R=0.254)  charge=  8.1147  magn=  0.0045
     atom   5 (R=0.254)  charge=  8.1224  magn=  0.0022
     atom   6 (R=0.254)  charge=  8.1340  magn=  0.0030
     atom   7 (R=0.137)  charge=  1.9472  magn= -0.0528
     atom   8 (R=0.137)  charge=  1.9302  magn= -0.0961
     atom   9 (R=0.137)  charge=  1.9521  magn= -0.0030
     atom  10 (R=0.137)  charge=  1.9521  magn= -0.0030
     atom  11 (R=0.137)  charge=  1.9502  magn= -0.0052
     atom  12 (R=0.137)  charge=  1.9418  magn= -0.0079
     atom  13 (R=0.137)  charge=  1.9517  magn= -0.0146
     atom  14 (R=0.137)  charge=  1.9517  magn= -0.0146
     atom  15 (R=0.137)  charge=  1.9482  magn= -0.0073
     atom  16 (R=0.137)  charge=  1.9444  magn= -0.0181
     atom  17 (R=0.137)  charge=  1.9511  magn= -0.0038
     atom  18 (R=0.137)  charge=  1.9511  magn= -0.0038
     atom  19 (R=0.137)  charge=  1.9572  magn= -0.0041
     atom  20 (R=0.137)  charge=  0.3885  magn=  0.0001

     total cpu time spent up to now is      216.1 secs

     End of self-consistent calculation

 ------ SPIN UP ------------


          k = 0.0000 0.0000 0.0000 ( 40639 PWs)   bands (ev):

   -58.2348 -57.4210 -57.3351 -57.1913 -57.1079 -56.8794 -34.4921 -34.4781
   -34.3047 -33.7330 -33.6994 -33.5710 -33.5590 -33.5376 -33.4836 -33.4640
   -33.4514 -33.4411 -33.3528 -33.3219 -33.1746 -33.1684 -33.1429 -32.9697
   -18.9153 -18.5825 -18.4192 -18.0637 -17.8454 -17.5560 -17.4020 -17.3155
   -17.0751 -17.0578 -16.8565 -16.5652 -16.1142  -6.6682  -6.1663  -5.9547
    -5.7781  -5.3066  -5.1958  -5.0846  -5.0582  -4.5584  -4.5542  -4.3952
    -4.3679  -4.2080  -3.8815  -3.8174  -3.7450  -3.6723  -3.2728  -3.2067
    -3.1170  -2.8534  -2.7240  -2.6759  -2.4917  -2.3372  -2.2472  -2.2305
    -2.0420  -1.9199  -1.8902  -1.7499  -1.6127  -1.5170  -1.3662  -1.1740
    -1.0539  -1.0003  -0.9219  -0.6749   0.7914   1.3321   1.3862   1.6772
     1.7861   1.9020   1.9459   2.0886   2.3388   2.4217   2.5341   2.5651
     2.6419   2.6654   3.1256

          k = 0.0000 0.1139 0.0000 ( 40609 PWs)   bands (ev):

   -58.2347 -57.4209 -57.3353 -57.1912 -57.1079 -56.8794 -34.4921 -34.4750
   -34.3047 -33.7095 -33.6992 -33.5838 -33.5708 -33.5371 -33.4736 -33.4645
   -33.4514 -33.4452 -33.3528 -33.3218 -33.1746 -33.1684 -33.1538 -32.9698
   -18.7993 -18.5242 -18.3450 -17.9863 -17.9252 -17.7355 -17.4325 -17.2986
   -17.1433 -17.0699 -16.9126 -16.5630 -16.1124  -6.3713  -5.9099  -5.7947
    -5.6497  -5.3156  -5.1249  -5.0438  -4.9508  -4.5677  -4.3677  -4.3592
    -4.3442  -4.1647  -3.9493  -3.8815  -3.8169  -3.7134  -3.5233  -3.4856
    -3.2059  -3.1751  -2.8181  -2.7474  -2.5414  -2.4312  -2.3683  -2.1231
    -2.0791  -2.0639  -1.8877  -1.8395  -1.6837  -1.6131  -1.4671  -1.2876
    -1.1256  -1.1036  -0.9556  -0.7902   1.0212   1.3294   1.6851   1.8195
     1.9415   1.9910   2.1597   2.3459   2.3685   2.4649   2.5102   2.6006
     2.7098   2.8472   3.0538

          k = 0.0000-0.2277 0.0000 ( 40526 PWs)   bands (ev):

   -58.2347 -57.4208 -57.3354 -57.1912 -57.1079 -56.8794 -34.4921 -34.4718
   -34.3047 -33.6992 -33.6658 -33.6283 -33.5711 -33.5366 -33.4650 -33.4627
   -33.4515 -33.4494 -33.3528 -33.3217 -33.1747 -33.1684 -33.1654 -32.9699
   -18.6258 -18.4813 -18.1833 -18.1308 -17.9366 -17.7564 -17.6118 -17.2728
   -17.2337 -17.0613 -16.9594 -16.5620 -16.1109  -5.9728  -5.8408  -5.4640
    -5.3680  -5.2695  -5.1198  -5.0002  -4.7249  -4.5255  -4.3668  -4.2899
    -4.2731  -4.1184  -4.0676  -3.8903  -3.8841  -3.8515  -3.8163  -3.7468
    -3.4906  -3.3886  -3.0689  -2.8279  -2.7970  -2.4994  -2.3890  -2.2487
    -2.1009  -2.0637  -2.0238  -1.8965  -1.6992  -1.6180  -1.3182  -1.2801
    -1.1534  -1.1428  -1.1159  -0.8807   1.1649   1.3276   1.8610   1.9531
     2.0905   2.1734   2.3256   2.4170   2.4303   2.4896   2.6297   2.6937
     2.9168   2.9753   3.0353

          k = 0.0000-0.1139 0.0000 ( 40609 PWs)   bands (ev):

   -58.2347 -57.4209 -57.3353 -57.1912 -57.1079 -56.8794 -34.4921 -34.4750
   -34.3047 -33.7095 -33.6992 -33.5838 -33.5708 -33.5371 -33.4736 -33.4645
   -33.4514 -33.4452 -33.3528 -33.3218 -33.1746 -33.1684 -33.1538 -32.9698
   -18.7993 -18.5242 -18.3450 -17.9863 -17.9252 -17.7355 -17.4325 -17.2986
   -17.1433 -17.0699 -16.9126 -16.5630 -16.1124  -6.3713  -5.9099  -5.7947
    -5.6497  -5.3156  -5.1249  -5.0438  -4.9508  -4.5677  -4.3677  -4.3592
    -4.3442  -4.1647  -3.9493  -3.8815  -3.8169  -3.7134  -3.5233  -3.4856
    -3.2059  -3.1751  -2.8181  -2.7474  -2.5414  -2.4312  -2.3683  -2.1231
    -2.0791  -2.0639  -1.8877  -1.8395  -1.6837  -1.6131  -1.4671  -1.2876
    -1.1256  -1.1036  -0.9556  -0.7902   1.0212   1.3294   1.6851   1.8195
     1.9415   1.9910   2.1597   2.3459   2.3685   2.4649   2.5102   2.6006
     2.7098   2.8472   3.0538

          k = 0.1250 0.0000 0.0000 ( 40652 PWs)   bands (ev):

   -58.2289 -57.4150 -57.3293 -57.1853 -57.1020 -56.8731 -34.4872 -34.4619
   -34.3728 -33.7180 -33.6870 -33.6042 -33.5656 -33.5539 -33.5306 -33.4660
   -33.4503 -33.4371 -33.3856 -33.3380 -33.2371 -33.1670 -33.1401 -33.0380
   -18.7719 -18.4732 -18.3120 -17.9543 -17.7266 -17.6321 -17.3138 -17.2036
   -17.1372 -17.1238 -16.9245 -16.5980 -16.1671  -6.4686  -5.9801  -5.7925
    -5.7090  -5.3264  -5.3022  -5.0031  -4.9883  -4.8210  -4.6523  -4.4849
    -4.4059  -4.1968  -3.8933  -3.7568  -3.5521  -3.4740  -3.1972  -3.1133
    -2.9724  -2.8811  -2.7558  -2.7493  -2.6263  -2.5523  -2.4243  -2.2935
    -2.1285  -2.1220  -1.9073  -1.8582  -1.7416  -1.6909  -1.6276  -1.4757
    -1.3831  -1.0879  -0.8897  -0.7550   1.0747   1.3136   1.6576   1.6638
     1.8615   1.9352   2.1467   2.2023   2.3173   2.4090   2.5836   2.6952
     2.7217   2.7765   3.1277

          k = 0.1250 0.1139 0.0000 ( 40695 PWs)   bands (ev):

   -58.2289 -57.4149 -57.3294 -57.1853 -57.1020 -56.8731 -34.4872 -34.4592
   -34.3731 -33.6984 -33.6869 -33.6046 -33.5777 -33.5651 -33.5274 -33.4576
   -33.4502 -33.4402 -33.3865 -33.3380 -33.2371 -33.1671 -33.1484 -33.0380
   -18.6615 -18.4374 -18.2281 -17.8836 -17.8404 -17.7282 -17.3442 -17.2324
   -17.1951 -17.1301 -16.9628 -16.5958 -16.1656  -6.1746  -5.7815  -5.6679
    -5.5065  -5.3163  -5.2318  -5.0416  -4.8728  -4.7280  -4.6631  -4.4846
    -4.3014  -4.1064  -3.9164  -3.7720  -3.6067  -3.5130  -3.4436  -3.2825
    -3.2147  -3.1095  -3.0304  -2.8668  -2.7685  -2.5919  -2.4773  -2.3415
    -2.2941  -2.1696  -2.0730  -1.8918  -1.7540  -1.6641  -1.5751  -1.4647
    -1.3681  -1.1222  -0.9007  -0.8267   1.2650   1.3608   1.7341   1.9262
     1.9740   2.0366   2.2552   2.3906   2.4487   2.4775   2.6151   2.6845
     2.7336   2.9129   3.1164

          k = 0.1250-0.2277 0.0000 ( 40666 PWs)   bands (ev):

   -58.2289 -57.4148 -57.3295 -57.1853 -57.1020 -56.8732 -34.4872 -34.4565
   -34.3735 -33.6868 -33.6657 -33.6189 -33.5977 -33.5654 -33.5264 -33.4507
   -33.4476 -33.4433 -33.3878 -33.3380 -33.2371 -33.1671 -33.1572 -33.0380
   -18.4875 -18.4098 -18.1003 -18.0195 -17.9102 -17.6504 -17.5256 -17.2808
   -17.2178 -17.1216 -16.9888 -16.5946 -16.1642  -5.7704  -5.7455  -5.4002
    -5.2953  -5.2169  -5.0709  -5.0103  -4.7859  -4.7370  -4.6060  -4.3749
    -4.2238  -4.1016  -3.8978  -3.7977  -3.7697  -3.7218  -3.6757  -3.5404
    -3.3858  -3.3314  -3.1742  -3.0467  -2.9916  -2.9122  -2.5562  -2.4661
    -2.3635  -2.1513  -2.1274  -1.9144  -1.7825  -1.6412  -1.4239  -1.3256
    -1.2218  -1.1339  -1.1199  -0.8501   1.3136   1.4478   1.8829   1.9749
     2.1049   2.1670   2.3129   2.5155   2.6334   2.6510   2.6663   2.6971
     2.8508   2.9657   3.1217

          k = 0.1250-0.1139 0.0000 ( 40695 PWs)   bands (ev):

   -58.2289 -57.4149 -57.3294 -57.1853 -57.1020 -56.8731 -34.4872 -34.4592
   -34.3731 -33.6984 -33.6869 -33.6046 -33.5777 -33.5651 -33.5274 -33.4576
   -33.4502 -33.4402 -33.3865 -33.3380 -33.2371 -33.1671 -33.1484 -33.0380
   -18.6615 -18.4374 -18.2281 -17.8836 -17.8404 -17.7282 -17.3442 -17.2324
   -17.1951 -17.1301 -16.9628 -16.5958 -16.1656  -6.1746  -5.7815  -5.6679
    -5.5065  -5.3163  -5.2318  -5.0416  -4.8728  -4.7280  -4.6631  -4.4846
    -4.3014  -4.1064  -3.9164  -3.7720  -3.6067  -3.5130  -3.4436  -3.2825
    -3.2147  -3.1095  -3.0304  -2.8668  -2.7685  -2.5919  -2.4773  -2.3415
    -2.2941  -2.1696  -2.0730  -1.8918  -1.7540  -1.6641  -1.5751  -1.4647
    -1.3681  -1.1222  -0.9007  -0.8267   1.2650   1.3608   1.7341   1.9262
     1.9740   2.0366   2.2552   2.3906   2.4487   2.4775   2.6151   2.6845
     2.7335   2.9128   3.1161

          k = 0.2500 0.0000 0.0000 ( 40766 PWs)   bands (ev):

   -58.2147 -57.4004 -57.3152 -57.1710 -57.0876 -56.8580 -34.5340 -34.4753
   -34.4223 -33.7760 -33.6904 -33.6818 -33.6426 -33.5571 -33.5517 -33.5412
   -33.4274 -33.4268 -33.4224 -33.3990 -33.3019 -33.2388 -33.1342 -33.1086
   -18.4171 -18.2679 -17.9930 -17.8150 -17.6710 -17.4485 -17.2895 -17.2833
   -17.1516 -17.0886 -16.9730 -16.6399 -16.2395  -6.0311  -5.9609  -5.5196
    -5.4290  -5.3081  -5.1516  -5.0615  -4.8854  -4.8039  -4.7401  -4.4143
    -4.3088  -4.2486  -4.1259  -3.7872  -3.6665  -3.5169  -3.3922  -3.3259
    -3.2284  -3.1940  -2.9372  -2.7516  -2.7458  -2.6715  -2.5483  -2.5060
    -2.3242  -2.1364  -1.9887  -1.9805  -1.9544  -1.8217  -1.7065  -1.6967
    -1.4893  -1.1254  -1.0354  -1.0244   1.3069   1.4804   1.5179   2.0098
     2.0428   2.1254   2.2551   2.2936   2.4437   2.6815   2.7986   2.8560
     2.8639   2.9335   2.9848

          k = 0.2500 0.1139 0.0000 ( 40754 PWs)   bands (ev):

   -58.2146 -57.4004 -57.3153 -57.1710 -57.0876 -56.8581 -34.5350 -34.4753
   -34.4207 -33.7767 -33.7119 -33.6475 -33.6422 -33.5596 -33.5536 -33.5518
   -33.4284 -33.4269 -33.4168 -33.3988 -33.3019 -33.2382 -33.1379 -33.1085
   -18.3384 -18.2593 -17.9311 -17.9070 -17.6055 -17.5171 -17.3279 -17.2974
   -17.1700 -17.1208 -16.9596 -16.6390 -16.2392  -6.0330  -5.7234  -5.3265
    -5.2894  -5.1389  -5.0851  -4.9812  -4.8869  -4.7450  -4.7053  -4.5837
    -4.3589  -4.3161  -4.0285  -3.8480  -3.7607  -3.5959  -3.5169  -3.3128
    -3.2394  -3.1152  -3.0503  -2.9982  -2.8760  -2.7535  -2.7165  -2.6385
    -2.5312  -2.2236  -2.0133  -1.9602  -1.9277  -1.7897  -1.6505  -1.5416
    -1.4322  -1.1910  -1.0964  -0.9960   1.3357   1.5144   1.7119   1.9713
     2.0127   2.1271   2.4238   2.4617   2.5066   2.6915   2.8261   2.8742
     2.9217   2.9687   3.0176

          k = 0.2500-0.2277 0.0000 ( 40742 PWs)   bands (ev):

   -58.2146 -57.4003 -57.3154 -57.1710 -57.0876 -56.8581 -34.5358 -34.4753
   -34.4192 -33.7770 -33.7211 -33.6427 -33.6170 -33.5743 -33.5619 -33.5519
   -33.4292 -33.4269 -33.4115 -33.3987 -33.3019 -33.2375 -33.1417 -33.1084
   -18.2529 -18.1406 -18.1327 -17.7842 -17.6668 -17.4489 -17.4265 -17.3385
   -17.2163 -17.1078 -16.9537 -16.6382 -16.2390  -6.0352  -5.3791  -5.2124
    -5.1655  -4.9250  -4.9183  -4.8379  -4.7419  -4.7134  -4.6626  -4.6394
    -4.5175  -4.3317  -4.2741  -4.0732  -3.7923  -3.5710  -3.4752  -3.3963
    -3.3852  -3.2782  -3.2435  -3.0619  -2.9551  -2.8788  -2.8205  -2.6887
    -2.6156  -2.4253  -2.1087  -1.9689  -1.8237  -1.7494  -1.5647  -1.4312
    -1.3217  -1.2041  -1.1742  -0.9968   1.4154   1.4871   1.8416   1.9795
     2.0302   2.0457   2.4283   2.5858   2.7513   2.7911   2.8417   2.8888
     2.9763   3.0321   3.0829

          k = 0.2500-0.1139 0.0000 ( 40754 PWs)   bands (ev):

   -58.2146 -57.4004 -57.3153 -57.1710 -57.0876 -56.8581 -34.5350 -34.4753
   -34.4207 -33.7767 -33.7119 -33.6475 -33.6422 -33.5596 -33.5536 -33.5518
   -33.4284 -33.4269 -33.4168 -33.3988 -33.3019 -33.2382 -33.1379 -33.1085
   -18.3384 -18.2593 -17.9311 -17.9070 -17.6055 -17.5171 -17.3279 -17.2974
   -17.1700 -17.1208 -16.9596 -16.6390 -16.2392  -6.0330  -5.7234  -5.3265
    -5.2894  -5.1389  -5.0851  -4.9812  -4.8869  -4.7450  -4.7053  -4.5837
    -4.3589  -4.3161  -4.0285  -3.8480  -3.7607  -3.5959  -3.5169  -3.3128
    -3.2394  -3.1152  -3.0503  -2.9982  -2.8760  -2.7535  -2.7165  -2.6385
    -2.5312  -2.2236  -2.0133  -1.9602  -1.9277  -1.7897  -1.6505  -1.5416
    -1.4322  -1.1910  -1.0964  -0.9960   1.3357   1.5144   1.7119   1.9713
     2.0127   2.1271   2.4238   2.4617   2.5066   2.6915   2.8259   2.8741
     2.9213   2.9673   3.0177

          k = 0.3750 0.0000 0.0000 ( 40826 PWs)   bands (ev):

   -58.2004 -57.3858 -57.3011 -57.1566 -57.0732 -56.8429 -34.6909 -34.4637
   -34.3820 -33.9332 -33.8447 -33.7124 -33.6454 -33.6065 -33.5703 -33.5282
   -33.5276 -33.4180 -33.4166 -33.3974 -33.3765 -33.2652 -33.1301 -33.0845
   -18.1002 -18.0441 -17.9967 -17.5986 -17.4953 -17.4430 -17.3156 -17.2527
   -17.1797 -17.1331 -16.9090 -16.5336 -16.1727  -6.4777  -5.4457  -5.3382
    -5.2467  -5.0866  -5.0378  -5.0137  -4.9749  -4.8027  -4.7420  -4.6422
    -4.6246  -4.2940  -4.0765  -3.8750  -3.6879  -3.6839  -3.5259  -3.4368
    -3.4055  -3.2813  -3.1234  -3.1231  -2.7953  -2.7342  -2.5871  -2.4494
    -2.4169  -2.0440  -1.9783  -1.9455  -1.9009  -1.7268  -1.6407  -1.6292
    -1.5574  -1.3894  -1.2876  -1.1369   1.0815   1.6941   1.8118   2.0079
     2.2802   2.2910   2.4691   2.4952   2.5796   2.6601   2.6688   2.8536
     2.8845   2.9356   3.0758

          k = 0.3750 0.1139 0.0000 ( 40790 PWs)   bands (ev):

   -58.2004 -57.3858 -57.3011 -57.1566 -57.0732 -56.8429 -34.6921 -34.4637
   -34.3818 -33.9338 -33.8530 -33.7152 -33.6322 -33.6065 -33.5701 -33.5321
   -33.5275 -33.4168 -33.4166 -33.4046 -33.3671 -33.2652 -33.1289 -33.0845
   -18.1947 -18.0987 -17.8513 -17.6834 -17.4982 -17.4535 -17.3478 -17.2199
   -17.1163 -17.0869 -16.9119 -16.5359 -16.1733  -6.4794  -5.5838  -5.3155
    -5.2780  -5.0998  -5.0142  -4.9313  -4.8710  -4.8298  -4.6919  -4.6210
    -4.5337  -4.2666  -4.0005  -3.9506  -3.7485  -3.6254  -3.5708  -3.5297
    -3.2252  -3.1893  -3.1084  -2.9572  -2.8875  -2.7460  -2.6279  -2.4813
    -2.3594  -2.2228  -2.1327  -1.9342  -1.8744  -1.7753  -1.7114  -1.6232
    -1.5381  -1.4308  -1.2531  -1.2035   1.0682   1.5095   1.8020   1.8821
     2.0252   2.2329   2.4297   2.5853   2.6359   2.7949   2.8381   2.8701
     2.9247   3.0058   3.0683

          k = 0.3750-0.2277 0.0000 ( 40742 PWs)   bands (ev):

   -58.2004 -57.3858 -57.3012 -57.1566 -57.0732 -56.8429 -34.6934 -34.4637
   -34.3815 -33.9343 -33.8606 -33.7180 -33.6186 -33.6065 -33.5699 -33.5370
   -33.5275 -33.4166 -33.4156 -33.4093 -33.3603 -33.2652 -33.1277 -33.0845
   -18.2658 -18.0970 -17.8015 -17.7232 -17.5274 -17.4763 -17.3094 -17.2345
   -17.0766 -17.0301 -16.9151 -16.5384 -16.1740  -6.4812  -5.6466  -5.3711
    -5.2205  -5.1504  -5.0478  -4.9699  -4.8611  -4.7129  -4.6220  -4.3862
    -4.3768  -4.3582  -4.1854  -3.7852  -3.7682  -3.5838  -3.5384  -3.4874
    -3.2968  -3.2278  -3.0844  -3.0682  -2.7832  -2.6975  -2.5462  -2.5165
    -2.4269  -2.2588  -2.1010  -1.9979  -1.8998  -1.8871  -1.8276  -1.7323
    -1.5014  -1.3685  -1.2606  -1.2345   1.1077   1.2459   1.7507   1.8693
     1.8876   2.2203   2.4409   2.5013   2.7400   2.8417   2.9371   2.9573
     2.9828   2.9895   3.0808

          k = 0.3750-0.1139 0.0000 ( 40790 PWs)   bands (ev):

   -58.2004 -57.3858 -57.3011 -57.1566 -57.0732 -56.8429 -34.6921 -34.4637
   -34.3818 -33.9338 -33.8530 -33.7152 -33.6322 -33.6065 -33.5701 -33.5321
   -33.5275 -33.4168 -33.4166 -33.4046 -33.3671 -33.2652 -33.1289 -33.0845
   -18.1947 -18.0987 -17.8513 -17.6834 -17.4982 -17.4535 -17.3478 -17.2199
   -17.1163 -17.0869 -16.9119 -16.5359 -16.1733  -6.4794  -5.5838  -5.3155
    -5.2780  -5.0998  -5.0142  -4.9313  -4.8710  -4.8298  -4.6919  -4.6210
    -4.5337  -4.2666  -4.0005  -3.9506  -3.7485  -3.6254  -3.5708  -3.5297
    -3.2252  -3.1893  -3.1084  -2.9572  -2.8875  -2.7460  -2.6279  -2.4813
    -2.3594  -2.2228  -2.1327  -1.9342  -1.8744  -1.7753  -1.7114  -1.6232
    -1.5381  -1.4308  -1.2531  -1.2035   1.0682   1.5095   1.8020   1.8821
     2.0252   2.2329   2.4297   2.5853   2.6359   2.7949   2.8381   2.8700
     2.9247   3.0058   3.0685

          k =-0.5000 0.0000 0.0000 ( 40852 PWs)   bands (ev):

   -58.1944 -57.3797 -57.2953 -57.1507 -57.0672 -56.8366 -34.7546 -34.4589
   -34.3652 -33.9975 -33.9075 -33.7755 -33.6303 -33.6280 -33.5913 -33.5339
   -33.5226 -33.4598 -33.4141 -33.4118 -33.3566 -33.2498 -33.1291 -33.0721
   -18.0715 -18.0338 -17.8792 -17.5506 -17.5092 -17.3772 -17.3206 -17.2127
   -17.1768 -17.0857 -16.9354 -16.4480 -16.0996  -6.6770  -5.4238  -5.3926
    -5.2276  -5.2233  -5.0124  -4.9930  -4.8571  -4.8561  -4.7900  -4.7031
    -4.4692  -4.0952  -4.0482  -3.9934  -3.9176  -3.8898  -3.6230  -3.4945
    -3.2965  -3.2255  -2.9982  -2.9365  -2.9029  -2.6754  -2.5757  -2.4331
    -2.3406  -2.0336  -1.9932  -1.9517  -1.9259  -1.8427  -1.7164  -1.7019
    -1.5330  -1.4153  -1.3821  -1.1014   1.0434   1.7766   1.9133   2.1570
     2.2295   2.3724   2.5465   2.5678   2.6026   2.6116   2.6783   2.7126
     2.8698   2.9922   3.1340

          k =-0.5000 0.1139 0.0000 ( 40798 PWs)   bands (ev):

   -58.1944 -57.3797 -57.2953 -57.1507 -57.0672 -56.8366 -34.7560 -34.4589
   -34.3655 -33.9981 -33.9146 -33.7784 -33.6276 -33.6225 -33.5913 -33.5341
   -33.5220 -33.4619 -33.4120 -33.4118 -33.3541 -33.2498 -33.1256 -33.0721
   -18.2348 -18.0334 -17.7238 -17.6758 -17.5489 -17.4833 -17.2006 -17.1832
   -17.0979 -17.0142 -16.9374 -16.4484 -16.0992  -6.6783  -5.7964  -5.4812
    -5.3895  -5.1956  -5.1612  -5.0047  -4.7823  -4.6631  -4.6232  -4.4593
    -4.3197  -4.1204  -4.0652  -3.9569  -3.9132  -3.6350  -3.5364  -3.4142
    -3.3024  -3.2242  -3.1380  -2.9180  -2.9019  -2.7080  -2.4294  -2.2552
    -2.2149  -2.1664  -2.1136  -2.0394  -1.9178  -1.8088  -1.7488  -1.6719
    -1.5963  -1.5806  -1.4486  -1.1817   1.0031   1.3956   1.7945   1.8165
     2.1332   2.2005   2.5156   2.6122   2.6233   2.7105   2.7739   2.8417
     2.9728   2.9953   3.0768

          k =-0.5000-0.2277 0.0000 ( 40760 PWs)   bands (ev):

   -58.1944 -57.3797 -57.2953 -57.1507 -57.0672 -56.8366 -34.7574 -34.4589
   -34.3658 -33.9986 -33.9214 -33.7813 -33.6272 -33.6151 -33.5913 -33.5343
   -33.5214 -33.4640 -33.4118 -33.4100 -33.3518 -33.2498 -33.1221 -33.0721
   -18.3277 -18.0330 -17.7906 -17.6037 -17.5695 -17.5473 -17.1842 -17.1142
   -17.0811 -16.9394 -16.9232 -16.4488 -16.0989  -6.6797  -5.9794  -5.6600
    -5.3524  -5.3469  -5.1751  -5.0205  -4.6527  -4.5060  -4.4504  -4.4480
    -4.3567  -4.2045  -4.0269  -3.9518  -3.7979  -3.3607  -3.3511  -3.2944
    -3.2808  -3.2781  -3.0754  -2.9485  -2.8928  -2.7151  -2.3913  -2.3501
    -2.2363  -2.1381  -2.1195  -1.9856  -1.9261  -1.8098  -1.7746  -1.7328
    -1.6682  -1.6580  -1.6050  -1.2498   0.9625   1.0941   1.5870   1.8097
     1.9056   2.1697   2.4815   2.6167   2.6337   2.7085   2.8414   2.9795
     3.0025   3.0291   3.0374

          k =-0.5000-0.1139 0.0000 ( 40798 PWs)   bands (ev):

   -58.1944 -57.3797 -57.2953 -57.1507 -57.0672 -56.8366 -34.7560 -34.4589
   -34.3655 -33.9981 -33.9146 -33.7784 -33.6276 -33.6225 -33.5913 -33.5341
   -33.5220 -33.4619 -33.4120 -33.4118 -33.3541 -33.2498 -33.1256 -33.0721
   -18.2348 -18.0334 -17.7238 -17.6758 -17.5489 -17.4833 -17.2006 -17.1832
   -17.0979 -17.0142 -16.9374 -16.4484 -16.0992  -6.6783  -5.7964  -5.4812
    -5.3895  -5.1956  -5.1612  -5.0047  -4.7823  -4.6631  -4.6232  -4.4593
    -4.3197  -4.1204  -4.0652  -3.9569  -3.9132  -3.6350  -3.5364  -3.4142
    -3.3024  -3.2242  -3.1380  -2.9180  -2.9019  -2.7080  -2.4294  -2.2552
    -2.2149  -2.1664  -2.1136  -2.0394  -1.9178  -1.8088  -1.7488  -1.6719
    -1.5963  -1.5806  -1.4486  -1.1817   1.0031   1.3956   1.7945   1.8165
     2.1331   2.2005   2.5156   2.6122   2.6233   2.7105   2.7739   2.8416
     2.9725   2.9953   3.0768

          k =-0.3750 0.0000 0.0000 ( 40826 PWs)   bands (ev):

   -58.2004 -57.3858 -57.3011 -57.1566 -57.0732 -56.8429 -34.6909 -34.4637
   -34.3820 -33.9332 -33.8447 -33.7124 -33.6454 -33.6065 -33.5703 -33.5282
   -33.5276 -33.4180 -33.4166 -33.3974 -33.3765 -33.2652 -33.1301 -33.0845
   -18.1002 -18.0441 -17.9967 -17.5986 -17.4953 -17.4430 -17.3156 -17.2527
   -17.1797 -17.1331 -16.9090 -16.5336 -16.1727  -6.4777  -5.4457  -5.3382
    -5.2467  -5.0866  -5.0378  -5.0137  -4.9749  -4.8027  -4.7420  -4.6422
    -4.6246  -4.2940  -4.0765  -3.8750  -3.6879  -3.6839  -3.5259  -3.4368
    -3.4055  -3.2813  -3.1234  -3.1231  -2.7953  -2.7342  -2.5871  -2.4494
    -2.4169  -2.0440  -1.9783  -1.9455  -1.9009  -1.7268  -1.6407  -1.6292
    -1.5574  -1.3894  -1.2876  -1.1369   1.0815   1.6941   1.8118   2.0079
     2.2802   2.2910   2.4691   2.4952   2.5796   2.6601   2.6688   2.8535
     2.8844   2.9357   3.0756

          k =-0.3750 0.1139 0.0000 ( 40790 PWs)   bands (ev):

   -58.2004 -57.3858 -57.3011 -57.1566 -57.0732 -56.8429 -34.6921 -34.4637
   -34.3818 -33.9338 -33.8530 -33.7152 -33.6322 -33.6065 -33.5701 -33.5321
   -33.5275 -33.4168 -33.4166 -33.4046 -33.3671 -33.2652 -33.1289 -33.0845
   -18.1947 -18.0987 -17.8513 -17.6834 -17.4982 -17.4535 -17.3478 -17.2199
   -17.1163 -17.0869 -16.9119 -16.5359 -16.1733  -6.4794  -5.5838  -5.3155
    -5.2780  -5.0998  -5.0142  -4.9313  -4.8710  -4.8298  -4.6919  -4.6210
    -4.5337  -4.2666  -4.0005  -3.9506  -3.7485  -3.6254  -3.5708  -3.5297
    -3.2252  -3.1893  -3.1084  -2.9572  -2.8875  -2.7460  -2.6279  -2.4813
    -2.3594  -2.2228  -2.1327  -1.9342  -1.8744  -1.7753  -1.7114  -1.6232
    -1.5381  -1.4308  -1.2531  -1.2035   1.0682   1.5095   1.8020   1.8821
     2.0252   2.2329   2.4297   2.5853   2.6360   2.7949   2.8381   2.8700
     2.9247   3.0057   3.0692

          k =-0.3750-0.2277 0.0000 ( 40742 PWs)   bands (ev):

   -58.2004 -57.3858 -57.3012 -57.1566 -57.0732 -56.8429 -34.6934 -34.4637
   -34.3815 -33.9343 -33.8606 -33.7180 -33.6186 -33.6065 -33.5699 -33.5370
   -33.5275 -33.4166 -33.4156 -33.4093 -33.3603 -33.2652 -33.1277 -33.0845
   -18.2658 -18.0970 -17.8015 -17.7232 -17.5274 -17.4763 -17.3094 -17.2345
   -17.0766 -17.0301 -16.9151 -16.5384 -16.1740  -6.4812  -5.6466  -5.3711
    -5.2205  -5.1504  -5.0478  -4.9699  -4.8611  -4.7129  -4.6220  -4.3862
    -4.3768  -4.3582  -4.1854  -3.7852  -3.7682  -3.5838  -3.5384  -3.4874
    -3.2968  -3.2278  -3.0844  -3.0682  -2.7832  -2.6975  -2.5462  -2.5165
    -2.4269  -2.2588  -2.1010  -1.9979  -1.8998  -1.8871  -1.8276  -1.7323
    -1.5014  -1.3685  -1.2606  -1.2345   1.1077   1.2459   1.7507   1.8693
     1.8876   2.2203   2.4409   2.5012   2.7400   2.8417   2.9371   2.9575
     2.9828   2.9895   3.0807

          k =-0.3750-0.1139 0.0000 ( 40790 PWs)   bands (ev):

   -58.2004 -57.3858 -57.3011 -57.1566 -57.0732 -56.8429 -34.6921 -34.4637
   -34.3818 -33.9338 -33.8530 -33.7152 -33.6322 -33.6065 -33.5701 -33.5321
   -33.5275 -33.4168 -33.4166 -33.4046 -33.3671 -33.2652 -33.1289 -33.0845
   -18.1947 -18.0987 -17.8513 -17.6834 -17.4982 -17.4535 -17.3478 -17.2199
   -17.1163 -17.0869 -16.9119 -16.5359 -16.1733  -6.4794  -5.5838  -5.3155
    -5.2780  -5.0998  -5.0142  -4.9313  -4.8710  -4.8298  -4.6919  -4.6210
    -4.5337  -4.2666  -4.0005  -3.9506  -3.7485  -3.6254  -3.5708  -3.5297
    -3.2252  -3.1893  -3.1084  -2.9572  -2.8875  -2.7460  -2.6279  -2.4813
    -2.3594  -2.2228  -2.1327  -1.9342  -1.8744  -1.7753  -1.7114  -1.6232
    -1.5381  -1.4308  -1.2531  -1.2035   1.0682   1.5095   1.8020   1.8821
     2.0252   2.2329   2.4298   2.5853   2.6360   2.7949   2.8381   2.8701
     2.9247   3.0058   3.0687

          k =-0.2500 0.0000 0.0000 ( 40766 PWs)   bands (ev):

   -58.2147 -57.4004 -57.3152 -57.1710 -57.0876 -56.8580 -34.5340 -34.4753
   -34.4223 -33.7760 -33.6904 -33.6818 -33.6426 -33.5571 -33.5517 -33.5412
   -33.4274 -33.4268 -33.4224 -33.3990 -33.3019 -33.2388 -33.1342 -33.1086
   -18.4171 -18.2679 -17.9930 -17.8150 -17.6710 -17.4485 -17.2895 -17.2833
   -17.1516 -17.0886 -16.9730 -16.6399 -16.2395  -6.0311  -5.9609  -5.5196
    -5.4290  -5.3081  -5.1516  -5.0615  -4.8854  -4.8039  -4.7401  -4.4143
    -4.3088  -4.2486  -4.1259  -3.7872  -3.6665  -3.5169  -3.3922  -3.3259
    -3.2284  -3.1940  -2.9372  -2.7516  -2.7458  -2.6715  -2.5483  -2.5060
    -2.3242  -2.1364  -1.9887  -1.9805  -1.9544  -1.8217  -1.7065  -1.6967
    -1.4893  -1.1254  -1.0354  -1.0244   1.3069   1.4804   1.5179   2.0098
     2.0428   2.1254   2.2551   2.2935   2.4438   2.6814   2.7988   2.8558
     2.8639   2.9320   2.9856

          k =-0.2500 0.1139 0.0000 ( 40754 PWs)   bands (ev):

   -58.2146 -57.4004 -57.3153 -57.1710 -57.0876 -56.8581 -34.5350 -34.4753
   -34.4207 -33.7767 -33.7119 -33.6475 -33.6422 -33.5596 -33.5536 -33.5518
   -33.4284 -33.4269 -33.4168 -33.3988 -33.3019 -33.2382 -33.1379 -33.1085
   -18.3384 -18.2593 -17.9311 -17.9070 -17.6055 -17.5171 -17.3279 -17.2974
   -17.1700 -17.1208 -16.9596 -16.6390 -16.2392  -6.0330  -5.7234  -5.3265
    -5.2894  -5.1389  -5.0851  -4.9812  -4.8869  -4.7450  -4.7053  -4.5837
    -4.3589  -4.3161  -4.0285  -3.8480  -3.7607  -3.5959  -3.5169  -3.3128
    -3.2394  -3.1152  -3.0503  -2.9982  -2.8760  -2.7535  -2.7165  -2.6385
    -2.5312  -2.2236  -2.0133  -1.9602  -1.9277  -1.7897  -1.6505  -1.5416
    -1.4322  -1.1910  -1.0964  -0.9960   1.3357   1.5144   1.7119   1.9713
     2.0127   2.1271   2.4238   2.4617   2.5066   2.6915   2.8259   2.8741
     2.9213   2.9673   3.0175

          k =-0.2500-0.2277 0.0000 ( 40742 PWs)   bands (ev):

   -58.2146 -57.4003 -57.3154 -57.1710 -57.0876 -56.8581 -34.5358 -34.4753
   -34.4192 -33.7770 -33.7211 -33.6427 -33.6170 -33.5743 -33.5619 -33.5519
   -33.4292 -33.4269 -33.4115 -33.3987 -33.3019 -33.2375 -33.1417 -33.1084
   -18.2529 -18.1406 -18.1327 -17.7842 -17.6668 -17.4489 -17.4265 -17.3385
   -17.2163 -17.1078 -16.9537 -16.6382 -16.2390  -6.0352  -5.3791  -5.2124
    -5.1655  -4.9250  -4.9183  -4.8379  -4.7419  -4.7134  -4.6626  -4.6394
    -4.5175  -4.3317  -4.2741  -4.0732  -3.7923  -3.5710  -3.4752  -3.3963
    -3.3852  -3.2782  -3.2435  -3.0619  -2.9551  -2.8788  -2.8205  -2.6887
    -2.6156  -2.4253  -2.1087  -1.9689  -1.8237  -1.7494  -1.5647  -1.4312
    -1.3217  -1.2041  -1.1742  -0.9968   1.4154   1.4871   1.8416   1.9795
     2.0303   2.0457   2.4283   2.5858   2.7513   2.7911   2.8417   2.8888
     2.9763   3.0317   3.0829

          k =-0.2500-0.1139 0.0000 ( 40754 PWs)   bands (ev):

   -58.2146 -57.4004 -57.3153 -57.1710 -57.0876 -56.8581 -34.5350 -34.4753
   -34.4207 -33.7767 -33.7119 -33.6475 -33.6422 -33.5596 -33.5536 -33.5518
   -33.4284 -33.4269 -33.4168 -33.3988 -33.3019 -33.2382 -33.1379 -33.1085
   -18.3384 -18.2593 -17.9311 -17.9070 -17.6055 -17.5171 -17.3279 -17.2974
   -17.1700 -17.1208 -16.9596 -16.6390 -16.2392  -6.0330  -5.7234  -5.3265
    -5.2894  -5.1389  -5.0851  -4.9812  -4.8869  -4.7450  -4.7053  -4.5837
    -4.3589  -4.3161  -4.0285  -3.8480  -3.7607  -3.5959  -3.5169  -3.3128
    -3.2394  -3.1152  -3.0503  -2.9982  -2.8760  -2.7535  -2.7165  -2.6385
    -2.5312  -2.2236  -2.0133  -1.9602  -1.9277  -1.7897  -1.6505  -1.5416
    -1.4322  -1.1910  -1.0964  -0.9960   1.3357   1.5144   1.7119   1.9713
     2.0127   2.1271   2.4238   2.4617   2.5066   2.6915   2.8259   2.8741
     2.9214   2.9675   3.0175

          k =-0.1250 0.0000 0.0000 ( 40652 PWs)   bands (ev):

   -58.2289 -57.4150 -57.3293 -57.1853 -57.1020 -56.8731 -34.4872 -34.4619
   -34.3728 -33.7180 -33.6870 -33.6042 -33.5656 -33.5539 -33.5306 -33.4660
   -33.4503 -33.4371 -33.3856 -33.3380 -33.2371 -33.1670 -33.1401 -33.0380
   -18.7719 -18.4732 -18.3120 -17.9543 -17.7266 -17.6321 -17.3138 -17.2036
   -17.1372 -17.1238 -16.9245 -16.5980 -16.1671  -6.4686  -5.9801  -5.7925
    -5.7090  -5.3264  -5.3022  -5.0031  -4.9883  -4.8210  -4.6523  -4.4849
    -4.4059  -4.1968  -3.8933  -3.7568  -3.5521  -3.4740  -3.1972  -3.1133
    -2.9724  -2.8811  -2.7558  -2.7493  -2.6263  -2.5523  -2.4243  -2.2935
    -2.1285  -2.1220  -1.9073  -1.8582  -1.7416  -1.6909  -1.6276  -1.4757
    -1.3831  -1.0879  -0.8897  -0.7550   1.0747   1.3136   1.6576   1.6638
     1.8615   1.9352   2.1467   2.2024   2.3173   2.4090   2.5836   2.6953
     2.7218   2.7767   3.1285

          k =-0.1250 0.1139 0.0000 ( 40695 PWs)   bands (ev):

   -58.2289 -57.4149 -57.3294 -57.1853 -57.1020 -56.8731 -34.4872 -34.4592
   -34.3731 -33.6984 -33.6869 -33.6046 -33.5777 -33.5651 -33.5274 -33.4576
   -33.4502 -33.4402 -33.3865 -33.3380 -33.2371 -33.1671 -33.1484 -33.0380
   -18.6615 -18.4374 -18.2281 -17.8836 -17.8404 -17.7282 -17.3442 -17.2324
   -17.1951 -17.1301 -16.9628 -16.5958 -16.1656  -6.1746  -5.7815  -5.6679
    -5.5065  -5.3163  -5.2318  -5.0416  -4.8728  -4.7280  -4.6631  -4.4846
    -4.3014  -4.1064  -3.9164  -3.7720  -3.6067  -3.5130  -3.4436  -3.2825
    -3.2147  -3.1095  -3.0304  -2.8668  -2.7685  -2.5919  -2.4773  -2.3415
    -2.2941  -2.1696  -2.0730  -1.8918  -1.7540  -1.6641  -1.5751  -1.4647
    -1.3681  -1.1222  -0.9007  -0.8267   1.2650   1.3608   1.7342   1.9262
     1.9740   2.0367   2.2552   2.3906   2.4487   2.4775   2.6154   2.6848
     2.7339   2.9134   3.1162

          k =-0.1250-0.2277 0.0000 ( 40666 PWs)   bands (ev):

   -58.2289 -57.4148 -57.3295 -57.1853 -57.1020 -56.8732 -34.4872 -34.4565
   -34.3735 -33.6868 -33.6657 -33.6189 -33.5977 -33.5654 -33.5264 -33.4507
   -33.4476 -33.4433 -33.3878 -33.3380 -33.2371 -33.1671 -33.1572 -33.0380
   -18.4875 -18.4098 -18.1003 -18.0195 -17.9102 -17.6504 -17.5256 -17.2808
   -17.2178 -17.1216 -16.9888 -16.5946 -16.1642  -5.7704  -5.7455  -5.4002
    -5.2953  -5.2169  -5.0709  -5.0103  -4.7859  -4.7370  -4.6060  -4.3749
    -4.2238  -4.1016  -3.8978  -3.7977  -3.7697  -3.7218  -3.6757  -3.5404
    -3.3858  -3.3314  -3.1742  -3.0467  -2.9916  -2.9122  -2.5562  -2.4661
    -2.3635  -2.1513  -2.1274  -1.9144  -1.7825  -1.6412  -1.4239  -1.3256
    -1.2218  -1.1339  -1.1199  -0.8501   1.3136   1.4478   1.8829   1.9749
     2.1049   2.1670   2.3129   2.5154   2.6335   2.6510   2.6663   2.6971
     2.8509   2.9659   3.1220

          k =-0.1250-0.1139 0.0000 ( 40695 PWs)   bands (ev):

   -58.2289 -57.4149 -57.3294 -57.1853 -57.1020 -56.8731 -34.4872 -34.4592
   -34.3731 -33.6984 -33.6869 -33.6046 -33.5777 -33.5651 -33.5274 -33.4576
   -33.4502 -33.4402 -33.3865 -33.3380 -33.2371 -33.1671 -33.1484 -33.0380
   -18.6615 -18.4374 -18.2281 -17.8836 -17.8404 -17.7282 -17.3442 -17.2324
   -17.1951 -17.1301 -16.9628 -16.5958 -16.1656  -6.1746  -5.7815  -5.6679
    -5.5065  -5.3163  -5.2318  -5.0416  -4.8728  -4.7280  -4.6631  -4.4846
    -4.3014  -4.1064  -3.9164  -3.7720  -3.6067  -3.5130  -3.4436  -3.2825
    -3.2147  -3.1095  -3.0304  -2.8668  -2.7685  -2.5919  -2.4773  -2.3415
    -2.2941  -2.1696  -2.0730  -1.8918  -1.7540  -1.6641  -1.5751  -1.4647
    -1.3681  -1.1222  -0.9007  -0.8267   1.2650   1.3608   1.7342   1.9262
     1.9740   2.0367   2.2552   2.3906   2.4488   2.4775   2.6154   2.6848
     2.7339   2.9135   3.1162

 ------ SPIN DOWN ----------


          k = 0.0000 0.0000 0.0000 ( 40639 PWs)   bands (ev):

   -58.2286 -57.4143 -57.3237 -57.1879 -57.0668 -56.8749 -34.4846 -34.4729
   -34.2991 -33.7244 -33.6925 -33.5594 -33.5490 -33.5325 -33.4803 -33.4536
   -33.4474 -33.4115 -33.3192 -33.3152 -33.1701 -33.1389 -33.1165 -32.9651
   -18.9411 -18.6096 -18.4530 -18.0863 -17.8985 -17.5929 -17.5677 -17.3936
   -17.1171 -17.1020 -16.8732 -16.6179 -16.4762  -6.6718  -6.1844  -5.9607
    -5.7866  -5.3314  -5.2582  -5.2375  -5.0860  -4.6642  -4.5866  -4.4126
    -4.3742  -4.2131  -3.9620  -3.8910  -3.7819  -3.6903  -3.3152  -3.2299
    -3.1572  -2.8843  -2.8466  -2.6966  -2.5958  -2.3575  -2.3066  -2.2763
    -2.0661  -1.9563  -1.9278  -1.7794  -1.6732  -1.5669  -1.4189  -1.4110
    -1.2543  -1.2374  -1.0086  -0.7460   0.7955   1.3389   1.3933   1.6791
     1.7864   1.8974   1.9535   2.1243   2.3092   2.4258   2.5146   2.5674
     2.6396   2.6679   3.1945

          k = 0.0000 0.1139 0.0000 ( 40609 PWs)   bands (ev):

   -58.2286 -57.4142 -57.3238 -57.1878 -57.0668 -56.8749 -34.4846 -34.4698
   -34.2991 -33.7009 -33.6924 -33.5738 -33.5593 -33.5321 -33.4703 -33.4540
   -33.4474 -33.4156 -33.3191 -33.3152 -33.1701 -33.1499 -33.1166 -32.9652
   -18.8232 -18.5442 -18.3858 -18.0304 -17.9683 -17.7835 -17.5004 -17.4484
   -17.2017 -17.0969 -16.9366 -16.6133 -16.4756  -6.3763  -5.9244  -5.8072
    -5.6585  -5.3395  -5.3031  -5.0457  -5.0099  -4.6748  -4.3877  -4.3740
    -4.3618  -4.1700  -3.9890  -3.9622  -3.8907  -3.7479  -3.5458  -3.5108
    -3.2594  -3.2072  -2.8533  -2.7593  -2.5970  -2.5212  -2.3895  -2.1731
    -2.1430  -2.0959  -1.9756  -1.8594  -1.7556  -1.6629  -1.5495  -1.4097
    -1.3194  -1.2812  -1.1881  -0.8665   1.0238   1.3362   1.6898   1.8201
     1.9422   1.9890   2.1651   2.3367   2.3817   2.4679   2.4942   2.6033
     2.7071   2.8500   3.0496

          k = 0.0000-0.2277 0.0000 ( 40526 PWs)   bands (ev):

   -58.2286 -57.4141 -57.3239 -57.1878 -57.0668 -56.8749 -34.4846 -34.4667
   -34.2991 -33.6923 -33.6578 -33.6176 -33.5595 -33.5316 -33.4594 -33.4545
   -33.4475 -33.4196 -33.3190 -33.3152 -33.1702 -33.1615 -33.1166 -32.9653
   -18.6386 -18.4970 -18.2710 -18.1561 -17.9877 -17.7744 -17.6577 -17.4502
   -17.2881 -17.0874 -16.9921 -16.6108 -16.4752  -5.9808  -5.8477  -5.4877
    -5.3747  -5.3359  -5.2796  -5.0028  -4.7912  -4.5645  -4.3729  -4.3612
    -4.3077  -4.1240  -4.0705  -3.9626  -3.9195  -3.8942  -3.8729  -3.7700
    -3.5333  -3.4159  -3.1133  -2.8312  -2.8183  -2.5943  -2.4224  -2.2566
    -2.1750  -2.1099  -2.1028  -1.9069  -1.8228  -1.7511  -1.4429  -1.3744
    -1.3700  -1.2119  -1.1609  -1.1601   1.1669   1.3345   1.8624   1.9561
     2.0896   2.1742   2.3292   2.3832   2.4170   2.4926   2.6670   2.6962
     2.9112   2.9716   3.0303

          k = 0.0000-0.1139 0.0000 ( 40609 PWs)   bands (ev):

   -58.2286 -57.4142 -57.3238 -57.1878 -57.0668 -56.8749 -34.4846 -34.4698
   -34.2991 -33.7009 -33.6924 -33.5738 -33.5593 -33.5321 -33.4703 -33.4540
   -33.4474 -33.4156 -33.3191 -33.3152 -33.1701 -33.1499 -33.1166 -32.9652
   -18.8232 -18.5442 -18.3858 -18.0304 -17.9683 -17.7835 -17.5004 -17.4484
   -17.2017 -17.0969 -16.9366 -16.6133 -16.4756  -6.3763  -5.9244  -5.8072
    -5.6585  -5.3395  -5.3031  -5.0457  -5.0099  -4.6748  -4.3877  -4.3740
    -4.3618  -4.1700  -3.9890  -3.9622  -3.8907  -3.7479  -3.5458  -3.5108
    -3.2594  -3.2072  -2.8533  -2.7593  -2.5970  -2.5212  -2.3895  -2.1731
    -2.1430  -2.0959  -1.9756  -1.8594  -1.7556  -1.6629  -1.5495  -1.4097
    -1.3194  -1.2812  -1.1881  -0.8665   1.0238   1.3362   1.6898   1.8201
     1.9422   1.9890   2.1651   2.3367   2.3817   2.4679   2.4942   2.6033
     2.7068   2.8499   3.0494

          k = 0.1250 0.0000 0.0000 ( 40652 PWs)   bands (ev):

   -58.2227 -57.4082 -57.3179 -57.1820 -57.0609 -56.8686 -34.4797 -34.4567
   -34.3673 -33.7095 -33.6802 -33.5992 -33.5540 -33.5437 -33.5204 -33.4627
   -33.4465 -33.4074 -33.3829 -33.2998 -33.1867 -33.1625 -33.1361 -33.0336
   -18.7965 -18.4956 -18.3514 -17.9773 -17.7778 -17.6437 -17.4935 -17.2910
   -17.1830 -17.1640 -16.9411 -16.6476 -16.5378  -6.4719  -5.9993  -5.7989
    -5.7160  -5.3386  -5.3169  -5.1762  -5.0352  -4.8430  -4.6890  -4.5713
    -4.4170  -4.2187  -4.0409  -3.7836  -3.5900  -3.5238  -3.2163  -3.1300
    -3.0067  -2.9629  -2.7991  -2.7731  -2.6591  -2.5877  -2.4518  -2.3712
    -2.1698  -2.1535  -1.9890  -1.9411  -1.7932  -1.7925  -1.7593  -1.5254
    -1.4548  -1.2682  -1.1720  -0.8244   1.0764   1.3199   1.6588   1.6692
     1.8633   1.9350   2.1482   2.2108   2.3296   2.4112   2.5698   2.6574
     2.7198   2.7752   3.1250

          k = 0.1250 0.1139 0.0000 ( 40695 PWs)   bands (ev):

   -58.2227 -57.4082 -57.3180 -57.1819 -57.0609 -56.8687 -34.4797 -34.4540
   -34.3676 -33.6899 -33.6801 -33.5994 -33.5676 -33.5536 -33.5172 -33.4542
   -33.4463 -33.4105 -33.3838 -33.2998 -33.1866 -33.1626 -33.1445 -33.0335
   -18.6845 -18.4550 -18.2720 -17.9318 -17.8714 -17.7547 -17.4485 -17.3626
   -17.2571 -17.1571 -16.9916 -16.6432 -16.5372  -6.1794  -5.7901  -5.6874
    -5.5144  -5.3321  -5.2495  -5.2003  -4.9175  -4.7540  -4.7058  -4.5456
    -4.3307  -4.1460  -4.0377  -3.7990  -3.6754  -3.5494  -3.4695  -3.3150
    -3.2231  -3.1537  -3.0682  -2.8857  -2.7983  -2.6359  -2.4928  -2.3994
    -2.3224  -2.2310  -2.1218  -1.9567  -1.9225  -1.7984  -1.6606  -1.5105
    -1.4609  -1.2771  -1.1729  -0.9138   1.2675   1.3643   1.7364   1.9279
     1.9742   2.0377   2.2576   2.4029   2.4501   2.4893   2.6031   2.6500
     2.7275   2.9121   3.1125

          k = 0.1250-0.2277 0.0000 ( 40666 PWs)   bands (ev):

   -58.2227 -57.4081 -57.3181 -57.1819 -57.0609 -56.8687 -34.4797 -34.4514
   -34.3679 -33.6800 -33.6577 -33.6100 -33.5907 -33.5538 -33.5161 -33.4469
   -33.4442 -33.4136 -33.3851 -33.2998 -33.1866 -33.1626 -33.1533 -33.0335
   -18.5006 -18.4252 -18.1762 -18.0467 -17.9505 -17.6693 -17.5684 -17.4079
   -17.3332 -17.1472 -17.0302 -16.6405 -16.5367  -5.7773  -5.7535  -5.4082
    -5.3486  -5.2548  -5.1352  -5.0804  -4.8043  -4.8025  -4.6240  -4.4080
    -4.2510  -4.2096  -3.9412  -3.8483  -3.8288  -3.7624  -3.7050  -3.5595
    -3.4077  -3.3627  -3.2149  -3.0588  -3.0297  -2.9477  -2.5742  -2.4869
    -2.4294  -2.2426  -2.1549  -2.0200  -1.8335  -1.8283  -1.6017  -1.4091
    -1.3284  -1.1957  -1.1873  -1.1333   1.3163   1.4501   1.8849   1.9756
     2.1061   2.1680   2.3157   2.5175   2.6265   2.6353   2.6677   2.6935
     2.8501   2.9597   3.1173

          k = 0.1250-0.1139 0.0000 ( 40695 PWs)   bands (ev):

   -58.2227 -57.4082 -57.3180 -57.1819 -57.0609 -56.8687 -34.4797 -34.4540
   -34.3676 -33.6899 -33.6801 -33.5994 -33.5676 -33.5536 -33.5172 -33.4542
   -33.4463 -33.4105 -33.3838 -33.2998 -33.1866 -33.1626 -33.1445 -33.0335
   -18.6845 -18.4550 -18.2720 -17.9318 -17.8714 -17.7547 -17.4485 -17.3626
   -17.2571 -17.1571 -16.9916 -16.6432 -16.5372  -6.1794  -5.7901  -5.6874
    -5.5144  -5.3321  -5.2495  -5.2003  -4.9175  -4.7540  -4.7058  -4.5456
    -4.3307  -4.1460  -4.0377  -3.7990  -3.6754  -3.5494  -3.4695  -3.3150
    -3.2231  -3.1537  -3.0682  -2.8857  -2.7983  -2.6359  -2.4928  -2.3994
    -2.3224  -2.2310  -2.1218  -1.9567  -1.9225  -1.7984  -1.6606  -1.5105
    -1.4609  -1.2771  -1.1729  -0.9138   1.2675   1.3643   1.7364   1.9279
     1.9742   2.0377   2.2576   2.4029   2.4501   2.4893   2.6031   2.6500
     2.7275   2.9121   3.1126

          k = 0.2500 0.0000 0.0000 ( 40766 PWs)   bands (ev):

   -58.2085 -57.3937 -57.3038 -57.1676 -57.0464 -56.8535 -34.5286 -34.4679
   -34.4170 -33.7712 -33.6804 -33.6734 -33.6356 -33.5546 -33.5400 -33.5307
   -33.4228 -33.4190 -33.3977 -33.3517 -33.2623 -33.2347 -33.1303 -33.1039
   -18.4377 -18.2844 -18.0427 -17.8265 -17.6943 -17.4965 -17.3424 -17.3369
   -17.2868 -17.1051 -17.0781 -16.6739 -16.6392  -6.0370  -5.9637  -5.5441
    -5.4444  -5.3151  -5.1646  -5.0809  -5.0178  -4.8258  -4.7794  -4.4620
    -4.3375  -4.2877  -4.1650  -3.8122  -3.7860  -3.5497  -3.4683  -3.4382
    -3.2639  -3.2326  -2.9615  -2.8501  -2.7663  -2.7552  -2.6017  -2.5467
    -2.3529  -2.1861  -2.0558  -2.0451  -1.9899  -1.9095  -1.7524  -1.7212
    -1.5751  -1.4563  -1.2222  -1.1007   1.3113   1.4835   1.5202   2.0134
     2.0441   2.1289   2.2553   2.2919   2.4401   2.6813   2.7979   2.8499
     2.8619   2.9294   2.9500

          k = 0.2500 0.1139 0.0000 ( 40754 PWs)   bands (ev):

   -58.2085 -57.3936 -57.3038 -57.1676 -57.0464 -56.8536 -34.5295 -34.4679
   -34.4155 -33.7718 -33.7028 -33.6386 -33.6350 -33.5571 -33.5430 -33.5401
   -33.4229 -33.4134 -33.3986 -33.3516 -33.2623 -33.2341 -33.1339 -33.1038
   -18.3586 -18.2754 -17.9738 -17.9287 -17.6296 -17.5753 -17.3769 -17.3274
   -17.2797 -17.1902 -17.0513 -16.6724 -16.6390  -6.0389  -5.7273  -5.3436
    -5.3151  -5.1510  -5.1020  -5.0297  -4.9780  -4.7669  -4.7539  -4.6112
    -4.3835  -4.3342  -4.1033  -3.8765  -3.8227  -3.6667  -3.6143  -3.3819
    -3.3073  -3.1480  -3.0781  -3.0342  -2.9061  -2.8809  -2.7518  -2.6878
    -2.5723  -2.2776  -2.0676  -2.0094  -1.9924  -1.8335  -1.7121  -1.6096
    -1.5215  -1.4480  -1.2889  -1.1280   1.3375   1.5152   1.7139   1.9742
     2.0142   2.1271   2.4219   2.4634   2.5065   2.6947   2.8302   2.8631
     2.9458   2.9906   3.0862

          k = 0.2500-0.2277 0.0000 ( 40742 PWs)   bands (ev):

   -58.2085 -57.3936 -57.3039 -57.1676 -57.0464 -56.8536 -34.5304 -34.4679
   -34.4140 -33.7722 -33.7120 -33.6357 -33.6081 -33.5634 -33.5593 -33.5402
   -33.4229 -33.4081 -33.3995 -33.3515 -33.2623 -33.2334 -33.1378 -33.1038
   -18.2690 -18.1564 -18.1539 -17.8231 -17.7392 -17.4746 -17.4550 -17.3779
   -17.2722 -17.2364 -17.0445 -16.6712 -16.6388  -6.0411  -5.3950  -5.2248
    -5.1764  -5.0266  -4.9402  -4.8812  -4.8001  -4.7245  -4.6740  -4.6546
    -4.5579  -4.3450  -4.2998  -4.0823  -3.9437  -3.6321  -3.5077  -3.4799
    -3.4239  -3.3574  -3.2682  -3.1007  -3.0108  -2.9466  -2.8962  -2.7084
    -2.6780  -2.5031  -2.1398  -2.0470  -1.8720  -1.7994  -1.6158  -1.5148
    -1.4556  -1.4358  -1.2937  -1.1824   1.4096   1.4902   1.8433   1.9828
     2.0315   2.0456   2.4288   2.5864   2.7507   2.7943   2.8495   2.8726
     2.9618   3.0290   3.0599

          k = 0.2500-0.1139 0.0000 ( 40754 PWs)   bands (ev):

   -58.2085 -57.3936 -57.3038 -57.1676 -57.0464 -56.8536 -34.5295 -34.4679
   -34.4155 -33.7718 -33.7028 -33.6386 -33.6350 -33.5571 -33.5430 -33.5401
   -33.4229 -33.4134 -33.3986 -33.3516 -33.2623 -33.2341 -33.1339 -33.1038
   -18.3586 -18.2754 -17.9738 -17.9287 -17.6296 -17.5753 -17.3769 -17.3274
   -17.2797 -17.1902 -17.0513 -16.6724 -16.6390  -6.0389  -5.7273  -5.3436
    -5.3151  -5.1510  -5.1020  -5.0297  -4.9780  -4.7669  -4.7539  -4.6112
    -4.3835  -4.3342  -4.1033  -3.8765  -3.8227  -3.6667  -3.6143  -3.3819
    -3.3073  -3.1480  -3.0781  -3.0342  -2.9061  -2.8809  -2.7518  -2.6878
    -2.5723  -2.2776  -2.0676  -2.0094  -1.9924  -1.8335  -1.7121  -1.6096
    -1.5215  -1.4480  -1.2889  -1.1280   1.3375   1.5152   1.7139   1.9742
     2.0142   2.1270   2.4215   2.4630   2.5063   2.6941   2.8288   2.8626
     2.9194   2.9582   2.9924

          k = 0.3750 0.0000 0.0000 ( 40826 PWs)   bands (ev):

   -58.1942 -57.3790 -57.2896 -57.1532 -57.0319 -56.8384 -34.6855 -34.4562
   -34.3768 -33.9286 -33.8350 -33.7100 -33.6373 -33.5994 -33.5412 -33.5171
   -33.5007 -33.4125 -33.3934 -33.3882 -33.3730 -33.2241 -33.1262 -33.0797
   -18.1165 -18.0590 -18.0081 -17.6594 -17.5220 -17.5020 -17.3422 -17.2975
   -17.2690 -17.2049 -17.0257 -16.5772 -16.5633  -6.4835  -5.4507  -5.3596
    -5.2847  -5.1064  -5.0706  -5.0320  -4.9855  -4.8277  -4.7658  -4.6825
    -4.6567  -4.3195  -4.1474  -3.8927  -3.7600  -3.7270  -3.6385  -3.4882
    -3.4499  -3.3052  -3.1767  -3.1434  -2.8602  -2.8233  -2.7336  -2.5675
    -2.4537  -2.1127  -2.1055  -1.9891  -1.9338  -1.8159  -1.7895  -1.6827
    -1.6094  -1.5257  -1.4133  -1.2919   1.0833   1.6961   1.8126   2.0105
     2.2827   2.2894   2.4765   2.4940   2.5812   2.6553   2.6728   2.8546
     2.8846   2.9293   3.0708

          k = 0.3750 0.1139 0.0000 ( 40790 PWs)   bands (ev):

   -58.1942 -57.3790 -57.2897 -57.1532 -57.0319 -56.8384 -34.6868 -34.4562
   -34.3765 -33.9291 -33.8435 -33.7128 -33.6239 -33.5993 -33.5412 -33.5210
   -33.5006 -33.4125 -33.4006 -33.3870 -33.3636 -33.2241 -33.1250 -33.0797
   -18.2076 -18.1150 -17.8674 -17.7373 -17.5234 -17.4914 -17.4175 -17.2635
   -17.2380 -17.1116 -17.0281 -16.5783 -16.5654  -6.4852  -5.5976  -5.3332
    -5.2925  -5.1333  -5.0341  -4.9527  -4.8929  -4.8653  -4.7246  -4.6474
    -4.5828  -4.2870  -4.0435  -3.9829  -3.7987  -3.7481  -3.6245  -3.5627
    -3.2613  -3.2455  -3.1465  -3.0179  -2.9167  -2.8382  -2.7336  -2.5817
    -2.4659  -2.2886  -2.1691  -2.0469  -1.9143  -1.8632  -1.8101  -1.6761
    -1.6540  -1.5170  -1.4344  -1.3498   1.0712   1.5113   1.8052   1.8843
     2.0261   2.2341   2.4275   2.5844   2.6405   2.8035   2.8388   2.8685
     2.9207   3.0034   3.0729

          k = 0.3750-0.2277 0.0000 ( 40742 PWs)   bands (ev):

   -58.1942 -57.3790 -57.2897 -57.1532 -57.0319 -56.8384 -34.6880 -34.4562
   -34.3763 -33.9297 -33.8512 -33.7156 -33.6103 -33.5994 -33.5411 -33.5259
   -33.5004 -33.4125 -33.4053 -33.3858 -33.3567 -33.2241 -33.1238 -33.0797
   -18.2785 -18.1133 -17.8371 -17.7568 -17.5494 -17.5021 -17.4211 -17.2615
   -17.1965 -17.0465 -17.0321 -16.5795 -16.5676  -6.4869  -5.6594  -5.3924
    -5.2293  -5.1610  -5.0567  -5.0391  -4.8773  -4.7231  -4.7094  -4.4255
    -4.3948  -4.3690  -4.2258  -3.8684  -3.7781  -3.6660  -3.5950  -3.5515
    -3.3195  -3.2641  -3.1586  -3.1107  -2.8227  -2.7917  -2.7244  -2.5472
    -2.4762  -2.3731  -2.1266  -2.0497  -1.9669  -1.9485  -1.9127  -1.8725
    -1.5706  -1.5396  -1.4062  -1.3784   1.1098   1.2512   1.7538   1.8731
     1.8903   2.2170   2.4407   2.4988   2.7455   2.8419   2.9386   2.9583
     2.9804   2.9886   3.0844

          k = 0.3750-0.1139 0.0000 ( 40790 PWs)   bands (ev):

   -58.1942 -57.3790 -57.2897 -57.1532 -57.0319 -56.8384 -34.6868 -34.4562
   -34.3765 -33.9291 -33.8435 -33.7128 -33.6239 -33.5993 -33.5412 -33.5210
   -33.5006 -33.4125 -33.4006 -33.3870 -33.3636 -33.2241 -33.1250 -33.0797
   -18.2076 -18.1150 -17.8674 -17.7373 -17.5234 -17.4914 -17.4175 -17.2635
   -17.2380 -17.1116 -17.0281 -16.5783 -16.5654  -6.4852  -5.5976  -5.3332
    -5.2925  -5.1333  -5.0341  -4.9527  -4.8929  -4.8653  -4.7246  -4.6474
    -4.5828  -4.2870  -4.0435  -3.9829  -3.7987  -3.7481  -3.6245  -3.5627
    -3.2613  -3.2455  -3.1465  -3.0179  -2.9167  -2.8382  -2.7336  -2.5817
    -2.4659  -2.2886  -2.1691  -2.0469  -1.9143  -1.8632  -1.8101  -1.6761
    -1.6540  -1.5170  -1.4344  -1.3498   1.0712   1.5113   1.8052   1.8843
     2.0261   2.2341   2.4275   2.5844   2.6405   2.8035   2.8388   2.8685
     2.9207   3.0034   3.0729

          k =-0.5000 0.0000 0.0000 ( 40852 PWs)   bands (ev):

   -58.1883 -57.3730 -57.2838 -57.1473 -57.0259 -56.8321 -34.7494 -34.4515
   -34.3599 -33.9930 -33.8979 -33.7732 -33.6224 -33.5869 -33.5841 -33.5213
   -33.5113 -33.4549 -33.4078 -33.3842 -33.3531 -33.2081 -33.1252 -33.0672
   -18.0829 -18.0502 -17.8906 -17.5790 -17.5681 -17.4355 -17.3738 -17.3368
   -17.1930 -17.1352 -17.0531 -16.5049 -16.4727  -6.6827  -5.4385  -5.4121
    -5.2642  -5.2526  -5.0214  -5.0112  -4.8815  -4.8767  -4.8236  -4.7150
    -4.4839  -4.1882  -4.0997  -4.0498  -3.9705  -3.8953  -3.6346  -3.5223
    -3.3083  -3.2523  -3.1339  -3.0206  -3.0144  -2.7069  -2.6171  -2.5006
    -2.4426  -2.2692  -2.0759  -2.0344  -2.0032  -1.9888  -1.8894  -1.7508
    -1.5831  -1.4917  -1.4095  -1.2629   1.0402   1.7800   1.9111   2.1547
     2.2295   2.3949   2.5444   2.5673   2.6044   2.6122   2.6720   2.7205
     2.8655   3.0332   3.1276

          k =-0.5000 0.1139 0.0000 ( 40798 PWs)   bands (ev):

   -58.1883 -57.3730 -57.2838 -57.1473 -57.0259 -56.8321 -34.7507 -34.4515
   -34.3603 -33.9935 -33.9052 -33.7761 -33.6144 -33.5865 -33.5841 -33.5215
   -33.5108 -33.4570 -33.4078 -33.3822 -33.3506 -33.2081 -33.1217 -33.0672
   -18.2461 -18.0498 -17.7629 -17.7067 -17.5766 -17.4993 -17.3699 -17.2425
   -17.1377 -17.0574 -17.0301 -16.5050 -16.4728  -6.6840  -5.8105  -5.5005
    -5.4024  -5.2390  -5.1720  -5.0136  -4.8064  -4.6904  -4.6711  -4.5135
    -4.3589  -4.1807  -4.0908  -3.9663  -3.9316  -3.6860  -3.5694  -3.4500
    -3.3448  -3.2812  -3.1768  -3.1206  -2.9287  -2.7335  -2.4812  -2.3382
    -2.2939  -2.2586  -2.2242  -2.1505  -2.0725  -1.9579  -1.8879  -1.7622
    -1.6544  -1.6042  -1.5236  -1.3450   1.0016   1.4075   1.7972   1.8167
     2.1344   2.1997   2.5128   2.6145   2.6240   2.7185   2.7881   2.8438
     2.9722   3.0311   3.0698

          k =-0.5000-0.2277 0.0000 ( 40760 PWs)   bands (ev):

   -58.1883 -57.3730 -57.2838 -57.1473 -57.0259 -56.8321 -34.7521 -34.4515
   -34.3606 -33.9941 -33.9121 -33.7790 -33.6069 -33.5862 -33.5841 -33.5217
   -33.5102 -33.4590 -33.4078 -33.3802 -33.3483 -33.2081 -33.1182 -33.0672
   -18.3390 -18.0494 -17.8487 -17.6156 -17.5853 -17.5743 -17.3657 -17.1407
   -17.1400 -17.0618 -16.9392 -16.5050 -16.4729  -6.6854  -5.9907  -5.6806
    -5.3608  -5.3554  -5.2245  -5.0279  -4.6701  -4.5876  -4.5180  -4.4598
    -4.4098  -4.2259  -4.0325  -3.9907  -3.8077  -3.4528  -3.3713  -3.3704
    -3.3555  -3.2908  -3.0969  -3.0517  -3.0002  -2.7425  -2.4460  -2.4038
    -2.2930  -2.2429  -2.1683  -2.1263  -2.0317  -1.9585  -1.8782  -1.8677
    -1.8418  -1.7037  -1.6390  -1.4098   0.9626   1.1096   1.5928   1.8121
     1.9091   2.1680   2.4781   2.6189   2.6292   2.7165   2.8436   3.0156
     3.0166   3.0228   3.0394

          k =-0.5000-0.1139 0.0000 ( 40798 PWs)   bands (ev):

   -58.1883 -57.3730 -57.2838 -57.1473 -57.0259 -56.8321 -34.7507 -34.4515
   -34.3603 -33.9935 -33.9052 -33.7761 -33.6144 -33.5865 -33.5841 -33.5215
   -33.5108 -33.4570 -33.4078 -33.3822 -33.3506 -33.2081 -33.1217 -33.0672
   -18.2461 -18.0498 -17.7629 -17.7067 -17.5766 -17.4993 -17.3699 -17.2425
   -17.1377 -17.0574 -17.0301 -16.5050 -16.4728  -6.6840  -5.8105  -5.5005
    -5.4024  -5.2390  -5.1720  -5.0136  -4.8064  -4.6904  -4.6711  -4.5135
    -4.3589  -4.1807  -4.0908  -3.9663  -3.9316  -3.6860  -3.5694  -3.4500
    -3.3448  -3.2812  -3.1768  -3.1206  -2.9287  -2.7335  -2.4812  -2.3382
    -2.2939  -2.2586  -2.2242  -2.1505  -2.0725  -1.9579  -1.8879  -1.7622
    -1.6544  -1.6042  -1.5236  -1.3450   1.0016   1.4075   1.7972   1.8167
     2.1346   2.1997   2.5131   2.6145   2.6240   2.7188   2.7881   2.9718
     3.0311   3.0698   3.2008

          k =-0.3750 0.0000 0.0000 ( 40826 PWs)   bands (ev):

   -58.1942 -57.3790 -57.2896 -57.1532 -57.0319 -56.8384 -34.6855 -34.4562
   -34.3768 -33.9286 -33.8350 -33.7100 -33.6373 -33.5994 -33.5412 -33.5171
   -33.5007 -33.4125 -33.3934 -33.3882 -33.3730 -33.2241 -33.1262 -33.0797
   -18.1165 -18.0590 -18.0081 -17.6594 -17.5220 -17.5020 -17.3422 -17.2975
   -17.2690 -17.2049 -17.0257 -16.5772 -16.5633  -6.4835  -5.4507  -5.3596
    -5.2847  -5.1064  -5.0706  -5.0320  -4.9855  -4.8277  -4.7658  -4.6825
    -4.6567  -4.3195  -4.1474  -3.8927  -3.7600  -3.7270  -3.6385  -3.4882
    -3.4499  -3.3052  -3.1767  -3.1434  -2.8602  -2.8233  -2.7336  -2.5675
    -2.4537  -2.1127  -2.1055  -1.9891  -1.9338  -1.8159  -1.7895  -1.6827
    -1.6094  -1.5257  -1.4133  -1.2919   1.0833   1.6961   1.8126   2.0105
     2.2827   2.2894   2.4765   2.4940   2.5813   2.6552   2.6728   2.8546
     2.8846   2.9293   3.0708

          k =-0.3750 0.1139 0.0000 ( 40790 PWs)   bands (ev):

   -58.1942 -57.3790 -57.2897 -57.1532 -57.0319 -56.8384 -34.6868 -34.4562
   -34.3765 -33.9291 -33.8435 -33.7128 -33.6239 -33.5993 -33.5412 -33.5210
   -33.5006 -33.4125 -33.4006 -33.3870 -33.3636 -33.2241 -33.1250 -33.0797
   -18.2076 -18.1150 -17.8674 -17.7373 -17.5234 -17.4914 -17.4175 -17.2635
   -17.2380 -17.1116 -17.0281 -16.5783 -16.5654  -6.4852  -5.5976  -5.3332
    -5.2925  -5.1333  -5.0341  -4.9527  -4.8929  -4.8653  -4.7246  -4.6474
    -4.5828  -4.2870  -4.0435  -3.9829  -3.7987  -3.7481  -3.6245  -3.5627
    -3.2613  -3.2455  -3.1465  -3.0179  -2.9167  -2.8382  -2.7336  -2.5817
    -2.4659  -2.2886  -2.1691  -2.0469  -1.9143  -1.8632  -1.8101  -1.6761
    -1.6540  -1.5170  -1.4344  -1.3498   1.0712   1.5113   1.8052   1.8843
     2.0261   2.2341   2.4275   2.5844   2.6405   2.8035   2.8388   2.8684
     2.9206   3.0034   3.0720

          k =-0.3750-0.2277 0.0000 ( 40742 PWs)   bands (ev):

   -58.1942 -57.3790 -57.2897 -57.1532 -57.0319 -56.8384 -34.6880 -34.4562
   -34.3763 -33.9297 -33.8512 -33.7156 -33.6103 -33.5994 -33.5411 -33.5259
   -33.5004 -33.4125 -33.4053 -33.3858 -33.3567 -33.2241 -33.1238 -33.0797
   -18.2785 -18.1133 -17.8371 -17.7568 -17.5494 -17.5021 -17.4211 -17.2615
   -17.1965 -17.0465 -17.0321 -16.5795 -16.5676  -6.4869  -5.6594  -5.3924
    -5.2293  -5.1610  -5.0567  -5.0391  -4.8773  -4.7231  -4.7094  -4.4255
    -4.3948  -4.3690  -4.2258  -3.8684  -3.7781  -3.6660  -3.5950  -3.5515
    -3.3195  -3.2641  -3.1586  -3.1107  -2.8227  -2.7917  -2.7244  -2.5472
    -2.4762  -2.3731  -2.1266  -2.0497  -1.9669  -1.9485  -1.9127  -1.8725
    -1.5706  -1.5396  -1.4062  -1.3784   1.1098   1.2512   1.7538   1.8731
     1.8903   2.2170   2.4407   2.4988   2.7455   2.8422   2.9387   2.9578
     2.9802   2.9888   3.0843

          k =-0.3750-0.1139 0.0000 ( 40790 PWs)   bands (ev):

   -58.1942 -57.3790 -57.2897 -57.1532 -57.0319 -56.8384 -34.6868 -34.4562
   -34.3765 -33.9291 -33.8435 -33.7128 -33.6239 -33.5993 -33.5412 -33.5210
   -33.5006 -33.4125 -33.4006 -33.3870 -33.3636 -33.2241 -33.1250 -33.0797
   -18.2076 -18.1150 -17.8674 -17.7373 -17.5234 -17.4914 -17.4175 -17.2635
   -17.2380 -17.1116 -17.0281 -16.5783 -16.5654  -6.4852  -5.5976  -5.3332
    -5.2925  -5.1333  -5.0341  -4.9527  -4.8929  -4.8653  -4.7246  -4.6474
    -4.5828  -4.2870  -4.0435  -3.9829  -3.7987  -3.7481  -3.6245  -3.5627
    -3.2613  -3.2455  -3.1465  -3.0179  -2.9167  -2.8382  -2.7336  -2.5817
    -2.4659  -2.2886  -2.1691  -2.0469  -1.9143  -1.8632  -1.8101  -1.6761
    -1.6540  -1.5170  -1.4344  -1.3498   1.0712   1.5113   1.8052   1.8843
     2.0261   2.2341   2.4275   2.5844   2.6405   2.8035   2.8388   2.8684
     2.9207   3.0034   3.0725

          k =-0.2500 0.0000 0.0000 ( 40766 PWs)   bands (ev):

   -58.2085 -57.3937 -57.3038 -57.1676 -57.0464 -56.8535 -34.5286 -34.4679
   -34.4170 -33.7712 -33.6804 -33.6734 -33.6356 -33.5546 -33.5400 -33.5307
   -33.4228 -33.4190 -33.3977 -33.3517 -33.2623 -33.2347 -33.1303 -33.1039
   -18.4377 -18.2844 -18.0427 -17.8265 -17.6943 -17.4965 -17.3424 -17.3369
   -17.2868 -17.1051 -17.0781 -16.6739 -16.6392  -6.0370  -5.9637  -5.5441
    -5.4444  -5.3151  -5.1646  -5.0809  -5.0178  -4.8258  -4.7794  -4.4620
    -4.3375  -4.2877  -4.1650  -3.8122  -3.7860  -3.5497  -3.4683  -3.4382
    -3.2639  -3.2326  -2.9615  -2.8501  -2.7663  -2.7552  -2.6017  -2.5467
    -2.3529  -2.1861  -2.0558  -2.0451  -1.9899  -1.9095  -1.7524  -1.7212
    -1.5751  -1.4563  -1.2222  -1.1007   1.3113   1.4835   1.5202   2.0134
     2.0441   2.1289   2.2553   2.2919   2.4401   2.6813   2.7979   2.8499
     2.8619   2.9293   2.9500

          k =-0.2500 0.1139 0.0000 ( 40754 PWs)   bands (ev):

   -58.2085 -57.3936 -57.3038 -57.1676 -57.0464 -56.8536 -34.5295 -34.4679
   -34.4155 -33.7718 -33.7028 -33.6386 -33.6350 -33.5571 -33.5430 -33.5401
   -33.4229 -33.4134 -33.3986 -33.3516 -33.2623 -33.2341 -33.1339 -33.1038
   -18.3586 -18.2754 -17.9738 -17.9287 -17.6296 -17.5753 -17.3769 -17.3274
   -17.2797 -17.1902 -17.0513 -16.6724 -16.6390  -6.0389  -5.7273  -5.3436
    -5.3151  -5.1510  -5.1020  -5.0297  -4.9780  -4.7669  -4.7539  -4.6112
    -4.3835  -4.3342  -4.1033  -3.8765  -3.8227  -3.6667  -3.6143  -3.3819
    -3.3073  -3.1480  -3.0781  -3.0342  -2.9061  -2.8809  -2.7518  -2.6878
    -2.5723  -2.2776  -2.0676  -2.0094  -1.9924  -1.8335  -1.7121  -1.6096
    -1.5215  -1.4480  -1.2889  -1.1280   1.3375   1.5152   1.7139   1.9742
     2.0142   2.1270   2.4219   2.4631   2.5066   2.6945   2.8302   2.8630
     2.9447   2.9906   3.0862

          k =-0.2500-0.2277 0.0000 ( 40742 PWs)   bands (ev):

   -58.2085 -57.3936 -57.3039 -57.1676 -57.0464 -56.8536 -34.5304 -34.4679
   -34.4140 -33.7722 -33.7120 -33.6357 -33.6081 -33.5634 -33.5593 -33.5402
   -33.4229 -33.4081 -33.3995 -33.3515 -33.2623 -33.2334 -33.1378 -33.1038
   -18.2690 -18.1564 -18.1539 -17.8231 -17.7392 -17.4746 -17.4550 -17.3779
   -17.2722 -17.2364 -17.0445 -16.6712 -16.6388  -6.0411  -5.3950  -5.2248
    -5.1764  -5.0266  -4.9402  -4.8812  -4.8001  -4.7245  -4.6740  -4.6546
    -4.5579  -4.3450  -4.2998  -4.0823  -3.9437  -3.6321  -3.5077  -3.4799
    -3.4239  -3.3574  -3.2682  -3.1007  -3.0108  -2.9466  -2.8962  -2.7084
    -2.6780  -2.5031  -2.1398  -2.0470  -1.8720  -1.7994  -1.6158  -1.5148
    -1.4556  -1.4358  -1.2937  -1.1824   1.4096   1.4902   1.8433   1.9828
     2.0315   2.0456   2.4288   2.5864   2.7507   2.7939   2.8495   2.8728
     2.9619   3.0274   3.0599

          k =-0.2500-0.1139 0.0000 ( 40754 PWs)   bands (ev):

   -58.2085 -57.3936 -57.3038 -57.1676 -57.0464 -56.8536 -34.5295 -34.4679
   -34.4155 -33.7718 -33.7028 -33.6386 -33.6350 -33.5571 -33.5430 -33.5401
   -33.4229 -33.4134 -33.3986 -33.3516 -33.2623 -33.2341 -33.1339 -33.1038
   -18.3586 -18.2754 -17.9738 -17.9287 -17.6296 -17.5753 -17.3769 -17.3274
   -17.2797 -17.1902 -17.0513 -16.6724 -16.6390  -6.0389  -5.7273  -5.3436
    -5.3151  -5.1510  -5.1020  -5.0297  -4.9780  -4.7669  -4.7539  -4.6112
    -4.3835  -4.3342  -4.1033  -3.8765  -3.8227  -3.6667  -3.6143  -3.3819
    -3.3073  -3.1480  -3.0781  -3.0342  -2.9061  -2.8809  -2.7518  -2.6878
    -2.5723  -2.2776  -2.0676  -2.0094  -1.9924  -1.8335  -1.7121  -1.6096
    -1.5215  -1.4480  -1.2889  -1.1280   1.3375   1.5152   1.7139   1.9742
     2.0142   2.1270   2.4215   2.4630   2.5063   2.6941   2.8288   2.8626
     2.9194   2.9582   2.9924

          k =-0.1250 0.0000 0.0000 ( 40652 PWs)   bands (ev):

   -58.2227 -57.4082 -57.3179 -57.1820 -57.0609 -56.8686 -34.4797 -34.4567
   -34.3673 -33.7095 -33.6802 -33.5992 -33.5540 -33.5437 -33.5204 -33.4627
   -33.4465 -33.4074 -33.3829 -33.2998 -33.1867 -33.1625 -33.1361 -33.0336
   -18.7965 -18.4956 -18.3514 -17.9773 -17.7778 -17.6437 -17.4935 -17.2910
   -17.1830 -17.1640 -16.9411 -16.6476 -16.5378  -6.4719  -5.9993  -5.7989
    -5.7160  -5.3386  -5.3169  -5.1762  -5.0352  -4.8430  -4.6890  -4.5713
    -4.4170  -4.2187  -4.0409  -3.7836  -3.5900  -3.5238  -3.2163  -3.1300
    -3.0067  -2.9629  -2.7991  -2.7731  -2.6591  -2.5877  -2.4518  -2.3712
    -2.1698  -2.1535  -1.9890  -1.9411  -1.7932  -1.7925  -1.7593  -1.5254
    -1.4548  -1.2682  -1.1720  -0.8244   1.0764   1.3199   1.6588   1.6692
     1.8633   1.9350   2.1482   2.2108   2.3296   2.4112   2.5698   2.6574
     2.7197   2.7757   3.1249

          k =-0.1250 0.1139 0.0000 ( 40695 PWs)   bands (ev):

   -58.2227 -57.4082 -57.3180 -57.1819 -57.0609 -56.8687 -34.4797 -34.4540
   -34.3676 -33.6899 -33.6801 -33.5994 -33.5676 -33.5536 -33.5172 -33.4542
   -33.4463 -33.4105 -33.3838 -33.2998 -33.1866 -33.1626 -33.1445 -33.0335
   -18.6845 -18.4550 -18.2720 -17.9318 -17.8714 -17.7547 -17.4485 -17.3626
   -17.2571 -17.1571 -16.9916 -16.6432 -16.5372  -6.1794  -5.7901  -5.6874
    -5.5144  -5.3321  -5.2495  -5.2003  -4.9175  -4.7540  -4.7058  -4.5456
    -4.3307  -4.1460  -4.0377  -3.7990  -3.6754  -3.5494  -3.4695  -3.3150
    -3.2231  -3.1537  -3.0682  -2.8857  -2.7983  -2.6359  -2.4928  -2.3994
    -2.3224  -2.2310  -2.1218  -1.9567  -1.9225  -1.7984  -1.6606  -1.5105
    -1.4609  -1.2771  -1.1729  -0.9138   1.2675   1.3643   1.7364   1.9279
     1.9742   2.0377   2.2576   2.4029   2.4502   2.4893   2.6031   2.6500
     2.7275   2.9120   3.1122

          k =-0.1250-0.2277 0.0000 ( 40666 PWs)   bands (ev):

   -58.2227 -57.4081 -57.3181 -57.1819 -57.0609 -56.8687 -34.4797 -34.4514
   -34.3679 -33.6800 -33.6577 -33.6100 -33.5907 -33.5538 -33.5161 -33.4469
   -33.4442 -33.4136 -33.3851 -33.2998 -33.1866 -33.1626 -33.1533 -33.0335
   -18.5006 -18.4252 -18.1762 -18.0467 -17.9505 -17.6693 -17.5684 -17.4079
   -17.3332 -17.1472 -17.0302 -16.6405 -16.5367  -5.7773  -5.7535  -5.4082
    -5.3486  -5.2548  -5.1352  -5.0804  -4.8043  -4.8025  -4.6240  -4.4080
    -4.2510  -4.2096  -3.9412  -3.8483  -3.8288  -3.7624  -3.7050  -3.5595
    -3.4077  -3.3627  -3.2149  -3.0588  -3.0297  -2.9477  -2.5742  -2.4869
    -2.4294  -2.2426  -2.1549  -2.0200  -1.8335  -1.8283  -1.6017  -1.4091
    -1.3284  -1.1957  -1.1873  -1.1333   1.3163   1.4501   1.8849   1.9756
     2.1061   2.1680   2.3157   2.5175   2.6265   2.6355   2.6677   2.6935
     2.8499   2.9596   3.1173

          k =-0.1250-0.1139 0.0000 ( 40695 PWs)   bands (ev):

   -58.2227 -57.4082 -57.3180 -57.1819 -57.0609 -56.8687 -34.4797 -34.4540
   -34.3676 -33.6899 -33.6801 -33.5994 -33.5676 -33.5536 -33.5172 -33.4542
   -33.4463 -33.4105 -33.3838 -33.2998 -33.1866 -33.1626 -33.1445 -33.0335
   -18.6845 -18.4550 -18.2720 -17.9318 -17.8714 -17.7547 -17.4485 -17.3626
   -17.2571 -17.1571 -16.9916 -16.6432 -16.5372  -6.1794  -5.7901  -5.6874
    -5.5144  -5.3321  -5.2495  -5.2003  -4.9175  -4.7540  -4.7058  -4.5456
    -4.3307  -4.1460  -4.0377  -3.7990  -3.6754  -3.5494  -3.4695  -3.3150
    -3.2231  -3.1537  -3.0682  -2.8857  -2.7983  -2.6359  -2.4928  -2.3994
    -2.3224  -2.2310  -2.1218  -1.9567  -1.9225  -1.7984  -1.6606  -1.5105
    -1.4609  -1.2771  -1.1729  -0.9138   1.2675   1.3643   1.7364   1.9279
     1.9742   2.0377   2.2576   2.4029   2.4501   2.4893   2.6031   2.6500
     2.7275   2.9121   3.1127

     the Fermi energy is    -1.0014 ev

!    total energy              =   -1260.37546913 Ry
     estimated scf accuracy    <       0.00000057 Ry
     smearing contrib. (-TS)   =       0.00267553 Ry
     internal energy E=F+TS    =   -1260.37814466 Ry

     The total energy is F=E-TS. E is the sum of the following terms:
     one-electron contribution =  -12848.42148821 Ry
     hartree contribution      =    6448.10850160 Ry
     xc contribution           =    -205.24879571 Ry
     ewald contribution        =    5468.91516857 Ry
     one-center paw contrib.   =    -123.73153092 Ry

     total magnetization       =    -0.57 Bohr mag/cell
     absolute magnetization    =     0.73 Bohr mag/cell

     convergence has been achieved in  27 iterations

     negative rho (up, down):  3.818E-03 3.945E-03

     Forces acting on atoms (cartesian axes, Ry/au):

     atom    1 type  2   force =    -0.00000608    0.00000008    0.15383343
     atom    2 type  2   force =    -0.00015329   -0.00000000   -0.05768047
     atom    3 type  2   force =     0.00024771   -0.00000009    0.00523277
     atom    4 type  2   force =     0.00011350    0.00000009   -0.00096983
     atom    5 type  2   force =    -0.00078436    0.00000015   -0.00106932
     atom    6 type  2   force =     0.00104173   -0.00000015   -0.00039907
     atom    7 type  3   force =    -0.00057167   -0.00000001    0.01070992
     atom    8 type  3   force =     0.00010264    0.00000008    0.04398354
     atom    9 type  3   force =    -0.00000390    0.05200889   -0.04250088
     atom   10 type  3   force =    -0.00000385   -0.05200883   -0.04250078
     atom   11 type  3   force =     0.00015489    0.00000005    0.00129240
     atom   12 type  3   force =    -0.00127619   -0.00000010   -0.06764534
     atom   13 type  3   force =     0.00020359    0.00173810   -0.00052627
     atom   14 type  3   force =     0.00020352   -0.00173805   -0.00052604
     atom   15 type  3   force =     0.00072299   -0.00000030   -0.00010999
     atom   16 type  3   force =     0.00018205   -0.00000011    0.00034787
     atom   17 type  3   force =     0.00006990   -0.00084182   -0.00055373
     atom   18 type  3   force =     0.00006988    0.00084181   -0.00055369
     atom   19 type  3   force =    -0.00086732    0.00000017   -0.00135658
     atom   20 type  1   force =     0.00055427    0.00000003    0.00099207

     Total force =     0.006811     Total SCF correction =     0.002118
     SCF correction compared to forces is large: reduce conv_thr to get better values

     Writing all to output data dir ./tmp_s0_OH__u000__sp2m050/s0_OH__u000__sp2m050.save/ :
     XML data file, charge density, pseudopotentials, collected wavefunctions

     init_run     :      4.92s CPU      5.22s WALL (       1 calls)
     electrons    :    191.37s CPU    207.17s WALL (       1 calls)
     forces       :      1.31s CPU      1.34s WALL (       1 calls)

     Called by init_run:
     wfcinit      :      2.10s CPU      2.31s WALL (       1 calls)
     potinit      :      1.14s CPU      1.17s WALL (       1 calls)
     hinit0       :      0.43s CPU      0.46s WALL (       1 calls)

     Called by electrons:
     c_bands      :    146.11s CPU    157.41s WALL (      27 calls)
     sum_band     :     27.00s CPU     29.28s WALL (      27 calls)
     v_of_rho     :      7.03s CPU      7.85s WALL (      28 calls)
     newd         :      2.37s CPU      2.59s WALL (      28 calls)
     PAW_pot      :      3.38s CPU      3.67s WALL (      28 calls)
     mix_rho      :      4.68s CPU      5.16s WALL (      27 calls)

     Called by c_bands:
     init_us_2    :      3.96s CPU      4.36s WALL (     448 calls)
     cegterg      :    109.13s CPU    118.73s WALL (     216 calls)

     Called by *egterg:
     cdiaghg      :      7.58s CPU      8.67s WALL (     923 calls)
     h_psi        :     74.89s CPU     81.10s WALL (     931 calls)
     s_psi        :      5.87s CPU      6.37s WALL (     931 calls)
     g_psi        :      0.43s CPU      0.46s WALL (     707 calls)

     Called by h_psi:
     h_psi:calbec :      7.25s CPU      7.94s WALL (     931 calls)
     vloc_psi     :     60.73s CPU     65.69s WALL (     931 calls)
                                        0.00s GPU  (     931 calls)
     add_vuspsi   :      6.11s CPU      6.60s WALL (     931 calls)

     General routines
     calbec       :     11.10s CPU     12.05s WALL (    1179 calls)
     fft          :      4.60s CPU      5.03s WALL (     713 calls)
     ffts         :      3.41s CPU      3.73s WALL (    3308 calls)
     fftw         :     69.86s CPU     75.55s WALL (  103798 calls)
     interpolate  :      0.86s CPU      0.91s WALL (      56 calls)

     Parallel routines

     PWSCF        :   3m21.13s CPU   3m38.49s WALL


   This run was terminated on:   2:52: 1   1Sep2026            

=------------------------------------------------------------------------------=
   JOB DONE.
=------------------------------------------------------------------------------=
Note: The following floating-point exceptions are signalling: IEEE_DENORMAL
Note: The following floating-point exceptions are signalling: IEEE_DENORMAL
Note: The following floating-point exceptions are signalling: IEEE_DENORMAL
Note: The following floating-point exceptions are signalling: IEEE_DENORMAL
Note: The following floating-point exceptions are signalling: IEEE_DENORMAL
Note: The following floating-point exceptions are signalling: IEEE_DENORMAL
Note: The following floating-point exceptions are signalling: IEEE_DENORMAL
Note: The following floating-point exceptions are signalling: IEEE_DENORMAL
Note: The following floating-point exceptions are signalling: IEEE_DENORMAL
Note: The following floating-point exceptions are signalling: IEEE_DENORMAL
Note: The following floating-point exceptions are signalling: IEEE_DENORMAL
Note: The following floating-point exceptions are signalling: IEEE_DENORMAL
Note: The following floating-point exceptions are signalling: IEEE_DENORMAL
Note: The following floating-point exceptions are signalling: IEEE_DENORMAL
Note: The following floating-point exceptions are signalling: IEEE_DENORMAL
Note: The following floating-point exceptions are signalling: IEEE_DENORMAL
Note: The following floating-point exceptions are signalling: IEEE_DENORMAL
Note: The following floating-point exceptions are signalling: IEEE_DENORMAL
Note: The following floating-point exceptions are signalling: IEEE_DENORMAL
Note: The following floating-point exceptions are signalling: IEEE_DENORMAL
Note: The following floating-point exceptions are signalling: IEEE_DENORMAL
Note: The following floating-point exceptions are signalling: IEEE_DENORMAL
Note: The following floating-point exceptions are signalling: IEEE_DENORMAL
Note: The following floating-point exceptions are signalling: IEEE_DENORMAL
Note: The following floating-point exceptions are signalling: IEEE_DENORMAL
Note: The following floating-point exceptions are signalling: IEEE_DENORMAL
Note: The following floating-point exceptions are signalling: IEEE_DENORMAL
Note: The following floating-point exceptions are signalling: IEEE_DENORMAL
Note: The following floating-point exceptions are signalling: IEEE_DENORMAL
Note: The following floating-point exceptions are signalling: IEEE_DENORMAL
Note: The following floating-point exceptions are signalling: IEEE_DENORMAL
Note: The following floating-point exceptions are signalling: IEEE_DENORMAL
Note: The following floating-point exceptions are signalling: IEEE_DENORMAL
Note: The following floating-point exceptions are signalling: IEEE_DENORMAL
Note: The following floating-point exceptions are signalling: IEEE_DENORMAL
