
     Program PWSCF v.7.5 starts on  1Sep2026 at  3:31:25 

     This program is part of the open-source Quantum ESPRESSO suite
     for quantum simulation of materials; please cite
         "P. Giannozzi et al., J. Phys.:Condens. Matter 21 395502 (2009);
         "P. Giannozzi et al., J. Phys.:Condens. Matter 29 465901 (2017);
         "P. Giannozzi et al., J. Chem. Phys. 152 154105 (2020);
          URL http://www.quantum-espresso.org", 
     in publications or presentations arising from this work. More details at
     http://www.quantum-espresso.org/quote

     Parallel version (MPI & OpenMP), running on     128 processor cores
     Number of MPI processes:               128
     Threads/MPI process:                     1

     MPI processes distributed on     1 nodes
     229378 MiB available memory on the printing compute node when the environment starts

     Reading input from s0_O__u000__sp2m050.run.in

     Current dimensions of program PWSCF are:
     Max number of different atomic species (ntypx) = 10
     Max number of k-points (npk) =  40000
     Max angular momentum in pseudopotentials (lmaxx) =  4
     file O.pbe-n-kjpaw_psl.0.1.UPF: wavefunction(s)  2P renormalized

     K-points division:     npool     =       8
     R & G space division:  proc/nbgrp/npool/nimage =      16
     Subspace diagonalization in iterative solution of the eigenvalue problem:
     a serial algorithm will be used


     Parallelization info
     --------------------
     sticks:   dense  smooth     PW     G-vecs:    dense   smooth      PW
     Min         218     108     31                57602    20340    3111
     Max         219     109     32                57627    20361    3126
     Sum        3495    1739    505               921821   325653   49881

     Using Slab Decomposition



     bravais-lattice index     =            0
     lattice parameter (alat)  =       5.5911  a.u.
     unit-cell volume          =    3370.6432 (a.u.)^3
     number of atoms/cell      =           19
     number of atomic types    =            2
     number of electrons       =       150.00
     number of Kohn-Sham states=           90
     kinetic-energy cutoff     =      80.0000  Ry
     charge density cutoff     =     640.0000  Ry
     scf convergence threshold =      1.0E-06
     mixing beta               =       0.3000
     number of iterations used =            8  local-TF  mixing
     Exchange-correlation= SLA  PW   PBX  PBC
                           (   1   4   3   4   0   0   0)

     celldm(1)=   5.591133  celldm(2)=   0.000000  celldm(3)=   0.000000
     celldm(4)=   0.000000  celldm(5)=   0.000000  celldm(6)=   0.000000

     crystal axes: (cart. coord. in units of alat)
               a(1) = (   1.000000   0.000000   0.000000 )  
               a(2) = (   0.000000   2.195719   0.000000 )  
               a(3) = (   0.000000   0.000000   8.782875 )  

     reciprocal axes: (cart. coord. in units 2 pi/alat)
               b(1) = (  1.000000  0.000000  0.000000 )  
               b(2) = (  0.000000  0.455432  0.000000 )  
               b(3) = (  0.000000  0.000000  0.113858 )  


     PseudoPot. # 1 for Ti read from file:
     /anvil/projects/x-che260157/pseudo/ti_pbe_v1.4.uspp.F.UPF
     MD5 check sum: 88a00a6731bd790ddea75d31a80cb452
     Pseudo is Ultrasoft + core correction, Zval = 12.0
     Generated by new atomic code, or converted to UPF format
     Using radial grid of  851 points,  6 beta functions with: 
                l(1) =   0
                l(2) =   0
                l(3) =   1
                l(4) =   1
                l(5) =   2
                l(6) =   2
     Q(r) pseudized with  6 coefficients,  rinner =    1.000   1.000   1.000
                                                       1.000   1.000

     PseudoPot. # 2 for O  read from file:
     /anvil/projects/x-che260157/pseudo/O.pbe-n-kjpaw_psl.0.1.UPF
     MD5 check sum: 0234752ac141de4415c5fc33072bef88
     Pseudo is Projector augmented-wave + core cor, Zval =  6.0
     Generated using "atomic" code by A. Dal Corso  v.5.0.99 svn rev. 10869
     Shape of augmentation charge: BESSEL
     Using radial grid of 1095 points,  4 beta functions with: 
                l(1) =   0
                l(2) =   0
                l(3) =   1
                l(4) =   1
     Q(r) pseudized with 0 coefficients 


     atomic species   valence    mass     pseudopotential
     Ti               12.00    47.86700     Ti( 1.00)
     O                 6.00    15.99900     O ( 1.00)

     Starting magnetic structure 
     atomic species   magnetization
     Ti              0.500
     O               0.000

     No symmetry found



   Cartesian axes

     site n.     atom                  positions (alat units)
         1        Ti     tau(   1) = (   0.0000000   1.6467890   3.2935780  )
         2        Ti     tau(   2) = (   0.5000000   0.5489297   3.2935780  )
         3        Ti     tau(   3) = (   0.0000000   0.5489296   4.4353079  )
         4        Ti     tau(   4) = (   0.5000000   1.6467889   4.4368697  )
         5        Ti     tau(   5) = (  -0.0000000   1.6467889   5.6248456  )
         6        Ti     tau(   6) = (   0.5000000   0.5489296   5.5741751  )
         7        O      tau(   7) = (   0.0000000   0.5489297   3.7217432  )
         8        O      tau(   8) = (   0.0000000   0.5489297   2.8654129  )
         9        O      tau(   9) = (   0.5000000   1.2186239   3.2935780  )
        10        O      tau(  10) = (   0.5000000   2.0749541   3.2935780  )
        11        O      tau(  11) = (  -0.0000000   1.6467888   4.8276870  )
        12        O      tau(  12) = (   0.0000000   1.6467890   3.9632722  )
        13        O      tau(  13) = (   0.5000000   0.1173161   4.3978823  )
        14        O      tau(  14) = (   0.5000000   0.9805431   4.3978822  )
        15        O      tau(  15) = (  -0.0000000   0.5489293   5.9392244  )
        16        O      tau(  16) = (   0.0000000   0.5489297   5.0658976  )
        17        O      tau(  17) = (   0.5000000   1.2136566   5.5360461  )
        18        O      tau(  18) = (   0.5000000   2.0799212   5.5360457  )
        19        O      tau(  19) = (  -0.0000000   1.6467886   6.2111009  )

     number of k points=    32  Marzari-Vanderbilt smearing, width (Ry)=  0.0100
                       cart. coord. in units 2pi/alat
        k(    1) = (   0.0000000   0.0000000   0.0000000), wk =   0.0312500
        k(    2) = (   0.0000000   0.1138579   0.0000000), wk =   0.0312500
        k(    3) = (   0.0000000  -0.2277159   0.0000000), wk =   0.0312500
        k(    4) = (   0.0000000  -0.1138579   0.0000000), wk =   0.0312500
        k(    5) = (   0.1250000   0.0000000   0.0000000), wk =   0.0312500
        k(    6) = (   0.1250000   0.1138579   0.0000000), wk =   0.0312500
        k(    7) = (   0.1250000  -0.2277159   0.0000000), wk =   0.0312500
        k(    8) = (   0.1250000  -0.1138579   0.0000000), wk =   0.0312500
        k(    9) = (   0.2500000   0.0000000   0.0000000), wk =   0.0312500
        k(   10) = (   0.2500000   0.1138579   0.0000000), wk =   0.0312500
        k(   11) = (   0.2500000  -0.2277159   0.0000000), wk =   0.0312500
        k(   12) = (   0.2500000  -0.1138579   0.0000000), wk =   0.0312500
        k(   13) = (   0.3750000   0.0000000   0.0000000), wk =   0.0312500
        k(   14) = (   0.3750000   0.1138579   0.0000000), wk =   0.0312500
        k(   15) = (   0.3750000  -0.2277159   0.0000000), wk =   0.0312500
        k(   16) = (   0.3750000  -0.1138579   0.0000000), wk =   0.0312500
        k(   17) = (  -0.5000000   0.0000000   0.0000000), wk =   0.0312500
        k(   18) = (  -0.5000000   0.1138579   0.0000000), wk =   0.0312500
        k(   19) = (  -0.5000000  -0.2277159   0.0000000), wk =   0.0312500
        k(   20) = (  -0.5000000  -0.1138579   0.0000000), wk =   0.0312500
        k(   21) = (  -0.3750000   0.0000000   0.0000000), wk =   0.0312500
        k(   22) = (  -0.3750000   0.1138579   0.0000000), wk =   0.0312500
        k(   23) = (  -0.3750000  -0.2277159   0.0000000), wk =   0.0312500
        k(   24) = (  -0.3750000  -0.1138579   0.0000000), wk =   0.0312500
        k(   25) = (  -0.2500000   0.0000000   0.0000000), wk =   0.0312500
        k(   26) = (  -0.2500000   0.1138579   0.0000000), wk =   0.0312500
        k(   27) = (  -0.2500000  -0.2277159   0.0000000), wk =   0.0312500
        k(   28) = (  -0.2500000  -0.1138579   0.0000000), wk =   0.0312500
        k(   29) = (  -0.1250000   0.0000000   0.0000000), wk =   0.0312500
        k(   30) = (  -0.1250000   0.1138579   0.0000000), wk =   0.0312500
        k(   31) = (  -0.1250000  -0.2277159   0.0000000), wk =   0.0312500
        k(   32) = (  -0.1250000  -0.1138579   0.0000000), wk =   0.0312500

     Dense  grid:   921821 G-vectors     FFT dimensions: (  45, 100, 400)

     Smooth grid:   325653 G-vectors     FFT dimensions: (  32,  72, 288)

     Estimated max dynamical RAM per process >     124.28 MB

     Estimated total dynamical RAM >      12.46 GB

     Check: negative core charge=   -0.000001
     Generating pointlists ...
     new r_m :   0.2418 (alat units)  1.3521 (a.u.) for type    1
     new r_m :   0.2418 (alat units)  1.3521 (a.u.) for type    2

     Initial potential from superposition of free atoms

     starting charge     143.9997, renormalised to     150.0000

     negative rho (up, down):  6.560E-03 2.113E-03
     Starting wfcs are  112 randomized atomic wfcs
     Checking if some PAW data can be deallocated... 

     total cpu time spent up to now is        4.5 secs

     per-process dynamical memory:   140.4 Mb

     Self-consistent Calculation

     iteration #  1     ecut=    80.00 Ry     beta= 0.30
     Davidson diagonalization with overlap
     ethr =  1.00E-02,  avg # of iterations =  2.8

     negative rho (up, down):  4.523E-03 3.411E-03

     total cpu time spent up to now is       12.2 secs

     total energy              =   -1256.53296964 Ry
     estimated scf accuracy    <      34.86044038 Ry

     total magnetization       =     4.00 Bohr mag/cell
     absolute magnetization    =     8.44 Bohr mag/cell

     iteration #  2     ecut=    80.00 Ry     beta= 0.30
     Davidson diagonalization with overlap
     ethr =  1.00E-02,  avg # of iterations =  1.2

     negative rho (up, down):  4.165E-03 4.187E-03

     total cpu time spent up to now is       18.0 secs

     total energy              =   -1258.06818106 Ry
     estimated scf accuracy    <       5.76495291 Ry

     total magnetization       =     0.74 Bohr mag/cell
     absolute magnetization    =     5.41 Bohr mag/cell

     iteration #  3     ecut=    80.00 Ry     beta= 0.30
     Davidson diagonalization with overlap
     ethr =  3.84E-03,  avg # of iterations =  1.6

     negative rho (up, down):  3.668E-03 4.976E-03

     total cpu time spent up to now is       23.9 secs

     total energy              =   -1258.57475748 Ry
     estimated scf accuracy    <       2.38156338 Ry

     total magnetization       =     0.28 Bohr mag/cell
     absolute magnetization    =     4.84 Bohr mag/cell

     iteration #  4     ecut=    80.00 Ry     beta= 0.30
     Davidson diagonalization with overlap
     ethr =  1.59E-03,  avg # of iterations =  1.9

     negative rho (up, down):  3.127E-03 5.550E-03

     total cpu time spent up to now is       29.8 secs

     total energy              =   -1258.86294994 Ry
     estimated scf accuracy    <       1.80647904 Ry

     total magnetization       =    -0.01 Bohr mag/cell
     absolute magnetization    =     4.31 Bohr mag/cell

     iteration #  5     ecut=    80.00 Ry     beta= 0.30
     Davidson diagonalization with overlap
     ethr =  1.20E-03,  avg # of iterations =  1.7

     negative rho (up, down):  2.932E-03 5.510E-03

     total cpu time spent up to now is       36.0 secs

     total energy              =   -1258.98772354 Ry
     estimated scf accuracy    <       0.95864907 Ry

     total magnetization       =    -0.59 Bohr mag/cell
     absolute magnetization    =     3.38 Bohr mag/cell

     iteration #  6     ecut=    80.00 Ry     beta= 0.30
     Davidson diagonalization with overlap
     ethr =  6.39E-04,  avg # of iterations =  1.4

     negative rho (up, down):  2.953E-03 4.420E-03

     total cpu time spent up to now is       42.2 secs

     total energy              =   -1258.94385507 Ry
     estimated scf accuracy    <       0.83507574 Ry

     total magnetization       =    -1.05 Bohr mag/cell
     absolute magnetization    =     3.05 Bohr mag/cell

     iteration #  7     ecut=    80.00 Ry     beta= 0.30
     Davidson diagonalization with overlap
     ethr =  5.57E-04,  avg # of iterations =  1.1

     negative rho (up, down):  3.077E-03 4.358E-03

     total cpu time spent up to now is       47.8 secs

     total energy              =   -1258.97717119 Ry
     estimated scf accuracy    <       0.47472825 Ry

     total magnetization       =    -1.98 Bohr mag/cell
     absolute magnetization    =     2.92 Bohr mag/cell

     iteration #  8     ecut=    80.00 Ry     beta= 0.30
     Davidson diagonalization with overlap
     ethr =  3.16E-04,  avg # of iterations =  2.3

     negative rho (up, down):  3.306E-03 4.078E-03

     total cpu time spent up to now is       54.1 secs

     total energy              =   -1258.98647185 Ry
     estimated scf accuracy    <       0.20932384 Ry

     total magnetization       =    -1.99 Bohr mag/cell
     absolute magnetization    =     2.62 Bohr mag/cell

     iteration #  9     ecut=    80.00 Ry     beta= 0.30
     Davidson diagonalization with overlap
     ethr =  1.40E-04,  avg # of iterations =  2.7

     negative rho (up, down):  3.638E-03 3.854E-03

     total cpu time spent up to now is       61.2 secs

     total energy              =   -1258.98083370 Ry
     estimated scf accuracy    <       0.18195836 Ry

     total magnetization       =    -1.88 Bohr mag/cell
     absolute magnetization    =     2.49 Bohr mag/cell

     iteration # 10     ecut=    80.00 Ry     beta= 0.30
     Davidson diagonalization with overlap
     ethr =  1.21E-04,  avg # of iterations =  1.8

     negative rho (up, down):  4.447E-03 4.026E-03

     total cpu time spent up to now is       67.1 secs

     total energy              =   -1258.97437778 Ry
     estimated scf accuracy    <       0.07642143 Ry

     total magnetization       =    -1.85 Bohr mag/cell
     absolute magnetization    =     2.39 Bohr mag/cell

     iteration # 11     ecut=    80.00 Ry     beta= 0.30
     Davidson diagonalization with overlap
     ethr =  5.09E-05,  avg # of iterations = 11.7

     negative rho (up, down):  3.805E-03 3.966E-03

     total cpu time spent up to now is       75.9 secs

     total energy              =   -1258.98219974 Ry
     estimated scf accuracy    <       0.02698782 Ry

     total magnetization       =    -1.74 Bohr mag/cell
     absolute magnetization    =     2.31 Bohr mag/cell

     iteration # 12     ecut=    80.00 Ry     beta= 0.30
     Davidson diagonalization with overlap
     ethr =  1.80E-05,  avg # of iterations =  5.2

     negative rho (up, down):  3.758E-03 4.012E-03

     total cpu time spent up to now is       83.4 secs

     total energy              =   -1258.98385078 Ry
     estimated scf accuracy    <       0.00742396 Ry

     total magnetization       =    -1.78 Bohr mag/cell
     absolute magnetization    =     2.25 Bohr mag/cell

     iteration # 13     ecut=    80.00 Ry     beta= 0.30
     Davidson diagonalization with overlap
     c_bands:  2 eigenvalues not converged
     c_bands:  2 eigenvalues not converged
     ethr =  4.95E-06,  avg # of iterations =  9.6

     negative rho (up, down):  3.763E-03 3.986E-03

     total cpu time spent up to now is       91.9 secs

     total energy              =   -1258.98420844 Ry
     estimated scf accuracy    <       0.00513259 Ry

     total magnetization       =    -1.74 Bohr mag/cell
     absolute magnetization    =     2.20 Bohr mag/cell

     iteration # 14     ecut=    80.00 Ry     beta= 0.30
     Davidson diagonalization with overlap
     ethr =  3.42E-06,  avg # of iterations =  3.0

     negative rho (up, down):  3.708E-03 3.994E-03

     total cpu time spent up to now is       98.3 secs

     total energy              =   -1258.98351428 Ry
     estimated scf accuracy    <       0.00371523 Ry

     total magnetization       =    -1.74 Bohr mag/cell
     absolute magnetization    =     2.19 Bohr mag/cell

     iteration # 15     ecut=    80.00 Ry     beta= 0.30
     Davidson diagonalization with overlap
     c_bands:  1 eigenvalues not converged
     c_bands:  1 eigenvalues not converged
     ethr =  2.48E-06,  avg # of iterations =  7.8

     negative rho (up, down):  3.714E-03 4.022E-03

     total cpu time spent up to now is      106.4 secs

     total energy              =   -1258.98345512 Ry
     estimated scf accuracy    <       0.00373566 Ry

     total magnetization       =    -1.75 Bohr mag/cell
     absolute magnetization    =     2.17 Bohr mag/cell

     iteration # 16     ecut=    80.00 Ry     beta= 0.30
     Davidson diagonalization with overlap
     c_bands:  1 eigenvalues not converged
     ethr =  2.48E-06,  avg # of iterations =  3.8

     negative rho (up, down):  3.728E-03 3.993E-03

     total cpu time spent up to now is      113.2 secs

     total energy              =   -1258.98354792 Ry
     estimated scf accuracy    <       0.00289586 Ry

     total magnetization       =    -1.73 Bohr mag/cell
     absolute magnetization    =     2.15 Bohr mag/cell

     iteration # 17     ecut=    80.00 Ry     beta= 0.30
     Davidson diagonalization with overlap
     c_bands:  1 eigenvalues not converged
     ethr =  1.93E-06,  avg # of iterations =  1.9

     negative rho (up, down):  3.745E-03 3.963E-03

     total cpu time spent up to now is      119.5 secs

     total energy              =   -1258.98341070 Ry
     estimated scf accuracy    <       0.00162181 Ry

     total magnetization       =    -1.74 Bohr mag/cell
     absolute magnetization    =     2.16 Bohr mag/cell

     iteration # 18     ecut=    80.00 Ry     beta= 0.30
     Davidson diagonalization with overlap
     ethr =  1.08E-06,  avg # of iterations =  2.6

     negative rho (up, down):  4.021E-03 4.350E-03

     total cpu time spent up to now is      127.7 secs

     total energy              =   -1258.98327011 Ry
     estimated scf accuracy    <       0.00131266 Ry

     total magnetization       =    -1.74 Bohr mag/cell
     absolute magnetization    =     2.16 Bohr mag/cell

     iteration # 19     ecut=    80.00 Ry     beta= 0.30
     Davidson diagonalization with overlap
     ethr =  8.75E-07,  avg # of iterations =  3.8

     negative rho (up, down):  4.466E-03 4.754E-03

     total cpu time spent up to now is      135.0 secs

     total energy              =   -1258.98324220 Ry
     estimated scf accuracy    <       0.00137631 Ry

     total magnetization       =    -1.76 Bohr mag/cell
     absolute magnetization    =     2.19 Bohr mag/cell

     iteration # 20     ecut=    80.00 Ry     beta= 0.30
     Davidson diagonalization with overlap
     ethr =  8.75E-07,  avg # of iterations =  2.4

     negative rho (up, down):  4.848E-03 5.155E-03

     total cpu time spent up to now is      141.1 secs

     total energy              =   -1258.98329547 Ry
     estimated scf accuracy    <       0.00051451 Ry

     total magnetization       =    -1.76 Bohr mag/cell
     absolute magnetization    =     2.20 Bohr mag/cell

     iteration # 21     ecut=    80.00 Ry     beta= 0.30
     Davidson diagonalization with overlap
     ethr =  3.43E-07,  avg # of iterations =  3.0

     negative rho (up, down):  4.898E-03 5.218E-03

     total cpu time spent up to now is      147.3 secs

     total energy              =   -1258.98333919 Ry
     estimated scf accuracy    <       0.00024662 Ry

     total magnetization       =    -1.77 Bohr mag/cell
     absolute magnetization    =     2.20 Bohr mag/cell

     iteration # 22     ecut=    80.00 Ry     beta= 0.30
     Davidson diagonalization with overlap
     ethr =  1.64E-07,  avg # of iterations =  1.7

     negative rho (up, down):  4.593E-03 4.882E-03

     total cpu time spent up to now is      153.4 secs

     total energy              =   -1258.98335789 Ry
     estimated scf accuracy    <       0.00008647 Ry

     total magnetization       =    -1.76 Bohr mag/cell
     absolute magnetization    =     2.20 Bohr mag/cell

     iteration # 23     ecut=    80.00 Ry     beta= 0.30
     Davidson diagonalization with overlap
     c_bands:  1 eigenvalues not converged
     ethr =  5.76E-08,  avg # of iterations =  5.7

     negative rho (up, down):  4.348E-03 4.623E-03

     total cpu time spent up to now is      161.1 secs

     total energy              =   -1258.98337197 Ry
     estimated scf accuracy    <       0.00007072 Ry

     total magnetization       =    -1.76 Bohr mag/cell
     absolute magnetization    =     2.19 Bohr mag/cell

     iteration # 24     ecut=    80.00 Ry     beta= 0.30
     Davidson diagonalization with overlap
     ethr =  4.71E-08,  avg # of iterations =  1.8

     negative rho (up, down):  4.036E-03 4.320E-03

     total cpu time spent up to now is      167.2 secs

     total energy              =   -1258.98337412 Ry
     estimated scf accuracy    <       0.00005415 Ry

     total magnetization       =    -1.76 Bohr mag/cell
     absolute magnetization    =     2.19 Bohr mag/cell

     iteration # 25     ecut=    80.00 Ry     beta= 0.30
     Davidson diagonalization with overlap
     ethr =  3.61E-08,  avg # of iterations =  3.8

     negative rho (up, down):  4.117E-03 4.403E-03

     total cpu time spent up to now is      173.8 secs

     total energy              =   -1258.98338379 Ry
     estimated scf accuracy    <       0.00001748 Ry

     total magnetization       =    -1.75 Bohr mag/cell
     absolute magnetization    =     2.18 Bohr mag/cell

     iteration # 26     ecut=    80.00 Ry     beta= 0.30
     Davidson diagonalization with overlap
     ethr =  1.17E-08,  avg # of iterations =  2.7

     negative rho (up, down):  4.163E-03 4.454E-03

     total cpu time spent up to now is      180.5 secs

     total energy              =   -1258.98338790 Ry
     estimated scf accuracy    <       0.00001346 Ry

     total magnetization       =    -1.75 Bohr mag/cell
     absolute magnetization    =     2.18 Bohr mag/cell

     iteration # 27     ecut=    80.00 Ry     beta= 0.30
     Davidson diagonalization with overlap
     ethr =  8.97E-09,  avg # of iterations =  2.3

     negative rho (up, down):  4.033E-03 4.328E-03

     total cpu time spent up to now is      186.6 secs

     total energy              =   -1258.98339194 Ry
     estimated scf accuracy    <       0.00000923 Ry

     total magnetization       =    -1.75 Bohr mag/cell
     absolute magnetization    =     2.18 Bohr mag/cell

     iteration # 28     ecut=    80.00 Ry     beta= 0.30
     Davidson diagonalization with overlap
     ethr =  6.15E-09,  avg # of iterations =  2.0

     negative rho (up, down):  3.902E-03 4.196E-03

     total cpu time spent up to now is      192.7 secs

     total energy              =   -1258.98339454 Ry
     estimated scf accuracy    <       0.00000403 Ry

     total magnetization       =    -1.75 Bohr mag/cell
     absolute magnetization    =     2.18 Bohr mag/cell

     iteration # 29     ecut=    80.00 Ry     beta= 0.30
     Davidson diagonalization with overlap
     ethr =  2.68E-09,  avg # of iterations =  2.0

     negative rho (up, down):  3.838E-03 4.130E-03

     total cpu time spent up to now is      199.2 secs

     total energy              =   -1258.98339476 Ry
     estimated scf accuracy    <       0.00000106 Ry

     total magnetization       =    -1.75 Bohr mag/cell
     absolute magnetization    =     2.18 Bohr mag/cell

     iteration # 30     ecut=    80.00 Ry     beta= 0.30
     Davidson diagonalization with overlap
     ethr =  7.06E-10,  avg # of iterations =  4.7

     negative rho (up, down):  3.796E-03 4.089E-03

     Magnetic moment per site  (integrated on atomic sphere of radius R)
     atom   1 (R=0.242)  charge=  7.8212  magn=  0.0034
     atom   2 (R=0.242)  charge=  7.8171  magn=  0.0238
     atom   3 (R=0.242)  charge=  7.8109  magn=  0.0101
     atom   4 (R=0.242)  charge=  7.8134  magn=  0.0051
     atom   5 (R=0.242)  charge=  7.8549  magn=  0.0562
     atom   6 (R=0.242)  charge=  7.8312  magn=  0.0230
     atom   7 (R=0.242)  charge=  4.8096  magn= -0.1026
     atom   8 (R=0.242)  charge=  4.7252  magn= -0.2042
     atom   9 (R=0.242)  charge=  4.8339  magn= -0.0052
     atom  10 (R=0.242)  charge=  4.8339  magn= -0.0052
     atom  11 (R=0.242)  charge=  4.8178  magn= -0.0364
     atom  12 (R=0.242)  charge=  4.7840  magn= -0.0141
     atom  13 (R=0.242)  charge=  4.8332  magn= -0.0328
     atom  14 (R=0.242)  charge=  4.8332  magn= -0.0328
     atom  15 (R=0.242)  charge=  4.7968  magn= -0.0780
     atom  16 (R=0.242)  charge=  4.7930  magn= -0.0982
     atom  17 (R=0.242)  charge=  4.8123  magn= -0.1788
     atom  18 (R=0.242)  charge=  4.8123  magn= -0.1788
     atom  19 (R=0.242)  charge=  4.6347  magn= -0.5995

     total cpu time spent up to now is      206.2 secs

     End of self-consistent calculation

 ------ SPIN UP ------------


          k = 0.0000 0.0000 0.0000 ( 40639 PWs)   bands (ev):

   -58.6771 -57.8377 -57.8269 -57.5570 -57.4211 -57.3675 -34.9305 -34.9226
   -34.7487 -34.1899 -34.1161 -34.0545 -34.0165 -33.9596 -33.9415 -33.8919
   -33.8023 -33.7951 -33.7796 -33.6560 -33.6206 -33.6151 -33.5747 -33.4521
   -19.3684 -18.9626 -18.6677 -18.2650 -18.0129 -17.8602 -17.7675 -17.5084
   -17.4797 -17.4266 -16.9915 -16.5698 -16.5220  -7.1204  -6.6195  -6.4645
    -6.0497  -5.6308  -5.5370  -5.5197  -5.0176  -4.9739  -4.8790  -4.7885
    -4.5977  -4.3380  -4.2734  -4.1860  -4.1471  -3.7291  -3.6757  -3.5537
    -3.3408  -3.1729  -3.1252  -2.9233  -2.8071  -2.7419  -2.6735  -2.5898
    -2.4205  -2.2470  -2.1887  -2.0565  -1.9912  -1.7983  -1.5655  -1.5088
    -1.4595  -1.3311  -1.1877  -0.9985   0.3470   0.9025   0.9317   1.2089
     1.4590   1.4716   1.5187   1.6405   1.9113   1.9227   2.0459   2.0940
     2.2245   2.9106

          k = 0.0000 0.1139 0.0000 ( 40609 PWs)   bands (ev):

   -58.6771 -57.8367 -57.8279 -57.5570 -57.4209 -57.3677 -34.9305 -34.9194
   -34.7486 -34.1664 -34.1159 -34.0549 -34.0407 -33.9573 -33.9438 -33.8960
   -33.8023 -33.7817 -33.7690 -33.6562 -33.6454 -33.6152 -33.5744 -33.4524
   -19.2518 -18.8477 -18.5528 -18.3670 -18.1878 -17.8937 -17.7671 -17.5844
   -17.4973 -17.4547 -16.9886 -16.5678 -16.5219  -6.8236  -6.3390  -6.1942
    -6.0391  -5.5705  -5.4962  -5.4044  -5.0279  -4.8306  -4.7880  -4.7811
    -4.5463  -4.4054  -4.3375  -4.2728  -4.1701  -3.9880  -3.9396  -3.6760
    -3.6258  -3.3611  -3.1997  -3.0127  -2.8476  -2.8463  -2.6844  -2.6016
    -2.4798  -2.3296  -2.2808  -2.1301  -2.0595  -1.8023  -1.7100  -1.5579
    -1.5426  -1.3631  -1.1957  -1.1042   0.5804   0.8996   1.2280   1.4590
     1.5285   1.5606   1.7283   1.8973   1.9337   2.0683   2.0757   2.1209
     2.2873   2.6161

          k = 0.0000-0.2277 0.0000 ( 40526 PWs)   bands (ev):

   -58.6770 -57.8355 -57.8291 -57.5570 -57.4208 -57.3679 -34.9305 -34.9162
   -34.7486 -34.1234 -34.1150 -34.0857 -34.0547 -33.9535 -33.9476 -33.9002
   -33.8023 -33.7807 -33.7242 -33.6920 -33.6563 -33.6152 -33.5741 -33.4527
   -19.0761 -18.6432 -18.5975 -18.3964 -18.2825 -18.1083 -17.7418 -17.6674
   -17.5082 -17.4660 -16.9864 -16.5660 -16.5221  -6.4250  -6.1243  -5.9329
    -5.7390  -5.5698  -5.4527  -5.1752  -4.9861  -4.7893  -4.7762  -4.7033
    -4.5221  -4.4905  -4.3572  -4.3364  -4.3030  -4.2720  -4.1845  -4.0250
    -3.9664  -3.4771  -3.3170  -3.2818  -2.8912  -2.8634  -2.8283  -2.6483
    -2.4625  -2.4574  -2.3554  -2.1144  -2.0512  -1.7504  -1.7259  -1.5967
    -1.5080  -1.3400  -1.3034  -1.2019   0.7306   0.8978   1.4842   1.5434
     1.6493   1.7632   1.8736   1.9795   1.9806   2.1804   2.1940   2.2965
     2.4384   2.5813

          k = 0.0000-0.1139 0.0000 ( 40609 PWs)   bands (ev):

   -58.6771 -57.8367 -57.8279 -57.5570 -57.4209 -57.3677 -34.9305 -34.9194
   -34.7486 -34.1664 -34.1159 -34.0549 -34.0407 -33.9573 -33.9438 -33.8960
   -33.8023 -33.7817 -33.7690 -33.6562 -33.6454 -33.6152 -33.5744 -33.4524
   -19.2518 -18.8477 -18.5528 -18.3670 -18.1878 -17.8937 -17.7671 -17.5844
   -17.4973 -17.4547 -16.9886 -16.5678 -16.5219  -6.8236  -6.3390  -6.1942
    -6.0391  -5.5705  -5.4962  -5.4044  -5.0279  -4.8306  -4.7880  -4.7811
    -4.5463  -4.4054  -4.3375  -4.2728  -4.1701  -3.9880  -3.9396  -3.6760
    -3.6258  -3.3611  -3.1997  -3.0127  -2.8476  -2.8463  -2.6844  -2.6016
    -2.4798  -2.3296  -2.2808  -2.1301  -2.0595  -1.8023  -1.7100  -1.5579
    -1.5426  -1.3631  -1.1957  -1.1042   0.5804   0.8996   1.2280   1.4590
     1.5285   1.5606   1.7283   1.8973   1.9337   2.0682   2.0757   2.1209
     2.2872   2.6161

          k = 0.1250 0.0000 0.0000 ( 40652 PWs)   bands (ev):

   -58.6712 -57.8314 -57.8213 -57.5511 -57.4152 -57.3613 -34.9256 -34.9063
   -34.8168 -34.1726 -34.1044 -34.0492 -34.0254 -34.0135 -34.0096 -33.8879
   -33.7874 -33.7779 -33.7745 -33.6839 -33.6485 -33.6403 -33.6176 -33.5207
   -19.2255 -18.8195 -18.5421 -18.1451 -18.0890 -17.7712 -17.6553 -17.5750
   -17.5415 -17.4853 -17.0271 -16.6213 -16.4888  -6.9209  -6.4310  -6.2886
    -5.8798  -5.7534  -5.4463  -5.4414  -5.2657  -5.0971  -4.9428  -4.8547
    -4.6270  -4.3456  -4.2092  -3.9959  -3.9248  -3.6571  -3.5790  -3.4277
    -3.3406  -3.2044  -3.1946  -3.1015  -2.9974  -2.8801  -2.7215  -2.5821
    -2.5339  -2.4526  -2.3084  -2.1961  -2.1241  -2.0795  -1.9446  -1.7903
    -1.4567  -1.3600  -1.2598  -1.0819   0.6297   0.8837   1.2130   1.2133
     1.4229   1.5849   1.7140   1.7612   1.8674   1.9384   2.1797   2.2591
     2.3243   2.8034

          k = 0.1250 0.1139 0.0000 ( 40695 PWs)   bands (ev):

   -58.6712 -57.8305 -57.8221 -57.5511 -57.4150 -57.3615 -34.9256 -34.9036
   -34.8171 -34.1517 -34.1041 -34.0508 -34.0432 -34.0192 -34.0064 -33.8910
   -33.7874 -33.7761 -33.7552 -33.6839 -33.6539 -33.6483 -33.6260 -33.5206
   -19.1144 -18.7112 -18.4335 -18.3019 -18.1675 -17.8111 -17.7065 -17.6401
   -17.5418 -17.4933 -17.0245 -16.6197 -16.4885  -6.6270  -6.1544  -6.0157
    -5.8701  -5.6858  -5.4886  -5.3216  -5.1811  -5.1148  -4.9326  -4.7566
    -4.5373  -4.3669  -4.2232  -4.0600  -3.9708  -3.9011  -3.7271  -3.6687
    -3.5748  -3.4767  -3.3592  -3.2538  -3.1135  -2.9429  -2.7682  -2.6961
    -2.5717  -2.4939  -2.3437  -2.2298  -2.1246  -2.0496  -1.9701  -1.7618
    -1.5272  -1.3216  -1.2722  -1.1010   0.8319   0.9210   1.2873   1.4956
     1.5978   1.6430   1.8319   1.9443   1.9832   2.0401   2.1913   2.2421
     2.3926   2.7316

          k = 0.1250-0.2277 0.0000 ( 40666 PWs)   bands (ev):

   -58.6712 -57.8294 -57.8233 -57.5511 -57.4149 -57.3616 -34.9255 -34.9009
   -34.8175 -34.1084 -34.1038 -34.0904 -34.0489 -34.0137 -34.0108 -33.8942
   -33.7874 -33.7760 -33.7097 -33.6976 -33.6839 -33.6482 -33.6287 -33.5207
   -18.9370 -18.5586 -18.4749 -18.3698 -18.1762 -18.0388 -17.7146 -17.6898
   -17.5261 -17.5059 -17.0224 -16.6183 -16.4884  -6.2007  -5.9512  -5.7562
    -5.6761  -5.5391  -5.4583  -5.2268  -5.1884  -5.0734  -4.8484  -4.6764
    -4.5533  -4.3318  -4.2588  -4.2237  -4.1694  -4.1146  -4.0196  -3.8492
    -3.7956  -3.7333  -3.5695  -3.4322  -3.3474  -3.0496  -2.8726  -2.7646
    -2.5708  -2.5012  -2.3349  -2.2560  -2.0711  -1.9598  -1.8573  -1.6841
    -1.6406  -1.3260  -1.2977  -1.1062   0.8885   1.0051   1.4314   1.6167
     1.6493   1.8295   1.8679   2.1026   2.1896   2.2180   2.2410   2.2813
     2.5140   2.5626

          k = 0.1250-0.1139 0.0000 ( 40695 PWs)   bands (ev):

   -58.6712 -57.8305 -57.8221 -57.5511 -57.4150 -57.3615 -34.9256 -34.9036
   -34.8171 -34.1517 -34.1041 -34.0508 -34.0432 -34.0192 -34.0064 -33.8910
   -33.7874 -33.7761 -33.7552 -33.6839 -33.6539 -33.6483 -33.6260 -33.5206
   -19.1144 -18.7112 -18.4335 -18.3019 -18.1675 -17.8111 -17.7065 -17.6401
   -17.5418 -17.4933 -17.0245 -16.6197 -16.4885  -6.6270  -6.1544  -6.0157
    -5.8701  -5.6858  -5.4886  -5.3216  -5.1811  -5.1148  -4.9326  -4.7566
    -4.5373  -4.3669  -4.2232  -4.0600  -3.9708  -3.9011  -3.7271  -3.6687
    -3.5748  -3.4767  -3.3592  -3.2538  -3.1135  -2.9429  -2.7682  -2.6961
    -2.5717  -2.4939  -2.3437  -2.2298  -2.1246  -2.0496  -1.9701  -1.7618
    -1.5272  -1.3216  -1.2722  -1.1010   0.8319   0.9210   1.2873   1.4956
     1.5978   1.6430   1.8319   1.9443   1.9832   2.0401   2.1913   2.2421
     2.3926   2.7311

          k = 0.2500 0.0000 0.0000 ( 40766 PWs)   bands (ev):

   -58.6570 -57.8162 -57.8077 -57.5367 -57.4009 -57.3464 -34.9781 -34.9137
   -34.8667 -34.1927 -34.1779 -34.1286 -34.0586 -34.0353 -34.0083 -33.8782
   -33.8460 -33.8028 -33.7566 -33.7512 -33.7343 -33.7197 -33.6123 -33.5908
   -18.8716 -18.4579 -18.2719 -18.2359 -17.8666 -17.7370 -17.6938 -17.6265
   -17.6062 -17.4220 -17.0783 -16.6908 -16.4055  -6.4132  -5.9681  -5.8809
    -5.8651  -5.5783  -5.5158  -5.3343  -5.2810  -5.2077  -4.8710  -4.7638
    -4.6936  -4.5704  -4.2191  -4.1207  -4.0343  -3.8582  -3.7799  -3.6965
    -3.6478  -3.2653  -3.2143  -3.2000  -3.0839  -3.0345  -2.9675  -2.8590
    -2.5792  -2.4861  -2.4583  -2.4121  -2.3399  -2.2247  -1.9731  -1.8839
    -1.5390  -1.4863  -1.3883  -1.3518   0.8660   1.0430   1.0714   1.5699
     1.6435   1.6888   1.8680   1.8813   2.0126   2.2307   2.4456   2.4497
     2.5286   2.5290

          k = 0.2500 0.1139 0.0000 ( 40754 PWs)   bands (ev):

   -58.6570 -57.8156 -57.8083 -57.5367 -57.4008 -57.3465 -34.9790 -34.9137
   -34.8651 -34.1958 -34.1860 -34.1042 -34.0583 -34.0356 -34.0217 -33.8792
   -33.8458 -33.8119 -33.7568 -33.7512 -33.7245 -33.7066 -33.6263 -33.5906
   -18.7927 -18.3870 -18.3660 -18.1596 -17.9544 -17.7645 -17.7572 -17.6463
   -17.5849 -17.4132 -17.0770 -16.6905 -16.4055  -6.1758  -5.7791  -5.7380
    -5.6163  -5.5674  -5.4310  -5.3376  -5.2187  -5.1840  -5.0598  -4.8098
    -4.7745  -4.4962  -4.3155  -4.2504  -4.0435  -3.9667  -3.7691  -3.6889
    -3.5588  -3.4738  -3.4088  -3.2702  -3.2269  -3.2150  -3.0833  -3.0075
    -2.7061  -2.4556  -2.4129  -2.3419  -2.3216  -2.0622  -2.0449  -1.8816
    -1.6094  -1.4961  -1.4082  -1.2702   0.8916   1.0746   1.2649   1.5602
     1.6142   1.7744   1.9941   2.0268   2.1065   2.2492   2.4114   2.4465
     2.5639   2.5720

          k = 0.2500-0.2277 0.0000 ( 40742 PWs)   bands (ev):

   -58.6569 -57.8149 -57.8091 -57.5367 -57.4007 -57.3465 -34.9799 -34.9137
   -34.8635 -34.1974 -34.1923 -34.0698 -34.0561 -34.0501 -34.0359 -33.8800
   -33.8457 -33.8184 -33.7568 -33.7512 -33.7252 -33.6679 -33.6581 -33.5906
   -18.5945 -18.5897 -18.2233 -18.1327 -17.9718 -17.9572 -17.7683 -17.6446
   -17.5711 -17.4084 -17.0758 -16.6903 -16.4055  -5.8327  -5.6546  -5.6070
    -5.3728  -5.3623  -5.2880  -5.2052  -5.1703  -5.1224  -5.1138  -5.0468
    -4.8092  -4.7354  -4.6306  -4.2526  -4.0266  -3.8783  -3.8664  -3.8490
    -3.7284  -3.6938  -3.4995  -3.4532  -3.3025  -3.2446  -3.0686  -3.0351
    -2.8984  -2.5074  -2.3668  -2.3351  -2.2493  -2.1295  -1.8693  -1.8446
    -1.6811  -1.4975  -1.4003  -1.2269   0.9707   1.0403   1.4005   1.5754
     1.5974   1.7714   2.0376   2.1691   2.2935   2.3828   2.4081   2.4487
     2.6079   2.6394

          k = 0.2500-0.1139 0.0000 ( 40754 PWs)   bands (ev):

   -58.6570 -57.8156 -57.8083 -57.5367 -57.4008 -57.3465 -34.9790 -34.9137
   -34.8651 -34.1958 -34.1860 -34.1042 -34.0583 -34.0356 -34.0217 -33.8792
   -33.8458 -33.8119 -33.7568 -33.7512 -33.7245 -33.7066 -33.6263 -33.5906
   -18.7927 -18.3870 -18.3660 -18.1596 -17.9544 -17.7645 -17.7572 -17.6463
   -17.5849 -17.4132 -17.0770 -16.6905 -16.4055  -6.1758  -5.7791  -5.7380
    -5.6163  -5.5674  -5.4310  -5.3376  -5.2187  -5.1840  -5.0598  -4.8098
    -4.7745  -4.4962  -4.3155  -4.2504  -4.0435  -3.9667  -3.7691  -3.6889
    -3.5588  -3.4738  -3.4088  -3.2702  -3.2269  -3.2150  -3.0833  -3.0075
    -2.7061  -2.4556  -2.4129  -2.3419  -2.3216  -2.0622  -2.0449  -1.8816
    -1.6094  -1.4961  -1.4082  -1.2702   0.8916   1.0746   1.2649   1.5602
     1.6142   1.7744   1.9941   2.0268   2.1065   2.2492   2.4114   2.4465
     2.5639   2.5720

          k = 0.3750 0.0000 0.0000 ( 40826 PWs)   bands (ev):

   -58.6427 -57.8007 -57.7943 -57.5223 -57.3865 -57.3313 -35.1351 -34.9021
   -34.8263 -34.3492 -34.3348 -34.0782 -34.0359 -34.0238 -34.0090 -33.9932
   -33.9527 -33.8790 -33.8688 -33.7465 -33.7143 -33.6843 -33.6130 -33.5660
   -18.4998 -18.4535 -18.0494 -17.9473 -17.9001 -17.8343 -17.7679 -17.5894
   -17.5862 -17.3561 -16.9769 -16.6240 -16.3187  -5.8950  -5.7853  -5.6916
    -5.5571  -5.4972  -5.4869  -5.4694  -5.2537  -5.2272  -5.1692  -5.0861
    -4.7802  -4.5727  -4.3547  -4.1365  -4.1299  -3.9477  -3.8910  -3.8134
    -3.7520  -3.7172  -3.6242  -3.2662  -3.1951  -3.0549  -2.9256  -2.9068
    -2.4911  -2.4186  -2.3624  -2.3528  -2.1698  -2.1650  -2.0265  -1.8949
    -1.7524  -1.7512  -1.5922  -1.3907   0.6486   1.2512   1.3652   1.5272
     1.8520   1.8847   2.0526   2.0826   2.1640   2.3002   2.3354   2.4407
     2.5129   2.5938

          k = 0.3750 0.1139 0.0000 ( 40790 PWs)   bands (ev):

   -58.6427 -57.8005 -57.7946 -57.5224 -57.3865 -57.3314 -35.1363 -34.9021
   -34.8261 -34.3498 -34.3410 -34.0644 -34.0357 -34.0241 -34.0155 -33.9930
   -33.9588 -33.8800 -33.8676 -33.7465 -33.7143 -33.6703 -33.6195 -33.5660
   -18.6514 -18.3060 -18.1323 -18.0222 -17.8848 -17.8061 -17.6870 -17.5750
   -17.5560 -17.3587 -16.9776 -16.6246 -16.3196  -6.0358  -5.7596  -5.7277
    -5.5467  -5.5136  -5.4278  -5.3674  -5.2788  -5.1539  -5.0834  -5.0062
    -4.7918  -4.4951  -4.4436  -4.2055  -4.0766  -3.9979  -3.9252  -3.7732
    -3.6426  -3.6170  -3.4661  -3.3518  -3.2174  -3.1221  -2.9285  -2.8241
    -2.6725  -2.5212  -2.3864  -2.3057  -2.2048  -2.1647  -2.0294  -1.9281
    -1.8350  -1.7240  -1.6576  -1.4331   0.6342   1.0617   1.3587   1.4218
     1.6976   1.8174   2.0788   2.1487   2.3295   2.3700   2.4360   2.4621
     2.4874   2.6072

          k = 0.3750-0.2277 0.0000 ( 40742 PWs)   bands (ev):

   -58.6427 -57.8002 -57.7948 -57.5224 -57.3864 -57.3314 -35.1376 -34.9021
   -34.8258 -34.3500 -34.3474 -34.0421 -34.0355 -34.0314 -34.0236 -33.9928
   -33.9645 -33.8810 -33.8664 -33.7465 -33.7143 -33.6489 -33.6337 -33.5660
   -18.7226 -18.2527 -18.1743 -18.0751 -17.8855 -17.7641 -17.6722 -17.5389
   -17.5281 -17.3613 -16.9785 -16.6252 -16.3206  -6.0996  -5.8106  -5.6739
    -5.6409  -5.5423  -5.4272  -5.3008  -5.1586  -5.1432  -4.9269  -4.8390
    -4.8005  -4.6505  -4.2830  -4.2503  -4.0399  -3.9360  -3.9254  -3.8532
    -3.8167  -3.5265  -3.5219  -3.2943  -3.1452  -2.9938  -2.9589  -2.7964
    -2.7279  -2.5601  -2.4434  -2.3607  -2.2866  -2.1630  -2.1535  -2.0296
    -1.7263  -1.7137  -1.6682  -1.5309   0.6701   0.7977   1.3019   1.4368
     1.6189   1.8064   2.0531   2.1975   2.3162   2.4185   2.5244   2.5333
     2.6220   2.7166

          k = 0.3750-0.1139 0.0000 ( 40790 PWs)   bands (ev):

   -58.6427 -57.8005 -57.7946 -57.5224 -57.3865 -57.3314 -35.1363 -34.9021
   -34.8261 -34.3498 -34.3410 -34.0644 -34.0357 -34.0241 -34.0155 -33.9930
   -33.9588 -33.8800 -33.8676 -33.7465 -33.7143 -33.6703 -33.6196 -33.5660
   -18.6514 -18.3060 -18.1323 -18.0222 -17.8848 -17.8061 -17.6870 -17.5750
   -17.5560 -17.3587 -16.9776 -16.6246 -16.3196  -6.0358  -5.7596  -5.7277
    -5.5467  -5.5136  -5.4278  -5.3674  -5.2788  -5.1539  -5.0834  -5.0062
    -4.7918  -4.4951  -4.4436  -4.2055  -4.0766  -3.9979  -3.9252  -3.7732
    -3.6426  -3.6170  -3.4661  -3.3518  -3.2174  -3.1221  -2.9285  -2.8241
    -2.6725  -2.5212  -2.3864  -2.3057  -2.2048  -2.1647  -2.0294  -1.9281
    -1.8350  -1.7240  -1.6576  -1.4331   0.6342   1.0617   1.3587   1.4218
     1.6976   1.8174   2.0788   2.1487   2.3295   2.3700   2.4360   2.4621
     2.4874   2.6072

          k =-0.5000 0.0000 0.0000 ( 40852 PWs)   bands (ev):

   -58.6367 -57.7942 -57.7889 -57.5164 -57.3805 -57.3251 -35.1989 -34.8973
   -34.8095 -34.4135 -34.3984 -34.0779 -34.0500 -34.0179 -34.0166 -34.0145
   -34.0061 -33.9420 -33.8649 -33.7413 -33.6989 -33.6566 -33.6202 -33.5534
   -18.5284 -18.3358 -17.9677 -17.9543 -17.8267 -17.8253 -17.7591 -17.6525
   -17.4947 -17.3824 -16.8893 -16.5519 -16.2815  -5.8594  -5.8461  -5.6772
    -5.6716  -5.4821  -5.4476  -5.3518  -5.3086  -5.2861  -5.2439  -5.0055
    -4.5737  -4.5316  -4.4929  -4.3727  -4.3437  -3.9891  -3.9485  -3.8809
    -3.8220  -3.5049  -3.4546  -3.3828  -3.1470  -2.9584  -2.8838  -2.7574
    -2.4783  -2.4612  -2.3972  -2.3614  -2.2209  -2.1454  -2.1271  -2.0178
    -1.9520  -1.6962  -1.5530  -1.3836   0.6096   1.3328   1.4663   1.7181
     1.7285   1.9218   2.1016   2.1602   2.1847   2.2239   2.2834   2.4235
     2.5452   2.6523

          k =-0.5000 0.1139 0.0000 ( 40798 PWs)   bands (ev):

   -58.6367 -57.7942 -57.7889 -57.5164 -57.3805 -57.3251 -35.2003 -34.8973
   -34.8098 -34.4142 -34.4041 -34.0775 -34.0437 -34.0227 -34.0159 -34.0146
   -34.0070 -33.9427 -33.8628 -33.7413 -33.6989 -33.6503 -33.6193 -33.5534
   -18.6916 -18.1787 -18.1296 -18.0226 -17.9524 -17.6439 -17.6330 -17.5682
   -17.5030 -17.3845 -16.8881 -16.5515 -16.2832  -6.2487  -5.9308  -5.8221
    -5.7034  -5.6489  -5.4578  -5.2358  -5.2090  -5.0766  -4.9066  -4.8011
    -4.6870  -4.5342  -4.4124  -4.3461  -4.1018  -4.0117  -3.8966  -3.8332
    -3.7889  -3.6698  -3.3903  -3.3882  -3.1955  -2.8261  -2.7104  -2.6423
    -2.6193  -2.5711  -2.3587  -2.3258  -2.2620  -2.1816  -2.1074  -2.0564
    -1.9953  -1.8494  -1.6358  -1.5204   0.5725   0.9490   1.3505   1.3791
     1.6927   1.8921   2.1741   2.1895   2.2184   2.3279   2.3775   2.5182
     2.5453   2.5601

          k =-0.5000-0.2277 0.0000 ( 40760 PWs)   bands (ev):

   -58.6367 -57.7942 -57.7889 -57.5164 -57.3805 -57.3251 -35.2016 -34.8973
   -34.8101 -34.4148 -34.4095 -34.0772 -34.0376 -34.0277 -34.0152 -34.0146
   -34.0075 -33.9435 -33.8608 -33.7413 -33.6989 -33.6442 -33.6185 -33.5534
   -18.7846 -18.2418 -18.1123 -18.0603 -17.9506 -17.6343 -17.5314 -17.5125
   -17.4740 -17.3866 -16.8869 -16.5512 -16.2848  -6.4322  -6.1030  -5.9030
    -5.7761  -5.6309  -5.4740  -5.0905  -4.9944  -4.9478  -4.9193  -4.8792
    -4.7330  -4.4858  -4.4195  -4.0613  -4.0377  -3.8662  -3.8500  -3.8127
    -3.7430  -3.6060  -3.3989  -3.3613  -3.2130  -2.8419  -2.7982  -2.7043
    -2.5678  -2.4959  -2.3298  -2.2392  -2.2227  -2.1851  -2.1006  -2.0960
    -2.0956  -2.0217  -1.7543  -1.7039   0.5357   0.6496   1.1260   1.3655
     1.6567   1.7784   2.1842   2.1965   2.2044   2.3483   2.5320   2.5451
     2.5540   2.5719

          k =-0.5000-0.1139 0.0000 ( 40798 PWs)   bands (ev):

   -58.6367 -57.7942 -57.7889 -57.5164 -57.3805 -57.3251 -35.2003 -34.8973
   -34.8098 -34.4142 -34.4041 -34.0775 -34.0437 -34.0227 -34.0159 -34.0146
   -34.0070 -33.9427 -33.8628 -33.7413 -33.6989 -33.6503 -33.6193 -33.5534
   -18.6916 -18.1787 -18.1296 -18.0226 -17.9524 -17.6439 -17.6330 -17.5682
   -17.5030 -17.3845 -16.8881 -16.5515 -16.2832  -6.2487  -5.9308  -5.8221
    -5.7034  -5.6489  -5.4578  -5.2358  -5.2090  -5.0766  -4.9066  -4.8011
    -4.6870  -4.5342  -4.4124  -4.3461  -4.1018  -4.0117  -3.8966  -3.8332
    -3.7889  -3.6698  -3.3903  -3.3882  -3.1955  -2.8261  -2.7104  -2.6423
    -2.6193  -2.5711  -2.3587  -2.3258  -2.2620  -2.1816  -2.1074  -2.0564
    -1.9953  -1.8494  -1.6358  -1.5204   0.5725   0.9490   1.3505   1.3791
     1.6927   1.8921   2.1741   2.1895   2.2184   2.3279   2.3775   2.5182
     2.5453   2.5601

          k =-0.3750 0.0000 0.0000 ( 40826 PWs)   bands (ev):

   -58.6427 -57.8007 -57.7943 -57.5223 -57.3865 -57.3313 -35.1351 -34.9021
   -34.8263 -34.3492 -34.3348 -34.0782 -34.0359 -34.0238 -34.0090 -33.9932
   -33.9527 -33.8790 -33.8688 -33.7465 -33.7143 -33.6843 -33.6130 -33.5660
   -18.4998 -18.4535 -18.0494 -17.9473 -17.9001 -17.8343 -17.7679 -17.5894
   -17.5862 -17.3561 -16.9769 -16.6240 -16.3187  -5.8950  -5.7853  -5.6916
    -5.5571  -5.4972  -5.4869  -5.4694  -5.2537  -5.2272  -5.1692  -5.0861
    -4.7802  -4.5727  -4.3547  -4.1365  -4.1299  -3.9477  -3.8910  -3.8134
    -3.7520  -3.7172  -3.6242  -3.2662  -3.1951  -3.0549  -2.9256  -2.9068
    -2.4911  -2.4186  -2.3624  -2.3528  -2.1698  -2.1650  -2.0265  -1.8949
    -1.7524  -1.7512  -1.5922  -1.3907   0.6486   1.2512   1.3652   1.5272
     1.8520   1.8847   2.0526   2.0826   2.1640   2.3002   2.3354   2.4407
     2.5129   2.5938

          k =-0.3750 0.1139 0.0000 ( 40790 PWs)   bands (ev):

   -58.6427 -57.8005 -57.7946 -57.5224 -57.3865 -57.3314 -35.1363 -34.9021
   -34.8261 -34.3498 -34.3410 -34.0644 -34.0357 -34.0241 -34.0155 -33.9930
   -33.9588 -33.8800 -33.8676 -33.7465 -33.7143 -33.6703 -33.6196 -33.5660
   -18.6514 -18.3060 -18.1323 -18.0222 -17.8848 -17.8061 -17.6870 -17.5750
   -17.5560 -17.3587 -16.9776 -16.6246 -16.3196  -6.0358  -5.7596  -5.7277
    -5.5467  -5.5136  -5.4278  -5.3674  -5.2788  -5.1539  -5.0834  -5.0062
    -4.7918  -4.4951  -4.4436  -4.2055  -4.0766  -3.9979  -3.9252  -3.7732
    -3.6426  -3.6170  -3.4661  -3.3518  -3.2174  -3.1221  -2.9285  -2.8241
    -2.6725  -2.5212  -2.3864  -2.3057  -2.2048  -2.1647  -2.0294  -1.9281
    -1.8350  -1.7240  -1.6576  -1.4331   0.6342   1.0617   1.3587   1.4218
     1.6976   1.8174   2.0788   2.1487   2.3295   2.3700   2.4360   2.4621
     2.4874   2.6072

          k =-0.3750-0.2277 0.0000 ( 40742 PWs)   bands (ev):

   -58.6427 -57.8002 -57.7948 -57.5224 -57.3864 -57.3314 -35.1376 -34.9021
   -34.8258 -34.3500 -34.3474 -34.0421 -34.0355 -34.0314 -34.0236 -33.9928
   -33.9645 -33.8810 -33.8664 -33.7465 -33.7143 -33.6489 -33.6337 -33.5660
   -18.7226 -18.2527 -18.1743 -18.0751 -17.8855 -17.7641 -17.6722 -17.5389
   -17.5281 -17.3613 -16.9785 -16.6252 -16.3206  -6.0996  -5.8106  -5.6739
    -5.6409  -5.5423  -5.4272  -5.3008  -5.1586  -5.1432  -4.9269  -4.8390
    -4.8005  -4.6505  -4.2830  -4.2503  -4.0399  -3.9360  -3.9254  -3.8532
    -3.8167  -3.5265  -3.5219  -3.2943  -3.1452  -2.9938  -2.9589  -2.7964
    -2.7279  -2.5601  -2.4434  -2.3607  -2.2866  -2.1630  -2.1535  -2.0296
    -1.7263  -1.7137  -1.6682  -1.5309   0.6701   0.7977   1.3019   1.4368
     1.6189   1.8064   2.0531   2.1975   2.3162   2.4185   2.5244   2.5332
     2.6220   2.7162

          k =-0.3750-0.1139 0.0000 ( 40790 PWs)   bands (ev):

   -58.6427 -57.8005 -57.7946 -57.5224 -57.3865 -57.3314 -35.1363 -34.9021
   -34.8261 -34.3498 -34.3410 -34.0644 -34.0357 -34.0241 -34.0155 -33.9930
   -33.9588 -33.8800 -33.8676 -33.7465 -33.7143 -33.6703 -33.6195 -33.5660
   -18.6514 -18.3060 -18.1323 -18.0222 -17.8848 -17.8061 -17.6870 -17.5750
   -17.5560 -17.3587 -16.9776 -16.6246 -16.3196  -6.0358  -5.7596  -5.7277
    -5.5467  -5.5136  -5.4278  -5.3674  -5.2788  -5.1539  -5.0834  -5.0062
    -4.7918  -4.4951  -4.4436  -4.2055  -4.0766  -3.9979  -3.9252  -3.7732
    -3.6426  -3.6170  -3.4661  -3.3518  -3.2174  -3.1221  -2.9285  -2.8241
    -2.6725  -2.5212  -2.3864  -2.3057  -2.2048  -2.1647  -2.0294  -1.9281
    -1.8350  -1.7240  -1.6576  -1.4331   0.6342   1.0617   1.3587   1.4218
     1.6976   1.8174   2.0788   2.1487   2.3295   2.3700   2.4360   2.4621
     2.4874   2.6072

          k =-0.2500 0.0000 0.0000 ( 40766 PWs)   bands (ev):

   -58.6570 -57.8162 -57.8077 -57.5367 -57.4009 -57.3464 -34.9781 -34.9137
   -34.8667 -34.1927 -34.1779 -34.1286 -34.0586 -34.0353 -34.0083 -33.8782
   -33.8460 -33.8028 -33.7566 -33.7512 -33.7343 -33.7197 -33.6123 -33.5908
   -18.8716 -18.4579 -18.2719 -18.2359 -17.8666 -17.7370 -17.6938 -17.6265
   -17.6062 -17.4220 -17.0783 -16.6908 -16.4055  -6.4132  -5.9681  -5.8809
    -5.8651  -5.5783  -5.5158  -5.3343  -5.2810  -5.2077  -4.8710  -4.7638
    -4.6936  -4.5704  -4.2191  -4.1207  -4.0343  -3.8582  -3.7799  -3.6965
    -3.6478  -3.2653  -3.2143  -3.2000  -3.0839  -3.0345  -2.9675  -2.8590
    -2.5792  -2.4861  -2.4583  -2.4121  -2.3399  -2.2247  -1.9731  -1.8839
    -1.5390  -1.4863  -1.3883  -1.3518   0.8660   1.0430   1.0714   1.5699
     1.6435   1.6888   1.8680   1.8813   2.0126   2.2307   2.4456   2.4497
     2.5287   2.5290

          k =-0.2500 0.1139 0.0000 ( 40754 PWs)   bands (ev):

   -58.6570 -57.8156 -57.8083 -57.5367 -57.4008 -57.3465 -34.9790 -34.9137
   -34.8651 -34.1958 -34.1860 -34.1042 -34.0583 -34.0356 -34.0217 -33.8792
   -33.8458 -33.8119 -33.7568 -33.7512 -33.7245 -33.7066 -33.6263 -33.5906
   -18.7927 -18.3870 -18.3660 -18.1596 -17.9544 -17.7645 -17.7572 -17.6463
   -17.5849 -17.4132 -17.0770 -16.6905 -16.4055  -6.1758  -5.7791  -5.7380
    -5.6163  -5.5674  -5.4310  -5.3376  -5.2187  -5.1840  -5.0598  -4.8098
    -4.7745  -4.4962  -4.3155  -4.2504  -4.0435  -3.9667  -3.7691  -3.6889
    -3.5588  -3.4738  -3.4088  -3.2702  -3.2269  -3.2150  -3.0833  -3.0075
    -2.7061  -2.4556  -2.4129  -2.3419  -2.3216  -2.0622  -2.0449  -1.8816
    -1.6094  -1.4961  -1.4082  -1.2702   0.8916   1.0746   1.2649   1.5602
     1.6142   1.7744   1.9941   2.0268   2.1065   2.2492   2.4114   2.4465
     2.5639   2.5720

          k =-0.2500-0.2277 0.0000 ( 40742 PWs)   bands (ev):

   -58.6569 -57.8149 -57.8091 -57.5367 -57.4007 -57.3465 -34.9799 -34.9137
   -34.8635 -34.1974 -34.1923 -34.0698 -34.0561 -34.0501 -34.0359 -33.8800
   -33.8457 -33.8184 -33.7568 -33.7512 -33.7252 -33.6679 -33.6581 -33.5906
   -18.5945 -18.5897 -18.2233 -18.1327 -17.9718 -17.9572 -17.7683 -17.6446
   -17.5711 -17.4084 -17.0758 -16.6903 -16.4055  -5.8327  -5.6546  -5.6070
    -5.3728  -5.3623  -5.2880  -5.2052  -5.1703  -5.1224  -5.1138  -5.0468
    -4.8092  -4.7354  -4.6306  -4.2526  -4.0266  -3.8783  -3.8664  -3.8490
    -3.7284  -3.6938  -3.4995  -3.4532  -3.3025  -3.2446  -3.0686  -3.0351
    -2.8984  -2.5074  -2.3668  -2.3351  -2.2493  -2.1295  -1.8693  -1.8446
    -1.6811  -1.4975  -1.4003  -1.2269   0.9707   1.0403   1.4005   1.5754
     1.5974   1.7714   2.0376   2.1691   2.2935   2.3828   2.4081   2.4488
     2.6079   2.6394

          k =-0.2500-0.1139 0.0000 ( 40754 PWs)   bands (ev):

   -58.6570 -57.8156 -57.8083 -57.5367 -57.4008 -57.3465 -34.9790 -34.9137
   -34.8651 -34.1958 -34.1860 -34.1042 -34.0583 -34.0356 -34.0217 -33.8792
   -33.8458 -33.8119 -33.7568 -33.7512 -33.7245 -33.7066 -33.6263 -33.5906
   -18.7927 -18.3870 -18.3660 -18.1596 -17.9544 -17.7645 -17.7572 -17.6463
   -17.5849 -17.4132 -17.0770 -16.6905 -16.4055  -6.1758  -5.7791  -5.7380
    -5.6163  -5.5674  -5.4310  -5.3376  -5.2187  -5.1840  -5.0598  -4.8098
    -4.7745  -4.4962  -4.3155  -4.2504  -4.0435  -3.9667  -3.7691  -3.6889
    -3.5588  -3.4738  -3.4088  -3.2702  -3.2269  -3.2150  -3.0833  -3.0075
    -2.7061  -2.4556  -2.4129  -2.3419  -2.3216  -2.0622  -2.0449  -1.8816
    -1.6094  -1.4961  -1.4082  -1.2702   0.8916   1.0746   1.2649   1.5602
     1.6142   1.7744   1.9941   2.0268   2.1065   2.2492   2.4114   2.4465
     2.5639   2.5720

          k =-0.1250 0.0000 0.0000 ( 40652 PWs)   bands (ev):

   -58.6712 -57.8314 -57.8213 -57.5511 -57.4152 -57.3613 -34.9256 -34.9063
   -34.8168 -34.1726 -34.1044 -34.0492 -34.0254 -34.0135 -34.0096 -33.8879
   -33.7874 -33.7779 -33.7745 -33.6839 -33.6485 -33.6403 -33.6176 -33.5207
   -19.2255 -18.8195 -18.5421 -18.1451 -18.0890 -17.7712 -17.6553 -17.5750
   -17.5415 -17.4853 -17.0271 -16.6213 -16.4888  -6.9209  -6.4310  -6.2886
    -5.8798  -5.7534  -5.4463  -5.4414  -5.2657  -5.0971  -4.9428  -4.8547
    -4.6270  -4.3456  -4.2092  -3.9959  -3.9248  -3.6571  -3.5790  -3.4277
    -3.3406  -3.2044  -3.1946  -3.1015  -2.9974  -2.8801  -2.7215  -2.5821
    -2.5339  -2.4526  -2.3084  -2.1961  -2.1241  -2.0795  -1.9446  -1.7903
    -1.4567  -1.3600  -1.2598  -1.0819   0.6297   0.8837   1.2130   1.2133
     1.4229   1.5849   1.7140   1.7612   1.8674   1.9384   2.1797   2.2591
     2.3243   2.8045

          k =-0.1250 0.1139 0.0000 ( 40695 PWs)   bands (ev):

   -58.6712 -57.8305 -57.8221 -57.5511 -57.4150 -57.3615 -34.9256 -34.9036
   -34.8171 -34.1517 -34.1041 -34.0508 -34.0432 -34.0192 -34.0064 -33.8910
   -33.7874 -33.7761 -33.7552 -33.6839 -33.6539 -33.6483 -33.6260 -33.5206
   -19.1144 -18.7112 -18.4335 -18.3019 -18.1675 -17.8111 -17.7065 -17.6401
   -17.5418 -17.4933 -17.0245 -16.6197 -16.4885  -6.6270  -6.1544  -6.0157
    -5.8701  -5.6858  -5.4886  -5.3216  -5.1811  -5.1148  -4.9326  -4.7566
    -4.5373  -4.3669  -4.2232  -4.0600  -3.9708  -3.9011  -3.7271  -3.6687
    -3.5748  -3.4767  -3.3592  -3.2538  -3.1135  -2.9429  -2.7682  -2.6961
    -2.5717  -2.4939  -2.3437  -2.2298  -2.1246  -2.0496  -1.9701  -1.7618
    -1.5272  -1.3216  -1.2722  -1.1010   0.8319   0.9210   1.2873   1.4956
     1.5978   1.6430   1.8319   1.9443   1.9832   2.0401   2.1913   2.2421
     2.3926   2.7311

          k =-0.1250-0.2277 0.0000 ( 40666 PWs)   bands (ev):

   -58.6712 -57.8294 -57.8233 -57.5511 -57.4149 -57.3616 -34.9255 -34.9009
   -34.8175 -34.1084 -34.1038 -34.0904 -34.0489 -34.0137 -34.0108 -33.8942
   -33.7874 -33.7760 -33.7097 -33.6976 -33.6839 -33.6482 -33.6287 -33.5207
   -18.9370 -18.5586 -18.4749 -18.3698 -18.1762 -18.0388 -17.7146 -17.6898
   -17.5261 -17.5059 -17.0224 -16.6183 -16.4884  -6.2007  -5.9512  -5.7562
    -5.6761  -5.5391  -5.4583  -5.2268  -5.1884  -5.0734  -4.8484  -4.6764
    -4.5533  -4.3318  -4.2588  -4.2237  -4.1694  -4.1146  -4.0196  -3.8492
    -3.7956  -3.7333  -3.5695  -3.4322  -3.3474  -3.0496  -2.8726  -2.7646
    -2.5708  -2.5012  -2.3349  -2.2560  -2.0711  -1.9598  -1.8573  -1.6841
    -1.6406  -1.3260  -1.2977  -1.1062   0.8885   1.0051   1.4314   1.6167
     1.6493   1.8295   1.8679   2.1026   2.1896   2.2180   2.2410   2.2814
     2.5140   2.5626

          k =-0.1250-0.1139 0.0000 ( 40695 PWs)   bands (ev):

   -58.6712 -57.8305 -57.8221 -57.5511 -57.4150 -57.3615 -34.9256 -34.9036
   -34.8171 -34.1517 -34.1041 -34.0508 -34.0432 -34.0192 -34.0064 -33.8910
   -33.7874 -33.7761 -33.7552 -33.6839 -33.6539 -33.6483 -33.6260 -33.5206
   -19.1144 -18.7112 -18.4335 -18.3019 -18.1675 -17.8111 -17.7065 -17.6401
   -17.5418 -17.4933 -17.0245 -16.6197 -16.4885  -6.6270  -6.1544  -6.0157
    -5.8701  -5.6858  -5.4886  -5.3216  -5.1811  -5.1148  -4.9326  -4.7566
    -4.5373  -4.3669  -4.2232  -4.0600  -3.9708  -3.9011  -3.7271  -3.6687
    -3.5748  -3.4767  -3.3592  -3.2538  -3.1135  -2.9429  -2.7682  -2.6961
    -2.5717  -2.4939  -2.3437  -2.2298  -2.1246  -2.0496  -1.9701  -1.7618
    -1.5272  -1.3216  -1.2722  -1.1010   0.8319   0.9210   1.2873   1.4956
     1.5978   1.6430   1.8319   1.9443   1.9832   2.0401   2.1913   2.2421
     2.3926   2.7309

 ------ SPIN DOWN ----------


          k = 0.0000 0.0000 0.0000 ( 40639 PWs)   bands (ev):

   -58.6713 -57.8280 -57.8112 -57.5183 -57.3345 -57.3256 -34.9237 -34.9179
   -34.7431 -34.1766 -34.1080 -34.0366 -34.0034 -33.9487 -33.9316 -33.8642
   -33.7664 -33.7294 -33.6875 -33.6162 -33.5665 -33.5517 -33.5092 -33.4239
   -19.3925 -19.1074 -18.8738 -18.3405 -18.0390 -18.0220 -17.9553 -17.7723
   -17.7344 -17.5581 -17.5148 -17.1472 -16.9111  -7.1230  -6.6408  -6.5407
    -6.0953  -5.7275  -5.7108  -5.5378  -5.1731  -5.1525  -4.8963  -4.8114
    -4.6916  -4.4213  -4.4169  -4.3764  -4.2798  -3.7919  -3.7735  -3.6020
    -3.4825  -3.4204  -3.2263  -3.1523  -3.0048  -2.9878  -2.8475  -2.8432
    -2.7229  -2.6841  -2.6648  -2.2265  -2.1517  -2.1059  -2.0332  -1.8567
    -1.8384  -1.7046  -1.5308  -1.3279   0.3508   0.9078   0.9412   1.2594
     1.4536   1.4600   1.5295   1.6738   1.8812   1.9654   2.0480   2.0778
     2.2141   2.6495

          k = 0.0000 0.1139 0.0000 ( 40609 PWs)   bands (ev):

   -58.6713 -57.8274 -57.8118 -57.5183 -57.3332 -57.3269 -34.9236 -34.9148
   -34.7431 -34.1528 -34.1078 -34.0372 -34.0279 -33.9463 -33.9341 -33.8683
   -33.7664 -33.7061 -33.6856 -33.6165 -33.5777 -33.5665 -33.5088 -33.4243
   -19.2740 -18.9902 -18.7624 -18.4508 -18.2428 -18.0915 -17.9282 -17.7725
   -17.7277 -17.6411 -17.5090 -17.1463 -16.9100  -6.8274  -6.3631  -6.2634
    -6.1018  -5.7672  -5.4975  -5.4890  -5.1733  -4.9708  -4.8479  -4.8109
    -4.6411  -4.5166  -4.4170  -4.3757  -4.3413  -4.1228  -4.0519  -3.8140
    -3.6701  -3.5764  -3.3091  -3.2145  -3.0373  -3.0117  -2.9012  -2.8723
    -2.7495  -2.6911  -2.5150  -2.3168  -2.3109  -2.2380  -2.1736  -1.9509
    -1.7911  -1.7658  -1.7495  -1.4562   0.5825   0.9050   1.2345   1.4670
     1.5453   1.5598   1.7363   1.9014   1.9307   2.0555   2.0815   2.1274
     2.2809   2.6128

          k = 0.0000-0.2277 0.0000 ( 40526 PWs)   bands (ev):

   -58.6713 -57.8268 -57.8125 -57.5184 -57.3303 -57.3297 -34.9236 -34.9116
   -34.7430 -34.1095 -34.1051 -34.0752 -34.0368 -33.9407 -33.9397 -33.8724
   -33.7664 -33.6901 -33.6470 -33.6331 -33.6167 -33.5666 -33.5084 -33.4248
   -19.0875 -18.7746 -18.7368 -18.4748 -18.4624 -18.3091 -17.9039 -17.7645
   -17.7466 -17.7028 -17.5052 -17.1463 -16.9091  -6.4314  -6.1688  -5.9574
    -5.8422  -5.7803  -5.4545  -5.2698  -5.0687  -4.8655  -4.8111  -4.7947
    -4.5863  -4.5479  -4.5266  -4.4890  -4.4169  -4.3747  -4.2431  -4.1634
    -4.0577  -3.8150  -3.5168  -3.2860  -3.0529  -3.0429  -2.9708  -2.8882
    -2.8626  -2.6912  -2.5909  -2.3798  -2.2527  -2.2288  -2.1111  -1.9807
    -1.8860  -1.8137  -1.7875  -1.6183   0.7315   0.9032   1.4887   1.5364
     1.6484   1.7919   1.8786   1.9355   1.9809   2.1978   2.2152   2.2599
     2.4358   2.5786

          k = 0.0000-0.1139 0.0000 ( 40609 PWs)   bands (ev):

   -58.6713 -57.8274 -57.8118 -57.5183 -57.3332 -57.3269 -34.9236 -34.9148
   -34.7431 -34.1528 -34.1078 -34.0372 -34.0279 -33.9463 -33.9341 -33.8683
   -33.7664 -33.7061 -33.6856 -33.6165 -33.5777 -33.5665 -33.5088 -33.4243
   -19.2740 -18.9902 -18.7624 -18.4508 -18.2428 -18.0915 -17.9282 -17.7725
   -17.7277 -17.6411 -17.5090 -17.1463 -16.9100  -6.8274  -6.3631  -6.2634
    -6.1018  -5.7672  -5.4975  -5.4890  -5.1733  -4.9708  -4.8479  -4.8109
    -4.6411  -4.5166  -4.4170  -4.3757  -4.3413  -4.1228  -4.0519  -3.8140
    -3.6701  -3.5764  -3.3091  -3.2145  -3.0373  -3.0117  -2.9012  -2.8723
    -2.7495  -2.6911  -2.5150  -2.3168  -2.3109  -2.2380  -2.1736  -1.9509
    -1.7911  -1.7658  -1.7495  -1.4562   0.5825   0.9050   1.2345   1.4670
     1.5453   1.5598   1.7363   1.9014   1.9307   2.0555   2.0815   2.1274
     2.2809   2.6128

          k = 0.1250 0.0000 0.0000 ( 40652 PWs)   bands (ev):

   -58.6654 -57.8218 -57.8055 -57.5124 -57.3281 -57.3198 -34.9187 -34.9016
   -34.8113 -34.1594 -34.0963 -34.0314 -34.0146 -34.0003 -33.9998 -33.8601
   -33.7510 -33.7132 -33.6825 -33.6365 -33.6092 -33.5756 -33.5472 -33.4921
   -19.2479 -18.9708 -18.7463 -18.2192 -18.0980 -17.9433 -17.8448 -17.8290
   -17.7121 -17.6262 -17.5676 -17.1808 -16.9717  -6.9232  -6.4527  -6.3693
    -5.9219  -5.7694  -5.6330  -5.5132  -5.3445  -5.1801  -5.0642  -4.9372
    -4.8189  -4.4837  -4.2965  -4.2092  -3.9859  -3.8858  -3.6123  -3.5486
    -3.4622  -3.3136  -3.2542  -3.2517  -3.2439  -3.1154  -3.0060  -2.8226
    -2.7407  -2.6523  -2.5960  -2.5852  -2.4123  -2.3508  -2.2458  -2.0869
    -2.0146  -1.7538  -1.7211  -1.4065   0.6314   0.8892   1.2141   1.2203
     1.4540   1.5763   1.7173   1.7796   1.8901   1.9404   2.1502   2.2353
     2.3188   2.7298

          k = 0.1250 0.1139 0.0000 ( 40695 PWs)   bands (ev):

   -58.6654 -57.8213 -57.8060 -57.5124 -57.3269 -57.3210 -34.9187 -34.8990
   -34.8116 -34.1383 -34.0961 -34.0346 -34.0283 -34.0106 -33.9947 -33.8632
   -33.7510 -33.6957 -33.6788 -33.6365 -33.6094 -33.5838 -33.5609 -33.4920
   -19.1354 -18.8603 -18.6406 -18.3643 -18.2199 -18.0348 -17.8918 -17.7574
   -17.7192 -17.6859 -17.5631 -17.1801 -16.9706  -6.6306  -6.1794  -6.0891
    -5.9283  -5.7068  -5.6544  -5.4016  -5.2644  -5.1892  -5.0496  -4.8355
    -4.7367  -4.4983  -4.3257  -4.1579  -4.1199  -4.0373  -3.8812  -3.7113
    -3.6673  -3.5935  -3.4719  -3.3613  -3.3009  -3.2063  -3.0839  -2.9034
    -2.8067  -2.7536  -2.6537  -2.4968  -2.3778  -2.3296  -2.2897  -2.1593
    -2.0044  -1.7708  -1.7177  -1.4904   0.8333   0.9245   1.2905   1.4984
     1.5974   1.6533   1.8333   1.9558   1.9889   2.0513   2.1709   2.2143
     2.3802   2.7225

          k = 0.1250-0.2277 0.0000 ( 40666 PWs)   bands (ev):

   -58.6654 -57.8207 -57.8066 -57.5124 -57.3244 -57.3235 -34.9187 -34.8963
   -34.8120 -34.0959 -34.0926 -34.0796 -34.0311 -34.0067 -33.9973 -33.8663
   -33.7510 -33.6866 -33.6492 -33.6365 -33.6190 -33.6086 -33.5658 -33.4921
   -18.9483 -18.6504 -18.6373 -18.4351 -18.3707 -18.2641 -17.8643 -17.7787
   -17.7365 -17.6931 -17.5602 -17.1802 -16.9697  -6.2077  -5.9923  -5.8051
    -5.7156  -5.6460  -5.5868  -5.3154  -5.2821  -5.0952  -4.9600  -4.7297
    -4.7255  -4.5117  -4.4267  -4.2951  -4.2181  -4.1787  -4.1283  -3.9216
    -3.8708  -3.8338  -3.7609  -3.6689  -3.4549  -3.3478  -3.1429  -2.9148
    -2.9130  -2.7228  -2.7177  -2.5161  -2.3758  -2.3385  -2.0534  -2.0255
    -1.9858  -1.8183  -1.7591  -1.6035   0.8897   1.0079   1.4343   1.6144
     1.6519   1.8315   1.8711   2.0985   2.1784   2.2052   2.2379   2.2715
     2.4838   2.5520

          k = 0.1250-0.1139 0.0000 ( 40695 PWs)   bands (ev):

   -58.6654 -57.8213 -57.8060 -57.5124 -57.3269 -57.3210 -34.9187 -34.8990
   -34.8116 -34.1383 -34.0961 -34.0346 -34.0283 -34.0106 -33.9947 -33.8632
   -33.7510 -33.6957 -33.6788 -33.6365 -33.6094 -33.5838 -33.5609 -33.4920
   -19.1354 -18.8603 -18.6406 -18.3643 -18.2199 -18.0348 -17.8918 -17.7574
   -17.7192 -17.6859 -17.5631 -17.1801 -16.9706  -6.6306  -6.1794  -6.0891
    -5.9283  -5.7068  -5.6544  -5.4016  -5.2644  -5.1892  -5.0496  -4.8355
    -4.7367  -4.4983  -4.3257  -4.1579  -4.1199  -4.0373  -3.8812  -3.7113
    -3.6673  -3.5935  -3.4719  -3.3613  -3.3009  -3.2063  -3.0839  -2.9034
    -2.8067  -2.7536  -2.6537  -2.4968  -2.3778  -2.3296  -2.2897  -2.1593
    -2.0044  -1.7708  -1.7177  -1.4904   0.8333   0.9245   1.2905   1.4984
     1.5974   1.6533   1.8333   1.9558   1.9889   2.0514   2.1709   2.2143
     2.3803   2.7221

          k = 0.2500 0.0000 0.0000 ( 40766 PWs)   bands (ev):

   -58.6512 -57.8068 -57.7917 -57.4979 -57.3125 -57.3059 -34.9727 -34.9069
   -34.8619 -34.1856 -34.1654 -34.1157 -34.0501 -34.0175 -33.9946 -33.8505
   -33.8015 -33.7387 -33.7135 -33.6926 -33.6732 -33.6651 -33.5512 -33.5371
   -18.8894 -18.6313 -18.4295 -18.2808 -17.9670 -17.9365 -17.7907 -17.7773
   -17.7622 -17.6192 -17.5763 -17.2229 -17.0666  -6.4151  -5.9928  -5.9576
    -5.8931  -5.5959  -5.5772  -5.4822  -5.3578  -5.3377  -5.0052  -4.8679
    -4.7700  -4.6131  -4.4496  -4.2625  -4.1681  -4.1042  -3.9351  -3.8986
    -3.8513  -3.5696  -3.3730  -3.2957  -3.2083  -3.1834  -3.0673  -2.9578
    -2.9079  -2.6803  -2.6085  -2.5823  -2.5777  -2.4704  -2.4310  -2.3268
    -2.1111  -1.8949  -1.8490  -1.6317   0.8688   1.0460   1.0740   1.5726
     1.6449   1.6920   1.8821   1.8852   2.0030   2.2315   2.4336   2.4416
     2.4981   2.5235

          k = 0.2500 0.1139 0.0000 ( 40754 PWs)   bands (ev):

   -58.6512 -57.8065 -57.7920 -57.4979 -57.3116 -57.3068 -34.9736 -34.9069
   -34.8604 -34.1873 -34.1752 -34.0907 -34.0499 -34.0177 -34.0083 -33.8513
   -33.8013 -33.7501 -33.7135 -33.6941 -33.6651 -33.6462 -33.5543 -33.5482
   -18.8100 -18.5523 -18.3848 -18.3557 -18.1089 -17.9787 -17.8172 -17.7584
   -17.7405 -17.6088 -17.5780 -17.2239 -17.0663  -6.1787  -5.7940  -5.7652
    -5.7100  -5.5838  -5.5093  -5.4519  -5.3485  -5.2815  -5.1834  -4.8573
    -4.8390  -4.6394  -4.4294  -4.3462  -4.2173  -4.1237  -4.0782  -3.8642
    -3.7271  -3.6367  -3.5712  -3.4246  -3.3705  -3.3309  -3.2840  -3.1891
    -3.0009  -2.8592  -2.6245  -2.5646  -2.4969  -2.3760  -2.2987  -2.1637
    -2.0929  -1.9014  -1.8895  -1.6807   0.8929   1.0756   1.2670   1.5613
     1.6153   1.7622   1.9913   2.0306   2.0916   2.2534   2.4127   2.4305
     2.5398   2.5608

          k = 0.2500-0.2277 0.0000 ( 40742 PWs)   bands (ev):

   -58.6512 -57.8061 -57.7924 -57.4979 -57.3101 -57.3083 -34.9745 -34.9069
   -34.8589 -34.1858 -34.1846 -34.0556 -34.0459 -34.0391 -34.0180 -33.8522
   -33.8012 -33.7578 -33.7135 -33.6955 -33.6651 -33.6111 -33.5781 -33.5504
   -18.6100 -18.6056 -18.3547 -18.3443 -18.1830 -18.1528 -17.8175 -17.7461
   -17.7315 -17.5986 -17.5820 -17.2250 -17.0661  -5.8474  -5.6677  -5.6196
    -5.4989  -5.4525  -5.3342  -5.2918  -5.2609  -5.2301  -5.1584  -5.1316
    -4.9340  -4.7771  -4.7256  -4.3993  -4.2481  -4.1263  -3.9644  -3.9046
    -3.8545  -3.8395  -3.6758  -3.5744  -3.5415  -3.4234  -3.3457  -3.3271
    -3.1283  -3.0255  -2.6285  -2.6121  -2.3896  -2.2992  -2.1569  -2.1500
    -1.9666  -1.9275  -1.8343  -1.7865   0.9660   1.0437   1.4021   1.5779
     1.5982   1.7453   2.0330   2.1508   2.2948   2.3755   2.4126   2.4339
     2.5780   2.6278

          k = 0.2500-0.1139 0.0000 ( 40754 PWs)   bands (ev):

   -58.6512 -57.8065 -57.7920 -57.4979 -57.3116 -57.3068 -34.9736 -34.9069
   -34.8604 -34.1873 -34.1752 -34.0907 -34.0499 -34.0177 -34.0083 -33.8513
   -33.8013 -33.7501 -33.7135 -33.6941 -33.6651 -33.6462 -33.5543 -33.5482
   -18.8100 -18.5523 -18.3848 -18.3557 -18.1089 -17.9787 -17.8172 -17.7584
   -17.7405 -17.6088 -17.5780 -17.2239 -17.0663  -6.1787  -5.7940  -5.7652
    -5.7100  -5.5838  -5.5093  -5.4519  -5.3485  -5.2815  -5.1834  -4.8573
    -4.8390  -4.6394  -4.4294  -4.3462  -4.2173  -4.1237  -4.0782  -3.8642
    -3.7271  -3.6367  -3.5712  -3.4246  -3.3705  -3.3309  -3.2840  -3.1891
    -3.0009  -2.8592  -2.6245  -2.5646  -2.4969  -2.3760  -2.2987  -2.1637
    -2.0929  -1.9014  -1.8895  -1.6807   0.8929   1.0756   1.2670   1.5613
     1.6153   1.7622   1.9913   2.0306   2.0916   2.2534   2.4127   2.4304
     2.5398   2.5609

          k = 0.3750 0.0000 0.0000 ( 40826 PWs)   bands (ev):

   -58.6369 -57.7917 -57.7779 -57.4834 -57.2966 -57.2923 -35.1298 -34.8952
   -34.8216 -34.3431 -34.3221 -34.0661 -34.0167 -34.0120 -33.9943 -33.9559
   -33.8916 -33.8542 -33.8409 -33.6753 -33.6534 -33.6314 -33.5282 -33.5248
   -18.5118 -18.4624 -18.2683 -18.1062 -18.0833 -17.9550 -17.9202 -17.7634
   -17.6737 -17.5482 -17.4932 -17.1204 -17.0007  -5.9006  -5.8075  -5.7326
    -5.6764  -5.5507  -5.5382  -5.5100  -5.3600  -5.2733  -5.2379  -5.1765
    -4.9775  -4.7182  -4.6337  -4.2711  -4.2295  -4.1272  -4.0954  -3.9759
    -3.8994  -3.8798  -3.6856  -3.4368  -3.3838  -3.2677  -3.1722  -3.1083
    -2.8380  -2.6978  -2.5938  -2.5393  -2.4879  -2.4720  -2.3093  -2.2731
    -2.1137  -2.0396  -1.9997  -1.7433   0.6495   1.2534   1.3666   1.5207
     1.8544   1.8819   2.0579   2.0866   2.1574   2.2882   2.3506   2.4421
     2.4887   2.6030

          k = 0.3750 0.1139 0.0000 ( 40790 PWs)   bands (ev):

   -58.6369 -57.7916 -57.7780 -57.4835 -57.2962 -57.2926 -35.1310 -34.8952
   -34.8214 -34.3437 -34.3285 -34.0521 -34.0163 -34.0124 -34.0008 -33.9556
   -33.8985 -33.8551 -33.8397 -33.6753 -33.6534 -33.6182 -33.5332 -33.5246
   -18.6616 -18.3473 -18.3184 -18.1875 -18.0337 -17.9151 -17.8933 -17.7113
   -17.6680 -17.5472 -17.4968 -17.1228 -17.0015  -6.0473  -5.7921  -5.7510
    -5.6210  -5.5852  -5.5371  -5.4305  -5.3432  -5.2101  -5.1480  -5.0840
    -5.0358  -4.6855  -4.5707  -4.3305  -4.2288  -4.1407  -4.0630  -3.9772
    -3.7852  -3.7209  -3.6935  -3.5121  -3.3762  -3.3344  -3.1671  -3.0202
    -2.9015  -2.7885  -2.7169  -2.6611  -2.5222  -2.4236  -2.2802  -2.2440
    -2.1661  -2.1559  -1.9457  -1.8099   0.6361   1.0640   1.3619   1.4193
     1.6780   1.8139   2.0519   2.1583   2.3087   2.3701   2.4379   2.4737
     2.5045   2.6137

          k = 0.3750-0.2277 0.0000 ( 40742 PWs)   bands (ev):

   -58.6369 -57.7915 -57.7781 -57.4835 -57.2958 -57.2931 -35.1323 -34.8952
   -34.8211 -34.3440 -34.3347 -34.0313 -34.0171 -34.0130 -34.0129 -33.9554
   -33.9050 -33.8559 -33.8385 -33.6753 -33.6534 -33.6037 -33.5399 -33.5246
   -18.7327 -18.4007 -18.2864 -18.2105 -18.0054 -17.8941 -17.8742 -17.6753
   -17.6490 -17.5459 -17.5004 -17.1253 -17.0025  -6.1100  -5.8378  -5.7430
    -5.6821  -5.5622  -5.5146  -5.4058  -5.3057  -5.2508  -5.0588  -4.9594
    -4.8281  -4.7071  -4.5804  -4.3437  -4.1721  -4.1251  -4.0591  -3.9667
    -3.9504  -3.6510  -3.6352  -3.4891  -3.4251  -3.2017  -3.1527  -3.0934
    -3.0020  -2.8687  -2.6865  -2.6644  -2.5617  -2.4218  -2.4026  -2.3750
    -2.2095  -2.0744  -1.9435  -1.8501   0.6713   0.8028   1.3030   1.4400
     1.5879   1.7943   2.0207   2.1919   2.3094   2.4174   2.5304   2.5400
     2.5889   2.6266

          k = 0.3750-0.1139 0.0000 ( 40790 PWs)   bands (ev):

   -58.6369 -57.7916 -57.7780 -57.4835 -57.2962 -57.2926 -35.1310 -34.8952
   -34.8214 -34.3437 -34.3285 -34.0521 -34.0163 -34.0124 -34.0008 -33.9556
   -33.8985 -33.8551 -33.8397 -33.6753 -33.6534 -33.6182 -33.5332 -33.5246
   -18.6616 -18.3473 -18.3184 -18.1875 -18.0337 -17.9151 -17.8933 -17.7113
   -17.6680 -17.5472 -17.4968 -17.1228 -17.0015  -6.0473  -5.7921  -5.7510
    -5.6210  -5.5852  -5.5371  -5.4305  -5.3432  -5.2101  -5.1480  -5.0840
    -5.0358  -4.6855  -4.5707  -4.3305  -4.2288  -4.1407  -4.0630  -3.9772
    -3.7852  -3.7209  -3.6935  -3.5121  -3.3762  -3.3344  -3.1671  -3.0202
    -2.9015  -2.7885  -2.7169  -2.6611  -2.5222  -2.4236  -2.2802  -2.2440
    -2.1661  -2.1559  -1.9457  -1.8099   0.6361   1.0640   1.3619   1.4193
     1.6780   1.8139   2.0519   2.1583   2.3087   2.3701   2.4379   2.4737
     2.5046   2.6139

          k =-0.5000 0.0000 0.0000 ( 40852 PWs)   bands (ev):

   -58.6310 -57.7854 -57.7722 -57.4774 -57.2898 -57.2868 -35.1936 -34.8905
   -34.8047 -34.4078 -34.3856 -34.0410 -34.0395 -34.0009 -34.0001 -33.9922
   -33.9540 -33.9181 -33.8370 -33.6594 -33.6480 -33.6132 -33.5253 -33.5118
   -18.5373 -18.3446 -18.1642 -18.0979 -18.0230 -18.0051 -17.8744 -17.8370
   -17.6078 -17.5727 -17.4430 -17.0344 -16.9194  -5.8896  -5.8642  -5.7727
    -5.7052  -5.5754  -5.4731  -5.4186  -5.3797  -5.3580  -5.3110  -5.0693
    -5.0541  -4.6895  -4.5135  -4.4692  -4.3479  -4.3151  -4.1042  -3.9575
    -3.9318  -3.6751  -3.6149  -3.4773  -3.2975  -3.2346  -3.1508  -2.9804
    -2.8568  -2.7861  -2.7247  -2.6744  -2.5845  -2.4696  -2.4158  -2.2302
    -2.1369  -1.9911  -1.9832  -1.7081   0.6058   1.3362   1.4651   1.7156
     1.7191   1.9430   2.0769   2.1629   2.1862   2.2344   2.2736   2.3874
     2.5842   2.6278

          k =-0.5000 0.1139 0.0000 ( 40798 PWs)   bands (ev):

   -58.6310 -57.7854 -57.7722 -57.4774 -57.2898 -57.2868 -35.1950 -34.8905
   -34.8051 -34.4084 -34.3914 -34.0407 -34.0331 -34.0010 -33.9994 -33.9922
   -33.9603 -33.9187 -33.8350 -33.6594 -33.6480 -33.6061 -33.5245 -33.5118
   -18.7004 -18.3527 -18.2157 -18.1609 -18.0027 -17.9005 -17.8328 -17.6924
   -17.6101 -17.5735 -17.4453 -17.0358 -16.9192  -6.2605  -5.9644  -5.8544
    -5.7892  -5.7314  -5.5320  -5.3709  -5.2589  -5.1637  -5.0600  -4.9616
    -4.8554  -4.6135  -4.4723  -4.4229  -4.3592  -4.1968  -4.0335  -3.8914
    -3.8903  -3.7913  -3.6051  -3.5157  -3.3630  -3.1600  -3.0137  -2.8757
    -2.8328  -2.7775  -2.7131  -2.6623  -2.6455  -2.5251  -2.5161  -2.2358
    -2.1890  -2.1693  -2.0508  -1.7940   0.5699   0.9604   1.3532   1.3776
     1.6802   1.8421   2.1722   2.1942   2.2284   2.3414   2.3440   2.5302
     2.5822   2.6165

          k =-0.5000-0.2277 0.0000 ( 40760 PWs)   bands (ev):

   -58.6310 -57.7854 -57.7722 -57.4774 -57.2898 -57.2868 -35.1963 -34.8905
   -34.8054 -34.4090 -34.3970 -34.0405 -34.0269 -34.0011 -33.9987 -33.9921
   -33.9663 -33.9193 -33.8329 -33.6594 -33.6480 -33.5992 -33.5238 -33.5118
   -18.7933 -18.4421 -18.3003 -18.0698 -18.0003 -17.8285 -17.8069 -17.6127
   -17.5913 -17.5743 -17.4476 -17.0372 -16.9190  -6.4413  -6.1278  -5.9956
    -5.8130  -5.6980  -5.4841  -5.4151  -5.0880  -5.0710  -5.0505  -4.8916
    -4.8124  -4.5913  -4.4751  -4.4460  -4.1239  -3.9955  -3.9599  -3.8939
    -3.8504  -3.6836  -3.5600  -3.5249  -3.3827  -3.0566  -2.9890  -2.9821
    -2.8422  -2.8420  -2.7993  -2.6500  -2.5266  -2.5012  -2.4687  -2.3264
    -2.3138  -2.3138  -2.1917  -1.8606   0.5340   0.6642   1.1292   1.3678
     1.6447   1.7104   2.1770   2.1997   2.2111   2.3171   2.5681   2.5687
     2.5933   2.6016

          k =-0.5000-0.1139 0.0000 ( 40798 PWs)   bands (ev):

   -58.6310 -57.7854 -57.7722 -57.4774 -57.2898 -57.2868 -35.1950 -34.8905
   -34.8051 -34.4084 -34.3914 -34.0407 -34.0331 -34.0010 -33.9994 -33.9922
   -33.9603 -33.9187 -33.8350 -33.6594 -33.6480 -33.6061 -33.5245 -33.5118
   -18.7004 -18.3527 -18.2157 -18.1609 -18.0027 -17.9005 -17.8328 -17.6924
   -17.6101 -17.5735 -17.4453 -17.0358 -16.9192  -6.2605  -5.9644  -5.8544
    -5.7892  -5.7314  -5.5320  -5.3709  -5.2589  -5.1637  -5.0600  -4.9616
    -4.8554  -4.6135  -4.4723  -4.4229  -4.3592  -4.1968  -4.0335  -3.8914
    -3.8903  -3.7913  -3.6051  -3.5157  -3.3630  -3.1600  -3.0137  -2.8757
    -2.8328  -2.7775  -2.7131  -2.6623  -2.6455  -2.5251  -2.5161  -2.2358
    -2.1890  -2.1693  -2.0508  -1.7940   0.5699   0.9604   1.3532   1.3776
     1.6802   1.8421   2.1721   2.1942   2.2284   2.3414   2.3440   2.5311
     2.5823   2.6169

          k =-0.3750 0.0000 0.0000 ( 40826 PWs)   bands (ev):

   -58.6369 -57.7917 -57.7779 -57.4834 -57.2966 -57.2923 -35.1298 -34.8952
   -34.8216 -34.3431 -34.3221 -34.0661 -34.0167 -34.0120 -33.9943 -33.9559
   -33.8916 -33.8542 -33.8409 -33.6753 -33.6534 -33.6314 -33.5282 -33.5248
   -18.5118 -18.4624 -18.2683 -18.1062 -18.0833 -17.9550 -17.9202 -17.7634
   -17.6737 -17.5482 -17.4932 -17.1204 -17.0007  -5.9006  -5.8075  -5.7326
    -5.6764  -5.5507  -5.5382  -5.5100  -5.3600  -5.2733  -5.2379  -5.1765
    -4.9775  -4.7182  -4.6337  -4.2711  -4.2295  -4.1272  -4.0954  -3.9759
    -3.8994  -3.8798  -3.6856  -3.4368  -3.3838  -3.2677  -3.1722  -3.1083
    -2.8380  -2.6978  -2.5938  -2.5393  -2.4879  -2.4720  -2.3093  -2.2731
    -2.1137  -2.0396  -1.9997  -1.7433   0.6495   1.2534   1.3666   1.5207
     1.8544   1.8819   2.0579   2.0866   2.1574   2.2882   2.3503   2.4421
     2.4887   2.6029

          k =-0.3750 0.1139 0.0000 ( 40790 PWs)   bands (ev):

   -58.6369 -57.7916 -57.7780 -57.4835 -57.2962 -57.2926 -35.1310 -34.8952
   -34.8214 -34.3437 -34.3285 -34.0521 -34.0163 -34.0124 -34.0008 -33.9556
   -33.8985 -33.8551 -33.8397 -33.6753 -33.6534 -33.6182 -33.5332 -33.5246
   -18.6616 -18.3473 -18.3184 -18.1875 -18.0337 -17.9151 -17.8933 -17.7113
   -17.6680 -17.5472 -17.4968 -17.1228 -17.0015  -6.0473  -5.7921  -5.7510
    -5.6210  -5.5852  -5.5371  -5.4305  -5.3432  -5.2101  -5.1480  -5.0840
    -5.0358  -4.6855  -4.5707  -4.3305  -4.2288  -4.1407  -4.0630  -3.9772
    -3.7852  -3.7209  -3.6935  -3.5121  -3.3762  -3.3344  -3.1671  -3.0202
    -2.9015  -2.7885  -2.7169  -2.6611  -2.5222  -2.4236  -2.2802  -2.2440
    -2.1661  -2.1559  -1.9457  -1.8099   0.6361   1.0640   1.3619   1.4193
     1.6780   1.8139   2.0519   2.1583   2.3087   2.3701   2.4379   2.4736
     2.5045   2.6135

          k =-0.3750-0.2277 0.0000 ( 40742 PWs)   bands (ev):

   -58.6369 -57.7915 -57.7781 -57.4835 -57.2958 -57.2931 -35.1323 -34.8952
   -34.8211 -34.3440 -34.3347 -34.0313 -34.0171 -34.0130 -34.0129 -33.9554
   -33.9050 -33.8559 -33.8385 -33.6753 -33.6534 -33.6037 -33.5399 -33.5246
   -18.7327 -18.4007 -18.2864 -18.2105 -18.0054 -17.8941 -17.8742 -17.6753
   -17.6490 -17.5459 -17.5004 -17.1253 -17.0025  -6.1100  -5.8378  -5.7430
    -5.6821  -5.5622  -5.5146  -5.4058  -5.3057  -5.2508  -5.0588  -4.9594
    -4.8281  -4.7071  -4.5804  -4.3437  -4.1721  -4.1251  -4.0591  -3.9667
    -3.9504  -3.6510  -3.6352  -3.4891  -3.4251  -3.2017  -3.1527  -3.0934
    -3.0020  -2.8687  -2.6865  -2.6644  -2.5617  -2.4218  -2.4026  -2.3750
    -2.2095  -2.0744  -1.9435  -1.8501   0.6713   0.8028   1.3030   1.4400
     1.5879   1.7943   2.0207   2.1919   2.3094   2.4173   2.5304   2.5400
     2.5888   2.6265

          k =-0.3750-0.1139 0.0000 ( 40790 PWs)   bands (ev):

   -58.6369 -57.7916 -57.7780 -57.4835 -57.2962 -57.2926 -35.1310 -34.8952
   -34.8214 -34.3437 -34.3285 -34.0521 -34.0163 -34.0124 -34.0008 -33.9556
   -33.8985 -33.8551 -33.8397 -33.6753 -33.6534 -33.6182 -33.5332 -33.5246
   -18.6616 -18.3473 -18.3184 -18.1875 -18.0337 -17.9151 -17.8933 -17.7113
   -17.6680 -17.5472 -17.4968 -17.1228 -17.0015  -6.0473  -5.7921  -5.7510
    -5.6210  -5.5852  -5.5371  -5.4305  -5.3432  -5.2101  -5.1480  -5.0840
    -5.0358  -4.6855  -4.5707  -4.3305  -4.2288  -4.1407  -4.0630  -3.9772
    -3.7852  -3.7209  -3.6935  -3.5121  -3.3762  -3.3344  -3.1671  -3.0202
    -2.9015  -2.7885  -2.7169  -2.6611  -2.5222  -2.4236  -2.2802  -2.2440
    -2.1661  -2.1559  -1.9457  -1.8099   0.6361   1.0640   1.3619   1.4193
     1.6780   1.8139   2.0519   2.1583   2.3087   2.3701   2.4379   2.4737
     2.5045   2.6141

          k =-0.2500 0.0000 0.0000 ( 40766 PWs)   bands (ev):

   -58.6512 -57.8068 -57.7917 -57.4979 -57.3125 -57.3059 -34.9727 -34.9069
   -34.8619 -34.1856 -34.1654 -34.1157 -34.0501 -34.0175 -33.9946 -33.8505
   -33.8015 -33.7387 -33.7135 -33.6926 -33.6732 -33.6651 -33.5512 -33.5371
   -18.8894 -18.6313 -18.4295 -18.2808 -17.9670 -17.9365 -17.7907 -17.7773
   -17.7622 -17.6192 -17.5763 -17.2229 -17.0666  -6.4151  -5.9928  -5.9576
    -5.8931  -5.5959  -5.5772  -5.4822  -5.3578  -5.3377  -5.0052  -4.8679
    -4.7700  -4.6131  -4.4496  -4.2625  -4.1681  -4.1042  -3.9351  -3.8986
    -3.8513  -3.5696  -3.3730  -3.2957  -3.2083  -3.1834  -3.0673  -2.9578
    -2.9079  -2.6803  -2.6085  -2.5823  -2.5777  -2.4704  -2.4310  -2.3268
    -2.1111  -1.8949  -1.8490  -1.6317   0.8688   1.0460   1.0740   1.5726
     1.6449   1.6920   1.8821   1.8852   2.0030   2.2315   2.4336   2.4416
     2.4982   2.5234

          k =-0.2500 0.1139 0.0000 ( 40754 PWs)   bands (ev):

   -58.6512 -57.8065 -57.7920 -57.4979 -57.3116 -57.3068 -34.9736 -34.9069
   -34.8604 -34.1873 -34.1752 -34.0907 -34.0499 -34.0177 -34.0083 -33.8513
   -33.8013 -33.7501 -33.7135 -33.6941 -33.6651 -33.6462 -33.5543 -33.5482
   -18.8100 -18.5523 -18.3848 -18.3557 -18.1089 -17.9787 -17.8172 -17.7584
   -17.7405 -17.6088 -17.5780 -17.2239 -17.0663  -6.1787  -5.7940  -5.7652
    -5.7100  -5.5838  -5.5093  -5.4519  -5.3485  -5.2815  -5.1834  -4.8573
    -4.8390  -4.6394  -4.4294  -4.3462  -4.2173  -4.1237  -4.0782  -3.8642
    -3.7271  -3.6367  -3.5712  -3.4246  -3.3705  -3.3309  -3.2840  -3.1891
    -3.0009  -2.8592  -2.6245  -2.5646  -2.4969  -2.3760  -2.2987  -2.1637
    -2.0929  -1.9014  -1.8895  -1.6807   0.8929   1.0756   1.2670   1.5613
     1.6153   1.7622   1.9913   2.0306   2.0916   2.2534   2.4127   2.4305
     2.5398   2.5609

          k =-0.2500-0.2277 0.0000 ( 40742 PWs)   bands (ev):

   -58.6512 -57.8061 -57.7924 -57.4979 -57.3101 -57.3083 -34.9745 -34.9069
   -34.8589 -34.1858 -34.1846 -34.0556 -34.0459 -34.0391 -34.0180 -33.8522
   -33.8012 -33.7578 -33.7135 -33.6955 -33.6651 -33.6111 -33.5781 -33.5504
   -18.6100 -18.6056 -18.3547 -18.3443 -18.1830 -18.1528 -17.8175 -17.7461
   -17.7315 -17.5986 -17.5820 -17.2250 -17.0661  -5.8474  -5.6677  -5.6196
    -5.4989  -5.4525  -5.3342  -5.2918  -5.2609  -5.2301  -5.1584  -5.1316
    -4.9340  -4.7771  -4.7256  -4.3993  -4.2481  -4.1263  -3.9644  -3.9046
    -3.8545  -3.8395  -3.6758  -3.5744  -3.5415  -3.4234  -3.3457  -3.3271
    -3.1283  -3.0255  -2.6285  -2.6121  -2.3896  -2.2992  -2.1569  -2.1500
    -1.9666  -1.9275  -1.8343  -1.7865   0.9660   1.0437   1.4021   1.5779
     1.5982   1.7453   2.0330   2.1508   2.2948   2.3760   2.4126   2.4339
     2.5782   2.6276

          k =-0.2500-0.1139 0.0000 ( 40754 PWs)   bands (ev):

   -58.6512 -57.8065 -57.7920 -57.4979 -57.3116 -57.3068 -34.9736 -34.9069
   -34.8604 -34.1873 -34.1752 -34.0907 -34.0499 -34.0177 -34.0083 -33.8513
   -33.8013 -33.7501 -33.7135 -33.6941 -33.6651 -33.6462 -33.5543 -33.5482
   -18.8100 -18.5523 -18.3848 -18.3557 -18.1089 -17.9787 -17.8172 -17.7584
   -17.7405 -17.6088 -17.5780 -17.2239 -17.0663  -6.1787  -5.7940  -5.7652
    -5.7100  -5.5838  -5.5093  -5.4519  -5.3485  -5.2815  -5.1834  -4.8573
    -4.8390  -4.6394  -4.4294  -4.3462  -4.2173  -4.1237  -4.0782  -3.8642
    -3.7271  -3.6367  -3.5712  -3.4246  -3.3705  -3.3309  -3.2840  -3.1891
    -3.0009  -2.8592  -2.6245  -2.5646  -2.4969  -2.3760  -2.2987  -2.1637
    -2.0929  -1.9014  -1.8895  -1.6807   0.8929   1.0756   1.2670   1.5613
     1.6153   1.7622   1.9913   2.0306   2.0916   2.2534   2.4128   2.4305
     2.5399   2.5612

          k =-0.1250 0.0000 0.0000 ( 40652 PWs)   bands (ev):

   -58.6654 -57.8218 -57.8055 -57.5124 -57.3281 -57.3198 -34.9187 -34.9016
   -34.8113 -34.1594 -34.0963 -34.0314 -34.0146 -34.0003 -33.9998 -33.8601
   -33.7510 -33.7132 -33.6825 -33.6365 -33.6092 -33.5756 -33.5472 -33.4921
   -19.2479 -18.9708 -18.7463 -18.2192 -18.0980 -17.9433 -17.8448 -17.8290
   -17.7121 -17.6262 -17.5676 -17.1808 -16.9717  -6.9232  -6.4527  -6.3693
    -5.9219  -5.7694  -5.6330  -5.5132  -5.3445  -5.1801  -5.0642  -4.9372
    -4.8189  -4.4837  -4.2965  -4.2092  -3.9859  -3.8858  -3.6123  -3.5486
    -3.4622  -3.3136  -3.2542  -3.2517  -3.2439  -3.1154  -3.0060  -2.8226
    -2.7407  -2.6523  -2.5960  -2.5852  -2.4123  -2.3508  -2.2458  -2.0869
    -2.0146  -1.7538  -1.7211  -1.4065   0.6314   0.8892   1.2141   1.2203
     1.4540   1.5763   1.7173   1.7796   1.8901   1.9404   2.1502   2.2353
     2.3188   2.7299

          k =-0.1250 0.1139 0.0000 ( 40695 PWs)   bands (ev):

   -58.6654 -57.8213 -57.8060 -57.5124 -57.3269 -57.3210 -34.9187 -34.8990
   -34.8116 -34.1383 -34.0961 -34.0346 -34.0283 -34.0106 -33.9947 -33.8632
   -33.7510 -33.6957 -33.6788 -33.6365 -33.6094 -33.5838 -33.5609 -33.4920
   -19.1354 -18.8603 -18.6406 -18.3643 -18.2199 -18.0348 -17.8918 -17.7574
   -17.7192 -17.6859 -17.5631 -17.1801 -16.9706  -6.6306  -6.1794  -6.0891
    -5.9283  -5.7068  -5.6544  -5.4016  -5.2644  -5.1892  -5.0496  -4.8355
    -4.7367  -4.4983  -4.3257  -4.1579  -4.1199  -4.0373  -3.8812  -3.7113
    -3.6673  -3.5935  -3.4719  -3.3613  -3.3009  -3.2063  -3.0839  -2.9034
    -2.8067  -2.7536  -2.6537  -2.4968  -2.3778  -2.3296  -2.2897  -2.1593
    -2.0044  -1.7708  -1.7177  -1.4904   0.8333   0.9245   1.2905   1.4984
     1.5974   1.6533   1.8333   1.9558   1.9889   2.0514   2.1709   2.2143
     2.3802   2.7221

          k =-0.1250-0.2277 0.0000 ( 40666 PWs)   bands (ev):

   -58.6654 -57.8207 -57.8066 -57.5124 -57.3244 -57.3235 -34.9187 -34.8963
   -34.8120 -34.0959 -34.0926 -34.0796 -34.0311 -34.0067 -33.9973 -33.8663
   -33.7510 -33.6866 -33.6492 -33.6365 -33.6190 -33.6086 -33.5658 -33.4921
   -18.9483 -18.6504 -18.6373 -18.4351 -18.3707 -18.2641 -17.8643 -17.7787
   -17.7365 -17.6931 -17.5602 -17.1802 -16.9697  -6.2077  -5.9923  -5.8051
    -5.7156  -5.6460  -5.5868  -5.3154  -5.2821  -5.0952  -4.9600  -4.7297
    -4.7255  -4.5117  -4.4267  -4.2951  -4.2181  -4.1787  -4.1283  -3.9216
    -3.8708  -3.8338  -3.7609  -3.6689  -3.4549  -3.3478  -3.1429  -2.9148
    -2.9130  -2.7228  -2.7177  -2.5161  -2.3758  -2.3385  -2.0534  -2.0255
    -1.9858  -1.8183  -1.7591  -1.6035   0.8897   1.0079   1.4343   1.6144
     1.6519   1.8315   1.8711   2.0985   2.1784   2.2052   2.2379   2.2714
     2.4838   2.5520

          k =-0.1250-0.1139 0.0000 ( 40695 PWs)   bands (ev):

   -58.6654 -57.8213 -57.8060 -57.5124 -57.3269 -57.3210 -34.9187 -34.8990
   -34.8116 -34.1383 -34.0961 -34.0346 -34.0283 -34.0106 -33.9947 -33.8632
   -33.7510 -33.6957 -33.6788 -33.6365 -33.6094 -33.5838 -33.5609 -33.4920
   -19.1354 -18.8603 -18.6406 -18.3643 -18.2199 -18.0348 -17.8918 -17.7574
   -17.7192 -17.6859 -17.5631 -17.1801 -16.9706  -6.6306  -6.1794  -6.0891
    -5.9283  -5.7068  -5.6544  -5.4016  -5.2644  -5.1892  -5.0496  -4.8355
    -4.7367  -4.4983  -4.3257  -4.1579  -4.1199  -4.0373  -3.8812  -3.7113
    -3.6673  -3.5935  -3.4719  -3.3613  -3.3009  -3.2063  -3.0839  -2.9034
    -2.8067  -2.7536  -2.6537  -2.4968  -2.3778  -2.3296  -2.2897  -2.1593
    -2.0044  -1.7708  -1.7177  -1.4904   0.8333   0.9245   1.2905   1.4984
     1.5974   1.6533   1.8333   1.9558   1.9889   2.0514   2.1709   2.2143
     2.3802   2.7283

     the Fermi energy is    -1.4513 ev

!    total energy              =   -1258.98339474 Ry
     estimated scf accuracy    <       0.00000057 Ry
     smearing contrib. (-TS)   =       0.00067430 Ry
     internal energy E=F+TS    =   -1258.98406904 Ry

     The total energy is F=E-TS. E is the sum of the following terms:
     one-electron contribution =  -12746.88774913 Ry
     hartree contribution      =    6394.66113420 Ry
     xc contribution           =    -204.35612562 Ry
     ewald contribution        =    5421.36679343 Ry
     one-center paw contrib.   =    -123.76812192 Ry

     total magnetization       =    -1.75 Bohr mag/cell
     absolute magnetization    =     2.18 Bohr mag/cell

     convergence has been achieved in  30 iterations

     negative rho (up, down):  3.796E-03 4.089E-03

     Forces acting on atoms (cartesian axes, Ry/au):

     atom    1 type  1   force =    -0.00000001   -0.00000002    0.15554290
     atom    2 type  1   force =    -0.00000001   -0.00000005   -0.06020052
     atom    3 type  1   force =    -0.00000001    0.00000013    0.00438201
     atom    4 type  1   force =    -0.00000007   -0.00000001   -0.00336167
     atom    5 type  1   force =     0.00000002   -0.00000005   -0.04310375
     atom    6 type  1   force =    -0.00000016   -0.00000008   -0.00021931
     atom    7 type  2   force =     0.00000008    0.00000000    0.01444363
     atom    8 type  2   force =    -0.00000002    0.00000005    0.04523739
     atom    9 type  2   force =     0.00000017    0.05021239   -0.04234450
     atom   10 type  2   force =    -0.00000008   -0.05021239   -0.04234442
     atom   11 type  2   force =     0.00000002   -0.00000004    0.00339729
     atom   12 type  2   force =    -0.00000006   -0.00000007   -0.06944157
     atom   13 type  2   force =     0.00000001   -0.00016169   -0.00069587
     atom   14 type  2   force =     0.00000004    0.00016167   -0.00069593
     atom   15 type  2   force =     0.00000004    0.00000032   -0.00069396
     atom   16 type  2   force =     0.00000002   -0.00000013    0.00179940
     atom   17 type  2   force =    -0.00000011    0.01455634    0.00631395
     atom   18 type  2   force =     0.00000003   -0.01455637    0.00631398
     atom   19 type  2   force =     0.00000010   -0.00000000    0.02567094

     Total force =     0.055383     Total SCF correction =     0.002272

     Writing all to output data dir ./tmp_s0_O__u000__sp2m050/s0_O__u000__sp2m050.save/ :
     XML data file, charge density, pseudopotentials, collected wavefunctions

     init_run     :      4.16s CPU      4.30s WALL (       1 calls)
     electrons    :    198.23s CPU    201.76s WALL (       1 calls)
     forces       :      1.36s CPU      1.39s WALL (       1 calls)

     Called by init_run:
     wfcinit      :      2.17s CPU      2.22s WALL (       1 calls)
     potinit      :      0.73s CPU      0.77s WALL (       1 calls)
     hinit0       :      0.43s CPU      0.45s WALL (       1 calls)

     Called by electrons:
     c_bands      :    151.16s CPU    153.88s WALL (      30 calls)
     sum_band     :     28.01s CPU     28.44s WALL (      30 calls)
     v_of_rho     :      8.59s CPU      8.72s WALL (      31 calls)
     newd         :      1.91s CPU      1.95s WALL (      31 calls)
     PAW_pot      :      1.34s CPU      1.35s WALL (      31 calls)
     mix_rho      :      5.96s CPU      6.06s WALL (      30 calls)

     Called by c_bands:
     init_us_2    :      5.39s CPU      5.48s WALL (     496 calls)
     cegterg      :    129.01s CPU    131.46s WALL (     240 calls)

     Called by *egterg:
     cdiaghg      :      8.79s CPU      8.85s WALL (    1074 calls)
     h_psi        :     88.86s CPU     90.73s WALL (    1082 calls)
     s_psi        :      6.78s CPU      6.87s WALL (    1082 calls)
     g_psi        :      0.48s CPU      0.49s WALL (     834 calls)

     Called by h_psi:
     h_psi:calbec :      8.48s CPU      8.66s WALL (    1082 calls)
     vloc_psi     :     71.89s CPU     73.43s WALL (    1082 calls)
                                        0.00s GPU  (    1082 calls)
     add_vuspsi   :      7.30s CPU      7.42s WALL (    1082 calls)

     General routines
     calbec       :     12.56s CPU     12.78s WALL (    1354 calls)
     fft          :      5.05s CPU      5.11s WALL (     788 calls)
     ffts         :      4.09s CPU      4.13s WALL (    3689 calls)
     fftw         :     80.65s CPU     82.28s WALL (  114694 calls)
     interpolate  :      0.96s CPU      0.97s WALL (      62 calls)

     Parallel routines

     PWSCF        :   3m24.32s CPU   4m15.54s WALL


   This run was terminated on:   3:35:41   1Sep2026            

=------------------------------------------------------------------------------=
   JOB DONE.
=------------------------------------------------------------------------------=
Note: The following floating-point exceptions are signalling: IEEE_DENORMAL
Note: The following floating-point exceptions are signalling: IEEE_DENORMAL
Note: The following floating-point exceptions are signalling: IEEE_DENORMAL
Note: The following floating-point exceptions are signalling: IEEE_DENORMAL
Note: The following floating-point exceptions are signalling: IEEE_DENORMAL
Note: The following floating-point exceptions are signalling: IEEE_DENORMAL
Note: The following floating-point exceptions are signalling: IEEE_DENORMAL
Note: The following floating-point exceptions are signalling: IEEE_DENORMAL
Note: The following floating-point exceptions are signalling: IEEE_DENORMAL
Note: The following floating-point exceptions are signalling: IEEE_DENORMAL
Note: The following floating-point exceptions are signalling: IEEE_DENORMAL
Note: The following floating-point exceptions are signalling: IEEE_DENORMAL
Note: The following floating-point exceptions are signalling: IEEE_DENORMAL
Note: The following floating-point exceptions are signalling: IEEE_DENORMAL
Note: The following floating-point exceptions are signalling: IEEE_DENORMAL
Note: The following floating-point exceptions are signalling: IEEE_DENORMAL
Note: The following floating-point exceptions are signalling: IEEE_DENORMAL
Note: The following floating-point exceptions are signalling: IEEE_DENORMAL
Note: The following floating-point exceptions are signalling: IEEE_DENORMAL
Note: The following floating-point exceptions are signalling: IEEE_DENORMAL
Note: The following floating-point exceptions are signalling: IEEE_DENORMAL
Note: The following floating-point exceptions are signalling: IEEE_DENORMAL
Note: The following floating-point exceptions are signalling: IEEE_DENORMAL
Note: The following floating-point exceptions are signalling: IEEE_DENORMAL
Note: The following floating-point exceptions are signalling: IEEE_DENORMAL
Note: The following floating-point exceptions are signalling: IEEE_DENORMAL
Note: The following floating-point exceptions are signalling: IEEE_DENORMAL
Note: The following floating-point exceptions are signalling: IEEE_DENORMAL
Note: The following floating-point exceptions are signalling: IEEE_DENORMAL
Note: The following floating-point exceptions are signalling: IEEE_DENORMAL
Note: The following floating-point exceptions are signalling: IEEE_DENORMAL
Note: The following floating-point exceptions are signalling: IEEE_DENORMAL
Note: The following floating-point exceptions are signalling: IEEE_DENORMAL
Note: The following floating-point exceptions are signalling: IEEE_DENORMAL
Note: The following floating-point exceptions are signalling: IEEE_DENORMAL
