
     Program PWSCF v.7.5 starts on  1Sep2026 at  3:16:23 

     This program is part of the open-source Quantum ESPRESSO suite
     for quantum simulation of materials; please cite
         "P. Giannozzi et al., J. Phys.:Condens. Matter 21 395502 (2009);
         "P. Giannozzi et al., J. Phys.:Condens. Matter 29 465901 (2017);
         "P. Giannozzi et al., J. Chem. Phys. 152 154105 (2020);
          URL http://www.quantum-espresso.org", 
     in publications or presentations arising from this work. More details at
     http://www.quantum-espresso.org/quote

     Parallel version (MPI & OpenMP), running on     128 processor cores
     Number of MPI processes:               128
     Threads/MPI process:                     1

     MPI processes distributed on     1 nodes
     231232 MiB available memory on the printing compute node when the environment starts

     Reading input from s0_O__u000__sp2m010.run.in

     Current dimensions of program PWSCF are:
     Max number of different atomic species (ntypx) = 10
     Max number of k-points (npk) =  40000
     Max angular momentum in pseudopotentials (lmaxx) =  4
     file O.pbe-n-kjpaw_psl.0.1.UPF: wavefunction(s)  2P renormalized

     K-points division:     npool     =       8
     R & G space division:  proc/nbgrp/npool/nimage =      16
     Subspace diagonalization in iterative solution of the eigenvalue problem:
     a serial algorithm will be used


     Parallelization info
     --------------------
     sticks:   dense  smooth     PW     G-vecs:    dense   smooth      PW
     Min         218     108     31                57602    20340    3111
     Max         219     109     32                57627    20361    3126
     Sum        3495    1739    505               921821   325653   49881

     Using Slab Decomposition



     bravais-lattice index     =            0
     lattice parameter (alat)  =       5.5911  a.u.
     unit-cell volume          =    3370.6432 (a.u.)^3
     number of atoms/cell      =           19
     number of atomic types    =            2
     number of electrons       =       150.00
     number of Kohn-Sham states=           90
     kinetic-energy cutoff     =      80.0000  Ry
     charge density cutoff     =     640.0000  Ry
     scf convergence threshold =      1.0E-06
     mixing beta               =       0.3000
     number of iterations used =            8  local-TF  mixing
     Exchange-correlation= SLA  PW   PBX  PBC
                           (   1   4   3   4   0   0   0)

     celldm(1)=   5.591133  celldm(2)=   0.000000  celldm(3)=   0.000000
     celldm(4)=   0.000000  celldm(5)=   0.000000  celldm(6)=   0.000000

     crystal axes: (cart. coord. in units of alat)
               a(1) = (   1.000000   0.000000   0.000000 )  
               a(2) = (   0.000000   2.195719   0.000000 )  
               a(3) = (   0.000000   0.000000   8.782875 )  

     reciprocal axes: (cart. coord. in units 2 pi/alat)
               b(1) = (  1.000000  0.000000  0.000000 )  
               b(2) = (  0.000000  0.455432  0.000000 )  
               b(3) = (  0.000000  0.000000  0.113858 )  


     PseudoPot. # 1 for Ti read from file:
     /anvil/projects/x-che260157/pseudo/ti_pbe_v1.4.uspp.F.UPF
     MD5 check sum: 88a00a6731bd790ddea75d31a80cb452
     Pseudo is Ultrasoft + core correction, Zval = 12.0
     Generated by new atomic code, or converted to UPF format
     Using radial grid of  851 points,  6 beta functions with: 
                l(1) =   0
                l(2) =   0
                l(3) =   1
                l(4) =   1
                l(5) =   2
                l(6) =   2
     Q(r) pseudized with  6 coefficients,  rinner =    1.000   1.000   1.000
                                                       1.000   1.000

     PseudoPot. # 2 for O  read from file:
     /anvil/projects/x-che260157/pseudo/O.pbe-n-kjpaw_psl.0.1.UPF
     MD5 check sum: 0234752ac141de4415c5fc33072bef88
     Pseudo is Projector augmented-wave + core cor, Zval =  6.0
     Generated using "atomic" code by A. Dal Corso  v.5.0.99 svn rev. 10869
     Shape of augmentation charge: BESSEL
     Using radial grid of 1095 points,  4 beta functions with: 
                l(1) =   0
                l(2) =   0
                l(3) =   1
                l(4) =   1
     Q(r) pseudized with 0 coefficients 


     atomic species   valence    mass     pseudopotential
     Ti               12.00    47.86700     Ti( 1.00)
     O                 6.00    15.99900     O ( 1.00)

     Starting magnetic structure 
     atomic species   magnetization
     Ti              0.100
     O               0.000

     No symmetry found



   Cartesian axes

     site n.     atom                  positions (alat units)
         1        Ti     tau(   1) = (   0.0000000   1.6467890   3.2935780  )
         2        Ti     tau(   2) = (   0.5000000   0.5489297   3.2935780  )
         3        Ti     tau(   3) = (   0.0000000   0.5489296   4.4353079  )
         4        Ti     tau(   4) = (   0.5000000   1.6467889   4.4368697  )
         5        Ti     tau(   5) = (  -0.0000000   1.6467889   5.6248456  )
         6        Ti     tau(   6) = (   0.5000000   0.5489296   5.5741751  )
         7        O      tau(   7) = (   0.0000000   0.5489297   3.7217432  )
         8        O      tau(   8) = (   0.0000000   0.5489297   2.8654129  )
         9        O      tau(   9) = (   0.5000000   1.2186239   3.2935780  )
        10        O      tau(  10) = (   0.5000000   2.0749541   3.2935780  )
        11        O      tau(  11) = (  -0.0000000   1.6467888   4.8276870  )
        12        O      tau(  12) = (   0.0000000   1.6467890   3.9632722  )
        13        O      tau(  13) = (   0.5000000   0.1173161   4.3978823  )
        14        O      tau(  14) = (   0.5000000   0.9805431   4.3978822  )
        15        O      tau(  15) = (  -0.0000000   0.5489293   5.9392244  )
        16        O      tau(  16) = (   0.0000000   0.5489297   5.0658976  )
        17        O      tau(  17) = (   0.5000000   1.2136566   5.5360461  )
        18        O      tau(  18) = (   0.5000000   2.0799212   5.5360457  )
        19        O      tau(  19) = (  -0.0000000   1.6467886   6.2111009  )

     number of k points=    32  Marzari-Vanderbilt smearing, width (Ry)=  0.0100
                       cart. coord. in units 2pi/alat
        k(    1) = (   0.0000000   0.0000000   0.0000000), wk =   0.0312500
        k(    2) = (   0.0000000   0.1138579   0.0000000), wk =   0.0312500
        k(    3) = (   0.0000000  -0.2277159   0.0000000), wk =   0.0312500
        k(    4) = (   0.0000000  -0.1138579   0.0000000), wk =   0.0312500
        k(    5) = (   0.1250000   0.0000000   0.0000000), wk =   0.0312500
        k(    6) = (   0.1250000   0.1138579   0.0000000), wk =   0.0312500
        k(    7) = (   0.1250000  -0.2277159   0.0000000), wk =   0.0312500
        k(    8) = (   0.1250000  -0.1138579   0.0000000), wk =   0.0312500
        k(    9) = (   0.2500000   0.0000000   0.0000000), wk =   0.0312500
        k(   10) = (   0.2500000   0.1138579   0.0000000), wk =   0.0312500
        k(   11) = (   0.2500000  -0.2277159   0.0000000), wk =   0.0312500
        k(   12) = (   0.2500000  -0.1138579   0.0000000), wk =   0.0312500
        k(   13) = (   0.3750000   0.0000000   0.0000000), wk =   0.0312500
        k(   14) = (   0.3750000   0.1138579   0.0000000), wk =   0.0312500
        k(   15) = (   0.3750000  -0.2277159   0.0000000), wk =   0.0312500
        k(   16) = (   0.3750000  -0.1138579   0.0000000), wk =   0.0312500
        k(   17) = (  -0.5000000   0.0000000   0.0000000), wk =   0.0312500
        k(   18) = (  -0.5000000   0.1138579   0.0000000), wk =   0.0312500
        k(   19) = (  -0.5000000  -0.2277159   0.0000000), wk =   0.0312500
        k(   20) = (  -0.5000000  -0.1138579   0.0000000), wk =   0.0312500
        k(   21) = (  -0.3750000   0.0000000   0.0000000), wk =   0.0312500
        k(   22) = (  -0.3750000   0.1138579   0.0000000), wk =   0.0312500
        k(   23) = (  -0.3750000  -0.2277159   0.0000000), wk =   0.0312500
        k(   24) = (  -0.3750000  -0.1138579   0.0000000), wk =   0.0312500
        k(   25) = (  -0.2500000   0.0000000   0.0000000), wk =   0.0312500
        k(   26) = (  -0.2500000   0.1138579   0.0000000), wk =   0.0312500
        k(   27) = (  -0.2500000  -0.2277159   0.0000000), wk =   0.0312500
        k(   28) = (  -0.2500000  -0.1138579   0.0000000), wk =   0.0312500
        k(   29) = (  -0.1250000   0.0000000   0.0000000), wk =   0.0312500
        k(   30) = (  -0.1250000   0.1138579   0.0000000), wk =   0.0312500
        k(   31) = (  -0.1250000  -0.2277159   0.0000000), wk =   0.0312500
        k(   32) = (  -0.1250000  -0.1138579   0.0000000), wk =   0.0312500

     Dense  grid:   921821 G-vectors     FFT dimensions: (  45, 100, 400)

     Smooth grid:   325653 G-vectors     FFT dimensions: (  32,  72, 288)

     Estimated max dynamical RAM per process >     124.28 MB

     Estimated total dynamical RAM >      12.46 GB

     Check: negative core charge=   -0.000001
     Generating pointlists ...
     new r_m :   0.2418 (alat units)  1.3521 (a.u.) for type    1
     new r_m :   0.2418 (alat units)  1.3521 (a.u.) for type    2

     Initial potential from superposition of free atoms

     starting charge     143.9997, renormalised to     150.0000

     negative rho (up, down):  4.778E-03 3.888E-03
     Starting wfcs are  112 randomized atomic wfcs
     Checking if some PAW data can be deallocated... 

     total cpu time spent up to now is        4.8 secs

     per-process dynamical memory:   136.7 Mb

     Self-consistent Calculation

     iteration #  1     ecut=    80.00 Ry     beta= 0.30
     Davidson diagonalization with overlap
     ethr =  1.00E-02,  avg # of iterations =  2.1

     negative rho (up, down):  4.564E-03 4.288E-03

     total cpu time spent up to now is       13.3 secs

     total energy              =   -1258.95283481 Ry
     estimated scf accuracy    <       7.40957213 Ry

     total magnetization       =     0.97 Bohr mag/cell
     absolute magnetization    =     1.82 Bohr mag/cell

     iteration #  2     ecut=    80.00 Ry     beta= 0.30
     Davidson diagonalization with overlap
     ethr =  4.94E-03,  avg # of iterations =  1.0

     negative rho (up, down):  4.536E-03 4.559E-03

     total cpu time spent up to now is       18.9 secs

     total energy              =   -1258.92525819 Ry
     estimated scf accuracy    <       2.60854018 Ry

     total magnetization       =     0.58 Bohr mag/cell
     absolute magnetization    =     1.35 Bohr mag/cell

     iteration #  3     ecut=    80.00 Ry     beta= 0.30
     Davidson diagonalization with overlap
     ethr =  1.74E-03,  avg # of iterations =  1.8

     negative rho (up, down):  4.341E-03 4.799E-03

     total cpu time spent up to now is       24.8 secs

     total energy              =   -1258.94277158 Ry
     estimated scf accuracy    <       2.29740135 Ry

     total magnetization       =     0.83 Bohr mag/cell
     absolute magnetization    =     1.63 Bohr mag/cell

     iteration #  4     ecut=    80.00 Ry     beta= 0.30
     Davidson diagonalization with overlap
     ethr =  1.53E-03,  avg # of iterations =  1.9

     negative rho (up, down):  4.218E-03 4.664E-03

     total cpu time spent up to now is       30.7 secs

     total energy              =   -1259.03933063 Ry
     estimated scf accuracy    <       1.38243833 Ry

     total magnetization       =     0.98 Bohr mag/cell
     absolute magnetization    =     1.60 Bohr mag/cell

     iteration #  5     ecut=    80.00 Ry     beta= 0.30
     Davidson diagonalization with overlap
     ethr =  9.22E-04,  avg # of iterations =  1.0

     negative rho (up, down):  3.459E-03 3.899E-03

     total cpu time spent up to now is       36.4 secs

     total energy              =   -1258.95308451 Ry
     estimated scf accuracy    <       1.21943783 Ry

     total magnetization       =     1.10 Bohr mag/cell
     absolute magnetization    =     1.67 Bohr mag/cell

     iteration #  6     ecut=    80.00 Ry     beta= 0.30
     Davidson diagonalization with overlap
     ethr =  8.13E-04,  avg # of iterations =  1.8

     negative rho (up, down):  3.396E-03 3.892E-03

     total cpu time spent up to now is       44.1 secs

     total energy              =   -1258.98591083 Ry
     estimated scf accuracy    <       1.16241454 Ry

     total magnetization       =     1.85 Bohr mag/cell
     absolute magnetization    =     1.99 Bohr mag/cell

     iteration #  7     ecut=    80.00 Ry     beta= 0.30
     Davidson diagonalization with overlap
     ethr =  7.75E-04,  avg # of iterations =  1.1

     negative rho (up, down):  3.769E-03 3.871E-03

     total cpu time spent up to now is       49.6 secs

     total energy              =   -1258.99442680 Ry
     estimated scf accuracy    <       0.49973793 Ry

     total magnetization       =     1.54 Bohr mag/cell
     absolute magnetization    =     1.74 Bohr mag/cell

     iteration #  8     ecut=    80.00 Ry     beta= 0.30
     Davidson diagonalization with overlap
     ethr =  3.33E-04,  avg # of iterations =  1.4

     negative rho (up, down):  4.030E-03 3.835E-03

     total cpu time spent up to now is       55.2 secs

     total energy              =   -1258.97226328 Ry
     estimated scf accuracy    <       0.60392338 Ry

     total magnetization       =     1.57 Bohr mag/cell
     absolute magnetization    =     1.73 Bohr mag/cell

     iteration #  9     ecut=    80.00 Ry     beta= 0.30
     Davidson diagonalization with overlap
     ethr =  3.33E-04,  avg # of iterations =  1.4

     negative rho (up, down):  4.524E-03 4.226E-03

     total cpu time spent up to now is       60.9 secs

     total energy              =   -1258.98015545 Ry
     estimated scf accuracy    <       0.08289302 Ry

     total magnetization       =     1.32 Bohr mag/cell
     absolute magnetization    =     1.66 Bohr mag/cell

     iteration # 10     ecut=    80.00 Ry     beta= 0.30
     Davidson diagonalization with overlap
     ethr =  5.53E-05,  avg # of iterations = 12.1

     negative rho (up, down):  4.311E-03 4.068E-03

     total cpu time spent up to now is       70.1 secs

     total energy              =   -1258.98169090 Ry
     estimated scf accuracy    <       0.03299687 Ry

     total magnetization       =     1.20 Bohr mag/cell
     absolute magnetization    =     1.73 Bohr mag/cell

     iteration # 11     ecut=    80.00 Ry     beta= 0.30
     Davidson diagonalization with overlap
     ethr =  2.20E-05,  avg # of iterations =  5.7

     negative rho (up, down):  4.962E-03 4.598E-03

     total cpu time spent up to now is       77.5 secs

     total energy              =   -1258.98068799 Ry
     estimated scf accuracy    <       0.09284921 Ry

     total magnetization       =     1.35 Bohr mag/cell
     absolute magnetization    =     1.84 Bohr mag/cell

     iteration # 12     ecut=    80.00 Ry     beta= 0.30
     Davidson diagonalization with overlap
     ethr =  2.20E-05,  avg # of iterations =  1.1

     negative rho (up, down):  4.512E-03 4.242E-03

     total cpu time spent up to now is       82.9 secs

     total energy              =   -1258.98239278 Ry
     estimated scf accuracy    <       0.02045315 Ry

     total magnetization       =     1.05 Bohr mag/cell
     absolute magnetization    =     1.70 Bohr mag/cell

     iteration # 13     ecut=    80.00 Ry     beta= 0.30
     Davidson diagonalization with overlap
     ethr =  1.36E-05,  avg # of iterations =  1.9

     negative rho (up, down):  4.368E-03 4.170E-03

     total cpu time spent up to now is       88.9 secs

     total energy              =   -1258.98083668 Ry
     estimated scf accuracy    <       0.04057069 Ry

     total magnetization       =     1.24 Bohr mag/cell
     absolute magnetization    =     1.81 Bohr mag/cell

     iteration # 14     ecut=    80.00 Ry     beta= 0.30
     Davidson diagonalization with overlap
     ethr =  1.36E-05,  avg # of iterations =  2.1

     negative rho (up, down):  4.080E-03 3.922E-03

     total cpu time spent up to now is       95.0 secs

     total energy              =   -1258.98209542 Ry
     estimated scf accuracy    <       0.03420792 Ry

     total magnetization       =     0.78 Bohr mag/cell
     absolute magnetization    =     1.80 Bohr mag/cell

     iteration # 15     ecut=    80.00 Ry     beta= 0.30
     Davidson diagonalization with overlap
     ethr =  1.36E-05,  avg # of iterations =  2.6

     negative rho (up, down):  4.055E-03 3.857E-03

     total cpu time spent up to now is      102.0 secs

     total energy              =   -1258.98253684 Ry
     estimated scf accuracy    <       0.00566705 Ry

     total magnetization       =     0.96 Bohr mag/cell
     absolute magnetization    =     1.90 Bohr mag/cell

     iteration # 16     ecut=    80.00 Ry     beta= 0.30
     Davidson diagonalization with overlap
     ethr =  3.78E-06,  avg # of iterations = 11.3

     negative rho (up, down):  3.959E-03 3.778E-03

     total cpu time spent up to now is      110.8 secs

     total energy              =   -1258.98316620 Ry
     estimated scf accuracy    <       0.02112324 Ry

     total magnetization       =     0.67 Bohr mag/cell
     absolute magnetization    =     1.95 Bohr mag/cell

     iteration # 17     ecut=    80.00 Ry     beta= 0.30
     Davidson diagonalization with overlap
     ethr =  3.78E-06,  avg # of iterations =  1.7

     negative rho (up, down):  3.935E-03 3.765E-03

     total cpu time spent up to now is      116.5 secs

     total energy              =   -1258.98325887 Ry
     estimated scf accuracy    <       0.01509585 Ry

     total magnetization       =     0.65 Bohr mag/cell
     absolute magnetization    =     2.01 Bohr mag/cell

     iteration # 18     ecut=    80.00 Ry     beta= 0.30
     Davidson diagonalization with overlap
     ethr =  3.78E-06,  avg # of iterations =  1.1

     negative rho (up, down):  3.932E-03 3.786E-03

     total cpu time spent up to now is      122.0 secs

     total energy              =   -1258.98314428 Ry
     estimated scf accuracy    <       0.01223563 Ry

     total magnetization       =     0.64 Bohr mag/cell
     absolute magnetization    =     2.05 Bohr mag/cell

     iteration # 19     ecut=    80.00 Ry     beta= 0.30
     Davidson diagonalization with overlap
     ethr =  3.78E-06,  avg # of iterations =  1.2

     negative rho (up, down):  3.896E-03 3.827E-03

     total cpu time spent up to now is      127.7 secs

     total energy              =   -1258.98281336 Ry
     estimated scf accuracy    <       0.00239268 Ry

     total magnetization       =     0.71 Bohr mag/cell
     absolute magnetization    =     2.07 Bohr mag/cell

     iteration # 20     ecut=    80.00 Ry     beta= 0.30
     Davidson diagonalization with overlap
     ethr =  1.60E-06,  avg # of iterations =  7.4

     negative rho (up, down):  3.885E-03 3.859E-03

     total cpu time spent up to now is      135.7 secs

     total energy              =   -1258.98280293 Ry
     estimated scf accuracy    <       0.00127632 Ry

     total magnetization       =     0.67 Bohr mag/cell
     absolute magnetization    =     2.14 Bohr mag/cell

     iteration # 21     ecut=    80.00 Ry     beta= 0.30
     Davidson diagonalization with overlap
     ethr =  8.51E-07,  avg # of iterations =  2.7

     negative rho (up, down):  3.872E-03 3.847E-03

     total cpu time spent up to now is      142.1 secs

     total energy              =   -1258.98292083 Ry
     estimated scf accuracy    <       0.00056234 Ry

     total magnetization       =     0.69 Bohr mag/cell
     absolute magnetization    =     2.17 Bohr mag/cell

     iteration # 22     ecut=    80.00 Ry     beta= 0.30
     Davidson diagonalization with overlap
     ethr =  3.75E-07,  avg # of iterations =  1.8

     negative rho (up, down):  4.047E-03 4.016E-03

     total cpu time spent up to now is      148.3 secs

     total energy              =   -1258.98293123 Ry
     estimated scf accuracy    <       0.00056669 Ry

     total magnetization       =     0.70 Bohr mag/cell
     absolute magnetization    =     2.16 Bohr mag/cell

     iteration # 23     ecut=    80.00 Ry     beta= 0.30
     Davidson diagonalization with overlap
     ethr =  3.75E-07,  avg # of iterations =  1.9

     negative rho (up, down):  4.336E-03 4.286E-03

     total cpu time spent up to now is      154.3 secs

     total energy              =   -1258.98295912 Ry
     estimated scf accuracy    <       0.00028402 Ry

     total magnetization       =     0.70 Bohr mag/cell
     absolute magnetization    =     2.15 Bohr mag/cell

     iteration # 24     ecut=    80.00 Ry     beta= 0.30
     Davidson diagonalization with overlap
     ethr =  1.89E-07,  avg # of iterations =  2.4

     negative rho (up, down):  4.556E-03 4.505E-03

     total cpu time spent up to now is      160.8 secs

     total energy              =   -1258.98299873 Ry
     estimated scf accuracy    <       0.00016002 Ry

     total magnetization       =     0.70 Bohr mag/cell
     absolute magnetization    =     2.14 Bohr mag/cell

     iteration # 25     ecut=    80.00 Ry     beta= 0.30
     Davidson diagonalization with overlap
     ethr =  1.07E-07,  avg # of iterations =  1.0

     negative rho (up, down):  4.285E-03 4.235E-03

     total cpu time spent up to now is      167.4 secs

     total energy              =   -1258.98301741 Ry
     estimated scf accuracy    <       0.00004907 Ry

     total magnetization       =     0.69 Bohr mag/cell
     absolute magnetization    =     2.14 Bohr mag/cell

     iteration # 26     ecut=    80.00 Ry     beta= 0.30
     Davidson diagonalization with overlap
     ethr =  3.27E-08,  avg # of iterations =  2.9

     negative rho (up, down):  4.183E-03 4.135E-03

     total cpu time spent up to now is      176.7 secs

     total energy              =   -1258.98304004 Ry
     estimated scf accuracy    <       0.00001990 Ry

     total magnetization       =     0.70 Bohr mag/cell
     absolute magnetization    =     2.13 Bohr mag/cell

     iteration # 27     ecut=    80.00 Ry     beta= 0.30
     Davidson diagonalization with overlap
     ethr =  1.33E-08,  avg # of iterations =  2.5

     negative rho (up, down):  4.097E-03 4.049E-03

     total cpu time spent up to now is      184.2 secs

     total energy              =   -1258.98304614 Ry
     estimated scf accuracy    <       0.00000754 Ry

     total magnetization       =     0.69 Bohr mag/cell
     absolute magnetization    =     2.13 Bohr mag/cell

     iteration # 28     ecut=    80.00 Ry     beta= 0.30
     Davidson diagonalization with overlap
     ethr =  5.03E-09,  avg # of iterations =  2.2

     negative rho (up, down):  3.924E-03 3.873E-03

     total cpu time spent up to now is      191.1 secs

     total energy              =   -1258.98305590 Ry
     estimated scf accuracy    <       0.00000608 Ry

     total magnetization       =     0.70 Bohr mag/cell
     absolute magnetization    =     2.13 Bohr mag/cell

     iteration # 29     ecut=    80.00 Ry     beta= 0.30
     Davidson diagonalization with overlap
     ethr =  4.05E-09,  avg # of iterations =  2.3

     negative rho (up, down):  3.961E-03 3.910E-03

     total cpu time spent up to now is      201.9 secs

     total energy              =   -1258.98305918 Ry
     estimated scf accuracy    <       0.00000116 Ry

     total magnetization       =     0.70 Bohr mag/cell
     absolute magnetization    =     2.12 Bohr mag/cell

     iteration # 30     ecut=    80.00 Ry     beta= 0.30
     Davidson diagonalization with overlap
     ethr =  7.73E-10,  avg # of iterations =  3.6

     negative rho (up, down):  3.968E-03 3.916E-03

     Magnetic moment per site  (integrated on atomic sphere of radius R)
     atom   1 (R=0.242)  charge=  7.8215  magn=  0.0067
     atom   2 (R=0.242)  charge=  7.8172  magn=  0.0251
     atom   3 (R=0.242)  charge=  7.8109  magn=  0.0049
     atom   4 (R=0.242)  charge=  7.8135  magn=  0.0046
     atom   5 (R=0.242)  charge=  7.8549  magn= -0.0564
     atom   6 (R=0.242)  charge=  7.8313  magn= -0.0191
     atom   7 (R=0.242)  charge=  4.8093  magn= -0.1188
     atom   8 (R=0.242)  charge=  4.7253  magn= -0.2105
     atom   9 (R=0.242)  charge=  4.8340  magn= -0.0115
     atom  10 (R=0.242)  charge=  4.8340  magn= -0.0115
     atom  11 (R=0.242)  charge=  4.8179  magn=  0.0101
     atom  12 (R=0.242)  charge=  4.7842  magn= -0.0317
     atom  13 (R=0.242)  charge=  4.8331  magn= -0.0359
     atom  14 (R=0.242)  charge=  4.8331  magn= -0.0359
     atom  15 (R=0.242)  charge=  4.7971  magn=  0.0530
     atom  16 (R=0.242)  charge=  4.7935  magn=  0.0258
     atom  17 (R=0.242)  charge=  4.8122  magn=  0.1778
     atom  18 (R=0.242)  charge=  4.8122  magn=  0.1778
     atom  19 (R=0.242)  charge=  4.6340  magn=  0.6012

     total cpu time spent up to now is      208.7 secs

     End of self-consistent calculation

 ------ SPIN UP ------------


          k = 0.0000 0.0000 0.0000 ( 40639 PWs)   bands (ev):

   -58.6811 -57.8336 -57.8180 -57.5659 -57.3381 -57.3241 -34.9349 -34.9269
   -34.7522 -34.1825 -34.1138 -34.0435 -34.0103 -33.9537 -33.9366 -33.9005
   -33.8105 -33.7306 -33.6942 -33.6247 -33.6114 -33.5535 -33.5146 -33.4192
   -19.3671 -19.0907 -18.8353 -18.2830 -18.0097 -17.9172 -17.8238 -17.7750
   -17.7417 -17.4917 -17.4821 -17.0914 -16.5711  -7.1223  -6.6199  -6.5396
    -6.0836  -5.6694  -5.5385  -5.5340  -5.1561  -5.0375  -4.8744  -4.8012
    -4.6950  -4.3898  -4.3641  -4.2823  -4.2686  -3.7529  -3.7511  -3.5553
    -3.4578  -3.3877  -3.1536  -3.1346  -2.9902  -2.8814  -2.8347  -2.8328
    -2.6628  -2.6465  -2.6445  -2.1920  -2.1018  -2.0470  -1.9850  -1.8018
    -1.5171  -1.4708  -1.4350  -1.2346   0.3427   0.8980   0.9382   1.2560
     1.4554   1.4604   1.5231   1.6312   1.9056   2.0496   2.0907   2.2206
     2.8462   2.8807

          k = 0.0000 0.1139 0.0000 ( 40609 PWs)   bands (ev):

   -58.6811 -57.8330 -57.8187 -57.5660 -57.3373 -57.3249 -34.9349 -34.9237
   -34.7522 -34.1588 -34.1135 -34.0440 -34.0346 -33.9512 -33.9391 -33.9046
   -33.8106 -33.7077 -33.6918 -33.6248 -33.6116 -33.5796 -33.5142 -33.4196
   -19.2504 -18.9734 -18.7224 -18.3897 -18.1957 -18.0585 -17.7946 -17.7385
   -17.7212 -17.5771 -17.4762 -17.0913 -16.5693  -6.8252  -6.3421  -6.2595
    -6.0908  -5.5936  -5.4977  -5.4308  -5.0700  -4.9474  -4.8259  -4.8008
    -4.6444  -4.4859  -4.3637  -4.3093  -4.2817  -4.1031  -4.0313  -3.7731
    -3.6339  -3.5639  -3.2726  -3.2048  -3.0141  -2.9407  -2.8921  -2.8688
    -2.7245  -2.6147  -2.4106  -2.2861  -2.2599  -2.1698  -2.1131  -1.9065
    -1.6416  -1.5663  -1.4893  -1.3241   0.5764   0.8951   1.2339   1.4661
     1.5441   1.5583   1.7324   1.8881   1.9278   2.0653   2.0827   2.1297
     2.2881   2.9113

          k = 0.0000-0.2277 0.0000 ( 40526 PWs)   bands (ev):

   -58.6811 -57.8323 -57.8194 -57.5660 -57.3365 -57.3257 -34.9349 -34.9205
   -34.7522 -34.1153 -34.1110 -34.0819 -34.0437 -33.9459 -33.9444 -33.9088
   -33.8106 -33.6963 -33.6446 -33.6391 -33.6248 -33.6118 -33.5138 -33.4200
   -19.0740 -18.7686 -18.6543 -18.4489 -18.4132 -18.2784 -17.7702 -17.7399
   -17.6986 -17.6574 -17.4728 -17.0921 -16.5678  -6.4262  -6.1597  -5.9292
    -5.8394  -5.5861  -5.4540  -5.1915  -5.0350  -4.8007  -4.7985  -4.7726
    -4.5894  -4.5299  -4.5272  -4.4727  -4.3629  -4.2810  -4.2114  -4.1565
    -4.0144  -3.7649  -3.5017  -3.2849  -3.0466  -2.9705  -2.9684  -2.8933
    -2.8257  -2.5724  -2.5166  -2.3647  -2.1652  -2.1394  -2.0099  -1.9576
    -1.7465  -1.6991  -1.6051  -1.3393   0.7264   0.8933   1.4901   1.5353
     1.6471   1.7876   1.8775   1.9714   1.9794   2.1710   2.1983   2.2611
     2.4468   2.6103

          k = 0.0000-0.1139 0.0000 ( 40609 PWs)   bands (ev):

   -58.6811 -57.8330 -57.8187 -57.5660 -57.3373 -57.3249 -34.9349 -34.9237
   -34.7522 -34.1588 -34.1135 -34.0440 -34.0346 -33.9512 -33.9391 -33.9046
   -33.8106 -33.7077 -33.6918 -33.6248 -33.6116 -33.5796 -33.5142 -33.4196
   -19.2504 -18.9734 -18.7224 -18.3897 -18.1957 -18.0585 -17.7946 -17.7385
   -17.7212 -17.5771 -17.4762 -17.0913 -16.5693  -6.8252  -6.3421  -6.2595
    -6.0908  -5.5936  -5.4977  -5.4308  -5.0700  -4.9474  -4.8259  -4.8008
    -4.6444  -4.4859  -4.3637  -4.3093  -4.2817  -4.1031  -4.0313  -3.7731
    -3.6339  -3.5639  -3.2726  -3.2048  -3.0141  -2.9407  -2.8921  -2.8688
    -2.7245  -2.6147  -2.4106  -2.2861  -2.2599  -2.1698  -2.1131  -1.9065
    -1.6416  -1.5663  -1.4893  -1.3241   0.5764   0.8951   1.2339   1.4661
     1.5441   1.5583   1.7324   1.8881   1.9278   2.0653   2.0827   2.1297
     2.2881   2.9113

          k = 0.1250 0.0000 0.0000 ( 40652 PWs)   bands (ev):

   -58.6752 -57.8275 -57.8123 -57.5600 -57.3319 -57.3181 -34.9300 -34.9106
   -34.8204 -34.1654 -34.1020 -34.0383 -34.0195 -34.0072 -34.0047 -33.8964
   -33.7958 -33.7141 -33.6935 -33.6892 -33.6044 -33.5809 -33.5494 -33.4873
   -19.2237 -18.9556 -18.7053 -18.1633 -18.0858 -17.8318 -17.8218 -17.7262
   -17.7049 -17.5599 -17.5384 -17.1282 -16.6230  -6.9227  -6.4303  -6.3686
    -5.9096  -5.7561  -5.4835  -5.4620  -5.3216  -5.1433  -4.9740  -4.9337
    -4.8050  -4.3529  -4.2641  -4.1736  -3.9421  -3.8744  -3.5985  -3.5196
    -3.4302  -3.2637  -3.2263  -3.2256  -3.1975  -3.0950  -2.9834  -2.7450
    -2.7408  -2.6121  -2.5773  -2.5535  -2.3048  -2.2473  -2.0942  -2.0355
    -1.9704  -1.6684  -1.3601  -1.3118   0.6257   0.8803   1.2104   1.2188
     1.4505   1.5762   1.7162   1.7692   1.8806   1.9411   2.1765   2.2538
     2.3240   2.7347

          k = 0.1250 0.1139 0.0000 ( 40695 PWs)   bands (ev):

   -58.6752 -57.8269 -57.8129 -57.5600 -57.3313 -57.3188 -34.9300 -34.9079
   -34.8207 -34.1444 -34.1017 -34.0413 -34.0350 -34.0149 -34.0005 -33.8996
   -33.7958 -33.6980 -33.6934 -33.6840 -33.6045 -33.5885 -33.5639 -33.4872
   -19.1126 -18.8449 -18.5985 -18.3123 -18.1921 -18.0160 -17.7613 -17.7128
   -17.6697 -17.6307 -17.5336 -17.1283 -16.6215  -6.6285  -6.1569  -6.0854
    -5.9159  -5.6873  -5.5134  -5.3578  -5.2321  -5.1475  -4.9972  -4.8013
    -4.7222  -4.3822  -4.2967  -4.1181  -4.0586  -4.0178  -3.8628  -3.6763
    -3.6504  -3.5773  -3.4335  -3.3346  -3.3035  -3.1745  -3.0760  -2.8518
    -2.7783  -2.7061  -2.6000  -2.4395  -2.3104  -2.2504  -2.1301  -2.0588
    -1.9594  -1.6720  -1.4505  -1.3162   0.8278   0.9178   1.2869   1.4999
     1.5966   1.6503   1.8330   1.9415   1.9860   2.0447   2.1907   2.2366
     2.3855   2.7804

          k = 0.1250-0.2277 0.0000 ( 40666 PWs)   bands (ev):

   -58.6752 -57.8263 -57.8135 -57.5600 -57.3306 -57.3195 -34.9300 -34.9051
   -34.8210 -34.1015 -34.0987 -34.0861 -34.0380 -34.0106 -34.0035 -33.9028
   -33.7958 -33.6934 -33.6924 -33.6481 -33.6245 -33.6042 -33.5703 -33.4873
   -18.9346 -18.6442 -18.5652 -18.3997 -18.3425 -18.2387 -17.7340 -17.7316
   -17.6848 -17.6439 -17.5312 -17.1290 -16.6201  -6.2019  -5.9827  -5.7564
    -5.6755  -5.6427  -5.4771  -5.2998  -5.2073  -5.0727  -4.9442  -4.7019
    -4.6501  -4.4579  -4.4122  -4.2252  -4.1863  -4.1380  -4.0977  -3.8984
    -3.8310  -3.8089  -3.7555  -3.6587  -3.3995  -3.3431  -3.1433  -2.8913
    -2.8526  -2.7060  -2.6344  -2.4170  -2.3243  -2.1983  -1.9983  -1.9659
    -1.8366  -1.6945  -1.6610  -1.3136   0.8843   1.0022   1.4314   1.6129
     1.6535   1.8290   1.8715   2.0961   2.1942   2.2105   2.2359   2.2684
     2.4884   2.5627

          k = 0.1250-0.1139 0.0000 ( 40695 PWs)   bands (ev):

   -58.6752 -57.8269 -57.8129 -57.5600 -57.3313 -57.3188 -34.9300 -34.9079
   -34.8207 -34.1444 -34.1017 -34.0413 -34.0350 -34.0149 -34.0005 -33.8996
   -33.7958 -33.6980 -33.6934 -33.6840 -33.6045 -33.5885 -33.5639 -33.4872
   -19.1126 -18.8449 -18.5985 -18.3123 -18.1921 -18.0160 -17.7613 -17.7128
   -17.6697 -17.6307 -17.5336 -17.1283 -16.6215  -6.6285  -6.1569  -6.0854
    -5.9159  -5.6873  -5.5134  -5.3578  -5.2321  -5.1475  -4.9972  -4.8013
    -4.7222  -4.3822  -4.2967  -4.1181  -4.0586  -4.0178  -3.8628  -3.6763
    -3.6504  -3.5773  -3.4335  -3.3346  -3.3035  -3.1745  -3.0760  -2.8518
    -2.7783  -2.7061  -2.6000  -2.4395  -2.3104  -2.2504  -2.1301  -2.0588
    -1.9594  -1.6720  -1.4505  -1.3162   0.8278   0.9178   1.2869   1.4999
     1.5966   1.6503   1.8330   1.9415   1.9860   2.0447   2.1907   2.2366
     2.3855   2.7818

          k = 0.2500 0.0000 0.0000 ( 40766 PWs)   bands (ev):

   -58.6610 -57.8124 -57.7986 -57.5457 -57.3171 -57.3036 -34.9817 -34.9182
   -34.8710 -34.1893 -34.1709 -34.1219 -34.0560 -34.0245 -34.0015 -33.8868
   -33.8554 -33.7596 -33.7440 -33.6874 -33.6731 -33.6718 -33.5465 -33.5402
   -18.8689 -18.6208 -18.3800 -18.2687 -17.9698 -17.8839 -17.7396 -17.7247
   -17.6495 -17.5948 -17.4788 -17.1840 -16.6928  -6.4148  -5.9666  -5.9565
    -5.8800  -5.5802  -5.5587  -5.3749  -5.3385  -5.2911  -4.9572  -4.8419
    -4.7261  -4.5773  -4.4368  -4.2013  -4.1490  -4.0434  -3.8742  -3.8120
    -3.7730  -3.5354  -3.3614  -3.2002  -3.1906  -3.0826  -3.0551  -2.9203
    -2.8915  -2.6555  -2.5710  -2.5561  -2.5416  -2.4094  -2.3626  -2.2342
    -2.0570  -1.7813  -1.5147  -1.4909   0.8613   1.0403   1.0679   1.5724
     1.6444   1.6914   1.8801   1.8903   2.0114   2.2280   2.4400   2.4437
     2.5219   2.5219

          k = 0.2500 0.1139 0.0000 ( 40754 PWs)   bands (ev):

   -58.6610 -57.8121 -57.7989 -57.5457 -57.3167 -57.3039 -34.9826 -34.9181
   -34.8694 -34.1913 -34.1803 -34.0970 -34.0557 -34.0247 -34.0151 -33.8877
   -33.8552 -33.7597 -33.7547 -33.6890 -33.6718 -33.6464 -33.5556 -33.5455
   -18.7900 -18.5417 -18.3695 -18.3067 -18.0977 -17.9257 -17.7656 -17.7267
   -17.6223 -17.5898 -17.4770 -17.1851 -16.6926  -6.1774  -5.7789  -5.7382
    -5.7072  -5.5687  -5.4694  -5.3743  -5.3186  -5.2456  -5.1355  -4.8395
    -4.8171  -4.5997  -4.3781  -4.3021  -4.1965  -4.0779  -3.9837  -3.7624
    -3.6898  -3.6078  -3.5354  -3.4077  -3.3359  -3.2977  -3.1772  -3.1363
    -2.9912  -2.7995  -2.6029  -2.5355  -2.4319  -2.3274  -2.2462  -2.1020
    -2.0214  -1.8104  -1.5923  -1.4690   0.8881   1.0724   1.2615   1.5611
     1.6139   1.7654   1.9937   2.0345   2.0926   2.2475   2.4078   2.4446
     2.5587   2.5655

          k = 0.2500-0.2277 0.0000 ( 40742 PWs)   bands (ev):

   -58.6610 -57.8117 -57.7993 -57.5457 -57.3163 -57.3043 -34.9835 -34.9181
   -34.8678 -34.1902 -34.1894 -34.0618 -34.0519 -34.0459 -34.0250 -33.8886
   -33.8551 -33.7622 -33.7597 -33.6905 -33.6718 -33.6093 -33.5837 -33.5460
   -18.5913 -18.5870 -18.3431 -18.3341 -18.1458 -18.0826 -17.7730 -17.7189
   -17.6072 -17.5861 -17.4762 -17.1863 -16.6924  -5.8347  -5.6555  -5.6086
    -5.4430  -5.4177  -5.2938  -5.2447  -5.2219  -5.2201  -5.1237  -5.1125
    -4.9260  -4.7437  -4.7177  -4.2721  -4.2117  -4.1208  -3.9098  -3.8594
    -3.7999  -3.7474  -3.6417  -3.5414  -3.5105  -3.3980  -3.3373  -3.1895
    -3.1147  -2.9363  -2.6121  -2.5726  -2.3237  -2.2574  -2.1246  -2.1094
    -1.8466  -1.8173  -1.6763  -1.4695   0.9684   1.0387   1.3974   1.5728
     1.6021   1.7472   2.0359   2.1487   2.2994   2.3707   2.4001   2.4525
     2.6024   2.6298

          k = 0.2500-0.1139 0.0000 ( 40754 PWs)   bands (ev):

   -58.6610 -57.8121 -57.7989 -57.5457 -57.3167 -57.3039 -34.9826 -34.9181
   -34.8694 -34.1913 -34.1803 -34.0970 -34.0557 -34.0247 -34.0151 -33.8877
   -33.8552 -33.7597 -33.7547 -33.6890 -33.6718 -33.6464 -33.5556 -33.5455
   -18.7900 -18.5417 -18.3695 -18.3067 -18.0977 -17.9257 -17.7656 -17.7267
   -17.6223 -17.5898 -17.4770 -17.1851 -16.6926  -6.1774  -5.7789  -5.7382
    -5.7072  -5.5687  -5.4694  -5.3743  -5.3186  -5.2456  -5.1355  -4.8395
    -4.8171  -4.5997  -4.3781  -4.3021  -4.1965  -4.0779  -3.9837  -3.7624
    -3.6898  -3.6078  -3.5354  -3.4077  -3.3359  -3.2977  -3.1772  -3.1363
    -2.9912  -2.7995  -2.6029  -2.5355  -2.4319  -2.3274  -2.2462  -2.1020
    -2.0214  -1.8104  -1.5923  -1.4690   0.8881   1.0724   1.2615   1.5611
     1.6139   1.7654   1.9937   2.0345   2.0926   2.2475   2.4078   2.4446
     2.5587   2.5655

          k = 0.3750 0.0000 0.0000 ( 40826 PWs)   bands (ev):

   -58.6467 -57.7973 -57.7848 -57.5313 -57.3022 -57.2889 -35.1386 -34.9065
   -34.8307 -34.3464 -34.3273 -34.0726 -34.0333 -34.0214 -34.0011 -33.9937
   -33.8969 -33.8774 -33.8489 -33.7229 -33.6601 -33.6296 -33.5330 -33.5202
   -18.4966 -18.4504 -18.2656 -18.1090 -18.0174 -17.8893 -17.8879 -17.6481
   -17.6263 -17.5025 -17.4065 -17.0823 -16.6261  -5.8974  -5.7873  -5.6953
    -5.6723  -5.5360  -5.5089  -5.4841  -5.3464  -5.2467  -5.2224  -5.1359
    -4.9534  -4.6552  -4.6060  -4.2448  -4.1566  -4.1120  -3.9601  -3.9517
    -3.8883  -3.8351  -3.6570  -3.3754  -3.3514  -3.1585  -3.1356  -2.9237
    -2.8107  -2.7011  -2.5546  -2.4782  -2.4373  -2.3926  -2.2016  -2.1379
    -2.0564  -2.0147  -1.7463  -1.5909   0.6455   1.2482   1.3636   1.5196
     1.8512   1.8867   2.0583   2.0726   2.1723   2.2908   2.3458   2.4404
     2.4973   2.5865

          k = 0.3750 0.1139 0.0000 ( 40790 PWs)   bands (ev):

   -58.6467 -57.7972 -57.7849 -57.5313 -57.3021 -57.2890 -35.1398 -34.9065
   -34.8304 -34.3470 -34.3336 -34.0588 -34.0330 -34.0216 -34.0075 -33.9937
   -33.9037 -33.8762 -33.8498 -33.7229 -33.6601 -33.6163 -33.5383 -33.5201
   -18.6484 -18.3482 -18.3023 -18.1309 -18.0270 -17.8709 -17.8160 -17.6497
   -17.5877 -17.5029 -17.4103 -17.0846 -16.6267  -6.0366  -5.7714  -5.7406
    -5.6044  -5.5625  -5.5294  -5.3965  -5.3074  -5.1723  -5.1266  -5.0529
    -5.0109  -4.6560  -4.5384  -4.2797  -4.1295  -4.0968  -4.0186  -3.9562
    -3.7538  -3.6865  -3.6495  -3.4830  -3.3393  -3.1926  -3.1148  -2.8794
    -2.8568  -2.7566  -2.6693  -2.6392  -2.4635  -2.3418  -2.1939  -2.1515
    -2.1218  -2.0386  -1.7148  -1.6591   0.6307   1.0593   1.3554   1.4192
     1.6821   1.8109   2.0558   2.1556   2.3125   2.3603   2.4419   2.4761
     2.5071   2.5990

          k = 0.3750-0.2277 0.0000 ( 40742 PWs)   bands (ev):

   -58.6467 -57.7971 -57.7850 -57.5313 -57.3020 -57.2892 -35.1411 -34.9065
   -34.8302 -34.3473 -34.3399 -34.0382 -34.0327 -34.0234 -34.0193 -33.9936
   -33.9100 -33.8750 -33.8506 -33.7229 -33.6601 -33.6011 -33.5458 -33.5201
   -18.7197 -18.4031 -18.2482 -18.1728 -17.9966 -17.8498 -17.7821 -17.6504
   -17.5494 -17.5030 -17.4141 -17.0869 -16.6273  -6.1008  -5.8123  -5.7392
    -5.6759  -5.5499  -5.4490  -5.4016  -5.2855  -5.2146  -4.9721  -4.9489
    -4.8224  -4.6614  -4.5778  -4.2613  -4.1681  -4.0529  -3.9904  -3.9358
    -3.9162  -3.6231  -3.5677  -3.4489  -3.3884  -3.1059  -3.0679  -2.9955
    -2.9883  -2.7555  -2.6674  -2.6513  -2.5165  -2.3768  -2.3206  -2.2490
    -2.0983  -1.9969  -1.7077  -1.6936   0.6668   0.7934   1.3027   1.4335
     1.5900   1.7952   2.0225   2.1938   2.3120   2.4166   2.5295   2.5393
     2.5854   2.6181

          k = 0.3750-0.1139 0.0000 ( 40790 PWs)   bands (ev):

   -58.6467 -57.7972 -57.7849 -57.5313 -57.3021 -57.2890 -35.1398 -34.9065
   -34.8304 -34.3470 -34.3336 -34.0588 -34.0330 -34.0216 -34.0075 -33.9937
   -33.9037 -33.8762 -33.8498 -33.7229 -33.6601 -33.6163 -33.5383 -33.5201
   -18.6484 -18.3482 -18.3023 -18.1309 -18.0270 -17.8709 -17.8160 -17.6497
   -17.5877 -17.5029 -17.4103 -17.0846 -16.6267  -6.0366  -5.7714  -5.7406
    -5.6044  -5.5625  -5.5294  -5.3965  -5.3074  -5.1723  -5.1266  -5.0529
    -5.0109  -4.6560  -4.5384  -4.2797  -4.1295  -4.0968  -4.0186  -3.9562
    -3.7538  -3.6865  -3.6495  -3.4830  -3.3393  -3.1926  -3.1148  -2.8794
    -2.8568  -2.7567  -2.6693  -2.6391  -2.4635  -2.3418  -2.1939  -2.1515
    -2.1218  -2.0386  -1.7148  -1.6591   0.6307   1.0593   1.3554   1.4192
     1.6821   1.8109   2.0558   2.1556   2.3125   2.3603   2.4419   2.4762
     2.5071   2.5990

          k =-0.5000 0.0000 0.0000 ( 40852 PWs)   bands (ev):

   -58.6408 -57.7910 -57.7791 -57.5253 -57.2960 -57.2828 -35.2023 -34.9017
   -34.8138 -34.4110 -34.3908 -34.0855 -34.0462 -34.0070 -34.0068 -34.0036
   -33.9593 -33.9136 -33.8735 -33.7076 -33.6547 -33.6102 -33.5313 -33.5072
   -18.5253 -18.3327 -18.1670 -18.1009 -17.9701 -17.9574 -17.8091 -17.6960
   -17.5885 -17.4424 -17.4256 -16.9901 -16.5540  -5.8770  -5.8482  -5.7340
    -5.6804  -5.5731  -5.4491  -5.4035  -5.3598  -5.3352  -5.2948  -5.0516
    -5.0476  -4.5643  -4.4942  -4.3855  -4.3445  -4.2969  -4.1033  -3.9268
    -3.9257  -3.6264  -3.4511  -3.4014  -3.2272  -3.2196  -3.1414  -2.9120
    -2.8217  -2.7270  -2.7062  -2.5168  -2.4082  -2.3643  -2.1904  -2.1512
    -2.1024  -1.9472  -1.9052  -1.5482   0.6068   1.3293   1.4659   1.7181
     1.7217   1.9177   2.0801   2.1589   2.1870   2.2308   2.2896   2.3912
     2.5364   2.6300

          k =-0.5000 0.1139 0.0000 ( 40798 PWs)   bands (ev):

   -58.6408 -57.7910 -57.7791 -57.5253 -57.2960 -57.2828 -35.2037 -34.9017
   -34.8141 -34.4116 -34.3965 -34.0851 -34.0399 -34.0071 -34.0061 -34.0037
   -33.9655 -33.9142 -33.8714 -33.7076 -33.6547 -33.6033 -33.5306 -33.5072
   -18.6886 -18.3561 -18.1747 -18.1245 -17.9683 -17.9035 -17.6878 -17.6260
   -17.5915 -17.4433 -17.4309 -16.9914 -16.5536  -6.2499  -5.9433  -5.8423
    -5.7814  -5.6872  -5.5319  -5.3597  -5.2324  -5.0909  -5.0558  -4.9161
    -4.8321  -4.5463  -4.4647  -4.3789  -4.3528  -4.1534  -4.0287  -3.8788
    -3.8536  -3.7039  -3.4649  -3.4101  -3.3451  -3.1599  -2.9931  -2.8431
    -2.7815  -2.7723  -2.6049  -2.5935  -2.4783  -2.4428  -2.2114  -2.1781
    -2.1527  -2.0815  -1.9552  -1.6337   0.5693   0.9452   1.3469   1.3801
     1.6831   1.8440   2.1726   2.1891   2.2249   2.3257   2.3492   2.5272
     2.5538   2.6117

          k =-0.5000-0.2277 0.0000 ( 40760 PWs)   bands (ev):

   -58.6408 -57.7910 -57.7791 -57.5253 -57.2960 -57.2828 -35.2051 -34.9017
   -34.8145 -34.4122 -34.4020 -34.0848 -34.0337 -34.0072 -34.0054 -34.0037
   -33.9714 -33.9149 -33.8694 -33.7076 -33.6547 -33.5965 -33.5298 -33.5072
   -18.7816 -18.4455 -18.2354 -18.0571 -17.9666 -17.8103 -17.6784 -17.5957
   -17.5246 -17.4409 -17.4394 -16.9926 -16.5533  -6.4336  -6.1026  -5.9921
    -5.8034  -5.6460  -5.4796  -5.4139  -5.0652  -5.0435  -4.9469  -4.8766
    -4.7538  -4.5872  -4.4424  -4.4360  -4.1115  -3.9572  -3.9451  -3.8207
    -3.7773  -3.6605  -3.4705  -3.3855  -3.3560  -3.0652  -2.9560  -2.9516
    -2.8344  -2.7874  -2.7731  -2.4801  -2.4792  -2.4179  -2.2921  -2.2153
    -2.1797  -2.1540  -2.1038  -1.7065   0.5321   0.6447   1.1251   1.3619
     1.6482   1.7118   2.1825   2.1961   2.2085   2.3233   2.5247   2.5516
     2.5978   2.6003

          k =-0.5000-0.1139 0.0000 ( 40798 PWs)   bands (ev):

   -58.6408 -57.7910 -57.7791 -57.5253 -57.2960 -57.2828 -35.2037 -34.9017
   -34.8141 -34.4116 -34.3965 -34.0851 -34.0399 -34.0071 -34.0061 -34.0037
   -33.9655 -33.9142 -33.8714 -33.7076 -33.6547 -33.6033 -33.5306 -33.5072
   -18.6886 -18.3561 -18.1747 -18.1245 -17.9683 -17.9035 -17.6878 -17.6260
   -17.5915 -17.4433 -17.4309 -16.9914 -16.5536  -6.2499  -5.9433  -5.8423
    -5.7814  -5.6872  -5.5319  -5.3597  -5.2324  -5.0909  -5.0558  -4.9161
    -4.8321  -4.5463  -4.4647  -4.3789  -4.3528  -4.1534  -4.0287  -3.8788
    -3.8536  -3.7039  -3.4649  -3.4101  -3.3451  -3.1599  -2.9931  -2.8431
    -2.7815  -2.7723  -2.6049  -2.5935  -2.4783  -2.4428  -2.2114  -2.1781
    -2.1527  -2.0815  -1.9552  -1.6337   0.5693   0.9452   1.3469   1.3801
     1.6831   1.8440   2.1726   2.1891   2.2249   2.3257   2.3492   2.5273
     2.5539   2.6117

          k =-0.3750 0.0000 0.0000 ( 40826 PWs)   bands (ev):

   -58.6467 -57.7973 -57.7848 -57.5313 -57.3022 -57.2889 -35.1386 -34.9065
   -34.8307 -34.3464 -34.3273 -34.0726 -34.0333 -34.0214 -34.0011 -33.9937
   -33.8969 -33.8774 -33.8489 -33.7229 -33.6601 -33.6296 -33.5330 -33.5202
   -18.4966 -18.4504 -18.2656 -18.1090 -18.0174 -17.8893 -17.8879 -17.6481
   -17.6263 -17.5025 -17.4065 -17.0823 -16.6261  -5.8974  -5.7873  -5.6953
    -5.6723  -5.5360  -5.5089  -5.4841  -5.3464  -5.2467  -5.2224  -5.1359
    -4.9534  -4.6552  -4.6060  -4.2448  -4.1566  -4.1120  -3.9601  -3.9517
    -3.8883  -3.8351  -3.6570  -3.3754  -3.3514  -3.1585  -3.1356  -2.9237
    -2.8107  -2.7011  -2.5546  -2.4782  -2.4373  -2.3926  -2.2016  -2.1379
    -2.0564  -2.0147  -1.7463  -1.5909   0.6455   1.2482   1.3636   1.5196
     1.8512   1.8867   2.0583   2.0726   2.1723   2.2908   2.3458   2.4404
     2.4973   2.5871

          k =-0.3750 0.1139 0.0000 ( 40790 PWs)   bands (ev):

   -58.6467 -57.7972 -57.7849 -57.5313 -57.3021 -57.2890 -35.1398 -34.9065
   -34.8304 -34.3470 -34.3336 -34.0588 -34.0330 -34.0216 -34.0075 -33.9937
   -33.9037 -33.8762 -33.8498 -33.7229 -33.6601 -33.6163 -33.5383 -33.5201
   -18.6484 -18.3482 -18.3023 -18.1309 -18.0270 -17.8709 -17.8160 -17.6497
   -17.5877 -17.5029 -17.4103 -17.0846 -16.6267  -6.0366  -5.7714  -5.7406
    -5.6044  -5.5625  -5.5294  -5.3965  -5.3074  -5.1723  -5.1266  -5.0529
    -5.0109  -4.6560  -4.5384  -4.2797  -4.1295  -4.0968  -4.0186  -3.9562
    -3.7538  -3.6865  -3.6495  -3.4830  -3.3393  -3.1926  -3.1148  -2.8794
    -2.8568  -2.7567  -2.6693  -2.6391  -2.4635  -2.3418  -2.1939  -2.1515
    -2.1218  -2.0386  -1.7148  -1.6591   0.6307   1.0593   1.3554   1.4192
     1.6821   1.8109   2.0558   2.1556   2.3125   2.3603   2.4418   2.4761
     2.5071   2.5990

          k =-0.3750-0.2277 0.0000 ( 40742 PWs)   bands (ev):

   -58.6467 -57.7971 -57.7850 -57.5313 -57.3020 -57.2892 -35.1411 -34.9065
   -34.8302 -34.3473 -34.3399 -34.0382 -34.0327 -34.0234 -34.0193 -33.9936
   -33.9100 -33.8750 -33.8506 -33.7229 -33.6601 -33.6011 -33.5458 -33.5201
   -18.7197 -18.4031 -18.2482 -18.1728 -17.9966 -17.8498 -17.7821 -17.6504
   -17.5494 -17.5030 -17.4141 -17.0869 -16.6273  -6.1008  -5.8123  -5.7392
    -5.6759  -5.5499  -5.4490  -5.4016  -5.2855  -5.2146  -4.9721  -4.9489
    -4.8224  -4.6614  -4.5778  -4.2613  -4.1681  -4.0529  -3.9904  -3.9358
    -3.9162  -3.6231  -3.5677  -3.4489  -3.3884  -3.1059  -3.0679  -2.9955
    -2.9883  -2.7555  -2.6674  -2.6513  -2.5165  -2.3768  -2.3206  -2.2490
    -2.0983  -1.9969  -1.7077  -1.6936   0.6668   0.7934   1.3027   1.4335
     1.5900   1.7952   2.0225   2.1938   2.3120   2.4165   2.5294   2.5390
     2.5853   2.6180

          k =-0.3750-0.1139 0.0000 ( 40790 PWs)   bands (ev):

   -58.6467 -57.7972 -57.7849 -57.5313 -57.3021 -57.2890 -35.1398 -34.9065
   -34.8304 -34.3470 -34.3336 -34.0588 -34.0330 -34.0216 -34.0075 -33.9937
   -33.9037 -33.8762 -33.8498 -33.7229 -33.6601 -33.6163 -33.5383 -33.5201
   -18.6484 -18.3482 -18.3023 -18.1309 -18.0270 -17.8709 -17.8160 -17.6497
   -17.5877 -17.5029 -17.4103 -17.0846 -16.6267  -6.0366  -5.7714  -5.7406
    -5.6044  -5.5625  -5.5294  -5.3965  -5.3074  -5.1723  -5.1266  -5.0529
    -5.0109  -4.6560  -4.5384  -4.2797  -4.1295  -4.0968  -4.0186  -3.9562
    -3.7538  -3.6865  -3.6495  -3.4830  -3.3393  -3.1926  -3.1148  -2.8794
    -2.8568  -2.7566  -2.6693  -2.6392  -2.4635  -2.3418  -2.1939  -2.1515
    -2.1218  -2.0386  -1.7148  -1.6591   0.6307   1.0593   1.3554   1.4192
     1.6821   1.8109   2.0558   2.1556   2.3125   2.3603   2.4419   2.4761
     2.5071   2.5990

          k =-0.2500 0.0000 0.0000 ( 40766 PWs)   bands (ev):

   -58.6610 -57.8124 -57.7986 -57.5457 -57.3171 -57.3036 -34.9817 -34.9182
   -34.8710 -34.1893 -34.1709 -34.1219 -34.0560 -34.0245 -34.0015 -33.8868
   -33.8554 -33.7596 -33.7440 -33.6874 -33.6731 -33.6718 -33.5465 -33.5402
   -18.8689 -18.6208 -18.3800 -18.2687 -17.9698 -17.8839 -17.7396 -17.7247
   -17.6495 -17.5948 -17.4788 -17.1840 -16.6928  -6.4148  -5.9666  -5.9565
    -5.8800  -5.5802  -5.5587  -5.3749  -5.3385  -5.2911  -4.9572  -4.8419
    -4.7261  -4.5773  -4.4368  -4.2013  -4.1490  -4.0434  -3.8742  -3.8120
    -3.7730  -3.5354  -3.3614  -3.2002  -3.1906  -3.0826  -3.0551  -2.9203
    -2.8915  -2.6555  -2.5710  -2.5561  -2.5416  -2.4094  -2.3626  -2.2342
    -2.0570  -1.7813  -1.5147  -1.4909   0.8613   1.0403   1.0679   1.5724
     1.6444   1.6914   1.8801   1.8903   2.0113   2.2280   2.4398   2.4437
     2.5219   2.5219

          k =-0.2500 0.1139 0.0000 ( 40754 PWs)   bands (ev):

   -58.6610 -57.8121 -57.7989 -57.5457 -57.3167 -57.3039 -34.9826 -34.9181
   -34.8694 -34.1913 -34.1803 -34.0970 -34.0557 -34.0247 -34.0151 -33.8877
   -33.8552 -33.7597 -33.7547 -33.6890 -33.6718 -33.6464 -33.5556 -33.5455
   -18.7900 -18.5417 -18.3695 -18.3067 -18.0977 -17.9257 -17.7656 -17.7267
   -17.6223 -17.5898 -17.4770 -17.1851 -16.6926  -6.1774  -5.7789  -5.7382
    -5.7072  -5.5687  -5.4694  -5.3743  -5.3186  -5.2456  -5.1355  -4.8395
    -4.8171  -4.5997  -4.3781  -4.3021  -4.1965  -4.0779  -3.9837  -3.7624
    -3.6898  -3.6078  -3.5354  -3.4077  -3.3359  -3.2977  -3.1772  -3.1363
    -2.9912  -2.7995  -2.6029  -2.5355  -2.4319  -2.3274  -2.2462  -2.1020
    -2.0214  -1.8104  -1.5923  -1.4690   0.8881   1.0724   1.2615   1.5611
     1.6139   1.7654   1.9937   2.0345   2.0926   2.2475   2.4078   2.4446
     2.5587   2.5654

          k =-0.2500-0.2277 0.0000 ( 40742 PWs)   bands (ev):

   -58.6610 -57.8117 -57.7993 -57.5457 -57.3163 -57.3043 -34.9835 -34.9181
   -34.8678 -34.1902 -34.1894 -34.0618 -34.0519 -34.0459 -34.0250 -33.8886
   -33.8551 -33.7622 -33.7597 -33.6905 -33.6718 -33.6093 -33.5837 -33.5460
   -18.5913 -18.5870 -18.3431 -18.3341 -18.1458 -18.0826 -17.7730 -17.7189
   -17.6072 -17.5861 -17.4762 -17.1863 -16.6924  -5.8347  -5.6555  -5.6086
    -5.4430  -5.4177  -5.2938  -5.2447  -5.2219  -5.2201  -5.1237  -5.1125
    -4.9260  -4.7437  -4.7177  -4.2721  -4.2117  -4.1208  -3.9098  -3.8594
    -3.7999  -3.7474  -3.6417  -3.5414  -3.5105  -3.3980  -3.3373  -3.1895
    -3.1147  -2.9363  -2.6121  -2.5726  -2.3237  -2.2574  -2.1246  -2.1094
    -1.8466  -1.8173  -1.6763  -1.4695   0.9684   1.0387   1.3974   1.5727
     1.6022   1.7472   2.0359   2.1489   2.2994   2.3711   2.4001   2.4525
     2.6024   2.6331

          k =-0.2500-0.1139 0.0000 ( 40754 PWs)   bands (ev):

   -58.6610 -57.8121 -57.7989 -57.5457 -57.3167 -57.3039 -34.9826 -34.9181
   -34.8694 -34.1913 -34.1803 -34.0970 -34.0557 -34.0247 -34.0151 -33.8877
   -33.8552 -33.7597 -33.7547 -33.6890 -33.6718 -33.6464 -33.5556 -33.5455
   -18.7900 -18.5417 -18.3695 -18.3067 -18.0977 -17.9257 -17.7656 -17.7267
   -17.6223 -17.5898 -17.4770 -17.1851 -16.6926  -6.1774  -5.7789  -5.7382
    -5.7072  -5.5687  -5.4694  -5.3743  -5.3186  -5.2456  -5.1355  -4.8395
    -4.8171  -4.5997  -4.3781  -4.3021  -4.1965  -4.0779  -3.9837  -3.7624
    -3.6898  -3.6078  -3.5354  -3.4077  -3.3359  -3.2977  -3.1772  -3.1363
    -2.9912  -2.7995  -2.6029  -2.5355  -2.4319  -2.3274  -2.2462  -2.1020
    -2.0214  -1.8104  -1.5923  -1.4690   0.8881   1.0724   1.2615   1.5611
     1.6139   1.7654   1.9937   2.0345   2.0926   2.2475   2.4078   2.4446
     2.5586   2.5654

          k =-0.1250 0.0000 0.0000 ( 40652 PWs)   bands (ev):

   -58.6752 -57.8275 -57.8123 -57.5600 -57.3319 -57.3181 -34.9300 -34.9106
   -34.8204 -34.1654 -34.1020 -34.0383 -34.0195 -34.0072 -34.0047 -33.8964
   -33.7958 -33.7141 -33.6935 -33.6892 -33.6044 -33.5809 -33.5494 -33.4873
   -19.2237 -18.9556 -18.7053 -18.1633 -18.0858 -17.8318 -17.8218 -17.7262
   -17.7049 -17.5599 -17.5384 -17.1282 -16.6230  -6.9227  -6.4303  -6.3686
    -5.9096  -5.7561  -5.4835  -5.4620  -5.3216  -5.1433  -4.9740  -4.9337
    -4.8050  -4.3529  -4.2641  -4.1736  -3.9421  -3.8744  -3.5985  -3.5196
    -3.4302  -3.2637  -3.2263  -3.2256  -3.1975  -3.0950  -2.9834  -2.7450
    -2.7408  -2.6121  -2.5773  -2.5535  -2.3048  -2.2473  -2.0942  -2.0355
    -1.9704  -1.6684  -1.3601  -1.3118   0.6257   0.8803   1.2104   1.2188
     1.4505   1.5762   1.7162   1.7692   1.8806   1.9411   2.1765   2.2537
     2.3236   2.7348

          k =-0.1250 0.1139 0.0000 ( 40695 PWs)   bands (ev):

   -58.6752 -57.8269 -57.8129 -57.5600 -57.3313 -57.3188 -34.9300 -34.9079
   -34.8207 -34.1444 -34.1017 -34.0413 -34.0350 -34.0149 -34.0005 -33.8996
   -33.7958 -33.6980 -33.6934 -33.6840 -33.6045 -33.5885 -33.5639 -33.4872
   -19.1126 -18.8449 -18.5985 -18.3123 -18.1921 -18.0160 -17.7613 -17.7128
   -17.6697 -17.6307 -17.5336 -17.1283 -16.6215  -6.6285  -6.1569  -6.0854
    -5.9159  -5.6873  -5.5134  -5.3578  -5.2321  -5.1475  -4.9972  -4.8013
    -4.7222  -4.3822  -4.2967  -4.1181  -4.0586  -4.0178  -3.8628  -3.6763
    -3.6504  -3.5773  -3.4335  -3.3346  -3.3035  -3.1745  -3.0760  -2.8518
    -2.7783  -2.7061  -2.6000  -2.4395  -2.3104  -2.2504  -2.1301  -2.0588
    -1.9594  -1.6720  -1.4505  -1.3162   0.8278   0.9178   1.2869   1.4999
     1.5966   1.6503   1.8330   1.9414   1.9860   2.0447   2.1907   2.2366
     2.3855   2.7808

          k =-0.1250-0.2277 0.0000 ( 40666 PWs)   bands (ev):

   -58.6752 -57.8263 -57.8135 -57.5600 -57.3306 -57.3195 -34.9300 -34.9051
   -34.8210 -34.1015 -34.0987 -34.0861 -34.0380 -34.0106 -34.0035 -33.9028
   -33.7958 -33.6934 -33.6924 -33.6481 -33.6245 -33.6042 -33.5703 -33.4873
   -18.9346 -18.6442 -18.5652 -18.3997 -18.3425 -18.2387 -17.7340 -17.7316
   -17.6848 -17.6439 -17.5312 -17.1290 -16.6201  -6.2019  -5.9827  -5.7564
    -5.6755  -5.6427  -5.4771  -5.2998  -5.2073  -5.0727  -4.9442  -4.7019
    -4.6501  -4.4579  -4.4122  -4.2252  -4.1863  -4.1380  -4.0977  -3.8984
    -3.8310  -3.8089  -3.7555  -3.6587  -3.3995  -3.3431  -3.1433  -2.8913
    -2.8526  -2.7060  -2.6344  -2.4170  -2.3243  -2.1983  -1.9983  -1.9659
    -1.8366  -1.6945  -1.6610  -1.3136   0.8843   1.0022   1.4314   1.6129
     1.6535   1.8290   1.8716   2.0961   2.1942   2.2105   2.2361   2.2684
     2.4884   2.5623

          k =-0.1250-0.1139 0.0000 ( 40695 PWs)   bands (ev):

   -58.6752 -57.8269 -57.8129 -57.5600 -57.3313 -57.3188 -34.9300 -34.9079
   -34.8207 -34.1444 -34.1017 -34.0413 -34.0350 -34.0149 -34.0005 -33.8996
   -33.7958 -33.6980 -33.6934 -33.6840 -33.6045 -33.5885 -33.5639 -33.4872
   -19.1126 -18.8449 -18.5985 -18.3123 -18.1921 -18.0160 -17.7613 -17.7128
   -17.6697 -17.6307 -17.5336 -17.1283 -16.6215  -6.6285  -6.1569  -6.0854
    -5.9159  -5.6873  -5.5134  -5.3578  -5.2321  -5.1475  -4.9972  -4.8013
    -4.7222  -4.3822  -4.2967  -4.1181  -4.0586  -4.0178  -3.8628  -3.6763
    -3.6504  -3.5773  -3.4335  -3.3346  -3.3035  -3.1745  -3.0760  -2.8518
    -2.7783  -2.7061  -2.6000  -2.4395  -2.3104  -2.2504  -2.1301  -2.0588
    -1.9594  -1.6720  -1.4505  -1.3162   0.8278   0.9178   1.2869   1.4999
     1.5966   1.6503   1.8330   1.9415   1.9860   2.0447   2.1907   2.2366
     2.3855   2.7814

 ------ SPIN DOWN ----------


          k = 0.0000 0.0000 0.0000 ( 40639 PWs)   bands (ev):

   -58.6701 -57.8262 -57.8103 -57.5258 -57.4278 -57.3572 -34.9216 -34.9168
   -34.7431 -34.1757 -34.1056 -34.0362 -34.0022 -33.9466 -33.9295 -33.8709
   -33.7960 -33.7867 -33.7745 -33.6447 -33.6183 -33.5807 -33.5740 -33.4401
   -19.3991 -19.0018 -18.6856 -18.3220 -18.0519 -18.0305 -17.8194 -17.5645
   -17.5107 -17.4350 -17.0263 -16.9200 -16.5317  -7.1278  -6.6346  -6.4687
    -6.0603  -5.7241  -5.6759  -5.5415  -5.1098  -4.9983  -4.8925  -4.7941
    -4.6024  -4.4182  -4.3338  -4.2153  -4.1662  -3.7748  -3.7009  -3.5991
    -3.3606  -3.2888  -3.1486  -2.9928  -2.8212  -2.8106  -2.7243  -2.6064
    -2.4566  -2.2749  -2.2166  -2.1168  -2.0362  -1.8455  -1.8347  -1.7040
    -1.6532  -1.4193  -1.1976  -1.0331   0.3498   0.9095   0.9437   1.2054
     1.4534   1.4709   1.5308   1.6686   1.8777   1.9308   2.0562   2.0755
     2.2241   2.6567

          k = 0.0000 0.1139 0.0000 ( 40609 PWs)   bands (ev):

   -58.6701 -57.8256 -57.8109 -57.5258 -57.4276 -57.3573 -34.9216 -34.9137
   -34.7431 -34.1519 -34.1054 -34.0367 -34.0267 -33.9442 -33.9320 -33.8750
   -33.7880 -33.7745 -33.7713 -33.6449 -33.6425 -33.5805 -33.5740 -33.4403
   -19.2805 -18.8879 -18.5766 -18.4289 -18.2356 -17.9556 -17.9019 -17.6423
   -17.5202 -17.4765 -17.0215 -16.9195 -16.5313  -6.8325  -6.3555  -6.1998
    -6.0492  -5.7607  -5.5012  -5.4596  -5.1176  -4.8443  -4.8061  -4.7934
    -4.5512  -4.4470  -4.4184  -4.3330  -4.2023  -4.0081  -3.9591  -3.7255
    -3.6566  -3.3943  -3.2149  -3.0364  -2.9479  -2.8612  -2.7030  -2.6235
    -2.5763  -2.4269  -2.3005  -2.2078  -2.1009  -1.8923  -1.8382  -1.7669
    -1.7024  -1.5564  -1.2055  -1.1318   0.5821   0.9067   1.2376   1.4571
     1.5245   1.5594   1.7383   1.8965   1.9253   2.0539   2.0854   2.1288
     2.2860   2.6196

          k = 0.0000-0.2277 0.0000 ( 40526 PWs)   bands (ev):

   -58.6701 -57.8249 -57.8116 -57.5258 -57.4275 -57.3574 -34.9215 -34.9105
   -34.7430 -34.1081 -34.1036 -34.0735 -34.0364 -33.9390 -33.9371 -33.8792
   -33.7876 -33.7745 -33.7308 -33.6843 -33.6449 -33.5802 -33.5740 -33.4406
   -19.0942 -18.7291 -18.6220 -18.4489 -18.2965 -18.1331 -17.9162 -17.7219
   -17.5308 -17.4960 -17.0179 -16.9192 -16.5313  -6.4369  -6.1319  -5.9538
    -5.7778  -5.7455  -5.4583  -5.2314  -5.0291  -4.7972  -4.7876  -4.7814
    -4.5303  -4.4957  -4.4185  -4.3795  -4.3316  -4.3187  -4.2045  -4.0512
    -4.0062  -3.5157  -3.3366  -3.2887  -2.9765  -2.8680  -2.8580  -2.6575
    -2.5638  -2.5392  -2.3685  -2.2646  -2.1538  -1.8933  -1.8162  -1.8026
    -1.6136  -1.5285  -1.3203  -1.2116   0.7317   0.9049   1.4922   1.5456
     1.6480   1.7581   1.8829   1.9279   1.9801   2.2027   2.2095   2.3039
     2.4356   2.6117

          k = 0.0000-0.1139 0.0000 ( 40609 PWs)   bands (ev):

   -58.6701 -57.8256 -57.8109 -57.5258 -57.4276 -57.3573 -34.9216 -34.9137
   -34.7431 -34.1519 -34.1054 -34.0367 -34.0267 -33.9442 -33.9320 -33.8750
   -33.7880 -33.7745 -33.7713 -33.6449 -33.6425 -33.5805 -33.5740 -33.4403
   -19.2805 -18.8879 -18.5766 -18.4289 -18.2356 -17.9556 -17.9019 -17.6423
   -17.5202 -17.4765 -17.0215 -16.9195 -16.5313  -6.8325  -6.3555  -6.1998
    -6.0492  -5.7607  -5.5012  -5.4596  -5.1176  -4.8443  -4.8061  -4.7934
    -4.5512  -4.4470  -4.4184  -4.3330  -4.2023  -4.0081  -3.9591  -3.7255
    -3.6566  -3.3943  -3.2149  -3.0364  -2.9479  -2.8612  -2.7030  -2.6235
    -2.5763  -2.4269  -2.3005  -2.2078  -2.1009  -1.8923  -1.8382  -1.7669
    -1.7024  -1.5564  -1.2055  -1.1318   0.5821   0.9067   1.2376   1.4571
     1.5245   1.5594   1.7383   1.8965   1.9253   2.0539   2.0854   2.1289
     2.2860   2.6197

          k = 0.1250 0.0000 0.0000 ( 40652 PWs)   bands (ev):

   -58.6642 -57.8200 -57.8046 -57.5198 -57.4219 -57.3510 -34.9166 -34.9005
   -34.8113 -34.1584 -34.0939 -34.0309 -34.0125 -33.9992 -33.9976 -33.8668
   -33.7817 -33.7785 -33.7591 -33.6470 -33.6440 -33.6364 -33.6156 -33.5088
   -19.2549 -18.8600 -18.5600 -18.2007 -18.1066 -17.9533 -17.7148 -17.6318
   -17.5718 -17.4928 -17.0594 -16.9798 -16.4981  -6.9282  -6.4475  -6.2927
    -5.8910  -5.7720  -5.6252  -5.4762  -5.2835  -5.1344  -5.0102  -4.8653
    -4.6436  -4.4916  -4.2212  -4.0274  -3.9784  -3.6754  -3.5965  -3.4687
    -3.4067  -3.2415  -3.2347  -3.1212  -3.0380  -2.8901  -2.7829  -2.6282
    -2.5688  -2.4993  -2.3540  -2.3434  -2.2248  -2.1576  -1.9679  -1.8903
    -1.7104  -1.5473  -1.2774  -1.1144   0.6303   0.8904   1.2148   1.2235
     1.4195   1.5841   1.7170   1.7692   1.8763   1.9463   2.1469   2.2345
     2.3272   2.8042

          k = 0.1250 0.1139 0.0000 ( 40695 PWs)   bands (ev):

   -58.6642 -57.8195 -57.8051 -57.5198 -57.4217 -57.3511 -34.9166 -34.8978
   -34.8116 -34.1373 -34.0937 -34.0336 -34.0273 -34.0086 -33.9926 -33.8700
   -33.7828 -33.7591 -33.7567 -33.6569 -33.6440 -33.6371 -33.6266 -33.5087
   -19.1423 -18.7526 -18.4571 -18.3536 -18.1974 -17.9088 -17.8204 -17.6995
   -17.5709 -17.5164 -17.0550 -16.9793 -16.4977  -6.6357  -6.1724  -6.0212
    -5.8822  -5.7088  -5.6454  -5.3635  -5.2010  -5.1550  -4.9831  -4.7825
    -4.5780  -4.4809  -4.2366  -4.1323  -4.0033  -3.9251  -3.7512  -3.6807
    -3.6188  -3.5096  -3.3756  -3.2787  -3.1454  -2.9604  -2.8174  -2.7239
    -2.6417  -2.5386  -2.3882  -2.3777  -2.2610  -2.1432  -1.9967  -1.8750
    -1.7231  -1.5579  -1.2909  -1.1206   0.8335   0.9243   1.2914   1.4998
     1.5971   1.6410   1.8369   1.9549   1.9912   2.0467   2.1673   2.2123
     2.3942   2.7295

          k = 0.1250-0.2277 0.0000 ( 40666 PWs)   bands (ev):

   -58.6642 -57.8189 -57.8057 -57.5199 -57.4216 -57.3512 -34.9166 -34.8951
   -34.8120 -34.0934 -34.0922 -34.0778 -34.0306 -34.0050 -33.9949 -33.8731
   -33.7829 -33.7591 -33.7162 -33.6927 -33.6440 -33.6368 -33.6320 -33.5088
   -18.9553 -18.6352 -18.5013 -18.4098 -18.1910 -18.0603 -17.8757 -17.7675
   -17.5550 -17.5380 -17.0516 -16.9790 -16.4976  -6.2134  -5.9597  -5.8023
    -5.7154  -5.5817  -5.5455  -5.2454  -5.2454  -5.0880  -4.8700  -4.7071
    -4.6604  -4.3676  -4.2981  -4.2838  -4.2208  -4.1334  -4.0370  -3.8738
    -3.8176  -3.7611  -3.5808  -3.4667  -3.3803  -3.0707  -2.8963  -2.8153
    -2.6640  -2.5221  -2.4414  -2.3144  -2.2380  -2.0445  -1.9703  -1.8227
    -1.7180  -1.5931  -1.3298  -1.1168   0.8912   1.0064   1.4356   1.6172
     1.6531   1.8255   1.8752   2.1059   2.1732   2.2047   2.2347   2.2854
     2.5167   2.5590

          k = 0.1250-0.1139 0.0000 ( 40695 PWs)   bands (ev):

   -58.6642 -57.8195 -57.8051 -57.5198 -57.4217 -57.3511 -34.9166 -34.8978
   -34.8116 -34.1373 -34.0937 -34.0336 -34.0273 -34.0086 -33.9926 -33.8700
   -33.7828 -33.7591 -33.7567 -33.6569 -33.6440 -33.6371 -33.6266 -33.5087
   -19.1423 -18.7526 -18.4571 -18.3536 -18.1974 -17.9088 -17.8204 -17.6995
   -17.5709 -17.5164 -17.0550 -16.9793 -16.4977  -6.6357  -6.1724  -6.0212
    -5.8822  -5.7088  -5.6454  -5.3635  -5.2010  -5.1550  -4.9831  -4.7825
    -4.5780  -4.4809  -4.2366  -4.1323  -4.0033  -3.9251  -3.7512  -3.6807
    -3.6188  -3.5096  -3.3756  -3.2787  -3.1454  -2.9604  -2.8174  -2.7239
    -2.6417  -2.5386  -2.3882  -2.3777  -2.2610  -2.1432  -1.9967  -1.8750
    -1.7231  -1.5579  -1.2909  -1.1206   0.8335   0.9243   1.2914   1.4998
     1.5971   1.6410   1.8369   1.9549   1.9912   2.0467   2.1673   2.2123
     2.3942   2.7296

          k = 0.2500 0.0000 0.0000 ( 40766 PWs)   bands (ev):

   -58.6500 -57.8050 -57.7908 -57.5054 -57.4076 -57.3360 -34.9728 -34.9048
   -34.8608 -34.1835 -34.1629 -34.1146 -34.0479 -34.0169 -33.9936 -33.8572
   -33.8090 -33.8089 -33.7637 -33.7340 -33.7216 -33.7081 -33.6113 -33.5793
   -18.8974 -18.5032 -18.2893 -18.2532 -17.9214 -17.7947 -17.7844 -17.7035
   -17.6330 -17.4980 -17.0944 -17.0780 -16.4147  -6.4202  -5.9898  -5.9009
    -5.8691  -5.5936  -5.5324  -5.4613  -5.2985  -5.2372  -4.9090  -4.7957
    -4.7371  -4.6090  -4.2392  -4.2286  -4.0543  -3.9342  -3.8768  -3.7372
    -3.6797  -3.3042  -3.2808  -3.2142  -3.1944  -3.0721  -3.0064  -2.8793
    -2.6359  -2.5214  -2.4971  -2.4762  -2.4012  -2.2981  -2.0176  -1.9352
    -1.8975  -1.6610  -1.4064  -1.3631   0.8706   1.0456   1.0730   1.5758
     1.6496   1.6928   1.8639   1.8811   2.0114   2.2255   2.4439   2.4480
     2.4921   2.5222

          k = 0.2500 0.1139 0.0000 ( 40754 PWs)   bands (ev):

   -58.6500 -57.8046 -57.7911 -57.5054 -57.4075 -57.3360 -34.9737 -34.9048
   -34.8592 -34.1852 -34.1728 -34.0896 -34.0476 -34.0172 -34.0072 -33.8581
   -33.8171 -33.8089 -33.7639 -33.7216 -33.7184 -33.7020 -33.6248 -33.5792
   -18.8182 -18.4286 -18.3910 -18.1768 -18.0141 -17.8158 -17.7773 -17.7478
   -17.6621 -17.4831 -17.0928 -17.0778 -16.4147  -6.1837  -5.8005  -5.7617
    -5.6236  -5.5808  -5.4748  -5.4318  -5.2356  -5.2215  -5.0852  -4.8370
    -4.7938  -4.5612  -4.3426  -4.2988  -4.1279  -4.0540  -3.8059  -3.7714
    -3.5887  -3.5131  -3.4329  -3.3333  -3.2859  -3.2412  -3.1627  -3.0318
    -2.7652  -2.4886  -2.4594  -2.4061  -2.3809  -2.1209  -2.0657  -1.9844
    -1.9020  -1.7145  -1.4436  -1.2820   0.8934   1.0755   1.2658   1.5642
     1.6161   1.7756   1.9934   2.0319   2.1044   2.2486   2.4120   2.4331
     2.5395   2.5664

          k = 0.2500-0.2277 0.0000 ( 40742 PWs)   bands (ev):

   -58.6500 -57.8043 -57.7915 -57.5054 -57.4074 -57.3361 -34.9746 -34.9048
   -34.8577 -34.1838 -34.1822 -34.0546 -34.0443 -34.0373 -34.0174 -33.8589
   -33.8232 -33.8087 -33.7639 -33.7216 -33.7156 -33.6721 -33.6516 -33.5791
   -18.6188 -18.6134 -18.2633 -18.1957 -17.9921 -17.9741 -17.8141 -17.7384
   -17.6652 -17.4755 -17.0913 -17.0777 -16.4147  -5.8514  -5.6706  -5.6207
    -5.4707  -5.3765  -5.3253  -5.2583  -5.1784  -5.1350  -5.1281  -5.0839
    -4.8219  -4.7591  -4.6362  -4.3975  -4.0780  -3.9319  -3.9093  -3.8859
    -3.8182  -3.7147  -3.5416  -3.4796  -3.3936  -3.3167  -3.0907  -3.0648
    -2.9835  -2.5156  -2.4335  -2.3924  -2.2977  -2.1502  -1.9651  -1.9584
    -1.8747  -1.7892  -1.4343  -1.2398   0.9636   1.0450   1.4010   1.5788
     1.5994   1.7716   2.0409   2.1702   2.2967   2.3844   2.4101   2.4313
     2.5769   2.6422

          k = 0.2500-0.1139 0.0000 ( 40754 PWs)   bands (ev):

   -58.6500 -57.8046 -57.7911 -57.5054 -57.4075 -57.3360 -34.9737 -34.9048
   -34.8592 -34.1852 -34.1728 -34.0896 -34.0476 -34.0172 -34.0072 -33.8581
   -33.8171 -33.8089 -33.7639 -33.7216 -33.7184 -33.7020 -33.6248 -33.5792
   -18.8182 -18.4286 -18.3910 -18.1768 -18.0141 -17.8158 -17.7773 -17.7478
   -17.6621 -17.4831 -17.0928 -17.0778 -16.4147  -6.1837  -5.8005  -5.7617
    -5.6236  -5.5808  -5.4748  -5.4318  -5.2356  -5.2215  -5.0852  -4.8370
    -4.7938  -4.5612  -4.3426  -4.2988  -4.1279  -4.0540  -3.8059  -3.7714
    -3.5887  -3.5131  -3.4329  -3.3333  -3.2859  -3.2412  -3.1627  -3.0318
    -2.7652  -2.4886  -2.4594  -2.4061  -2.3809  -2.1209  -2.0657  -1.9844
    -1.9020  -1.7145  -1.4436  -1.2820   0.8934   1.0755   1.2658   1.5642
     1.6161   1.7756   1.9934   2.0319   2.1044   2.2486   2.4119   2.4330
     2.5395   2.5664

          k = 0.3750 0.0000 0.0000 ( 40826 PWs)   bands (ev):

   -58.6357 -57.7899 -57.7770 -57.4909 -57.3932 -57.3209 -35.1298 -34.8931
   -34.8204 -34.3408 -34.3195 -34.0648 -34.0156 -34.0117 -33.9936 -33.9623
   -33.9586 -33.8673 -33.8477 -33.7537 -33.6834 -33.6817 -33.6144 -33.5545
   -18.5204 -18.4709 -18.1057 -17.9709 -17.9580 -17.8602 -17.7739 -17.7580
   -17.6184 -17.4415 -17.0160 -16.9887 -16.3279  -5.9040  -5.8108  -5.7315
    -5.5696  -5.5254  -5.5018  -5.4881  -5.2741  -5.2463  -5.1802  -5.1297
    -4.8038  -4.6447  -4.3695  -4.2071  -4.1708  -4.0839  -3.9089  -3.8612
    -3.7680  -3.7483  -3.6423  -3.3382  -3.2922  -3.1472  -3.0507  -2.9562
    -2.5656  -2.5371  -2.3953  -2.3843  -2.2886  -2.2388  -2.0824  -2.0246
    -1.9081  -1.7602  -1.7484  -1.4017   0.6497   1.2526   1.3648   1.5352
     1.8556   1.8852   2.0615   2.0915   2.1590   2.2953   2.4444   2.5105
     2.5967   2.7165

          k = 0.3750 0.1139 0.0000 ( 40790 PWs)   bands (ev):

   -58.6357 -57.7898 -57.7771 -57.4909 -57.3932 -57.3209 -35.1311 -34.8931
   -34.8202 -34.3414 -34.3259 -34.0508 -34.0151 -34.0123 -34.0000 -33.9645
   -33.9620 -33.8683 -33.8464 -33.7537 -33.6834 -33.6678 -33.6209 -33.5545
   -18.6702 -18.3271 -18.1861 -18.0326 -17.9242 -17.8857 -17.7147 -17.6996
   -17.5900 -17.4432 -17.0169 -16.9895 -16.3288  -6.0541  -5.7776  -5.7431
    -5.5829  -5.5226  -5.4438  -5.3914  -5.3117  -5.1882  -5.1016  -5.0483
    -4.8097  -4.5389  -4.4693  -4.2521  -4.1980  -4.0645  -3.9446  -3.7865
    -3.7028  -3.6491  -3.5079  -3.3978  -3.2692  -3.2469  -3.0166  -2.9388
    -2.7418  -2.5680  -2.4241  -2.4011  -2.2927  -2.2606  -2.1026  -1.9897
    -1.9309  -1.8690  -1.7931  -1.4456   0.6367   1.0613   1.3616   1.4283
     1.6996   1.8200   2.0793   2.1603   2.3284   2.3729   2.4355   2.4605
     2.4824   2.6066

          k = 0.3750-0.2277 0.0000 ( 40742 PWs)   bands (ev):

   -58.6357 -57.7896 -57.7772 -57.4909 -57.3932 -57.3210 -35.1324 -34.8931
   -34.8199 -34.3418 -34.3322 -34.0296 -34.0158 -34.0139 -34.0118 -33.9699
   -33.9618 -33.8693 -33.8452 -33.7537 -33.6834 -33.6415 -33.6401 -33.5545
   -18.7412 -18.2887 -18.2130 -18.0823 -17.9170 -17.8800 -17.6960 -17.6539
   -17.5517 -17.4445 -17.0177 -16.9905 -16.3298  -6.1173  -5.8302  -5.6864
    -5.6461  -5.5555  -5.4913  -5.3153  -5.1881  -5.1663  -4.9963  -4.8495
    -4.8132  -4.6878  -4.3314  -4.2893  -4.1141  -4.0427  -3.9367  -3.8699
    -3.8388  -3.6163  -3.5473  -3.3394  -3.2177  -3.1831  -2.9923  -2.8578
    -2.8096  -2.5652  -2.5014  -2.4457  -2.3664  -2.2937  -2.1774  -2.0982
    -1.9640  -1.8645  -1.7077  -1.5420   0.6731   0.7996   1.3086   1.4397
     1.6223   1.8052   2.0559   2.2030   2.3191   2.4194   2.5263   2.5322
     2.5526   2.7154

          k = 0.3750-0.1139 0.0000 ( 40790 PWs)   bands (ev):

   -58.6357 -57.7898 -57.7771 -57.4909 -57.3932 -57.3209 -35.1311 -34.8931
   -34.8202 -34.3414 -34.3259 -34.0508 -34.0151 -34.0123 -34.0000 -33.9645
   -33.9620 -33.8683 -33.8464 -33.7537 -33.6834 -33.6678 -33.6209 -33.5545
   -18.6702 -18.3271 -18.1861 -18.0326 -17.9242 -17.8857 -17.7147 -17.6996
   -17.5900 -17.4432 -17.0169 -16.9895 -16.3288  -6.0541  -5.7776  -5.7431
    -5.5829  -5.5226  -5.4438  -5.3914  -5.3117  -5.1882  -5.1016  -5.0483
    -4.8097  -4.5389  -4.4693  -4.2521  -4.1980  -4.0645  -3.9446  -3.7865
    -3.7028  -3.6491  -3.5079  -3.3978  -3.2692  -3.2469  -3.0166  -2.9388
    -2.7418  -2.5680  -2.4241  -2.4011  -2.2927  -2.2606  -2.1026  -1.9897
    -1.9309  -1.8690  -1.7931  -1.4456   0.6367   1.0613   1.3616   1.4283
     1.6997   1.8200   2.0794   2.1603   2.3284   2.3729   2.4355   2.4605
     2.4824   2.6066

          k =-0.5000 0.0000 0.0000 ( 40852 PWs)   bands (ev):

   -58.6298 -57.7836 -57.7713 -57.4849 -57.3873 -57.3147 -35.1937 -34.8884
   -34.8035 -34.4055 -34.3830 -34.0472 -34.0378 -34.0223 -33.9997 -33.9969
   -33.9944 -33.9295 -33.8438 -33.7485 -33.6675 -33.6487 -33.6268 -33.5418
   -18.5457 -18.3530 -18.0256 -17.9903 -17.8797 -17.8325 -17.8248 -17.7679
   -17.5431 -17.4644 -16.9424 -16.8991 -16.2908  -5.8774  -5.8681  -5.7161
    -5.6995  -5.4895  -5.4653  -5.3687  -5.3285  -5.3081  -5.2542  -5.0182
    -4.6489  -4.5950  -4.5150  -4.4519  -4.3534  -4.0046  -3.9722  -3.8882
    -3.8298  -3.5898  -3.5669  -3.4843  -3.2025  -3.0021  -2.9507  -2.8693
    -2.6874  -2.5064  -2.5034  -2.4461  -2.3708  -2.2549  -2.1428  -2.1165
    -2.0019  -1.7316  -1.6923  -1.3965   0.6061   1.3361   1.4622   1.7181
     1.7345   1.9361   2.1080   2.1625   2.1896   2.2366   2.2771   2.4195
     2.5759   2.6584

          k =-0.5000 0.1139 0.0000 ( 40798 PWs)   bands (ev):

   -58.6298 -57.7836 -57.7713 -57.4849 -57.3873 -57.3147 -35.1951 -34.8884
   -34.8038 -34.4061 -34.3888 -34.0468 -34.0314 -34.0275 -33.9990 -33.9971
   -33.9944 -33.9302 -33.8417 -33.7485 -33.6675 -33.6426 -33.6259 -33.5418
   -18.7088 -18.2167 -18.1668 -18.0279 -17.9873 -17.8231 -17.6914 -17.5737
   -17.5426 -17.4697 -16.9420 -16.8979 -16.2924  -6.2671  -5.9477  -5.8385
    -5.7087  -5.6896  -5.4691  -5.2502  -5.2209  -5.1443  -4.9507  -4.8293
    -4.7042  -4.5958  -4.4224  -4.3816  -4.1575  -4.0233  -3.9157  -3.8565
    -3.8001  -3.7639  -3.5765  -3.4248  -3.2268  -2.8805  -2.7937  -2.7249
    -2.6801  -2.6758  -2.5960  -2.4087  -2.3462  -2.2786  -2.1812  -2.1000
    -2.0898  -1.8567  -1.8039  -1.5313   0.5705   0.9571   1.3531   1.3830
     1.6979   1.8974   2.1716   2.1977   2.2311   2.3357   2.3725   2.5211
     2.5544   2.5740

          k =-0.5000-0.2277 0.0000 ( 40760 PWs)   bands (ev):

   -58.6298 -57.7836 -57.7713 -57.4849 -57.3873 -57.3147 -35.1965 -34.8884
   -34.8042 -34.4067 -34.3944 -34.0465 -34.0327 -34.0251 -33.9983 -33.9972
   -33.9945 -33.9310 -33.8397 -33.7485 -33.6675 -33.6367 -33.6249 -33.5418
   -18.8018 -18.2992 -18.1175 -18.0782 -17.9842 -17.8214 -17.5902 -17.5417
   -17.4793 -17.4754 -16.9417 -16.8968 -16.2941  -6.4484  -6.1215  -5.9060
    -5.7882  -5.6769  -5.4845  -5.1039  -5.0381  -5.0052  -4.9638  -4.8930
    -4.7832  -4.4960  -4.4577  -4.0743  -4.0451  -3.9338  -3.8943  -3.8576
    -3.8093  -3.6281  -3.5231  -3.4477  -3.2492  -2.8954  -2.8545  -2.7537
    -2.6582  -2.5923  -2.5157  -2.3740  -2.3323  -2.3138  -2.2508  -2.1112
    -2.1108  -2.0365  -1.8638  -1.7624   0.5352   0.6607   1.1377   1.3677
     1.6613   1.7830   2.1759   2.2044   2.2166   2.3431   2.5400   2.5594
     2.5611   2.5821

          k =-0.5000-0.1139 0.0000 ( 40798 PWs)   bands (ev):

   -58.6298 -57.7836 -57.7713 -57.4849 -57.3873 -57.3147 -35.1951 -34.8884
   -34.8038 -34.4061 -34.3888 -34.0468 -34.0314 -34.0275 -33.9990 -33.9971
   -33.9944 -33.9302 -33.8417 -33.7485 -33.6675 -33.6426 -33.6259 -33.5418
   -18.7088 -18.2167 -18.1668 -18.0279 -17.9873 -17.8231 -17.6914 -17.5737
   -17.5426 -17.4697 -16.9420 -16.8979 -16.2924  -6.2671  -5.9477  -5.8385
    -5.7087  -5.6896  -5.4691  -5.2502  -5.2209  -5.1443  -4.9507  -4.8293
    -4.7042  -4.5958  -4.4224  -4.3816  -4.1575  -4.0233  -3.9157  -3.8565
    -3.8001  -3.7639  -3.5765  -3.4248  -3.2268  -2.8805  -2.7937  -2.7249
    -2.6801  -2.6758  -2.5960  -2.4087  -2.3462  -2.2786  -2.1812  -2.1000
    -2.0898  -1.8567  -1.8039  -1.5313   0.5705   0.9571   1.3531   1.3830
     1.6979   1.8974   2.1716   2.1977   2.2311   2.3357   2.3725   2.5212
     2.5544   2.5740

          k =-0.3750 0.0000 0.0000 ( 40826 PWs)   bands (ev):

   -58.6357 -57.7899 -57.7770 -57.4909 -57.3932 -57.3209 -35.1298 -34.8931
   -34.8204 -34.3408 -34.3195 -34.0648 -34.0156 -34.0117 -33.9936 -33.9623
   -33.9586 -33.8673 -33.8477 -33.7537 -33.6834 -33.6817 -33.6144 -33.5545
   -18.5204 -18.4709 -18.1057 -17.9709 -17.9580 -17.8602 -17.7739 -17.7580
   -17.6184 -17.4415 -17.0160 -16.9887 -16.3279  -5.9040  -5.8108  -5.7315
    -5.5696  -5.5254  -5.5018  -5.4881  -5.2741  -5.2463  -5.1802  -5.1297
    -4.8038  -4.6447  -4.3695  -4.2071  -4.1708  -4.0839  -3.9089  -3.8612
    -3.7680  -3.7483  -3.6423  -3.3382  -3.2922  -3.1472  -3.0507  -2.9562
    -2.5656  -2.5371  -2.3953  -2.3843  -2.2886  -2.2388  -2.0824  -2.0246
    -1.9081  -1.7602  -1.7484  -1.4017   0.6497   1.2526   1.3648   1.5352
     1.8556   1.8852   2.0615   2.0915   2.1590   2.2953   2.4444   2.5105
     2.5967   2.7165

          k =-0.3750 0.1139 0.0000 ( 40790 PWs)   bands (ev):

   -58.6357 -57.7898 -57.7771 -57.4909 -57.3932 -57.3209 -35.1311 -34.8931
   -34.8202 -34.3414 -34.3259 -34.0508 -34.0151 -34.0123 -34.0000 -33.9645
   -33.9620 -33.8683 -33.8464 -33.7537 -33.6834 -33.6678 -33.6209 -33.5545
   -18.6702 -18.3271 -18.1861 -18.0326 -17.9242 -17.8857 -17.7147 -17.6996
   -17.5900 -17.4432 -17.0169 -16.9895 -16.3288  -6.0541  -5.7776  -5.7431
    -5.5829  -5.5226  -5.4438  -5.3914  -5.3117  -5.1882  -5.1016  -5.0483
    -4.8097  -4.5389  -4.4693  -4.2521  -4.1980  -4.0645  -3.9446  -3.7865
    -3.7028  -3.6491  -3.5079  -3.3978  -3.2692  -3.2469  -3.0166  -2.9388
    -2.7418  -2.5680  -2.4241  -2.4011  -2.2927  -2.2606  -2.1026  -1.9897
    -1.9309  -1.8690  -1.7931  -1.4456   0.6367   1.0613   1.3616   1.4283
     1.6997   1.8199   2.0793   2.1603   2.3283   2.3728   2.4353   2.4604
     2.4825   2.6062

          k =-0.3750-0.2277 0.0000 ( 40742 PWs)   bands (ev):

   -58.6357 -57.7896 -57.7772 -57.4909 -57.3932 -57.3210 -35.1324 -34.8931
   -34.8199 -34.3418 -34.3322 -34.0296 -34.0158 -34.0139 -34.0118 -33.9699
   -33.9618 -33.8693 -33.8452 -33.7537 -33.6834 -33.6415 -33.6401 -33.5545
   -18.7412 -18.2887 -18.2130 -18.0823 -17.9170 -17.8800 -17.6960 -17.6539
   -17.5517 -17.4445 -17.0177 -16.9905 -16.3298  -6.1173  -5.8302  -5.6864
    -5.6461  -5.5555  -5.4913  -5.3153  -5.1881  -5.1663  -4.9963  -4.8495
    -4.8132  -4.6878  -4.3314  -4.2893  -4.1141  -4.0427  -3.9367  -3.8699
    -3.8388  -3.6163  -3.5473  -3.3394  -3.2177  -3.1831  -2.9923  -2.8578
    -2.8096  -2.5652  -2.5014  -2.4457  -2.3664  -2.2937  -2.1774  -2.0982
    -1.9640  -1.8645  -1.7077  -1.5420   0.6731   0.7996   1.3086   1.4397
     1.6223   1.8052   2.0559   2.2030   2.3191   2.4194   2.5263   2.5322
     2.5526   2.7153

          k =-0.3750-0.1139 0.0000 ( 40790 PWs)   bands (ev):

   -58.6357 -57.7898 -57.7771 -57.4909 -57.3932 -57.3209 -35.1311 -34.8931
   -34.8202 -34.3414 -34.3259 -34.0508 -34.0151 -34.0123 -34.0000 -33.9645
   -33.9620 -33.8683 -33.8464 -33.7537 -33.6834 -33.6678 -33.6209 -33.5545
   -18.6702 -18.3271 -18.1861 -18.0326 -17.9242 -17.8857 -17.7147 -17.6996
   -17.5900 -17.4432 -17.0169 -16.9895 -16.3288  -6.0541  -5.7776  -5.7431
    -5.5829  -5.5226  -5.4438  -5.3914  -5.3117  -5.1882  -5.1016  -5.0483
    -4.8097  -4.5389  -4.4693  -4.2521  -4.1980  -4.0645  -3.9446  -3.7865
    -3.7028  -3.6491  -3.5079  -3.3978  -3.2692  -3.2469  -3.0166  -2.9388
    -2.7418  -2.5680  -2.4241  -2.4011  -2.2927  -2.2606  -2.1026  -1.9897
    -1.9309  -1.8690  -1.7931  -1.4456   0.6367   1.0613   1.3616   1.4283
     1.6997   1.8200   2.0794   2.1603   2.3284   2.3729   2.4354   2.4605
     2.4825   2.6066

          k =-0.2500 0.0000 0.0000 ( 40766 PWs)   bands (ev):

   -58.6500 -57.8050 -57.7908 -57.5054 -57.4076 -57.3360 -34.9728 -34.9048
   -34.8608 -34.1835 -34.1629 -34.1146 -34.0479 -34.0169 -33.9936 -33.8572
   -33.8090 -33.8089 -33.7637 -33.7340 -33.7216 -33.7081 -33.6113 -33.5793
   -18.8974 -18.5032 -18.2893 -18.2532 -17.9214 -17.7947 -17.7844 -17.7035
   -17.6330 -17.4980 -17.0944 -17.0780 -16.4147  -6.4202  -5.9898  -5.9009
    -5.8691  -5.5936  -5.5324  -5.4613  -5.2985  -5.2372  -4.9090  -4.7957
    -4.7371  -4.6090  -4.2392  -4.2286  -4.0543  -3.9342  -3.8768  -3.7372
    -3.6797  -3.3042  -3.2808  -3.2142  -3.1944  -3.0721  -3.0064  -2.8793
    -2.6359  -2.5214  -2.4971  -2.4762  -2.4012  -2.2981  -2.0176  -1.9352
    -1.8975  -1.6610  -1.4064  -1.3631   0.8706   1.0456   1.0730   1.5758
     1.6496   1.6928   1.8639   1.8811   2.0114   2.2255   2.4439   2.4479
     2.4921   2.5222

          k =-0.2500 0.1139 0.0000 ( 40754 PWs)   bands (ev):

   -58.6500 -57.8046 -57.7911 -57.5054 -57.4075 -57.3360 -34.9737 -34.9048
   -34.8592 -34.1852 -34.1728 -34.0896 -34.0476 -34.0172 -34.0072 -33.8581
   -33.8171 -33.8089 -33.7639 -33.7216 -33.7184 -33.7020 -33.6248 -33.5792
   -18.8182 -18.4286 -18.3910 -18.1768 -18.0141 -17.8158 -17.7773 -17.7478
   -17.6621 -17.4831 -17.0928 -17.0778 -16.4147  -6.1837  -5.8005  -5.7617
    -5.6236  -5.5808  -5.4748  -5.4318  -5.2356  -5.2215  -5.0852  -4.8370
    -4.7938  -4.5612  -4.3426  -4.2988  -4.1279  -4.0540  -3.8059  -3.7714
    -3.5887  -3.5131  -3.4329  -3.3333  -3.2859  -3.2412  -3.1627  -3.0318
    -2.7652  -2.4886  -2.4594  -2.4061  -2.3809  -2.1209  -2.0657  -1.9844
    -1.9020  -1.7145  -1.4436  -1.2820   0.8934   1.0755   1.2658   1.5642
     1.6161   1.7756   1.9934   2.0319   2.1044   2.2486   2.4120   2.4330
     2.5395   2.5664

          k =-0.2500-0.2277 0.0000 ( 40742 PWs)   bands (ev):

   -58.6500 -57.8043 -57.7915 -57.5054 -57.4074 -57.3361 -34.9746 -34.9048
   -34.8577 -34.1838 -34.1822 -34.0546 -34.0443 -34.0373 -34.0174 -33.8589
   -33.8232 -33.8087 -33.7639 -33.7216 -33.7156 -33.6721 -33.6516 -33.5791
   -18.6188 -18.6134 -18.2633 -18.1957 -17.9921 -17.9741 -17.8141 -17.7384
   -17.6652 -17.4755 -17.0913 -17.0777 -16.4147  -5.8514  -5.6706  -5.6207
    -5.4707  -5.3765  -5.3253  -5.2583  -5.1784  -5.1350  -5.1281  -5.0839
    -4.8219  -4.7591  -4.6362  -4.3975  -4.0780  -3.9319  -3.9093  -3.8859
    -3.8182  -3.7147  -3.5416  -3.4796  -3.3936  -3.3167  -3.0907  -3.0648
    -2.9835  -2.5156  -2.4335  -2.3924  -2.2977  -2.1502  -1.9651  -1.9584
    -1.8747  -1.7892  -1.4343  -1.2398   0.9636   1.0450   1.4010   1.5788
     1.5994   1.7716   2.0409   2.1702   2.2967   2.3844   2.4101   2.4313
     2.5769   2.6424

          k =-0.2500-0.1139 0.0000 ( 40754 PWs)   bands (ev):

   -58.6500 -57.8046 -57.7911 -57.5054 -57.4075 -57.3360 -34.9737 -34.9048
   -34.8592 -34.1852 -34.1728 -34.0896 -34.0476 -34.0172 -34.0072 -33.8581
   -33.8171 -33.8089 -33.7639 -33.7216 -33.7184 -33.7020 -33.6248 -33.5792
   -18.8182 -18.4286 -18.3910 -18.1768 -18.0141 -17.8158 -17.7773 -17.7478
   -17.6621 -17.4831 -17.0928 -17.0778 -16.4147  -6.1837  -5.8005  -5.7617
    -5.6236  -5.5808  -5.4748  -5.4318  -5.2356  -5.2215  -5.0852  -4.8370
    -4.7938  -4.5612  -4.3426  -4.2988  -4.1279  -4.0540  -3.8059  -3.7714
    -3.5887  -3.5131  -3.4329  -3.3333  -3.2859  -3.2412  -3.1627  -3.0318
    -2.7652  -2.4886  -2.4594  -2.4061  -2.3809  -2.1209  -2.0657  -1.9844
    -1.9020  -1.7145  -1.4436  -1.2820   0.8934   1.0755   1.2658   1.5642
     1.6161   1.7756   1.9934   2.0319   2.1044   2.2486   2.4119   2.4331
     2.5395   2.5664

          k =-0.1250 0.0000 0.0000 ( 40652 PWs)   bands (ev):

   -58.6642 -57.8200 -57.8046 -57.5198 -57.4219 -57.3510 -34.9166 -34.9005
   -34.8113 -34.1584 -34.0939 -34.0309 -34.0125 -33.9992 -33.9976 -33.8668
   -33.7817 -33.7785 -33.7591 -33.6470 -33.6440 -33.6364 -33.6156 -33.5088
   -19.2549 -18.8600 -18.5600 -18.2007 -18.1066 -17.9533 -17.7148 -17.6318
   -17.5718 -17.4928 -17.0594 -16.9798 -16.4981  -6.9282  -6.4475  -6.2927
    -5.8910  -5.7720  -5.6252  -5.4762  -5.2835  -5.1344  -5.0102  -4.8653
    -4.6436  -4.4916  -4.2212  -4.0274  -3.9784  -3.6754  -3.5965  -3.4687
    -3.4067  -3.2415  -3.2347  -3.1212  -3.0380  -2.8901  -2.7829  -2.6282
    -2.5688  -2.4993  -2.3540  -2.3434  -2.2248  -2.1576  -1.9679  -1.8903
    -1.7104  -1.5473  -1.2774  -1.1144   0.6303   0.8904   1.2148   1.2235
     1.4195   1.5841   1.7170   1.7692   1.8763   1.9463   2.1469   2.2345
     2.3272   2.8042

          k =-0.1250 0.1139 0.0000 ( 40695 PWs)   bands (ev):

   -58.6642 -57.8195 -57.8051 -57.5198 -57.4217 -57.3511 -34.9166 -34.8978
   -34.8116 -34.1373 -34.0937 -34.0336 -34.0273 -34.0086 -33.9926 -33.8700
   -33.7828 -33.7591 -33.7567 -33.6569 -33.6440 -33.6371 -33.6266 -33.5087
   -19.1423 -18.7526 -18.4571 -18.3536 -18.1974 -17.9088 -17.8204 -17.6995
   -17.5709 -17.5164 -17.0550 -16.9793 -16.4977  -6.6357  -6.1724  -6.0212
    -5.8822  -5.7088  -5.6454  -5.3635  -5.2010  -5.1550  -4.9831  -4.7825
    -4.5780  -4.4809  -4.2366  -4.1323  -4.0033  -3.9251  -3.7512  -3.6807
    -3.6188  -3.5096  -3.3756  -3.2787  -3.1454  -2.9604  -2.8174  -2.7239
    -2.6417  -2.5386  -2.3882  -2.3777  -2.2610  -2.1432  -1.9967  -1.8750
    -1.7231  -1.5579  -1.2909  -1.1206   0.8335   0.9243   1.2914   1.4998
     1.5971   1.6410   1.8369   1.9549   1.9912   2.0467   2.1673   2.2123
     2.3942   2.7295

          k =-0.1250-0.2277 0.0000 ( 40666 PWs)   bands (ev):

   -58.6642 -57.8189 -57.8057 -57.5199 -57.4216 -57.3512 -34.9166 -34.8951
   -34.8120 -34.0934 -34.0922 -34.0778 -34.0306 -34.0050 -33.9949 -33.8731
   -33.7829 -33.7591 -33.7162 -33.6927 -33.6440 -33.6368 -33.6320 -33.5088
   -18.9553 -18.6352 -18.5013 -18.4098 -18.1910 -18.0603 -17.8757 -17.7675
   -17.5550 -17.5380 -17.0516 -16.9790 -16.4976  -6.2134  -5.9597  -5.8023
    -5.7154  -5.5817  -5.5455  -5.2454  -5.2454  -5.0880  -4.8700  -4.7071
    -4.6604  -4.3676  -4.2981  -4.2838  -4.2208  -4.1334  -4.0370  -3.8738
    -3.8176  -3.7611  -3.5808  -3.4667  -3.3803  -3.0707  -2.8963  -2.8153
    -2.6640  -2.5221  -2.4414  -2.3144  -2.2380  -2.0445  -1.9703  -1.8227
    -1.7180  -1.5931  -1.3298  -1.1168   0.8912   1.0064   1.4356   1.6172
     1.6531   1.8255   1.8752   2.1059   2.1732   2.2047   2.2347   2.2854
     2.5166   2.5592

          k =-0.1250-0.1139 0.0000 ( 40695 PWs)   bands (ev):

   -58.6642 -57.8195 -57.8051 -57.5198 -57.4217 -57.3511 -34.9166 -34.8978
   -34.8116 -34.1373 -34.0937 -34.0336 -34.0273 -34.0086 -33.9926 -33.8700
   -33.7828 -33.7591 -33.7567 -33.6569 -33.6440 -33.6371 -33.6266 -33.5087
   -19.1423 -18.7526 -18.4571 -18.3536 -18.1974 -17.9088 -17.8204 -17.6995
   -17.5709 -17.5164 -17.0550 -16.9793 -16.4977  -6.6357  -6.1724  -6.0212
    -5.8822  -5.7088  -5.6454  -5.3635  -5.2010  -5.1550  -4.9831  -4.7825
    -4.5780  -4.4809  -4.2366  -4.1323  -4.0033  -3.9251  -3.7512  -3.6807
    -3.6188  -3.5096  -3.3756  -3.2787  -3.1454  -2.9604  -2.8174  -2.7239
    -2.6417  -2.5386  -2.3882  -2.3777  -2.2610  -2.1432  -1.9967  -1.8750
    -1.7231  -1.5579  -1.2909  -1.1206   0.8335   0.9243   1.2914   1.4998
     1.5971   1.6410   1.8369   1.9549   1.9912   2.0467   2.1673   2.2123
     2.3942   2.7295

     the Fermi energy is    -1.4572 ev

!    total energy              =   -1258.98305947 Ry
     estimated scf accuracy    <       0.00000076 Ry
     smearing contrib. (-TS)   =       0.00100146 Ry
     internal energy E=F+TS    =   -1258.98406093 Ry

     The total energy is F=E-TS. E is the sum of the following terms:
     one-electron contribution =  -12746.94234429 Ry
     hartree contribution      =    6394.71669718 Ry
     xc contribution           =    -204.35705414 Ry
     ewald contribution        =    5421.36679343 Ry
     one-center paw contrib.   =    -123.76815310 Ry

     total magnetization       =     0.70 Bohr mag/cell
     absolute magnetization    =     2.12 Bohr mag/cell

     convergence has been achieved in  30 iterations

     negative rho (up, down):  3.968E-03 3.916E-03

     Forces acting on atoms (cartesian axes, Ry/au):

     atom    1 type  1   force =    -0.00000003    0.00000010    0.15574375
     atom    2 type  1   force =     0.00000006    0.00000008   -0.06047151
     atom    3 type  1   force =     0.00000004   -0.00000002    0.00651688
     atom    4 type  1   force =     0.00000006    0.00000022   -0.00296447
     atom    5 type  1   force =    -0.00000002    0.00000056   -0.04397422
     atom    6 type  1   force =    -0.00000001   -0.00000042   -0.00015527
     atom    7 type  2   force =     0.00000002   -0.00000025    0.01395698
     atom    8 type  2   force =    -0.00000010   -0.00000019    0.04489005
     atom    9 type  2   force =    -0.00000008    0.05018320   -0.04221113
     atom   10 type  2   force =    -0.00000002   -0.05018317   -0.04221130
     atom   11 type  2   force =    -0.00000004   -0.00000000    0.00336357
     atom   12 type  2   force =     0.00000012    0.00000016   -0.06949278
     atom   13 type  2   force =     0.00000015   -0.00027142   -0.00099281
     atom   14 type  2   force =    -0.00000010    0.00027110   -0.00099216
     atom   15 type  2   force =     0.00000012    0.00000009   -0.00093761
     atom   16 type  2   force =     0.00000001    0.00000027    0.00093558
     atom   17 type  2   force =     0.00000040    0.01519805    0.00653247
     atom   18 type  2   force =    -0.00000033   -0.01519849    0.00653240
     atom   19 type  2   force =    -0.00000026    0.00000014    0.02593157

     Total force =     0.056745     Total SCF correction =     0.003366

     Writing all to output data dir ./tmp_s0_O__u000__sp2m010/s0_O__u000__sp2m010.save/ :
     XML data file, charge density, pseudopotentials, collected wavefunctions

     init_run     :      4.39s CPU      4.55s WALL (       1 calls)
     electrons    :    200.78s CPU    204.02s WALL (       1 calls)
     forces       :      1.34s CPU      1.39s WALL (       1 calls)

     Called by init_run:
     wfcinit      :      2.07s CPU      2.13s WALL (       1 calls)
     potinit      :      1.50s CPU      1.53s WALL (       1 calls)
     hinit0       :      0.43s CPU      0.47s WALL (       1 calls)

     Called by electrons:
     c_bands      :    149.48s CPU    151.51s WALL (      30 calls)
     sum_band     :     28.49s CPU     29.05s WALL (      30 calls)
     v_of_rho     :      8.13s CPU      8.52s WALL (      31 calls)
     newd         :      2.06s CPU      2.09s WALL (      31 calls)
     PAW_pot      :      3.00s CPU      3.04s WALL (      31 calls)
     mix_rho      :      8.57s CPU      8.66s WALL (      30 calls)

     Called by c_bands:
     init_us_2    :      5.38s CPU      5.47s WALL (     496 calls)
     cegterg      :    119.77s CPU    121.48s WALL (     240 calls)

     Called by *egterg:
     cdiaghg      :      6.79s CPU      6.83s WALL (     839 calls)
     h_psi        :     82.56s CPU     83.88s WALL (     847 calls)
     s_psi        :      6.58s CPU      6.64s WALL (     847 calls)
     g_psi        :      0.46s CPU      0.46s WALL (     599 calls)

     Called by h_psi:
     h_psi:calbec :      8.16s CPU      8.25s WALL (     847 calls)
     vloc_psi     :     66.30s CPU     67.45s WALL (     847 calls)
                                        0.00s GPU  (     847 calls)
     add_vuspsi   :      6.86s CPU      6.91s WALL (     847 calls)

     General routines
     calbec       :     12.11s CPU     12.27s WALL (    1119 calls)
     fft          :      4.75s CPU      4.97s WALL (     788 calls)
     ffts         :      4.48s CPU      4.52s WALL (    3689 calls)
     fftw         :     75.44s CPU     76.79s WALL (  113158 calls)
     interpolate  :      1.35s CPU      1.36s WALL (      62 calls)

     Parallel routines

     PWSCF        :   3m27.12s CPU   3m30.90s WALL


   This run was terminated on:   3:19:54   1Sep2026            

=------------------------------------------------------------------------------=
   JOB DONE.
=------------------------------------------------------------------------------=
Note: The following floating-point exceptions are signalling: IEEE_DENORMAL
Note: The following floating-point exceptions are signalling: IEEE_DENORMAL
Note: The following floating-point exceptions are signalling: IEEE_DENORMAL
Note: The following floating-point exceptions are signalling: IEEE_DENORMAL
Note: The following floating-point exceptions are signalling: IEEE_DENORMAL
Note: The following floating-point exceptions are signalling: IEEE_DENORMAL
Note: The following floating-point exceptions are signalling: IEEE_DENORMAL
Note: The following floating-point exceptions are signalling: IEEE_DENORMAL
Note: The following floating-point exceptions are signalling: IEEE_DENORMAL
Note: The following floating-point exceptions are signalling: IEEE_DENORMAL
Note: The following floating-point exceptions are signalling: IEEE_DENORMAL
Note: The following floating-point exceptions are signalling: IEEE_DENORMAL
Note: The following floating-point exceptions are signalling: IEEE_DENORMAL
Note: The following floating-point exceptions are signalling: IEEE_DENORMAL
Note: The following floating-point exceptions are signalling: IEEE_DENORMAL
Note: The following floating-point exceptions are signalling: IEEE_DENORMAL
Note: The following floating-point exceptions are signalling: IEEE_DENORMAL
Note: The following floating-point exceptions are signalling: IEEE_DENORMAL
Note: The following floating-point exceptions are signalling: IEEE_DENORMAL
Note: The following floating-point exceptions are signalling: IEEE_DENORMAL
Note: The following floating-point exceptions are signalling: IEEE_DENORMAL
Note: The following floating-point exceptions are signalling: IEEE_DENORMAL
Note: The following floating-point exceptions are signalling: IEEE_DENORMAL
Note: The following floating-point exceptions are signalling: IEEE_DENORMAL
Note: The following floating-point exceptions are signalling: IEEE_DENORMAL
Note: The following floating-point exceptions are signalling: IEEE_DENORMAL
Note: The following floating-point exceptions are signalling: IEEE_DENORMAL
Note: The following floating-point exceptions are signalling: IEEE_DENORMAL
Note: The following floating-point exceptions are signalling: IEEE_DENORMAL
Note: The following floating-point exceptions are signalling: IEEE_DENORMAL
Note: The following floating-point exceptions are signalling: IEEE_DENORMAL
Note: The following floating-point exceptions are signalling: IEEE_DENORMAL
Note: The following floating-point exceptions are signalling: IEEE_DENORMAL
Note: The following floating-point exceptions are signalling: IEEE_DENORMAL
Note: The following floating-point exceptions are signalling: IEEE_DENORMAL
