
     Program PWSCF v.7.5 starts on  1Sep2026 at  2: 1:46 

     This program is part of the open-source Quantum ESPRESSO suite
     for quantum simulation of materials; please cite
         "P. Giannozzi et al., J. Phys.:Condens. Matter 21 395502 (2009);
         "P. Giannozzi et al., J. Phys.:Condens. Matter 29 465901 (2017);
         "P. Giannozzi et al., J. Chem. Phys. 152 154105 (2020);
          URL http://www.quantum-espresso.org", 
     in publications or presentations arising from this work. More details at
     http://www.quantum-espresso.org/quote

     Parallel version (MPI & OpenMP), running on     128 processor cores
     Number of MPI processes:               128
     Threads/MPI process:                     1

     MPI processes distributed on     1 nodes
     156915 MiB available memory on the printing compute node when the environment starts

     Reading input from s0_OH__u000__sp2m030.run.in

     Current dimensions of program PWSCF are:
     Max number of different atomic species (ntypx) = 10
     Max number of k-points (npk) =  40000
     Max angular momentum in pseudopotentials (lmaxx) =  4
     file O.pbe-n-kjpaw_psl.0.1.UPF: wavefunction(s)  2P renormalized

     K-points division:     npool     =       8
     R & G space division:  proc/nbgrp/npool/nimage =      16
     Subspace diagonalization in iterative solution of the eigenvalue problem:
     a serial algorithm will be used


     Parallelization info
     --------------------
     sticks:   dense  smooth     PW     G-vecs:    dense   smooth      PW
     Min         218     108     31                57602    20340    3111
     Max         219     109     32                57627    20361    3126
     Sum        3495    1739    505               921821   325653   49881

     Using Slab Decomposition



     bravais-lattice index     =            0
     lattice parameter (alat)  =       5.5911  a.u.
     unit-cell volume          =    3370.6432 (a.u.)^3
     number of atoms/cell      =           20
     number of atomic types    =            3
     number of electrons       =       151.00
     number of Kohn-Sham states=           91
     kinetic-energy cutoff     =      80.0000  Ry
     charge density cutoff     =     640.0000  Ry
     scf convergence threshold =      1.0E-06
     mixing beta               =       0.3000
     number of iterations used =            8  local-TF  mixing
     Exchange-correlation= SLA  PW   PBX  PBC
                           (   1   4   3   4   0   0   0)

     celldm(1)=   5.591133  celldm(2)=   0.000000  celldm(3)=   0.000000
     celldm(4)=   0.000000  celldm(5)=   0.000000  celldm(6)=   0.000000

     crystal axes: (cart. coord. in units of alat)
               a(1) = (   1.000000   0.000000   0.000000 )  
               a(2) = (   0.000000   2.195719   0.000000 )  
               a(3) = (   0.000000   0.000000   8.782875 )  

     reciprocal axes: (cart. coord. in units 2 pi/alat)
               b(1) = (  1.000000  0.000000  0.000000 )  
               b(2) = (  0.000000  0.455432  0.000000 )  
               b(3) = (  0.000000  0.000000  0.113858 )  


     PseudoPot. # 1 for H  read from file:
     /anvil/projects/x-che260157/pseudo/H.pbe-rrkjus_psl.1.0.0.UPF
     MD5 check sum: f52b6d4d1c606e5624b1dc7b2218f220
     Pseudo is Ultrasoft, Zval =  1.0
     Generated using "atomic" code by A. Dal Corso  v.5.1
     Using radial grid of  929 points,  2 beta functions with: 
                l(1) =   0
                l(2) =   0
     Q(r) pseudized with 0 coefficients 


     PseudoPot. # 2 for Ti read from file:
     /anvil/projects/x-che260157/pseudo/ti_pbe_v1.4.uspp.F.UPF
     MD5 check sum: 88a00a6731bd790ddea75d31a80cb452
     Pseudo is Ultrasoft + core correction, Zval = 12.0
     Generated by new atomic code, or converted to UPF format
     Using radial grid of  851 points,  6 beta functions with: 
                l(1) =   0
                l(2) =   0
                l(3) =   1
                l(4) =   1
                l(5) =   2
                l(6) =   2
     Q(r) pseudized with  6 coefficients,  rinner =    1.000   1.000   1.000
                                                       1.000   1.000

     PseudoPot. # 3 for O  read from file:
     /anvil/projects/x-che260157/pseudo/O.pbe-n-kjpaw_psl.0.1.UPF
     MD5 check sum: 0234752ac141de4415c5fc33072bef88
     Pseudo is Projector augmented-wave + core cor, Zval =  6.0
     Generated using "atomic" code by A. Dal Corso  v.5.0.99 svn rev. 10869
     Shape of augmentation charge: BESSEL
     Using radial grid of 1095 points,  4 beta functions with: 
                l(1) =   0
                l(2) =   0
                l(3) =   1
                l(4) =   1
     Q(r) pseudized with 0 coefficients 


     atomic species   valence    mass     pseudopotential
     H                 1.00     1.00800     H ( 1.00)
     Ti               12.00    47.86700     Ti( 1.00)
     O                 6.00    15.99900     O ( 1.00)

     Starting magnetic structure 
     atomic species   magnetization
     H               0.000
     Ti              0.300
     O               0.000

     No symmetry found



   Cartesian axes

     site n.     atom                  positions (alat units)
         1        Ti     tau(   1) = (   0.0000000   1.6467890   3.2935780  )
         2        Ti     tau(   2) = (   0.5000000   0.5489297   3.2935780  )
         3        Ti     tau(   3) = (  -0.0041510   0.5489297   4.4390297  )
         4        Ti     tau(   4) = (   0.4960848   1.6467890   4.4316977  )
         5        Ti     tau(   5) = (  -0.0075957   1.6467890   5.5931891  )
         6        Ti     tau(   6) = (   0.4859661   0.5489297   5.5744680  )
         7        O      tau(   7) = (   0.0000000   0.5489297   3.7217432  )
         8        O      tau(   8) = (   0.0000000   0.5489297   2.8654129  )
         9        O      tau(   9) = (   0.5000000   1.2186239   3.2935780  )
        10        O      tau(  10) = (   0.5000000   2.0749541   3.2935780  )
        11        O      tau(  11) = (  -0.0029345   1.6467890   4.8278864  )
        12        O      tau(  12) = (   0.0000000   1.6467890   3.9632722  )
        13        O      tau(  13) = (   0.4966025   0.1160480   4.3967316  )
        14        O      tau(  14) = (   0.4966025   0.9818113   4.3967316  )
        15        O      tau(  15) = (  -0.0111296   0.5489297   5.9377016  )
        16        O      tau(  16) = (  -0.0061564   0.5489297   5.0632104  )
        17        O      tau(  17) = (   0.4918186   1.2207191   5.5234658  )
        18        O      tau(  18) = (   0.4918186   2.0728589   5.5234658  )
        19        O      tau(  19) = (  -0.0067025   1.6467890   6.2114519  )
        20        H      tau(  20) = (   0.2851101   1.6467890   6.3687342  )

     number of k points=    32  Marzari-Vanderbilt smearing, width (Ry)=  0.0100
                       cart. coord. in units 2pi/alat
        k(    1) = (   0.0000000   0.0000000   0.0000000), wk =   0.0312500
        k(    2) = (   0.0000000   0.1138579   0.0000000), wk =   0.0312500
        k(    3) = (   0.0000000  -0.2277159   0.0000000), wk =   0.0312500
        k(    4) = (   0.0000000  -0.1138579   0.0000000), wk =   0.0312500
        k(    5) = (   0.1250000   0.0000000   0.0000000), wk =   0.0312500
        k(    6) = (   0.1250000   0.1138579   0.0000000), wk =   0.0312500
        k(    7) = (   0.1250000  -0.2277159   0.0000000), wk =   0.0312500
        k(    8) = (   0.1250000  -0.1138579   0.0000000), wk =   0.0312500
        k(    9) = (   0.2500000   0.0000000   0.0000000), wk =   0.0312500
        k(   10) = (   0.2500000   0.1138579   0.0000000), wk =   0.0312500
        k(   11) = (   0.2500000  -0.2277159   0.0000000), wk =   0.0312500
        k(   12) = (   0.2500000  -0.1138579   0.0000000), wk =   0.0312500
        k(   13) = (   0.3750000   0.0000000   0.0000000), wk =   0.0312500
        k(   14) = (   0.3750000   0.1138579   0.0000000), wk =   0.0312500
        k(   15) = (   0.3750000  -0.2277159   0.0000000), wk =   0.0312500
        k(   16) = (   0.3750000  -0.1138579   0.0000000), wk =   0.0312500
        k(   17) = (  -0.5000000   0.0000000   0.0000000), wk =   0.0312500
        k(   18) = (  -0.5000000   0.1138579   0.0000000), wk =   0.0312500
        k(   19) = (  -0.5000000  -0.2277159   0.0000000), wk =   0.0312500
        k(   20) = (  -0.5000000  -0.1138579   0.0000000), wk =   0.0312500
        k(   21) = (  -0.3750000   0.0000000   0.0000000), wk =   0.0312500
        k(   22) = (  -0.3750000   0.1138579   0.0000000), wk =   0.0312500
        k(   23) = (  -0.3750000  -0.2277159   0.0000000), wk =   0.0312500
        k(   24) = (  -0.3750000  -0.1138579   0.0000000), wk =   0.0312500
        k(   25) = (  -0.2500000   0.0000000   0.0000000), wk =   0.0312500
        k(   26) = (  -0.2500000   0.1138579   0.0000000), wk =   0.0312500
        k(   27) = (  -0.2500000  -0.2277159   0.0000000), wk =   0.0312500
        k(   28) = (  -0.2500000  -0.1138579   0.0000000), wk =   0.0312500
        k(   29) = (  -0.1250000   0.0000000   0.0000000), wk =   0.0312500
        k(   30) = (  -0.1250000   0.1138579   0.0000000), wk =   0.0312500
        k(   31) = (  -0.1250000  -0.2277159   0.0000000), wk =   0.0312500
        k(   32) = (  -0.1250000  -0.1138579   0.0000000), wk =   0.0312500

     Dense  grid:   921821 G-vectors     FFT dimensions: (  45, 100, 400)

     Smooth grid:   325653 G-vectors     FFT dimensions: (  32,  72, 288)

     Estimated max dynamical RAM per process >     128.49 MB

     Estimated total dynamical RAM >      12.98 GB

     Check: negative core charge=   -0.000001
     Generating pointlists ...
     new r_m :   0.1367 (alat units)  0.7646 (a.u.) for type    1
     new r_m :   0.2540 (alat units)  1.4199 (a.u.) for type    2
     new r_m :   0.1367 (alat units)  0.7646 (a.u.) for type    3

     Initial potential from superposition of free atoms

     starting charge     144.9997, renormalised to     151.0000

     negative rho (up, down):  5.527E-03 2.923E-03
     Starting wfcs are  113 randomized atomic wfcs
     Checking if some PAW data can be deallocated... 

     total cpu time spent up to now is       10.0 secs

     per-process dynamical memory:   140.7 Mb

     Self-consistent Calculation

     iteration #  1     ecut=    80.00 Ry     beta= 0.30
     Davidson diagonalization with overlap
     ethr =  1.00E-02,  avg # of iterations =  2.4

     negative rho (up, down):  4.187E-03 3.881E-03

     total cpu time spent up to now is       18.9 secs

     total energy              =   -1259.31824128 Ry
     estimated scf accuracy    <      31.67054539 Ry

     total magnetization       =     3.00 Bohr mag/cell
     absolute magnetization    =     5.57 Bohr mag/cell

     iteration #  2     ecut=    80.00 Ry     beta= 0.30
     Davidson diagonalization with overlap
     ethr =  1.00E-02,  avg # of iterations =  1.0

     negative rho (up, down):  3.999E-03 4.488E-03

     total cpu time spent up to now is       26.5 secs

     total energy              =   -1260.18344223 Ry
     estimated scf accuracy    <       4.45751700 Ry

     total magnetization       =     0.83 Bohr mag/cell
     absolute magnetization    =     3.44 Bohr mag/cell

     iteration #  3     ecut=    80.00 Ry     beta= 0.30
     Davidson diagonalization with overlap
     ethr =  2.95E-03,  avg # of iterations =  1.6

     negative rho (up, down):  3.721E-03 5.181E-03

     total cpu time spent up to now is       34.6 secs

     total energy              =   -1260.26742475 Ry
     estimated scf accuracy    <       2.16807940 Ry

     total magnetization       =     0.25 Bohr mag/cell
     absolute magnetization    =     3.01 Bohr mag/cell

     iteration #  4     ecut=    80.00 Ry     beta= 0.30
     Davidson diagonalization with overlap
     ethr =  1.44E-03,  avg # of iterations =  2.6

     negative rho (up, down):  3.417E-03 5.250E-03

     total cpu time spent up to now is       44.6 secs

     total energy              =   -1260.44145224 Ry
     estimated scf accuracy    <       5.17515749 Ry

     total magnetization       =     0.69 Bohr mag/cell
     absolute magnetization    =     2.76 Bohr mag/cell

     iteration #  5     ecut=    80.00 Ry     beta= 0.30
     Davidson diagonalization with overlap
     ethr =  1.44E-03,  avg # of iterations =  1.0

     negative rho (up, down):  3.331E-03 4.397E-03

     total cpu time spent up to now is       52.3 secs

     total energy              =   -1260.41320773 Ry
     estimated scf accuracy    <       1.78672339 Ry

     total magnetization       =    -0.00 Bohr mag/cell
     absolute magnetization    =     1.93 Bohr mag/cell

     iteration #  6     ecut=    80.00 Ry     beta= 0.30
     Davidson diagonalization with overlap
     ethr =  1.18E-03,  avg # of iterations =  1.0

     negative rho (up, down):  3.447E-03 3.952E-03

     total cpu time spent up to now is       59.0 secs

     total energy              =   -1260.39401689 Ry
     estimated scf accuracy    <       1.01671594 Ry

     total magnetization       =    -0.26 Bohr mag/cell
     absolute magnetization    =     1.39 Bohr mag/cell

     iteration #  7     ecut=    80.00 Ry     beta= 0.30
     Davidson diagonalization with overlap
     ethr =  6.73E-04,  avg # of iterations =  1.6

     negative rho (up, down):  3.758E-03 3.771E-03

     total cpu time spent up to now is       70.4 secs

     total energy              =   -1260.40212515 Ry
     estimated scf accuracy    <       1.04958109 Ry

     total magnetization       =    -0.69 Bohr mag/cell
     absolute magnetization    =     1.21 Bohr mag/cell

     iteration #  8     ecut=    80.00 Ry     beta= 0.30
     Davidson diagonalization with overlap
     ethr =  6.73E-04,  avg # of iterations =  1.2

     negative rho (up, down):  4.896E-03 4.106E-03

     total cpu time spent up to now is       77.5 secs

     total energy              =   -1260.37571798 Ry
     estimated scf accuracy    <       0.90757798 Ry

     total magnetization       =    -0.83 Bohr mag/cell
     absolute magnetization    =     1.31 Bohr mag/cell

     iteration #  9     ecut=    80.00 Ry     beta= 0.30
     Davidson diagonalization with overlap
     ethr =  6.01E-04,  avg # of iterations =  3.0

     negative rho (up, down):  4.766E-03 4.065E-03

     total cpu time spent up to now is       89.4 secs

     total energy              =   -1260.38310622 Ry
     estimated scf accuracy    <       0.31428717 Ry

     total magnetization       =    -0.62 Bohr mag/cell
     absolute magnetization    =     1.21 Bohr mag/cell

     iteration # 10     ecut=    80.00 Ry     beta= 0.30
     Davidson diagonalization with overlap
     c_bands:  3 eigenvalues not converged
     c_bands:  1 eigenvalues not converged
     c_bands:  3 eigenvalues not converged
     c_bands:  2 eigenvalues not converged
     c_bands:  1 eigenvalues not converged
     ethr =  2.08E-04,  avg # of iterations =  7.2

     negative rho (up, down):  5.048E-03 4.274E-03

     total cpu time spent up to now is      102.8 secs

     total energy              =   -1260.37865758 Ry
     estimated scf accuracy    <       0.27788096 Ry

     total magnetization       =    -0.57 Bohr mag/cell
     absolute magnetization    =     1.13 Bohr mag/cell

     iteration # 11     ecut=    80.00 Ry     beta= 0.30
     Davidson diagonalization with overlap
     c_bands:  2 eigenvalues not converged
     ethr =  1.84E-04,  avg # of iterations =  3.5

     negative rho (up, down):  4.199E-03 4.234E-03

     total cpu time spent up to now is      110.2 secs

     total energy              =   -1260.37064473 Ry
     estimated scf accuracy    <       0.15867465 Ry

     total magnetization       =    -0.52 Bohr mag/cell
     absolute magnetization    =     1.08 Bohr mag/cell

     iteration # 12     ecut=    80.00 Ry     beta= 0.30
     Davidson diagonalization with overlap
     ethr =  1.05E-04,  avg # of iterations =  5.7

     negative rho (up, down):  4.268E-03 4.280E-03

     total cpu time spent up to now is      118.4 secs

     total energy              =   -1260.37949668 Ry
     estimated scf accuracy    <       0.07803863 Ry

     total magnetization       =    -0.45 Bohr mag/cell
     absolute magnetization    =     0.73 Bohr mag/cell

     iteration # 13     ecut=    80.00 Ry     beta= 0.30
     Davidson diagonalization with overlap
     ethr =  5.17E-05,  avg # of iterations =  4.5

     negative rho (up, down):  4.074E-03 4.185E-03

     total cpu time spent up to now is      127.6 secs

     total energy              =   -1260.37882075 Ry
     estimated scf accuracy    <       0.04607724 Ry

     total magnetization       =    -0.43 Bohr mag/cell
     absolute magnetization    =     0.70 Bohr mag/cell

     iteration # 14     ecut=    80.00 Ry     beta= 0.30
     Davidson diagonalization with overlap
     ethr =  3.05E-05,  avg # of iterations =  4.1

     negative rho (up, down):  4.341E-03 4.191E-03

     total cpu time spent up to now is      137.7 secs

     total energy              =   -1260.37131233 Ry
     estimated scf accuracy    <       0.09220125 Ry

     total magnetization       =    -0.47 Bohr mag/cell
     absolute magnetization    =     0.65 Bohr mag/cell

     iteration # 15     ecut=    80.00 Ry     beta= 0.30
     Davidson diagonalization with overlap
     ethr =  3.05E-05,  avg # of iterations =  3.4

     negative rho (up, down):  4.056E-03 4.076E-03

     total cpu time spent up to now is      152.8 secs

     total energy              =   -1260.37686499 Ry
     estimated scf accuracy    <       0.04253056 Ry

     total magnetization       =    -0.50 Bohr mag/cell
     absolute magnetization    =     0.70 Bohr mag/cell

     iteration # 16     ecut=    80.00 Ry     beta= 0.30
     Davidson diagonalization with overlap
     ethr =  2.82E-05,  avg # of iterations =  1.0

     negative rho (up, down):  3.670E-03 3.967E-03

     total cpu time spent up to now is      159.9 secs

     total energy              =   -1260.37523930 Ry
     estimated scf accuracy    <       0.01476532 Ry

     total magnetization       =    -0.54 Bohr mag/cell
     absolute magnetization    =     0.69 Bohr mag/cell

     iteration # 17     ecut=    80.00 Ry     beta= 0.30
     Davidson diagonalization with overlap
     c_bands:  1 eigenvalues not converged
     c_bands:  2 eigenvalues not converged
     ethr =  9.78E-06,  avg # of iterations =  8.2

     negative rho (up, down):  3.689E-03 3.930E-03

     total cpu time spent up to now is      169.6 secs

     total energy              =   -1260.37737456 Ry
     estimated scf accuracy    <       0.01467531 Ry

     total magnetization       =    -0.54 Bohr mag/cell
     absolute magnetization    =     0.69 Bohr mag/cell

     iteration # 18     ecut=    80.00 Ry     beta= 0.30
     Davidson diagonalization with overlap
     ethr =  9.72E-06,  avg # of iterations =  1.2

     negative rho (up, down):  3.725E-03 3.866E-03

     total cpu time spent up to now is      176.3 secs

     total energy              =   -1260.37637255 Ry
     estimated scf accuracy    <       0.01149569 Ry

     total magnetization       =    -0.55 Bohr mag/cell
     absolute magnetization    =     0.70 Bohr mag/cell

     iteration # 19     ecut=    80.00 Ry     beta= 0.30
     Davidson diagonalization with overlap
     ethr =  7.61E-06,  avg # of iterations =  2.3

     negative rho (up, down):  3.688E-03 3.925E-03

     total cpu time spent up to now is      184.9 secs

     total energy              =   -1260.37621280 Ry
     estimated scf accuracy    <       0.00561088 Ry

     total magnetization       =    -0.54 Bohr mag/cell
     absolute magnetization    =     0.72 Bohr mag/cell

     iteration # 20     ecut=    80.00 Ry     beta= 0.30
     Davidson diagonalization with overlap
     ethr =  3.72E-06,  avg # of iterations =  4.8

     negative rho (up, down):  3.705E-03 3.896E-03

     total cpu time spent up to now is      194.0 secs

     total energy              =   -1260.37627232 Ry
     estimated scf accuracy    <       0.01347808 Ry

     total magnetization       =    -0.44 Bohr mag/cell
     absolute magnetization    =     0.75 Bohr mag/cell

     iteration # 21     ecut=    80.00 Ry     beta= 0.30
     Davidson diagonalization with overlap
     ethr =  3.72E-06,  avg # of iterations =  1.7

     negative rho (up, down):  3.782E-03 3.968E-03

     total cpu time spent up to now is      200.1 secs

     total energy              =   -1260.37586403 Ry
     estimated scf accuracy    <       0.00574967 Ry

     total magnetization       =    -0.49 Bohr mag/cell
     absolute magnetization    =     0.75 Bohr mag/cell

     iteration # 22     ecut=    80.00 Ry     beta= 0.30
     Davidson diagonalization with overlap
     ethr =  3.72E-06,  avg # of iterations =  1.1

     negative rho (up, down):  5.101E-03 5.179E-03

     total cpu time spent up to now is      206.9 secs

     total energy              =   -1260.37495305 Ry
     estimated scf accuracy    <       0.00502272 Ry

     total magnetization       =    -0.45 Bohr mag/cell
     absolute magnetization    =     0.77 Bohr mag/cell

     iteration # 23     ecut=    80.00 Ry     beta= 0.30
     Davidson diagonalization with overlap
     ethr =  3.33E-06,  avg # of iterations =  3.8

     negative rho (up, down):  5.584E-03 5.672E-03

     total cpu time spent up to now is      213.8 secs

     total energy              =   -1260.37530065 Ry
     estimated scf accuracy    <       0.00110278 Ry

     total magnetization       =    -0.49 Bohr mag/cell
     absolute magnetization    =     0.75 Bohr mag/cell

     iteration # 24     ecut=    80.00 Ry     beta= 0.30
     Davidson diagonalization with overlap
     ethr =  7.30E-07,  avg # of iterations =  6.6

     negative rho (up, down):  6.331E-03 6.439E-03

     total cpu time spent up to now is      223.0 secs

     total energy              =   -1260.37521692 Ry
     estimated scf accuracy    <       0.00088333 Ry

     total magnetization       =    -0.50 Bohr mag/cell
     absolute magnetization    =     0.76 Bohr mag/cell

     iteration # 25     ecut=    80.00 Ry     beta= 0.30
     Davidson diagonalization with overlap
     ethr =  5.85E-07,  avg # of iterations =  5.3

     negative rho (up, down):  6.265E-03 6.372E-03

     total cpu time spent up to now is      231.0 secs

     total energy              =   -1260.37535428 Ry
     estimated scf accuracy    <       0.00029348 Ry

     total magnetization       =    -0.50 Bohr mag/cell
     absolute magnetization    =     0.75 Bohr mag/cell

     iteration # 26     ecut=    80.00 Ry     beta= 0.30
     Davidson diagonalization with overlap
     ethr =  1.94E-07,  avg # of iterations =  2.5

     negative rho (up, down):  5.965E-03 6.074E-03

     total cpu time spent up to now is      240.6 secs

     total energy              =   -1260.37540645 Ry
     estimated scf accuracy    <       0.00014378 Ry

     total magnetization       =    -0.51 Bohr mag/cell
     absolute magnetization    =     0.74 Bohr mag/cell

     iteration # 27     ecut=    80.00 Ry     beta= 0.30
     Davidson diagonalization with overlap
     ethr =  9.52E-08,  avg # of iterations =  4.1

     negative rho (up, down):  5.364E-03 5.474E-03

     total cpu time spent up to now is      248.2 secs

     total energy              =   -1260.37542427 Ry
     estimated scf accuracy    <       0.00008304 Ry

     total magnetization       =    -0.52 Bohr mag/cell
     absolute magnetization    =     0.72 Bohr mag/cell

     iteration # 28     ecut=    80.00 Ry     beta= 0.30
     Davidson diagonalization with overlap
     ethr =  5.50E-08,  avg # of iterations =  3.5

     negative rho (up, down):  4.401E-03 4.516E-03

     total cpu time spent up to now is      256.2 secs

     total energy              =   -1260.37544485 Ry
     estimated scf accuracy    <       0.00004070 Ry

     total magnetization       =    -0.53 Bohr mag/cell
     absolute magnetization    =     0.71 Bohr mag/cell

     iteration # 29     ecut=    80.00 Ry     beta= 0.30
     Davidson diagonalization with overlap
     ethr =  2.70E-08,  avg # of iterations =  4.3

     negative rho (up, down):  4.201E-03 4.317E-03

     total cpu time spent up to now is      264.9 secs

     total energy              =   -1260.37545691 Ry
     estimated scf accuracy    <       0.00001318 Ry

     total magnetization       =    -0.54 Bohr mag/cell
     absolute magnetization    =     0.70 Bohr mag/cell

     iteration # 30     ecut=    80.00 Ry     beta= 0.30
     Davidson diagonalization with overlap
     ethr =  8.73E-09,  avg # of iterations =  2.6

     negative rho (up, down):  3.906E-03 4.027E-03

     total cpu time spent up to now is      273.6 secs

     total energy              =   -1260.37546117 Ry
     estimated scf accuracy    <       0.00000573 Ry

     total magnetization       =    -0.54 Bohr mag/cell
     absolute magnetization    =     0.70 Bohr mag/cell

     iteration # 31     ecut=    80.00 Ry     beta= 0.30
     Davidson diagonalization with overlap
     ethr =  3.79E-09,  avg # of iterations =  5.4

     negative rho (up, down):  3.917E-03 4.039E-03

     total cpu time spent up to now is      284.0 secs

     total energy              =   -1260.37546516 Ry
     estimated scf accuracy    <       0.00000495 Ry

     total magnetization       =    -0.55 Bohr mag/cell
     absolute magnetization    =     0.71 Bohr mag/cell

     iteration # 32     ecut=    80.00 Ry     beta= 0.30
     Davidson diagonalization with overlap
     ethr =  3.28E-09,  avg # of iterations =  4.2

     negative rho (up, down):  3.872E-03 3.995E-03

     total cpu time spent up to now is      293.0 secs

     total energy              =   -1260.37546702 Ry
     estimated scf accuracy    <       0.00000106 Ry

     total magnetization       =    -0.55 Bohr mag/cell
     absolute magnetization    =     0.71 Bohr mag/cell

     iteration # 33     ecut=    80.00 Ry     beta= 0.30
     Davidson diagonalization with overlap
     ethr =  7.04E-10,  avg # of iterations =  4.2

     negative rho (up, down):  3.820E-03 3.944E-03

     Magnetic moment per site  (integrated on atomic sphere of radius R)
     atom   1 (R=0.254)  charge=  8.1256  magn=  0.0047
     atom   2 (R=0.254)  charge=  8.1208  magn=  0.0278
     atom   3 (R=0.254)  charge=  8.1178  magn=  0.0078
     atom   4 (R=0.254)  charge=  8.1147  magn=  0.0046
     atom   5 (R=0.254)  charge=  8.1224  magn=  0.0008
     atom   6 (R=0.254)  charge=  8.1339  magn=  0.0024
     atom   7 (R=0.137)  charge=  1.9473  magn= -0.0531
     atom   8 (R=0.137)  charge=  1.9303  magn= -0.0962
     atom   9 (R=0.137)  charge=  1.9521  magn= -0.0031
     atom  10 (R=0.137)  charge=  1.9521  magn= -0.0031
     atom  11 (R=0.137)  charge=  1.9502  magn= -0.0048
     atom  12 (R=0.137)  charge=  1.9418  magn= -0.0083
     atom  13 (R=0.137)  charge=  1.9517  magn= -0.0148
     atom  14 (R=0.137)  charge=  1.9517  magn= -0.0148
     atom  15 (R=0.137)  charge=  1.9484  magn= -0.0065
     atom  16 (R=0.137)  charge=  1.9444  magn= -0.0175
     atom  17 (R=0.137)  charge=  1.9510  magn= -0.0021
     atom  18 (R=0.137)  charge=  1.9510  magn= -0.0021
     atom  19 (R=0.137)  charge=  1.9572  magn= -0.0021
     atom  20 (R=0.137)  charge=  0.3885  magn=  0.0000

     total cpu time spent up to now is      302.4 secs

     End of self-consistent calculation

 ------ SPIN UP ------------


          k = 0.0000 0.0000 0.0000 ( 40639 PWs)   bands (ev):

   -58.2344 -57.4211 -57.3348 -57.1884 -57.1100 -56.8774 -34.4918 -34.4777
   -34.3043 -33.7329 -33.6994 -33.5707 -33.5588 -33.5376 -33.4808 -33.4636
   -33.4483 -33.4427 -33.3550 -33.3194 -33.1727 -33.1708 -33.1407 -32.9678
   -18.9144 -18.5836 -18.4198 -18.0657 -17.8451 -17.5550 -17.4025 -17.3165
   -17.0747 -17.0572 -16.8593 -16.5667 -16.1147  -6.6677  -6.1660  -5.9542
    -5.7776  -5.3060  -5.1956  -5.0838  -5.0586  -4.5595  -4.5543  -4.3949
    -4.3677  -4.2076  -3.8816  -3.8186  -3.7467  -3.6723  -3.2726  -3.2067
    -3.1166  -2.8543  -2.7239  -2.6751  -2.4925  -2.3368  -2.2481  -2.2312
    -2.0423  -1.9235  -1.8920  -1.7496  -1.6126  -1.5174  -1.3678  -1.1760
    -1.0547  -1.0004  -0.9228  -0.6771   0.7917   1.3324   1.3864   1.6795
     1.7862   1.9020   1.9459   2.0870   2.3380   2.4237   2.5336   2.5652
     2.6421   2.6679   3.1257

          k = 0.0000 0.1139 0.0000 ( 40609 PWs)   bands (ev):

   -58.2344 -57.4210 -57.3349 -57.1884 -57.1100 -56.8774 -34.4918 -34.4746
   -34.3042 -33.7094 -33.6992 -33.5836 -33.5706 -33.5371 -33.4708 -33.4641
   -33.4483 -33.4469 -33.3550 -33.3193 -33.1728 -33.1708 -33.1516 -32.9679
   -18.7984 -18.5258 -18.3451 -17.9876 -17.9256 -17.7348 -17.4336 -17.2989
   -17.1426 -17.0696 -16.9151 -16.5645 -16.1130  -6.3707  -5.9095  -5.7943
    -5.6493  -5.3150  -5.1252  -5.0430  -4.9506  -4.5679  -4.3675  -4.3601
    -4.3439  -4.1644  -3.9491  -3.8815  -3.8181  -3.7140  -3.5237  -3.4867
    -3.2062  -3.1745  -2.8188  -2.7467  -2.5421  -2.4325  -2.3680  -2.1233
    -2.0794  -2.0646  -1.8875  -1.8391  -1.6843  -1.6135  -1.4716  -1.2894
    -1.1266  -1.1045  -0.9568  -0.7924   1.0216   1.3297   1.6853   1.8197
     1.9433   1.9914   2.1597   2.3442   2.3676   2.4671   2.5097   2.6008
     2.7104   2.8493   3.0549

          k = 0.0000-0.2277 0.0000 ( 40526 PWs)   bands (ev):

   -58.2344 -57.4209 -57.3350 -57.1884 -57.1100 -56.8775 -34.4918 -34.4714
   -34.3042 -33.6992 -33.6658 -33.6279 -33.5708 -33.5366 -33.4646 -33.4598
   -33.4510 -33.4483 -33.3550 -33.3192 -33.1728 -33.1709 -33.1633 -32.9680
   -18.6249 -18.4832 -18.1830 -18.1308 -17.9359 -17.7584 -17.6130 -17.2730
   -17.2331 -17.0610 -16.9616 -16.5635 -16.1115  -5.9722  -5.8403  -5.4637
    -5.3674  -5.2693  -5.1203  -4.9994  -4.7247  -4.5254  -4.3665  -4.2896
    -4.2734  -4.1181  -4.0671  -3.8912  -3.8842  -3.8524  -3.8174  -3.7472
    -3.4905  -3.3886  -3.0711  -2.8272  -2.7977  -2.5000  -2.3888  -2.2487
    -2.1009  -2.0643  -2.0245  -1.8961  -1.6997  -1.6172  -1.3194  -1.2805
    -1.1603  -1.1437  -1.1194  -0.8805   1.1654   1.3279   1.8612   1.9534
     2.0909   2.1753   2.3256   2.4171   2.4284   2.4918   2.6279   2.6938
     2.9174   2.9763   3.0358

          k = 0.0000-0.1139 0.0000 ( 40609 PWs)   bands (ev):

   -58.2344 -57.4210 -57.3349 -57.1884 -57.1100 -56.8774 -34.4918 -34.4746
   -34.3042 -33.7094 -33.6992 -33.5836 -33.5706 -33.5371 -33.4708 -33.4641
   -33.4483 -33.4469 -33.3550 -33.3193 -33.1728 -33.1708 -33.1516 -32.9679
   -18.7984 -18.5258 -18.3451 -17.9876 -17.9256 -17.7348 -17.4336 -17.2989
   -17.1426 -17.0696 -16.9151 -16.5645 -16.1130  -6.3707  -5.9095  -5.7943
    -5.6493  -5.3150  -5.1252  -5.0430  -4.9506  -4.5679  -4.3675  -4.3601
    -4.3439  -4.1644  -3.9491  -3.8815  -3.8181  -3.7140  -3.5237  -3.4867
    -3.2062  -3.1745  -2.8188  -2.7467  -2.5421  -2.4325  -2.3680  -2.1233
    -2.0794  -2.0646  -1.8875  -1.8391  -1.6843  -1.6135  -1.4716  -1.2894
    -1.1266  -1.1045  -0.9568  -0.7924   1.0216   1.3297   1.6853   1.8197
     1.9433   1.9914   2.1597   2.3442   2.3676   2.4671   2.5097   2.6008
     2.7104   2.8493   3.0549

          k = 0.1250 0.0000 0.0000 ( 40652 PWs)   bands (ev):

   -58.2285 -57.4150 -57.3290 -57.1825 -57.1041 -56.8712 -34.4869 -34.4615
   -34.3724 -33.7180 -33.6870 -33.6042 -33.5653 -33.5536 -33.5303 -33.4632
   -33.4472 -33.4387 -33.3831 -33.3402 -33.2395 -33.1651 -33.1379 -33.0362
   -18.7710 -18.4747 -18.3122 -17.9563 -17.7262 -17.6311 -17.3142 -17.2046
   -17.1370 -17.1231 -16.9272 -16.5996 -16.1677  -6.4680  -5.9798  -5.7920
    -5.7084  -5.3259  -5.3016  -5.0028  -4.9886  -4.8212  -4.6523  -4.4850
    -4.4057  -4.1978  -3.8940  -3.7569  -3.5536  -3.4737  -3.1974  -3.1132
    -2.9718  -2.8816  -2.7555  -2.7489  -2.6271  -2.5525  -2.4243  -2.2937
    -2.1289  -2.1217  -1.9105  -1.8592  -1.7422  -1.6926  -1.6284  -1.4767
    -1.3845  -1.0899  -0.8898  -0.7575   1.0750   1.3139   1.6576   1.6640
     1.8635   1.9356   2.1468   2.2024   2.3173   2.4094   2.5841   2.6945
     2.7228   2.7770   3.1289

          k = 0.1250 0.1139 0.0000 ( 40695 PWs)   bands (ev):

   -58.2285 -57.4150 -57.3291 -57.1825 -57.1041 -56.8712 -34.4869 -34.4588
   -34.3727 -33.6983 -33.6869 -33.6046 -33.5775 -33.5648 -33.5271 -33.4547
   -33.4471 -33.4418 -33.3840 -33.3402 -33.2395 -33.1652 -33.1463 -33.0361
   -18.6605 -18.4392 -18.2281 -17.8842 -17.8410 -17.7276 -17.3452 -17.2329
   -17.1946 -17.1298 -16.9651 -16.5974 -16.1661  -6.1740  -5.7809  -5.6675
    -5.5061  -5.3158  -5.2311  -5.0419  -4.8726  -4.7281  -4.6630  -4.4847
    -4.3012  -4.1074  -3.9169  -3.7722  -3.6067  -3.5136  -3.4441  -3.2835
    -3.2140  -3.1096  -3.0302  -2.8671  -2.7688  -2.5919  -2.4777  -2.3416
    -2.2944  -2.1701  -2.0740  -1.8917  -1.7547  -1.6642  -1.5759  -1.4693
    -1.3696  -1.1235  -0.9027  -0.8280   1.2654   1.3612   1.7343   1.9264
     1.9744   2.0385   2.2553   2.3901   2.4491   2.4778   2.6154   2.6836
     2.7342   2.9140   3.1171

          k = 0.1250-0.2277 0.0000 ( 40666 PWs)   bands (ev):

   -58.2285 -57.4149 -57.3291 -57.1825 -57.1041 -56.8712 -34.4869 -34.4560
   -34.3730 -33.6868 -33.6657 -33.6186 -33.5976 -33.5651 -33.5261 -33.4476
   -33.4450 -33.4447 -33.3853 -33.3402 -33.2395 -33.1653 -33.1551 -33.0361
   -18.4866 -18.4116 -18.0998 -18.0195 -17.9095 -17.6524 -17.5270 -17.2802
   -17.2181 -17.1213 -16.9908 -16.5962 -16.1648  -5.7698  -5.7448  -5.3997
    -5.2949  -5.2164  -5.0706  -5.0105  -4.7860  -4.7368  -4.6058  -4.3748
    -4.2235  -4.1019  -3.8986  -3.7982  -3.7693  -3.7224  -3.6757  -3.5411
    -3.3855  -3.3314  -3.1752  -3.0467  -2.9924  -2.9131  -2.5563  -2.4658
    -2.3640  -2.1520  -2.1275  -1.9149  -1.7832  -1.6424  -1.4232  -1.3278
    -1.2222  -1.1359  -1.1264  -0.8501   1.3140   1.4482   1.8832   1.9751
     2.1053   2.1691   2.3129   2.5156   2.6347   2.6509   2.6649   2.6959
     2.8516   2.9659   3.1229

          k = 0.1250-0.1139 0.0000 ( 40695 PWs)   bands (ev):

   -58.2285 -57.4150 -57.3291 -57.1825 -57.1041 -56.8712 -34.4869 -34.4588
   -34.3727 -33.6983 -33.6869 -33.6046 -33.5775 -33.5648 -33.5271 -33.4547
   -33.4471 -33.4418 -33.3840 -33.3402 -33.2395 -33.1652 -33.1463 -33.0361
   -18.6605 -18.4392 -18.2281 -17.8842 -17.8410 -17.7276 -17.3452 -17.2329
   -17.1946 -17.1298 -16.9651 -16.5974 -16.1661  -6.1740  -5.7809  -5.6675
    -5.5061  -5.3158  -5.2311  -5.0419  -4.8726  -4.7281  -4.6630  -4.4847
    -4.3012  -4.1074  -3.9169  -3.7722  -3.6067  -3.5136  -3.4441  -3.2835
    -3.2140  -3.1096  -3.0302  -2.8671  -2.7688  -2.5919  -2.4777  -2.3416
    -2.2944  -2.1701  -2.0740  -1.8917  -1.7547  -1.6642  -1.5759  -1.4693
    -1.3696  -1.1235  -0.9027  -0.8280   1.2654   1.3612   1.7343   1.9264
     1.9744   2.0385   2.2553   2.3901   2.4491   2.4778   2.6154   2.6836
     2.7342   2.9140   3.1171

          k = 0.2500 0.0000 0.0000 ( 40766 PWs)   bands (ev):

   -58.2143 -57.4005 -57.3149 -57.1682 -57.0897 -56.8561 -34.5336 -34.4751
   -34.4218 -33.7760 -33.6900 -33.6817 -33.6426 -33.5547 -33.5515 -33.5409
   -33.4291 -33.4237 -33.4195 -33.4014 -33.3041 -33.2369 -33.1321 -33.1067
   -18.4161 -18.2699 -17.9927 -17.8140 -17.6729 -17.4479 -17.2894 -17.2826
   -17.1521 -17.0914 -16.9737 -16.6417 -16.2401  -6.0302  -5.9603  -5.5193
    -5.4285  -5.3079  -5.1510  -5.0614  -4.8856  -4.8037  -4.7400  -4.4144
    -4.3089  -4.2482  -4.1254  -3.7885  -3.6666  -3.5170  -3.3923  -3.3265
    -3.2289  -3.1954  -2.9372  -2.7515  -2.7450  -2.6720  -2.5488  -2.5059
    -2.3248  -2.1357  -1.9894  -1.9813  -1.9550  -1.8219  -1.7084  -1.7013
    -1.4904  -1.1282  -1.0372  -1.0248   1.3069   1.4807   1.5182   2.0106
     2.0432   2.1258   2.2570   2.2941   2.4445   2.6806   2.8000   2.8558
     2.8644   2.9320   2.9829

          k = 0.2500 0.1139 0.0000 ( 40754 PWs)   bands (ev):

   -58.2143 -57.4004 -57.3149 -57.1682 -57.0898 -56.8561 -34.5345 -34.4750
   -34.4203 -33.7767 -33.7117 -33.6474 -33.6422 -33.5572 -33.5533 -33.5516
   -33.4300 -33.4238 -33.4140 -33.4012 -33.3042 -33.2364 -33.1357 -33.1066
   -18.3374 -18.2614 -17.9305 -17.9062 -17.6073 -17.5167 -17.3269 -17.2978
   -17.1721 -17.1214 -16.9605 -16.6408 -16.2398  -6.0321  -5.7228  -5.3259
    -5.2891  -5.1383  -5.0850  -4.9811  -4.8869  -4.7449  -4.7050  -4.5839
    -4.3583  -4.3159  -4.0288  -3.8478  -3.7612  -3.5964  -3.5172  -3.3134
    -3.2398  -3.1154  -3.0502  -2.9990  -2.8760  -2.7540  -2.7166  -2.6388
    -2.5318  -2.2238  -2.0139  -1.9602  -1.9290  -1.7915  -1.6516  -1.5426
    -1.4346  -1.1930  -1.0989  -0.9968   1.3358   1.5147   1.7123   1.9723
     2.0131   2.1281   2.4240   2.4623   2.5072   2.6912   2.8255   2.8742
     2.9227   2.9679   3.0161

          k = 0.2500-0.2277 0.0000 ( 40742 PWs)   bands (ev):

   -58.2143 -57.4004 -57.3150 -57.1682 -57.0898 -56.8561 -34.5354 -34.4750
   -34.4187 -33.7770 -33.7208 -33.6427 -33.6169 -33.5739 -33.5595 -33.5517
   -33.4308 -33.4238 -33.4087 -33.4011 -33.3042 -33.2356 -33.1396 -33.1066
   -18.2550 -18.1396 -18.1317 -17.7838 -17.6667 -17.4501 -17.4285 -17.3374
   -17.2176 -17.1083 -16.9547 -16.6400 -16.2396  -6.0343  -5.3785  -5.2118
    -5.1649  -4.9248  -4.9184  -4.8377  -4.7416  -4.7134  -4.6622  -4.6392
    -4.5174  -4.3316  -4.2739  -4.0735  -3.7922  -3.5720  -3.4754  -3.3963
    -3.3850  -3.2787  -3.2437  -3.0615  -2.9556  -2.8788  -2.8220  -2.6888
    -2.6179  -2.4255  -2.1092  -1.9700  -1.8243  -1.7503  -1.5667  -1.4307
    -1.3227  -1.2046  -1.1800  -0.9975   1.4156   1.4874   1.8420   1.9800
     2.0320   2.0460   2.4285   2.5858   2.7515   2.7912   2.8406   2.8889
     2.9769   3.0287   3.0818

          k = 0.2500-0.1139 0.0000 ( 40754 PWs)   bands (ev):

   -58.2143 -57.4004 -57.3149 -57.1682 -57.0898 -56.8561 -34.5345 -34.4750
   -34.4203 -33.7767 -33.7117 -33.6474 -33.6422 -33.5572 -33.5533 -33.5516
   -33.4300 -33.4238 -33.4140 -33.4012 -33.3042 -33.2364 -33.1357 -33.1066
   -18.3374 -18.2614 -17.9305 -17.9062 -17.6073 -17.5167 -17.3269 -17.2978
   -17.1721 -17.1214 -16.9605 -16.6408 -16.2398  -6.0321  -5.7228  -5.3259
    -5.2891  -5.1383  -5.0850  -4.9811  -4.8869  -4.7449  -4.7050  -4.5839
    -4.3583  -4.3159  -4.0288  -3.8478  -3.7612  -3.5964  -3.5172  -3.3134
    -3.2398  -3.1154  -3.0502  -2.9990  -2.8760  -2.7540  -2.7166  -2.6388
    -2.5318  -2.2238  -2.0139  -1.9602  -1.9290  -1.7915  -1.6516  -1.5426
    -1.4346  -1.1930  -1.0989  -0.9968   1.3358   1.5147   1.7123   1.9723
     2.0131   2.1281   2.4240   2.4623   2.5072   2.6912   2.8255   2.8742
     2.9228   2.9681   3.0161

          k = 0.3750 0.0000 0.0000 ( 40826 PWs)   bands (ev):

   -58.2000 -57.3859 -57.3007 -57.1538 -57.0754 -56.8409 -34.6904 -34.4634
   -34.3816 -33.9332 -33.8444 -33.7100 -33.6454 -33.6065 -33.5720 -33.5279
   -33.5278 -33.4196 -33.4134 -33.3956 -33.3736 -33.2674 -33.1280 -33.0826
   -18.1024 -18.0430 -17.9956 -17.5983 -17.4950 -17.4424 -17.3172 -17.2554
   -17.1798 -17.1337 -16.9097 -16.5354 -16.1733  -6.4768  -5.4451  -5.3378
    -5.2463  -5.0864  -5.0373  -5.0137  -4.9749  -4.8023  -4.7416  -4.6423
    -4.6244  -4.2938  -4.0765  -3.8750  -3.6880  -3.6844  -3.5261  -3.4362
    -3.4056  -3.2821  -3.1240  -3.1239  -2.7951  -2.7344  -2.5875  -2.4497
    -2.4183  -2.0431  -1.9791  -1.9468  -1.9020  -1.7274  -1.6456  -1.6304
    -1.5588  -1.3925  -1.2879  -1.1371   1.0817   1.6945   1.8122   2.0080
     2.2805   2.2921   2.4688   2.4958   2.5805   2.6614   2.6683   2.8538
     2.8849   2.9359   3.0760

          k = 0.3750 0.1139 0.0000 ( 40790 PWs)   bands (ev):

   -58.2000 -57.3858 -57.3008 -57.1538 -57.0754 -56.8409 -34.6917 -34.4634
   -34.3813 -33.9338 -33.8527 -33.7128 -33.6322 -33.6065 -33.5718 -33.5317
   -33.5279 -33.4184 -33.4134 -33.4026 -33.3644 -33.2674 -33.1268 -33.0826
   -18.1936 -18.1009 -17.8503 -17.6828 -17.4990 -17.4544 -17.3478 -17.2199
   -17.1171 -17.0886 -16.9126 -16.5377 -16.1740  -6.4785  -5.5833  -5.3151
    -5.2777  -5.0994  -5.0140  -4.9311  -4.8711  -4.8296  -4.6914  -4.6206
    -4.5336  -4.2665  -4.0005  -3.9508  -3.7488  -3.6252  -3.5710  -3.5295
    -3.2256  -3.1891  -3.1086  -2.9590  -2.8874  -2.7462  -2.6284  -2.4826
    -2.3597  -2.2225  -2.1339  -1.9350  -1.8756  -1.7777  -1.7115  -1.6247
    -1.5403  -1.4350  -1.2535  -1.2037   1.0684   1.5095   1.8024   1.8822
     2.0268   2.2330   2.4301   2.5860   2.6363   2.7945   2.8398   2.8703
     2.9250   3.0059   3.0665

          k = 0.3750-0.2277 0.0000 ( 40742 PWs)   bands (ev):

   -58.2000 -57.3858 -57.3008 -57.1538 -57.0754 -56.8409 -34.6930 -34.4634
   -34.3811 -33.9343 -33.8603 -33.7156 -33.6187 -33.6065 -33.5716 -33.5367
   -33.5279 -33.4172 -33.4134 -33.4072 -33.3576 -33.2674 -33.1256 -33.0826
   -18.2647 -18.0993 -17.8005 -17.7224 -17.5300 -17.4759 -17.3094 -17.2343
   -17.0767 -17.0326 -16.9158 -16.5402 -16.1746  -6.4803  -5.6462  -5.3709
    -5.2200  -5.1499  -5.0477  -4.9698  -4.8607  -4.7130  -4.6218  -4.3858
    -4.3767  -4.3578  -4.1854  -3.7848  -3.7683  -3.5836  -3.5383  -3.4882
    -3.2971  -3.2285  -3.0842  -3.0679  -2.7832  -2.6983  -2.5466  -2.5170
    -2.4299  -2.2587  -2.1025  -1.9986  -1.9006  -1.8889  -1.8288  -1.7326
    -1.5027  -1.3738  -1.2606  -1.2350   1.1079   1.2456   1.7508   1.8705
     1.8888   2.2204   2.4411   2.5020   2.7405   2.8418   2.9390   2.9576
     2.9821   2.9904   3.0792

          k = 0.3750-0.1139 0.0000 ( 40790 PWs)   bands (ev):

   -58.2000 -57.3858 -57.3008 -57.1538 -57.0754 -56.8409 -34.6917 -34.4634
   -34.3813 -33.9338 -33.8527 -33.7128 -33.6322 -33.6065 -33.5718 -33.5317
   -33.5279 -33.4184 -33.4134 -33.4026 -33.3644 -33.2674 -33.1268 -33.0826
   -18.1936 -18.1009 -17.8503 -17.6828 -17.4990 -17.4544 -17.3478 -17.2199
   -17.1171 -17.0886 -16.9126 -16.5377 -16.1740  -6.4785  -5.5833  -5.3151
    -5.2777  -5.0994  -5.0140  -4.9311  -4.8711  -4.8296  -4.6914  -4.6206
    -4.5336  -4.2665  -4.0005  -3.9508  -3.7488  -3.6252  -3.5710  -3.5295
    -3.2256  -3.1891  -3.1086  -2.9590  -2.8874  -2.7462  -2.6284  -2.4826
    -2.3597  -2.2225  -2.1339  -1.9350  -1.8756  -1.7777  -1.7115  -1.6247
    -1.5403  -1.4350  -1.2535  -1.2037   1.0684   1.5095   1.8024   1.8822
     2.0268   2.2330   2.4301   2.5860   2.6363   2.7945   2.8398   2.8703
     2.9251   3.0059   3.0665

          k =-0.5000 0.0000 0.0000 ( 40852 PWs)   bands (ev):

   -58.1941 -57.3798 -57.2949 -57.1478 -57.0694 -56.8346 -34.7542 -34.4586
   -34.3648 -33.9976 -33.9071 -33.7732 -33.6304 -33.6303 -33.5913 -33.5335
   -33.5223 -33.4581 -33.4157 -33.4086 -33.3537 -33.2521 -33.1271 -33.0702
   -18.0704 -18.0360 -17.8782 -17.5500 -17.5085 -17.3765 -17.3233 -17.2131
   -17.1794 -17.0855 -16.9362 -16.4497 -16.1002  -6.6761  -5.4232  -5.3919
    -5.2274  -5.2233  -5.0121  -4.9927  -4.8570  -4.8562  -4.7898  -4.7029
    -4.4695  -4.0946  -4.0481  -3.9936  -3.9181  -3.8890  -3.6228  -3.4940
    -3.2972  -3.2259  -2.9974  -2.9372  -2.9031  -2.6753  -2.5769  -2.4333
    -2.3410  -2.0354  -1.9966  -1.9525  -1.9280  -1.8444  -1.7172  -1.7023
    -1.5347  -1.4157  -1.3846  -1.1016   1.0437   1.7770   1.9138   2.1569
     2.2293   2.3712   2.5476   2.5685   2.6030   2.6119   2.6788   2.7127
     2.8404   2.8696   2.9897

          k =-0.5000 0.1139 0.0000 ( 40798 PWs)   bands (ev):

   -58.1941 -57.3798 -57.2949 -57.1478 -57.0694 -56.8346 -34.7556 -34.4586
   -34.3651 -33.9981 -33.9143 -33.7761 -33.6299 -33.6226 -33.5913 -33.5337
   -33.5217 -33.4603 -33.4137 -33.4086 -33.3513 -33.2521 -33.1235 -33.0702
   -18.2337 -18.0356 -17.7228 -17.6750 -17.5484 -17.4860 -17.2011 -17.1825
   -17.0977 -17.0169 -16.9382 -16.4501 -16.0998  -6.6774  -5.7960  -5.4810
    -5.3889  -5.1955  -5.1612  -5.0043  -4.7822  -4.6631  -4.6229  -4.4589
    -4.3194  -4.1207  -4.0653  -3.9563  -3.9128  -3.6350  -3.5364  -3.4140
    -3.3028  -3.2244  -3.1385  -2.9183  -2.9019  -2.7078  -2.4310  -2.2557
    -2.2156  -2.1655  -2.1148  -2.0418  -1.9206  -1.8118  -1.7493  -1.6727
    -1.5970  -1.5839  -1.4494  -1.1819   1.0034   1.3953   1.7949   1.8167
     2.1347   2.2004   2.5168   2.6123   2.6235   2.7109   2.7734   2.8439
     2.9724   2.9941   3.0772

          k =-0.5000-0.2277 0.0000 ( 40760 PWs)   bands (ev):

   -58.1941 -57.3798 -57.2949 -57.1478 -57.0694 -56.8346 -34.7569 -34.4586
   -34.3654 -33.9986 -33.9211 -33.7790 -33.6295 -33.6152 -33.5913 -33.5339
   -33.5211 -33.4623 -33.4116 -33.4086 -33.3489 -33.2521 -33.1200 -33.0702
   -18.3267 -18.0352 -17.7899 -17.6026 -17.5722 -17.5468 -17.1849 -17.1138
   -17.0804 -16.9401 -16.9260 -16.4505 -16.0995  -6.6788  -5.9789  -5.6598
    -5.3521  -5.3465  -5.1749  -5.0200  -4.6524  -4.5063  -4.4503  -4.4473
    -4.3570  -4.2044  -4.0262  -3.9511  -3.7976  -3.3607  -3.3513  -3.2948
    -3.2808  -3.2782  -3.0759  -2.9486  -2.8932  -2.7148  -2.3922  -2.3498
    -2.2373  -2.1400  -2.1213  -1.9868  -1.9289  -1.8117  -1.7737  -1.7333
    -1.6729  -1.6584  -1.6067  -1.2501   0.9628   1.0935   1.5869   1.8101
     1.9079   2.1695   2.4825   2.6168   2.6340   2.7089   2.8437   2.9774
     3.0020   3.0297   3.0377

          k =-0.5000-0.1139 0.0000 ( 40798 PWs)   bands (ev):

   -58.1941 -57.3798 -57.2949 -57.1478 -57.0694 -56.8346 -34.7556 -34.4586
   -34.3651 -33.9981 -33.9143 -33.7761 -33.6299 -33.6226 -33.5913 -33.5337
   -33.5217 -33.4603 -33.4137 -33.4086 -33.3513 -33.2521 -33.1235 -33.0702
   -18.2337 -18.0356 -17.7228 -17.6750 -17.5484 -17.4860 -17.2011 -17.1825
   -17.0977 -17.0169 -16.9382 -16.4501 -16.0998  -6.6774  -5.7960  -5.4810
    -5.3889  -5.1955  -5.1612  -5.0043  -4.7822  -4.6631  -4.6229  -4.4589
    -4.3194  -4.1207  -4.0653  -3.9563  -3.9128  -3.6350  -3.5364  -3.4140
    -3.3028  -3.2244  -3.1385  -2.9183  -2.9019  -2.7078  -2.4310  -2.2557
    -2.2156  -2.1655  -2.1148  -2.0418  -1.9206  -1.8118  -1.7493  -1.6727
    -1.5970  -1.5839  -1.4494  -1.1819   1.0034   1.3953   1.7949   1.8167
     2.1347   2.2004   2.5168   2.6123   2.6236   2.7109   2.7734   2.8439
     2.9724   2.9941   3.0776

          k =-0.3750 0.0000 0.0000 ( 40826 PWs)   bands (ev):

   -58.2000 -57.3859 -57.3007 -57.1538 -57.0754 -56.8409 -34.6904 -34.4634
   -34.3816 -33.9332 -33.8444 -33.7100 -33.6454 -33.6065 -33.5720 -33.5279
   -33.5278 -33.4196 -33.4134 -33.3956 -33.3736 -33.2674 -33.1280 -33.0826
   -18.1024 -18.0430 -17.9956 -17.5983 -17.4950 -17.4424 -17.3172 -17.2554
   -17.1798 -17.1337 -16.9097 -16.5354 -16.1733  -6.4768  -5.4451  -5.3378
    -5.2463  -5.0864  -5.0373  -5.0137  -4.9749  -4.8023  -4.7416  -4.6423
    -4.6244  -4.2938  -4.0765  -3.8750  -3.6880  -3.6844  -3.5261  -3.4362
    -3.4056  -3.2821  -3.1240  -3.1239  -2.7951  -2.7344  -2.5875  -2.4497
    -2.4183  -2.0431  -1.9791  -1.9468  -1.9020  -1.7274  -1.6456  -1.6304
    -1.5588  -1.3925  -1.2879  -1.1371   1.0817   1.6945   1.8123   2.0080
     2.2805   2.2921   2.4688   2.4958   2.5805   2.6614   2.6683   2.8540
     2.8854   2.9359   3.0760

          k =-0.3750 0.1139 0.0000 ( 40790 PWs)   bands (ev):

   -58.2000 -57.3858 -57.3008 -57.1538 -57.0754 -56.8409 -34.6917 -34.4634
   -34.3813 -33.9338 -33.8527 -33.7128 -33.6322 -33.6065 -33.5718 -33.5317
   -33.5279 -33.4184 -33.4134 -33.4026 -33.3644 -33.2674 -33.1268 -33.0826
   -18.1936 -18.1009 -17.8503 -17.6828 -17.4990 -17.4544 -17.3478 -17.2199
   -17.1171 -17.0886 -16.9126 -16.5377 -16.1740  -6.4785  -5.5833  -5.3151
    -5.2777  -5.0994  -5.0140  -4.9311  -4.8711  -4.8296  -4.6914  -4.6206
    -4.5336  -4.2665  -4.0005  -3.9508  -3.7488  -3.6252  -3.5710  -3.5295
    -3.2256  -3.1891  -3.1086  -2.9590  -2.8874  -2.7462  -2.6284  -2.4826
    -2.3597  -2.2225  -2.1339  -1.9350  -1.8756  -1.7777  -1.7115  -1.6247
    -1.5403  -1.4350  -1.2535  -1.2037   1.0684   1.5095   1.8024   1.8822
     2.0268   2.2330   2.4301   2.5860   2.6363   2.7945   2.8398   2.8703
     2.9251   3.0059   3.0665

          k =-0.3750-0.2277 0.0000 ( 40742 PWs)   bands (ev):

   -58.2000 -57.3858 -57.3008 -57.1538 -57.0754 -56.8409 -34.6930 -34.4634
   -34.3811 -33.9343 -33.8603 -33.7156 -33.6187 -33.6065 -33.5716 -33.5367
   -33.5279 -33.4172 -33.4134 -33.4072 -33.3576 -33.2674 -33.1256 -33.0826
   -18.2647 -18.0993 -17.8005 -17.7224 -17.5300 -17.4759 -17.3094 -17.2343
   -17.0767 -17.0326 -16.9158 -16.5402 -16.1746  -6.4803  -5.6462  -5.3709
    -5.2200  -5.1499  -5.0477  -4.9698  -4.8607  -4.7130  -4.6218  -4.3858
    -4.3767  -4.3578  -4.1854  -3.7848  -3.7683  -3.5836  -3.5383  -3.4882
    -3.2971  -3.2285  -3.0842  -3.0679  -2.7832  -2.6983  -2.5466  -2.5170
    -2.4299  -2.2587  -2.1025  -1.9986  -1.9006  -1.8889  -1.8288  -1.7326
    -1.5027  -1.3738  -1.2606  -1.2350   1.1079   1.2456   1.7508   1.8705
     1.8888   2.2204   2.4411   2.5020   2.7405   2.8417   2.9390   2.9576
     2.9821   2.9904   3.0792

          k =-0.3750-0.1139 0.0000 ( 40790 PWs)   bands (ev):

   -58.2000 -57.3858 -57.3008 -57.1538 -57.0754 -56.8409 -34.6917 -34.4634
   -34.3813 -33.9338 -33.8527 -33.7128 -33.6322 -33.6065 -33.5718 -33.5317
   -33.5279 -33.4184 -33.4134 -33.4026 -33.3644 -33.2674 -33.1268 -33.0826
   -18.1936 -18.1009 -17.8503 -17.6828 -17.4990 -17.4544 -17.3478 -17.2199
   -17.1171 -17.0886 -16.9126 -16.5377 -16.1740  -6.4785  -5.5833  -5.3151
    -5.2777  -5.0994  -5.0140  -4.9311  -4.8711  -4.8296  -4.6914  -4.6206
    -4.5336  -4.2665  -4.0005  -3.9508  -3.7488  -3.6252  -3.5710  -3.5295
    -3.2256  -3.1891  -3.1086  -2.9590  -2.8874  -2.7462  -2.6284  -2.4826
    -2.3597  -2.2225  -2.1339  -1.9350  -1.8756  -1.7777  -1.7115  -1.6247
    -1.5403  -1.4350  -1.2535  -1.2037   1.0684   1.5095   1.8024   1.8822
     2.0268   2.2330   2.4301   2.5860   2.6363   2.7945   2.8398   2.8702
     2.9249   3.0059   3.0666

          k =-0.2500 0.0000 0.0000 ( 40766 PWs)   bands (ev):

   -58.2143 -57.4005 -57.3149 -57.1682 -57.0897 -56.8561 -34.5336 -34.4751
   -34.4218 -33.7760 -33.6900 -33.6817 -33.6426 -33.5547 -33.5515 -33.5409
   -33.4291 -33.4237 -33.4195 -33.4014 -33.3041 -33.2369 -33.1321 -33.1067
   -18.4161 -18.2699 -17.9927 -17.8140 -17.6729 -17.4479 -17.2894 -17.2826
   -17.1521 -17.0914 -16.9737 -16.6417 -16.2401  -6.0302  -5.9603  -5.5193
    -5.4285  -5.3079  -5.1510  -5.0614  -4.8856  -4.8037  -4.7400  -4.4144
    -4.3089  -4.2482  -4.1254  -3.7885  -3.6666  -3.5170  -3.3923  -3.3265
    -3.2289  -3.1954  -2.9372  -2.7515  -2.7450  -2.6720  -2.5488  -2.5059
    -2.3248  -2.1357  -1.9894  -1.9813  -1.9550  -1.8219  -1.7084  -1.7013
    -1.4904  -1.1282  -1.0372  -1.0248   1.3069   1.4807   1.5182   2.0106
     2.0432   2.1258   2.2570   2.2941   2.4445   2.6806   2.8000   2.8558
     2.8644   2.9320   2.9829

          k =-0.2500 0.1139 0.0000 ( 40754 PWs)   bands (ev):

   -58.2143 -57.4004 -57.3149 -57.1682 -57.0898 -56.8561 -34.5345 -34.4750
   -34.4203 -33.7767 -33.7117 -33.6474 -33.6422 -33.5572 -33.5533 -33.5516
   -33.4300 -33.4238 -33.4140 -33.4012 -33.3042 -33.2364 -33.1357 -33.1066
   -18.3374 -18.2614 -17.9305 -17.9062 -17.6073 -17.5167 -17.3269 -17.2978
   -17.1721 -17.1214 -16.9605 -16.6408 -16.2398  -6.0321  -5.7228  -5.3259
    -5.2891  -5.1383  -5.0850  -4.9811  -4.8869  -4.7449  -4.7050  -4.5839
    -4.3583  -4.3159  -4.0288  -3.8478  -3.7612  -3.5964  -3.5172  -3.3134
    -3.2398  -3.1154  -3.0502  -2.9990  -2.8760  -2.7540  -2.7166  -2.6388
    -2.5318  -2.2238  -2.0139  -1.9602  -1.9290  -1.7915  -1.6516  -1.5426
    -1.4346  -1.1930  -1.0989  -0.9968   1.3358   1.5147   1.7123   1.9723
     2.0131   2.1281   2.4240   2.4623   2.5072   2.6912   2.8255   2.8742
     2.9228   2.9681   3.0160

          k =-0.2500-0.2277 0.0000 ( 40742 PWs)   bands (ev):

   -58.2143 -57.4004 -57.3150 -57.1682 -57.0898 -56.8561 -34.5354 -34.4750
   -34.4187 -33.7770 -33.7208 -33.6427 -33.6169 -33.5739 -33.5595 -33.5517
   -33.4308 -33.4238 -33.4087 -33.4011 -33.3042 -33.2356 -33.1396 -33.1066
   -18.2550 -18.1396 -18.1317 -17.7838 -17.6667 -17.4501 -17.4285 -17.3374
   -17.2176 -17.1083 -16.9547 -16.6400 -16.2396  -6.0343  -5.3785  -5.2118
    -5.1649  -4.9248  -4.9184  -4.8377  -4.7416  -4.7134  -4.6622  -4.6392
    -4.5174  -4.3316  -4.2739  -4.0735  -3.7922  -3.5720  -3.4754  -3.3963
    -3.3850  -3.2787  -3.2437  -3.0615  -2.9556  -2.8788  -2.8220  -2.6888
    -2.6179  -2.4255  -2.1092  -1.9700  -1.8243  -1.7503  -1.5667  -1.4307
    -1.3227  -1.2046  -1.1800  -0.9975   1.4156   1.4874   1.8420   1.9800
     2.0320   2.0460   2.4285   2.5858   2.7515   2.7911   2.8406   2.8889
     2.9769   3.0284   3.0818

          k =-0.2500-0.1139 0.0000 ( 40754 PWs)   bands (ev):

   -58.2143 -57.4004 -57.3149 -57.1682 -57.0898 -56.8561 -34.5345 -34.4750
   -34.4203 -33.7767 -33.7117 -33.6474 -33.6422 -33.5572 -33.5533 -33.5516
   -33.4300 -33.4238 -33.4140 -33.4012 -33.3042 -33.2364 -33.1357 -33.1066
   -18.3374 -18.2614 -17.9305 -17.9062 -17.6073 -17.5167 -17.3269 -17.2978
   -17.1721 -17.1214 -16.9605 -16.6408 -16.2398  -6.0321  -5.7228  -5.3259
    -5.2891  -5.1383  -5.0850  -4.9811  -4.8869  -4.7449  -4.7050  -4.5839
    -4.3583  -4.3159  -4.0288  -3.8478  -3.7612  -3.5964  -3.5172  -3.3134
    -3.2398  -3.1154  -3.0502  -2.9990  -2.8760  -2.7540  -2.7166  -2.6388
    -2.5318  -2.2238  -2.0139  -1.9602  -1.9290  -1.7915  -1.6516  -1.5426
    -1.4346  -1.1930  -1.0989  -0.9968   1.3358   1.5147   1.7123   1.9723
     2.0131   2.1281   2.4240   2.4623   2.5072   2.6912   2.8255   2.8742
     2.9228   2.9681   3.0160

          k =-0.1250 0.0000 0.0000 ( 40652 PWs)   bands (ev):

   -58.2285 -57.4150 -57.3290 -57.1825 -57.1041 -56.8712 -34.4869 -34.4615
   -34.3724 -33.7180 -33.6870 -33.6042 -33.5653 -33.5536 -33.5303 -33.4632
   -33.4472 -33.4387 -33.3831 -33.3402 -33.2395 -33.1651 -33.1379 -33.0362
   -18.7710 -18.4747 -18.3122 -17.9563 -17.7262 -17.6311 -17.3142 -17.2046
   -17.1370 -17.1231 -16.9272 -16.5996 -16.1677  -6.4680  -5.9798  -5.7920
    -5.7084  -5.3259  -5.3016  -5.0028  -4.9886  -4.8212  -4.6523  -4.4850
    -4.4057  -4.1978  -3.8940  -3.7569  -3.5536  -3.4737  -3.1974  -3.1132
    -2.9718  -2.8816  -2.7555  -2.7489  -2.6271  -2.5525  -2.4243  -2.2937
    -2.1289  -2.1217  -1.9105  -1.8592  -1.7422  -1.6926  -1.6284  -1.4767
    -1.3845  -1.0899  -0.8898  -0.7575   1.0750   1.3139   1.6576   1.6640
     1.8635   1.9356   2.1468   2.2024   2.3173   2.4094   2.5841   2.6945
     2.7227   2.7769   3.1288

          k =-0.1250 0.1139 0.0000 ( 40695 PWs)   bands (ev):

   -58.2285 -57.4150 -57.3291 -57.1825 -57.1041 -56.8712 -34.4869 -34.4588
   -34.3727 -33.6983 -33.6869 -33.6046 -33.5775 -33.5648 -33.5271 -33.4547
   -33.4471 -33.4418 -33.3840 -33.3402 -33.2395 -33.1652 -33.1463 -33.0361
   -18.6605 -18.4392 -18.2281 -17.8842 -17.8410 -17.7276 -17.3452 -17.2329
   -17.1946 -17.1298 -16.9651 -16.5974 -16.1661  -6.1740  -5.7809  -5.6675
    -5.5061  -5.3158  -5.2311  -5.0419  -4.8726  -4.7281  -4.6630  -4.4847
    -4.3012  -4.1074  -3.9169  -3.7722  -3.6067  -3.5136  -3.4441  -3.2835
    -3.2140  -3.1096  -3.0302  -2.8671  -2.7688  -2.5919  -2.4777  -2.3416
    -2.2944  -2.1701  -2.0740  -1.8917  -1.7547  -1.6642  -1.5759  -1.4693
    -1.3696  -1.1235  -0.9027  -0.8280   1.2654   1.3612   1.7343   1.9264
     1.9744   2.0385   2.2553   2.3901   2.4491   2.4778   2.6154   2.6836
     2.7342   2.9140   3.1171

          k =-0.1250-0.2277 0.0000 ( 40666 PWs)   bands (ev):

   -58.2285 -57.4149 -57.3291 -57.1825 -57.1041 -56.8712 -34.4869 -34.4560
   -34.3730 -33.6868 -33.6657 -33.6186 -33.5976 -33.5651 -33.5261 -33.4476
   -33.4450 -33.4447 -33.3853 -33.3402 -33.2395 -33.1653 -33.1551 -33.0361
   -18.4866 -18.4116 -18.0998 -18.0195 -17.9095 -17.6524 -17.5270 -17.2802
   -17.2181 -17.1213 -16.9908 -16.5962 -16.1648  -5.7698  -5.7448  -5.3997
    -5.2949  -5.2164  -5.0706  -5.0105  -4.7860  -4.7368  -4.6058  -4.3748
    -4.2235  -4.1019  -3.8986  -3.7982  -3.7693  -3.7224  -3.6757  -3.5411
    -3.3855  -3.3314  -3.1752  -3.0467  -2.9924  -2.9131  -2.5563  -2.4658
    -2.3640  -2.1520  -2.1275  -1.9149  -1.7832  -1.6424  -1.4232  -1.3278
    -1.2222  -1.1359  -1.1264  -0.8501   1.3140   1.4482   1.8832   1.9752
     2.1053   2.1691   2.3129   2.5156   2.6347   2.6509   2.6649   2.6959
     2.8518   2.9659   3.1229

          k =-0.1250-0.1139 0.0000 ( 40695 PWs)   bands (ev):

   -58.2285 -57.4150 -57.3291 -57.1825 -57.1041 -56.8712 -34.4869 -34.4588
   -34.3727 -33.6983 -33.6869 -33.6046 -33.5775 -33.5648 -33.5271 -33.4547
   -33.4471 -33.4418 -33.3840 -33.3402 -33.2395 -33.1652 -33.1463 -33.0361
   -18.6605 -18.4392 -18.2281 -17.8842 -17.8410 -17.7276 -17.3452 -17.2329
   -17.1946 -17.1298 -16.9651 -16.5974 -16.1661  -6.1740  -5.7809  -5.6675
    -5.5061  -5.3158  -5.2311  -5.0419  -4.8726  -4.7281  -4.6630  -4.4847
    -4.3012  -4.1074  -3.9169  -3.7722  -3.6067  -3.5136  -3.4441  -3.2835
    -3.2140  -3.1096  -3.0302  -2.8671  -2.7688  -2.5919  -2.4777  -2.3416
    -2.2944  -2.1701  -2.0740  -1.8917  -1.7547  -1.6642  -1.5759  -1.4693
    -1.3696  -1.1235  -0.9027  -0.8280   1.2654   1.3612   1.7343   1.9264
     1.9744   2.0385   2.2553   2.3901   2.4491   2.4778   2.6154   2.6836
     2.7342   2.9140   3.1171

 ------ SPIN DOWN ----------


          k = 0.0000 0.0000 0.0000 ( 40639 PWs)   bands (ev):

   -58.2271 -57.4139 -57.3229 -57.1876 -57.0678 -56.8738 -34.4831 -34.4714
   -34.2977 -33.7239 -33.6921 -33.5587 -33.5484 -33.5322 -33.4801 -33.4528
   -33.4473 -33.4121 -33.3188 -33.3163 -33.1691 -33.1380 -33.1178 -32.9639
   -18.9409 -18.6063 -18.4492 -18.0810 -17.8983 -17.5948 -17.5673 -17.3912
   -17.1173 -17.1012 -16.8670 -16.6162 -16.4785  -6.6713  -6.1842  -5.9585
    -5.7849  -5.3297  -5.2584  -5.2371  -5.0852  -4.6637  -4.5841  -4.4124
    -4.3737  -4.2103  -3.9637  -3.8901  -3.7784  -3.6888  -3.3149  -3.2285
    -3.1571  -2.8818  -2.8466  -2.6963  -2.5952  -2.3565  -2.3021  -2.2751
    -2.0640  -1.9501  -1.9236  -1.7789  -1.6729  -1.5654  -1.4161  -1.4130
    -1.2556  -1.2350  -1.0067  -0.7417   0.7966   1.3402   1.3938   1.6798
     1.7870   1.8984   1.9539   2.1238   2.3085   2.4268   2.5146   2.5680
     2.6402   2.6684   3.1954

          k = 0.0000 0.1139 0.0000 ( 40609 PWs)   bands (ev):

   -58.2271 -57.4138 -57.3230 -57.1876 -57.0678 -56.8738 -34.4831 -34.4683
   -34.2977 -33.7004 -33.6920 -33.5731 -33.5586 -33.5318 -33.4700 -33.4532
   -33.4473 -33.4162 -33.3187 -33.3163 -33.1692 -33.1489 -33.1179 -32.9640
   -18.8229 -18.5392 -18.3837 -18.0287 -17.9651 -17.7835 -17.5000 -17.4473
   -17.2019 -17.0960 -16.9310 -16.6115 -16.4779  -6.3758  -5.9239  -5.8063
    -5.6559  -5.3386  -5.3022  -5.0450  -5.0096  -4.6743  -4.3852  -4.3735
    -4.3616  -4.1672  -3.9883  -3.9639  -3.8898  -3.7461  -3.5441  -3.5081
    -3.2585  -3.2066  -2.8505  -2.7589  -2.5959  -2.5181  -2.3890  -2.1723
    -2.1407  -2.0919  -1.9748  -1.8586  -1.7552  -1.6616  -1.5441  -1.4094
    -1.3210  -1.2795  -1.1858  -0.8614   1.0249   1.3376   1.6903   1.8208
     1.9431   1.9900   2.1654   2.3358   2.3810   2.4686   2.4944   2.6040
     2.7076   2.8507   3.0506

          k = 0.0000-0.2277 0.0000 ( 40526 PWs)   bands (ev):

   -58.2271 -57.4137 -57.3231 -57.1876 -57.0678 -56.8739 -34.4831 -34.4651
   -34.2976 -33.6919 -33.6575 -33.6168 -33.5587 -33.5313 -33.4592 -33.4537
   -33.4473 -33.4202 -33.3186 -33.3163 -33.1692 -33.1606 -33.1179 -32.9641
   -18.6381 -18.4905 -18.2715 -18.1547 -17.9877 -17.7691 -17.6552 -17.4516
   -17.2882 -17.0867 -16.9870 -16.6089 -16.4775  -5.9803  -5.8464  -5.4876
    -5.3717  -5.3376  -5.2765  -5.0020  -4.7905  -4.5642  -4.3724  -4.3604
    -4.3075  -4.1212  -4.0702  -3.9642  -3.9175  -3.8931  -3.8704  -3.7688
    -3.5323  -3.4135  -3.1083  -2.8307  -2.8164  -2.5935  -2.4225  -2.2539
    -2.1734  -2.1068  -2.1018  -1.9056  -1.8242  -1.7502  -1.4431  -1.3736
    -1.3719  -1.2060  -1.1561  -1.1553   1.1681   1.3358   1.8630   1.9567
     2.0909   2.1751   2.3296   2.3819   2.4175   2.4933   2.6663   2.6967
     2.9113   2.9725   3.0309

          k = 0.0000-0.1139 0.0000 ( 40609 PWs)   bands (ev):

   -58.2271 -57.4138 -57.3230 -57.1876 -57.0678 -56.8738 -34.4831 -34.4683
   -34.2977 -33.7004 -33.6920 -33.5731 -33.5586 -33.5318 -33.4700 -33.4532
   -33.4473 -33.4162 -33.3187 -33.3163 -33.1692 -33.1489 -33.1179 -32.9640
   -18.8229 -18.5392 -18.3837 -18.0287 -17.9651 -17.7835 -17.5000 -17.4473
   -17.2019 -17.0960 -16.9310 -16.6115 -16.4779  -6.3758  -5.9239  -5.8063
    -5.6559  -5.3386  -5.3022  -5.0450  -5.0096  -4.6743  -4.3852  -4.3735
    -4.3616  -4.1672  -3.9883  -3.9639  -3.8898  -3.7461  -3.5441  -3.5081
    -3.2585  -3.2066  -2.8505  -2.7589  -2.5959  -2.5181  -2.3890  -2.1723
    -2.1407  -2.0919  -1.9748  -1.8586  -1.7552  -1.6616  -1.5441  -1.4094
    -1.3210  -1.2795  -1.1858  -0.8614   1.0249   1.3376   1.6903   1.8208
     1.9431   1.9900   2.1654   2.3358   2.3810   2.4686   2.4944   2.6040
     2.7076   2.8507   3.0506

          k = 0.1250 0.0000 0.0000 ( 40652 PWs)   bands (ev):

   -58.2212 -57.4079 -57.3171 -57.1817 -57.0619 -56.8676 -34.4782 -34.4551
   -34.3659 -33.7090 -33.6798 -33.5989 -33.5533 -33.5431 -33.5196 -33.4624
   -33.4463 -33.4080 -33.3824 -33.3009 -33.1879 -33.1615 -33.1352 -33.0323
   -18.7963 -18.4910 -18.3488 -17.9723 -17.7776 -17.6434 -17.4953 -17.2888
   -17.1832 -17.1631 -16.9349 -16.6459 -16.5401  -6.4715  -5.9992  -5.7965
    -5.7133  -5.3367  -5.3165  -5.1774  -5.0346  -4.8418  -4.6882  -4.5707
    -4.4149  -4.2161  -4.0426  -3.7824  -3.5867  -3.5238  -3.2147  -3.1289
    -3.0069  -2.9619  -2.7989  -2.7724  -2.6566  -2.5853  -2.4493  -2.3701
    -2.1691  -2.1530  -1.9890  -1.9358  -1.7925  -1.7913  -1.7554  -1.5236
    -1.4527  -1.2697  -1.1692  -0.8197   1.0775   1.3211   1.6597   1.6698
     1.8641   1.9357   2.1486   2.2111   2.3295   2.4117   2.5697   2.6568
     2.7204   2.7760   3.1261

          k = 0.1250 0.1139 0.0000 ( 40695 PWs)   bands (ev):

   -58.2212 -57.4078 -57.3171 -57.1817 -57.0619 -56.8676 -34.4782 -34.4525
   -34.3662 -33.6894 -33.6797 -33.5991 -33.5669 -33.5528 -33.5164 -33.4540
   -33.4461 -33.4111 -33.3833 -33.3009 -33.1879 -33.1616 -33.1436 -33.0323
   -18.6842 -18.4489 -18.2708 -17.9310 -17.8676 -17.7542 -17.4497 -17.3604
   -17.2573 -17.1562 -16.9862 -16.6414 -16.5395  -6.1789  -5.7883  -5.6866
    -5.5120  -5.3303  -5.2492  -5.2010  -4.9169  -4.7528  -4.7052  -4.5446
    -4.3293  -4.1442  -4.0383  -3.7976  -3.6758  -3.5474  -3.4678  -3.3128
    -3.2226  -3.1524  -3.0677  -2.8839  -2.7966  -2.6345  -2.4892  -2.3980
    -2.3212  -2.2299  -2.1193  -1.9558  -1.9238  -1.7983  -1.6595  -1.5036
    -1.4593  -1.2777  -1.1709  -0.9087   1.2686   1.3654   1.7373   1.9285
     1.9749   2.0385   2.2580   2.4031   2.4506   2.4894   2.6029   2.6496
     2.7282   2.9130   3.1135

          k = 0.1250-0.2277 0.0000 ( 40666 PWs)   bands (ev):

   -58.2212 -57.4077 -57.3172 -57.1816 -57.0619 -56.8676 -34.4782 -34.4498
   -34.3665 -33.6796 -33.6573 -33.6095 -33.5902 -33.5531 -33.5153 -33.4467
   -33.4440 -33.4142 -33.3846 -33.3009 -33.1879 -33.1616 -33.1524 -33.0323
   -18.4999 -18.4186 -18.1767 -18.0455 -17.9502 -17.6642 -17.5654 -17.4097
   -17.3332 -17.1462 -17.0256 -16.6386 -16.5391  -5.7752  -5.7528  -5.4060
    -5.3490  -5.2549  -5.1353  -5.0777  -4.8033  -4.8018  -4.6238  -4.4060
    -4.2508  -4.2092  -3.9394  -3.8490  -3.8273  -3.7621  -3.7040  -3.5575
    -3.4071  -3.3617  -3.2117  -3.0569  -3.0285  -2.9437  -2.5712  -2.4864
    -2.4280  -2.2423  -2.1527  -2.0196  -1.8326  -1.8284  -1.6030  -1.4082
    -1.3272  -1.1915  -1.1825  -1.1287   1.3174   1.4512   1.8860   1.9762
     2.1069   2.1687   2.3162   2.5178   2.6255   2.6355   2.6679   2.6929
     2.8503   2.9603   3.1183

          k = 0.1250-0.1139 0.0000 ( 40695 PWs)   bands (ev):

   -58.2212 -57.4078 -57.3171 -57.1817 -57.0619 -56.8676 -34.4782 -34.4525
   -34.3662 -33.6894 -33.6797 -33.5991 -33.5669 -33.5528 -33.5164 -33.4540
   -33.4461 -33.4111 -33.3833 -33.3009 -33.1879 -33.1616 -33.1436 -33.0323
   -18.6842 -18.4489 -18.2708 -17.9310 -17.8676 -17.7542 -17.4497 -17.3604
   -17.2573 -17.1562 -16.9862 -16.6414 -16.5395  -6.1789  -5.7883  -5.6866
    -5.5120  -5.3303  -5.2492  -5.2010  -4.9169  -4.7528  -4.7052  -4.5446
    -4.3293  -4.1442  -4.0383  -3.7976  -3.6758  -3.5474  -3.4678  -3.3128
    -3.2226  -3.1524  -3.0677  -2.8839  -2.7966  -2.6345  -2.4892  -2.3980
    -2.3212  -2.2299  -2.1193  -1.9558  -1.9238  -1.7983  -1.6595  -1.5036
    -1.4593  -1.2777  -1.1709  -0.9087   1.2686   1.3654   1.7373   1.9285
     1.9749   2.0385   2.2580   2.4031   2.4506   2.4894   2.6029   2.6496
     2.7282   2.9130   3.1135

          k = 0.2500 0.0000 0.0000 ( 40766 PWs)   bands (ev):

   -58.2070 -57.3933 -57.3030 -57.1674 -57.0474 -56.8525 -34.5272 -34.4664
   -34.4154 -33.7709 -33.6796 -33.6729 -33.6352 -33.5541 -33.5393 -33.5300
   -33.4227 -33.4187 -33.3983 -33.3530 -33.2633 -33.2335 -33.1294 -33.1029
   -18.4375 -18.2775 -18.0421 -17.8261 -17.6895 -17.4964 -17.3426 -17.3376
   -17.2865 -17.0989 -17.0763 -16.6719 -16.6417  -6.0331  -5.9633  -5.5442
    -5.4442  -5.3125  -5.1642  -5.0800  -5.0184  -4.8241  -4.7782  -4.4612
    -4.3361  -4.2872  -4.1648  -3.8094  -3.7868  -3.5484  -3.4686  -3.4378
    -3.2615  -3.2292  -2.9593  -2.8508  -2.7658  -2.7549  -2.6002  -2.5468
    -2.3509  -2.1858  -2.0545  -2.0453  -1.9868  -1.9093  -1.7475  -1.7133
    -1.5734  -1.4586  -1.2211  -1.0950   1.3123   1.4846   1.5214   2.0142
     2.0448   2.1296   2.2564   2.2923   2.4406   2.6809   2.7989   2.8504
     2.8624   2.9291   2.9487

          k = 0.2500 0.1139 0.0000 ( 40754 PWs)   bands (ev):

   -58.2070 -57.3933 -57.3030 -57.1674 -57.0474 -56.8525 -34.5281 -34.4664
   -34.4139 -33.7715 -33.7022 -33.6381 -33.6346 -33.5566 -33.5424 -33.5394
   -33.4228 -33.4132 -33.3992 -33.3529 -33.2633 -33.2329 -33.1330 -33.1028
   -18.3584 -18.2685 -17.9734 -17.9284 -17.6250 -17.5751 -17.3771 -17.3261
   -17.2809 -17.1853 -17.0488 -16.6704 -16.6415  -6.0350  -5.7268  -5.3435
    -5.3151  -5.1507  -5.1000  -5.0295  -4.9777  -4.7654  -4.7528  -4.6094
    -4.3831  -4.3331  -4.1028  -3.8759  -3.8216  -3.6661  -3.6132  -3.3814
    -3.3057  -3.1467  -3.0766  -3.0320  -2.9054  -2.8808  -2.7510  -2.6862
    -2.5701  -2.2760  -2.0664  -2.0083  -1.9906  -1.8302  -1.7102  -1.6080
    -1.5187  -1.4485  -1.2875  -1.1218   1.3384   1.5163   1.7150   1.9749
     2.0148   2.1277   2.4220   2.4639   2.5070   2.6941   2.8286   2.8629
     2.9203   2.9585   2.9919

          k = 0.2500-0.2277 0.0000 ( 40742 PWs)   bands (ev):

   -58.2070 -57.3932 -57.3031 -57.1673 -57.0474 -56.8525 -34.5290 -34.4663
   -34.4124 -33.7719 -33.7113 -33.6353 -33.6077 -33.5627 -33.5588 -33.5395
   -33.4228 -33.4079 -33.4001 -33.3528 -33.2634 -33.2322 -33.1368 -33.1028
   -18.2619 -18.1562 -18.1536 -17.8226 -17.7391 -17.4714 -17.4504 -17.3778
   -17.2739 -17.2331 -17.0421 -16.6692 -16.6414  -6.0372  -5.3947  -5.2245
    -5.1761  -5.0270  -4.9395  -4.8809  -4.7995  -4.7232  -4.6735  -4.6529
    -4.5560  -4.3434  -4.2992  -4.0793  -3.9449  -3.6309  -3.5063  -3.4799
    -3.4237  -3.3561  -3.2670  -3.0999  -3.0091  -2.9467  -2.8948  -2.7064
    -2.6727  -2.5020  -2.1380  -2.0455  -1.8704  -1.7984  -1.6132  -1.5154
    -1.4565  -1.4347  -1.2919  -1.1733   1.4104   1.4913   1.8443   1.9835
     2.0322   2.0463   2.4294   2.5871   2.7512   2.7942   2.8491   2.8726
     2.9622   3.0282   3.0600

          k = 0.2500-0.1139 0.0000 ( 40754 PWs)   bands (ev):

   -58.2070 -57.3933 -57.3030 -57.1674 -57.0474 -56.8525 -34.5281 -34.4664
   -34.4139 -33.7715 -33.7022 -33.6381 -33.6346 -33.5566 -33.5424 -33.5394
   -33.4228 -33.4132 -33.3992 -33.3529 -33.2633 -33.2329 -33.1330 -33.1028
   -18.3584 -18.2685 -17.9734 -17.9284 -17.6250 -17.5751 -17.3771 -17.3261
   -17.2809 -17.1853 -17.0488 -16.6704 -16.6415  -6.0350  -5.7268  -5.3435
    -5.3151  -5.1507  -5.1000  -5.0295  -4.9777  -4.7654  -4.7528  -4.6094
    -4.3831  -4.3331  -4.1028  -3.8759  -3.8216  -3.6661  -3.6132  -3.3814
    -3.3057  -3.1467  -3.0766  -3.0320  -2.9054  -2.8808  -2.7510  -2.6862
    -2.5701  -2.2760  -2.0664  -2.0083  -1.9906  -1.8302  -1.7102  -1.6080
    -1.5187  -1.4485  -1.2875  -1.1218   1.3384   1.5163   1.7150   1.9749
     2.0148   2.1277   2.4220   2.4639   2.5070   2.6941   2.8287   2.8629
     2.9203   2.9585   2.9919

          k = 0.3750 0.0000 0.0000 ( 40826 PWs)   bands (ev):

   -58.1927 -57.3787 -57.2888 -57.1530 -57.0329 -56.8373 -34.6842 -34.4547
   -34.3752 -33.9283 -33.8343 -33.7095 -33.6369 -33.5990 -33.5412 -33.5164
   -33.5013 -33.4124 -33.3921 -33.3888 -33.3728 -33.2251 -33.1252 -33.0788
   -18.1092 -18.0587 -18.0077 -17.6595 -17.5210 -17.5022 -17.3386 -17.2985
   -17.2628 -17.2034 -17.0244 -16.5791 -16.5619  -6.4796  -5.4503  -5.3595
    -5.2847  -5.1060  -5.0702  -5.0311  -4.9838  -4.8272  -4.7644  -4.6817
    -4.6547  -4.3187  -4.1462  -3.8911  -3.7603  -3.7259  -3.6389  -3.4876
    -3.4496  -3.3032  -3.1750  -3.1406  -2.8610  -2.8222  -2.7329  -2.5667
    -2.4497  -2.1127  -2.1064  -1.9868  -1.9315  -1.8146  -1.7886  -1.6750
    -1.6056  -1.5252  -1.4087  -1.2926   1.0845   1.6972   1.8137   2.0112
     2.2835   2.2902   2.4768   2.4948   2.5821   2.6559   2.6730   2.8552
     2.8852   2.9302   3.0713

          k = 0.3750 0.1139 0.0000 ( 40790 PWs)   bands (ev):

   -58.1927 -57.3787 -57.2888 -57.1530 -57.0329 -56.8373 -34.6854 -34.4547
   -34.3749 -33.9289 -33.8427 -33.7123 -33.6235 -33.5990 -33.5411 -33.5203
   -33.5012 -33.4124 -33.3996 -33.3876 -33.3632 -33.2251 -33.1240 -33.0788
   -18.2072 -18.1077 -17.8671 -17.7374 -17.5211 -17.4901 -17.4153 -17.2637
   -17.2377 -17.1064 -17.0267 -16.5801 -16.5641  -6.4813  -5.5974  -5.3328
    -5.2921  -5.1333  -5.0333  -4.9511  -4.8916  -4.8645  -4.7241  -4.6467
    -4.5818  -4.2852  -4.0426  -3.9813  -3.7983  -3.7486  -3.6242  -3.5619
    -3.2607  -3.2446  -3.1447  -3.0158  -2.9152  -2.8374  -2.7326  -2.5807
    -2.4636  -2.2885  -2.1664  -2.0470  -1.9122  -1.8589  -1.8106  -1.6716
    -1.6526  -1.5135  -1.4309  -1.3493   1.0724   1.5120   1.8064   1.8850
     2.0269   2.2348   2.4283   2.5855   2.6412   2.8036   2.8394   2.8683
     2.9206   3.0041   3.0710

          k = 0.3750-0.2277 0.0000 ( 40742 PWs)   bands (ev):

   -58.1927 -57.3787 -57.2888 -57.1530 -57.0329 -56.8373 -34.6867 -34.4547
   -34.3747 -33.9294 -33.8505 -33.7151 -33.6099 -33.5990 -33.5411 -33.5251
   -33.5010 -33.4124 -33.4044 -33.3864 -33.3563 -33.2251 -33.1229 -33.0788
   -18.2781 -18.1060 -17.8371 -17.7566 -17.5440 -17.5014 -17.4214 -17.2605
   -17.1975 -17.0408 -17.0309 -16.5812 -16.5665  -6.4830  -5.6592  -5.3921
    -5.2289  -5.1602  -5.0545  -5.0393  -4.8771  -4.7217  -4.7087  -4.4236
    -4.3938  -4.3683  -4.2255  -3.8687  -3.7752  -3.6665  -3.5952  -3.5500
    -3.3181  -3.2617  -3.1589  -3.1098  -2.8211  -2.7914  -2.7242  -2.5459
    -2.4703  -2.3727  -2.1231  -2.0487  -1.9668  -1.9471  -1.9107  -1.8696
    -1.5683  -1.5388  -1.4070  -1.3711   1.1110   1.2516   1.7544   1.8740
     1.8913   2.2177   2.4415   2.4999   2.7462   2.8424   2.9393   2.9585
     2.9809   2.9884   3.0833

          k = 0.3750-0.1139 0.0000 ( 40790 PWs)   bands (ev):

   -58.1927 -57.3787 -57.2888 -57.1530 -57.0329 -56.8373 -34.6854 -34.4547
   -34.3749 -33.9289 -33.8427 -33.7123 -33.6235 -33.5990 -33.5411 -33.5203
   -33.5012 -33.4124 -33.3996 -33.3876 -33.3632 -33.2251 -33.1240 -33.0788
   -18.2072 -18.1077 -17.8671 -17.7374 -17.5211 -17.4901 -17.4153 -17.2637
   -17.2377 -17.1064 -17.0267 -16.5801 -16.5641  -6.4813  -5.5974  -5.3328
    -5.2921  -5.1333  -5.0333  -4.9511  -4.8916  -4.8645  -4.7241  -4.6467
    -4.5818  -4.2852  -4.0426  -3.9813  -3.7983  -3.7486  -3.6242  -3.5619
    -3.2607  -3.2446  -3.1447  -3.0158  -2.9152  -2.8374  -2.7326  -2.5807
    -2.4636  -2.2885  -2.1664  -2.0470  -1.9122  -1.8589  -1.8106  -1.6716
    -1.6526  -1.5135  -1.4309  -1.3493   1.0724   1.5120   1.8064   1.8850
     2.0269   2.2348   2.4283   2.5855   2.6412   2.8036   2.8394   2.8683
     2.9206   3.0040   3.0707

          k =-0.5000 0.0000 0.0000 ( 40852 PWs)   bands (ev):

   -58.1868 -57.3726 -57.2829 -57.1470 -57.0269 -56.8310 -34.7480 -34.4499
   -34.3583 -33.9927 -33.8972 -33.7727 -33.6220 -33.5880 -33.5837 -33.5206
   -33.5106 -33.4537 -33.4076 -33.3848 -33.3529 -33.2092 -33.1243 -33.0663
   -18.0825 -18.0429 -17.8902 -17.5785 -17.5683 -17.4357 -17.3753 -17.3307
   -17.1870 -17.1349 -17.0519 -16.5061 -16.4721  -6.6788  -5.4381  -5.4116
    -5.2641  -5.2525  -5.0208  -5.0109  -4.8812  -4.8759  -4.8216  -4.7129
    -4.4820  -4.1878  -4.0993  -4.0498  -3.9693  -3.8948  -3.6330  -3.5222
    -3.3045  -3.2511  -3.1347  -3.0205  -3.0134  -2.7056  -2.6149  -2.4997
    -2.4424  -2.2732  -2.0727  -2.0287  -1.9999  -1.9850  -1.8866  -1.7497
    -1.5805  -1.4902  -1.4055  -1.2635   1.0414   1.7813   1.9121   2.1549
     2.2303   2.3944   2.5457   2.5691   2.6052   2.6127   2.6730   2.7211
     2.8642   3.0320   3.1282

          k =-0.5000 0.1139 0.0000 ( 40798 PWs)   bands (ev):

   -58.1868 -57.3726 -57.2829 -57.1470 -57.0269 -56.8310 -34.7493 -34.4499
   -34.3587 -33.9933 -33.9045 -33.7756 -33.6141 -33.5876 -33.5837 -33.5208
   -33.5100 -33.4558 -33.4076 -33.3828 -33.3504 -33.2092 -33.1208 -33.0663
   -18.2457 -18.0425 -17.7631 -17.7065 -17.5761 -17.4931 -17.3715 -17.2427
   -17.1372 -17.0562 -17.0240 -16.5061 -16.4723  -6.6801  -5.8103  -5.5002
    -5.4020  -5.2389  -5.1695  -5.0130  -4.8061  -4.6904  -4.6689  -4.5132
    -4.3581  -4.1809  -4.0891  -3.9656  -3.9308  -3.6844  -3.5681  -3.4499
    -3.3440  -3.2792  -3.1750  -3.1210  -2.9275  -2.7320  -2.4790  -2.3373
    -2.2937  -2.2617  -2.2245  -2.1476  -2.0670  -1.9528  -1.8839  -1.7617
    -1.6522  -1.5994  -1.5212  -1.3458   1.0028   1.4080   1.7985   1.8171
     2.1356   2.2004   2.5141   2.6151   2.6245   2.7192   2.7881   2.8443
     2.9724   3.0299   3.0707

          k =-0.5000-0.2277 0.0000 ( 40760 PWs)   bands (ev):

   -58.1868 -57.3726 -57.2829 -57.1470 -57.0269 -56.8310 -34.7507 -34.4499
   -34.3590 -33.9938 -33.9114 -33.7785 -33.6065 -33.5873 -33.5837 -33.5211
   -33.5094 -33.4578 -33.4077 -33.3808 -33.3481 -33.2092 -33.1173 -33.0663
   -18.3386 -18.0420 -17.8489 -17.6153 -17.5791 -17.5738 -17.3675 -17.1410
   -17.1394 -17.0606 -16.9330 -16.5061 -16.4724  -6.6815  -5.9905  -5.6804
    -5.3596  -5.3536  -5.2245  -5.0275  -4.6698  -4.5877  -4.5162  -4.4594
    -4.4095  -4.2238  -4.0320  -3.9902  -3.8065  -3.4538  -3.3706  -3.3683
    -3.3550  -3.2886  -3.0952  -3.0510  -2.9996  -2.7411  -2.4451  -2.4036
    -2.2909  -2.2438  -2.1650  -2.1241  -2.0289  -1.9532  -1.8792  -1.8676
    -1.8393  -1.6963  -1.6359  -1.4108   0.9639   1.1100   1.5934   1.8134
     1.9098   2.1687   2.4795   2.6194   2.6298   2.7173   2.8442   3.0150
     3.0167   3.0237   3.0397

          k =-0.5000-0.1139 0.0000 ( 40798 PWs)   bands (ev):

   -58.1868 -57.3726 -57.2829 -57.1470 -57.0269 -56.8310 -34.7493 -34.4499
   -34.3587 -33.9933 -33.9045 -33.7756 -33.6141 -33.5876 -33.5837 -33.5208
   -33.5100 -33.4558 -33.4076 -33.3828 -33.3504 -33.2092 -33.1208 -33.0663
   -18.2457 -18.0425 -17.7631 -17.7065 -17.5761 -17.4931 -17.3715 -17.2427
   -17.1372 -17.0562 -17.0240 -16.5061 -16.4723  -6.6801  -5.8103  -5.5002
    -5.4020  -5.2389  -5.1695  -5.0130  -4.8061  -4.6904  -4.6689  -4.5132
    -4.3581  -4.1809  -4.0891  -3.9656  -3.9308  -3.6844  -3.5681  -3.4499
    -3.3440  -3.2792  -3.1750  -3.1210  -2.9275  -2.7320  -2.4790  -2.3373
    -2.2937  -2.2617  -2.2245  -2.1476  -2.0670  -1.9528  -1.8839  -1.7617
    -1.6522  -1.5994  -1.5212  -1.3458   1.0028   1.4080   1.7985   1.8171
     2.1356   2.2004   2.5141   2.6151   2.6245   2.7192   2.7881   2.8443
     2.9726   3.0299   3.0707

          k =-0.3750 0.0000 0.0000 ( 40826 PWs)   bands (ev):

   -58.1927 -57.3787 -57.2888 -57.1530 -57.0329 -56.8373 -34.6842 -34.4547
   -34.3752 -33.9283 -33.8343 -33.7095 -33.6369 -33.5990 -33.5412 -33.5164
   -33.5013 -33.4124 -33.3921 -33.3888 -33.3728 -33.2251 -33.1252 -33.0788
   -18.1092 -18.0587 -18.0077 -17.6595 -17.5210 -17.5022 -17.3386 -17.2985
   -17.2628 -17.2034 -17.0244 -16.5791 -16.5619  -6.4796  -5.4503  -5.3595
    -5.2847  -5.1060  -5.0702  -5.0311  -4.9838  -4.8272  -4.7644  -4.6817
    -4.6547  -4.3187  -4.1462  -3.8911  -3.7603  -3.7259  -3.6389  -3.4876
    -3.4496  -3.3032  -3.1750  -3.1406  -2.8610  -2.8222  -2.7329  -2.5667
    -2.4497  -2.1127  -2.1064  -1.9868  -1.9315  -1.8146  -1.7886  -1.6750
    -1.6056  -1.5252  -1.4087  -1.2926   1.0845   1.6972   1.8137   2.0112
     2.2835   2.2902   2.4768   2.4948   2.5821   2.6559   2.6730   2.8551
     2.8850   2.9302   3.0713

          k =-0.3750 0.1139 0.0000 ( 40790 PWs)   bands (ev):

   -58.1927 -57.3787 -57.2888 -57.1530 -57.0329 -56.8373 -34.6854 -34.4547
   -34.3749 -33.9289 -33.8427 -33.7123 -33.6235 -33.5990 -33.5411 -33.5203
   -33.5012 -33.4124 -33.3996 -33.3876 -33.3632 -33.2251 -33.1240 -33.0788
   -18.2072 -18.1077 -17.8671 -17.7374 -17.5211 -17.4901 -17.4153 -17.2637
   -17.2377 -17.1064 -17.0267 -16.5801 -16.5641  -6.4813  -5.5974  -5.3328
    -5.2921  -5.1333  -5.0333  -4.9511  -4.8916  -4.8645  -4.7241  -4.6467
    -4.5818  -4.2852  -4.0426  -3.9813  -3.7983  -3.7486  -3.6242  -3.5619
    -3.2607  -3.2446  -3.1447  -3.0158  -2.9152  -2.8374  -2.7326  -2.5807
    -2.4636  -2.2885  -2.1664  -2.0470  -1.9122  -1.8589  -1.8106  -1.6716
    -1.6526  -1.5135  -1.4309  -1.3493   1.0724   1.5120   1.8064   1.8850
     2.0269   2.2348   2.4283   2.5855   2.6412   2.8036   2.8394   2.8684
     2.9209   3.0041   3.0709

          k =-0.3750-0.2277 0.0000 ( 40742 PWs)   bands (ev):

   -58.1927 -57.3787 -57.2888 -57.1530 -57.0329 -56.8373 -34.6867 -34.4547
   -34.3747 -33.9294 -33.8505 -33.7151 -33.6099 -33.5990 -33.5411 -33.5251
   -33.5010 -33.4124 -33.4044 -33.3864 -33.3563 -33.2251 -33.1229 -33.0788
   -18.2781 -18.1060 -17.8371 -17.7566 -17.5440 -17.5014 -17.4214 -17.2605
   -17.1975 -17.0408 -17.0309 -16.5812 -16.5665  -6.4830  -5.6592  -5.3921
    -5.2289  -5.1602  -5.0545  -5.0393  -4.8771  -4.7217  -4.7087  -4.4236
    -4.3938  -4.3683  -4.2255  -3.8687  -3.7752  -3.6665  -3.5952  -3.5500
    -3.3181  -3.2617  -3.1589  -3.1098  -2.8211  -2.7914  -2.7242  -2.5459
    -2.4703  -2.3727  -2.1231  -2.0487  -1.9668  -1.9471  -1.9107  -1.8696
    -1.5683  -1.5388  -1.4070  -1.3711   1.1110   1.2516   1.7544   1.8740
     1.8913   2.2177   2.4415   2.4999   2.7462   2.8424   2.9393   2.9584
     2.9809   2.9885   3.0833

          k =-0.3750-0.1139 0.0000 ( 40790 PWs)   bands (ev):

   -58.1927 -57.3787 -57.2888 -57.1530 -57.0329 -56.8373 -34.6854 -34.4547
   -34.3749 -33.9289 -33.8427 -33.7123 -33.6235 -33.5990 -33.5411 -33.5203
   -33.5012 -33.4124 -33.3996 -33.3876 -33.3632 -33.2251 -33.1240 -33.0788
   -18.2072 -18.1077 -17.8671 -17.7374 -17.5211 -17.4901 -17.4153 -17.2637
   -17.2377 -17.1064 -17.0267 -16.5801 -16.5641  -6.4813  -5.5974  -5.3328
    -5.2921  -5.1333  -5.0333  -4.9511  -4.8916  -4.8645  -4.7241  -4.6467
    -4.5818  -4.2852  -4.0426  -3.9813  -3.7983  -3.7486  -3.6242  -3.5619
    -3.2607  -3.2446  -3.1447  -3.0158  -2.9152  -2.8374  -2.7326  -2.5807
    -2.4636  -2.2885  -2.1664  -2.0470  -1.9122  -1.8589  -1.8106  -1.6716
    -1.6526  -1.5135  -1.4309  -1.3493   1.0724   1.5120   1.8064   1.8850
     2.0269   2.2348   2.4283   2.5855   2.6412   2.8036   2.8394   2.8683
     2.9206   3.0041   3.0710

          k =-0.2500 0.0000 0.0000 ( 40766 PWs)   bands (ev):

   -58.2070 -57.3933 -57.3030 -57.1674 -57.0474 -56.8525 -34.5272 -34.4664
   -34.4154 -33.7709 -33.6796 -33.6729 -33.6352 -33.5541 -33.5393 -33.5300
   -33.4227 -33.4187 -33.3983 -33.3530 -33.2633 -33.2335 -33.1294 -33.1029
   -18.4375 -18.2775 -18.0421 -17.8261 -17.6895 -17.4964 -17.3426 -17.3376
   -17.2865 -17.0989 -17.0763 -16.6719 -16.6417  -6.0331  -5.9633  -5.5442
    -5.4442  -5.3125  -5.1642  -5.0800  -5.0184  -4.8241  -4.7782  -4.4612
    -4.3361  -4.2872  -4.1648  -3.8094  -3.7868  -3.5484  -3.4686  -3.4378
    -3.2615  -3.2292  -2.9593  -2.8508  -2.7658  -2.7549  -2.6002  -2.5468
    -2.3509  -2.1858  -2.0545  -2.0453  -1.9868  -1.9093  -1.7475  -1.7133
    -1.5734  -1.4586  -1.2211  -1.0950   1.3123   1.4846   1.5214   2.0142
     2.0448   2.1296   2.2564   2.2923   2.4406   2.6809   2.7989   2.8504
     2.8624   2.9291   2.9487

          k =-0.2500 0.1139 0.0000 ( 40754 PWs)   bands (ev):

   -58.2070 -57.3933 -57.3030 -57.1674 -57.0474 -56.8525 -34.5281 -34.4664
   -34.4139 -33.7715 -33.7022 -33.6381 -33.6346 -33.5566 -33.5424 -33.5394
   -33.4228 -33.4132 -33.3992 -33.3529 -33.2633 -33.2329 -33.1330 -33.1028
   -18.3584 -18.2685 -17.9734 -17.9284 -17.6250 -17.5751 -17.3771 -17.3261
   -17.2809 -17.1853 -17.0488 -16.6704 -16.6415  -6.0350  -5.7268  -5.3435
    -5.3151  -5.1507  -5.1000  -5.0295  -4.9777  -4.7654  -4.7528  -4.6094
    -4.3831  -4.3331  -4.1028  -3.8759  -3.8216  -3.6661  -3.6132  -3.3814
    -3.3057  -3.1467  -3.0766  -3.0320  -2.9054  -2.8808  -2.7510  -2.6862
    -2.5701  -2.2760  -2.0664  -2.0083  -1.9906  -1.8302  -1.7102  -1.6080
    -1.5187  -1.4485  -1.2875  -1.1218   1.3384   1.5163   1.7150   1.9749
     2.0148   2.1277   2.4220   2.4639   2.5070   2.6941   2.8287   2.8629
     2.9203   2.9585   2.9919

          k =-0.2500-0.2277 0.0000 ( 40742 PWs)   bands (ev):

   -58.2070 -57.3932 -57.3031 -57.1673 -57.0474 -56.8525 -34.5290 -34.4663
   -34.4124 -33.7719 -33.7113 -33.6353 -33.6077 -33.5627 -33.5588 -33.5395
   -33.4228 -33.4079 -33.4001 -33.3528 -33.2634 -33.2322 -33.1368 -33.1028
   -18.2619 -18.1562 -18.1536 -17.8226 -17.7391 -17.4714 -17.4504 -17.3778
   -17.2739 -17.2331 -17.0421 -16.6692 -16.6414  -6.0372  -5.3947  -5.2245
    -5.1761  -5.0270  -4.9395  -4.8809  -4.7995  -4.7232  -4.6735  -4.6529
    -4.5560  -4.3434  -4.2992  -4.0793  -3.9449  -3.6309  -3.5063  -3.4799
    -3.4237  -3.3561  -3.2670  -3.0999  -3.0091  -2.9467  -2.8948  -2.7064
    -2.6727  -2.5020  -2.1380  -2.0455  -1.8704  -1.7984  -1.6132  -1.5154
    -1.4565  -1.4347  -1.2919  -1.1733   1.4104   1.4913   1.8443   1.9835
     2.0322   2.0463   2.4294   2.5871   2.7512   2.7943   2.8492   2.8726
     2.9622   3.0283   3.0600

          k =-0.2500-0.1139 0.0000 ( 40754 PWs)   bands (ev):

   -58.2070 -57.3933 -57.3030 -57.1674 -57.0474 -56.8525 -34.5281 -34.4664
   -34.4139 -33.7715 -33.7022 -33.6381 -33.6346 -33.5566 -33.5424 -33.5394
   -33.4228 -33.4132 -33.3992 -33.3529 -33.2633 -33.2329 -33.1330 -33.1028
   -18.3584 -18.2685 -17.9734 -17.9284 -17.6250 -17.5751 -17.3771 -17.3261
   -17.2809 -17.1853 -17.0488 -16.6704 -16.6415  -6.0350  -5.7268  -5.3435
    -5.3151  -5.1507  -5.1000  -5.0295  -4.9777  -4.7654  -4.7528  -4.6094
    -4.3831  -4.3331  -4.1028  -3.8759  -3.8216  -3.6661  -3.6132  -3.3814
    -3.3057  -3.1467  -3.0766  -3.0320  -2.9054  -2.8808  -2.7510  -2.6862
    -2.5701  -2.2760  -2.0664  -2.0083  -1.9906  -1.8302  -1.7102  -1.6080
    -1.5187  -1.4485  -1.2875  -1.1218   1.3384   1.5163   1.7150   1.9749
     2.0148   2.1277   2.4220   2.4639   2.5070   2.6941   2.8287   2.8629
     2.9203   2.9585   2.9919

          k =-0.1250 0.0000 0.0000 ( 40652 PWs)   bands (ev):

   -58.2212 -57.4079 -57.3171 -57.1817 -57.0619 -56.8676 -34.4782 -34.4551
   -34.3659 -33.7090 -33.6798 -33.5989 -33.5533 -33.5431 -33.5196 -33.4624
   -33.4463 -33.4080 -33.3824 -33.3009 -33.1879 -33.1615 -33.1352 -33.0323
   -18.7963 -18.4910 -18.3488 -17.9723 -17.7776 -17.6434 -17.4953 -17.2888
   -17.1832 -17.1631 -16.9349 -16.6459 -16.5401  -6.4715  -5.9992  -5.7965
    -5.7133  -5.3367  -5.3165  -5.1774  -5.0346  -4.8418  -4.6882  -4.5707
    -4.4149  -4.2161  -4.0426  -3.7824  -3.5867  -3.5238  -3.2147  -3.1289
    -3.0069  -2.9619  -2.7989  -2.7724  -2.6566  -2.5853  -2.4493  -2.3701
    -2.1691  -2.1530  -1.9890  -1.9358  -1.7925  -1.7913  -1.7554  -1.5236
    -1.4527  -1.2697  -1.1692  -0.8197   1.0775   1.3211   1.6597   1.6698
     1.8641   1.9357   2.1486   2.2111   2.3295   2.4117   2.5697   2.6568
     2.7204   2.7760   3.1261

          k =-0.1250 0.1139 0.0000 ( 40695 PWs)   bands (ev):

   -58.2212 -57.4078 -57.3171 -57.1817 -57.0619 -56.8676 -34.4782 -34.4525
   -34.3662 -33.6894 -33.6797 -33.5991 -33.5669 -33.5528 -33.5164 -33.4540
   -33.4461 -33.4111 -33.3833 -33.3009 -33.1879 -33.1616 -33.1436 -33.0323
   -18.6842 -18.4489 -18.2708 -17.9310 -17.8676 -17.7542 -17.4497 -17.3604
   -17.2573 -17.1562 -16.9862 -16.6414 -16.5395  -6.1789  -5.7883  -5.6866
    -5.5120  -5.3303  -5.2492  -5.2010  -4.9169  -4.7528  -4.7052  -4.5446
    -4.3293  -4.1442  -4.0383  -3.7976  -3.6758  -3.5474  -3.4678  -3.3128
    -3.2226  -3.1524  -3.0677  -2.8839  -2.7966  -2.6345  -2.4892  -2.3980
    -2.3212  -2.2299  -2.1193  -1.9558  -1.9238  -1.7983  -1.6595  -1.5036
    -1.4593  -1.2777  -1.1709  -0.9087   1.2686   1.3654   1.7373   1.9285
     1.9749   2.0385   2.2580   2.4031   2.4506   2.4895   2.6029   2.6496
     2.7282   2.9130   3.1135

          k =-0.1250-0.2277 0.0000 ( 40666 PWs)   bands (ev):

   -58.2212 -57.4077 -57.3172 -57.1816 -57.0619 -56.8676 -34.4782 -34.4498
   -34.3665 -33.6796 -33.6573 -33.6095 -33.5902 -33.5531 -33.5153 -33.4467
   -33.4440 -33.4142 -33.3846 -33.3009 -33.1879 -33.1616 -33.1524 -33.0323
   -18.4999 -18.4186 -18.1767 -18.0455 -17.9502 -17.6642 -17.5654 -17.4097
   -17.3332 -17.1462 -17.0256 -16.6386 -16.5391  -5.7752  -5.7528  -5.4060
    -5.3490  -5.2549  -5.1353  -5.0777  -4.8033  -4.8018  -4.6238  -4.4060
    -4.2508  -4.2092  -3.9394  -3.8490  -3.8273  -3.7621  -3.7040  -3.5575
    -3.4071  -3.3617  -3.2117  -3.0569  -3.0285  -2.9437  -2.5712  -2.4864
    -2.4280  -2.2423  -2.1527  -2.0196  -1.8326  -1.8284  -1.6030  -1.4082
    -1.3272  -1.1915  -1.1825  -1.1287   1.3174   1.4512   1.8860   1.9762
     2.1069   2.1687   2.3162   2.5178   2.6255   2.6355   2.6679   2.6929
     2.8502   2.9603   3.1183

          k =-0.1250-0.1139 0.0000 ( 40695 PWs)   bands (ev):

   -58.2212 -57.4078 -57.3171 -57.1817 -57.0619 -56.8676 -34.4782 -34.4525
   -34.3662 -33.6894 -33.6797 -33.5991 -33.5669 -33.5528 -33.5164 -33.4540
   -33.4461 -33.4111 -33.3833 -33.3009 -33.1879 -33.1616 -33.1436 -33.0323
   -18.6842 -18.4489 -18.2708 -17.9310 -17.8676 -17.7542 -17.4497 -17.3604
   -17.2573 -17.1562 -16.9862 -16.6414 -16.5395  -6.1789  -5.7883  -5.6866
    -5.5120  -5.3303  -5.2492  -5.2010  -4.9169  -4.7528  -4.7052  -4.5446
    -4.3293  -4.1442  -4.0383  -3.7976  -3.6758  -3.5474  -3.4678  -3.3128
    -3.2226  -3.1524  -3.0677  -2.8839  -2.7966  -2.6345  -2.4892  -2.3980
    -2.3212  -2.2299  -2.1193  -1.9558  -1.9238  -1.7983  -1.6595  -1.5036
    -1.4593  -1.2777  -1.1709  -0.9087   1.2686   1.3654   1.7373   1.9285
     1.9749   2.0385   2.2580   2.4031   2.4506   2.4894   2.6029   2.6496
     2.7282   2.9130   3.1134

     the Fermi energy is    -1.0015 ev

!    total energy              =   -1260.37546788 Ry
     estimated scf accuracy    <       0.00000068 Ry
     smearing contrib. (-TS)   =       0.00267753 Ry
     internal energy E=F+TS    =   -1260.37814541 Ry

     The total energy is F=E-TS. E is the sum of the following terms:
     one-electron contribution =  -12848.42220106 Ry
     hartree contribution      =    6448.10934090 Ry
     xc contribution           =    -205.24893628 Ry
     ewald contribution        =    5468.91516857 Ry
     one-center paw contrib.   =    -123.73151753 Ry

     total magnetization       =    -0.56 Bohr mag/cell
     absolute magnetization    =     0.71 Bohr mag/cell

     convergence has been achieved in  33 iterations

     negative rho (up, down):  3.820E-03 3.944E-03

     Forces acting on atoms (cartesian axes, Ry/au):

     atom    1 type  2   force =    -0.00001741    0.00000011    0.15384325
     atom    2 type  2   force =    -0.00016522   -0.00000013   -0.05760921
     atom    3 type  2   force =     0.00023600   -0.00000005    0.00540692
     atom    4 type  2   force =     0.00010170    0.00000000   -0.00094083
     atom    5 type  2   force =    -0.00079270    0.00000024   -0.00092098
     atom    6 type  2   force =     0.00103255   -0.00000011   -0.00040807
     atom    7 type  3   force =    -0.00058132   -0.00000003    0.01072801
     atom    8 type  3   force =     0.00009246    0.00000006    0.04378209
     atom    9 type  3   force =    -0.00001499    0.05199856   -0.04250495
     atom   10 type  3   force =    -0.00001500   -0.05199854   -0.04250479
     atom   11 type  3   force =     0.00014428   -0.00000002    0.00130221
     atom   12 type  3   force =    -0.00128745    0.00000008   -0.06760972
     atom   13 type  3   force =     0.00019229    0.00172703   -0.00048082
     atom   14 type  3   force =     0.00019237   -0.00172713   -0.00048065
     atom   15 type  3   force =     0.00071334   -0.00000008   -0.00027096
     atom   16 type  3   force =     0.00017206    0.00000001    0.00035628
     atom   17 type  3   force =     0.00005614   -0.00082570   -0.00055631
     atom   18 type  3   force =     0.00005631    0.00082568   -0.00055654
     atom   19 type  3   force =    -0.00066416    0.00000000   -0.00152451
     atom   20 type  1   force =     0.00054875    0.00000001    0.00094958

     Total force =     0.006914     Total SCF correction =     0.002689
     SCF correction compared to forces is large: reduce conv_thr to get better values

     Writing all to output data dir ./tmp_s0_OH__u000__sp2m030/s0_OH__u000__sp2m030.save/ :
     XML data file, charge density, pseudopotentials, collected wavefunctions

     init_run     :      6.01s CPU      6.19s WALL (       1 calls)
     electrons    :    289.45s CPU    292.83s WALL (       1 calls)
     forces       :      1.25s CPU      1.47s WALL (       1 calls)

     Called by init_run:
     wfcinit      :      1.92s CPU      1.98s WALL (       1 calls)
     potinit      :      1.73s CPU      1.76s WALL (       1 calls)
     hinit0       :      0.45s CPU      0.49s WALL (       1 calls)

     Called by electrons:
     c_bands      :    220.05s CPU    222.30s WALL (      33 calls)
     sum_band     :     41.76s CPU     42.21s WALL (      33 calls)
     v_of_rho     :      9.14s CPU      9.26s WALL (      34 calls)
     newd         :      3.69s CPU      3.73s WALL (      34 calls)
     PAW_pot      :      7.19s CPU      7.23s WALL (      34 calls)
     mix_rho      :      6.74s CPU      6.82s WALL (      33 calls)

     Called by c_bands:
     init_us_2    :      5.13s CPU      5.21s WALL (     544 calls)
     cegterg      :    139.94s CPU    141.59s WALL (     264 calls)

     Called by *egterg:
     cdiaghg      :     10.33s CPU     10.43s WALL (    1167 calls)
     h_psi        :     92.74s CPU     93.94s WALL (    1175 calls)
     s_psi        :      7.37s CPU      7.42s WALL (    1175 calls)
     g_psi        :      0.54s CPU      0.55s WALL (     903 calls)

     Called by h_psi:
     h_psi:calbec :     10.21s CPU     10.29s WALL (    1175 calls)
     vloc_psi     :     74.14s CPU     75.18s WALL (    1175 calls)
                                        0.00s GPU  (    1175 calls)
     add_vuspsi   :      7.31s CPU      7.36s WALL (    1175 calls)

     General routines
     calbec       :     14.98s CPU     15.18s WALL (    1471 calls)
     fft          :      6.03s CPU      6.10s WALL (     863 calls)
     ffts         :      4.56s CPU      4.60s WALL (    4070 calls)
     fftw         :     84.89s CPU     86.03s WALL (  128514 calls)
     interpolate  :      0.96s CPU      0.97s WALL (      68 calls)

     Parallel routines

     PWSCF        :   5m 0.37s CPU   5m 5.30s WALL


   This run was terminated on:   2: 6:51   1Sep2026            

=------------------------------------------------------------------------------=
   JOB DONE.
=------------------------------------------------------------------------------=
Note: The following floating-point exceptions are signalling: IEEE_DENORMAL
Note: The following floating-point exceptions are signalling: IEEE_DENORMAL
Note: The following floating-point exceptions are signalling: IEEE_DENORMAL
Note: The following floating-point exceptions are signalling: IEEE_DENORMAL
Note: The following floating-point exceptions are signalling: IEEE_DENORMAL
Note: The following floating-point exceptions are signalling: IEEE_DENORMAL
Note: The following floating-point exceptions are signalling: IEEE_DENORMAL
Note: The following floating-point exceptions are signalling: IEEE_DENORMAL
Note: The following floating-point exceptions are signalling: IEEE_DENORMAL
Note: The following floating-point exceptions are signalling: IEEE_DENORMAL
Note: The following floating-point exceptions are signalling: IEEE_DENORMAL
Note: The following floating-point exceptions are signalling: IEEE_DENORMAL
Note: The following floating-point exceptions are signalling: IEEE_DENORMAL
Note: The following floating-point exceptions are signalling: IEEE_DENORMAL
Note: The following floating-point exceptions are signalling: IEEE_DENORMAL
Note: The following floating-point exceptions are signalling: IEEE_DENORMAL
Note: The following floating-point exceptions are signalling: IEEE_DENORMAL
Note: The following floating-point exceptions are signalling: IEEE_DENORMAL
Note: The following floating-point exceptions are signalling: IEEE_DENORMAL
Note: The following floating-point exceptions are signalling: IEEE_DENORMAL
Note: The following floating-point exceptions are signalling: IEEE_DENORMAL
Note: The following floating-point exceptions are signalling: IEEE_DENORMAL
Note: The following floating-point exceptions are signalling: IEEE_DENORMAL
Note: The following floating-point exceptions are signalling: IEEE_DENORMAL
Note: The following floating-point exceptions are signalling: IEEE_DENORMAL
Note: The following floating-point exceptions are signalling: IEEE_DENORMAL
Note: The following floating-point exceptions are signalling: IEEE_DENORMAL
Note: The following floating-point exceptions are signalling: IEEE_DENORMAL
Note: The following floating-point exceptions are signalling: IEEE_DENORMAL
Note: The following floating-point exceptions are signalling: IEEE_DENORMAL
Note: The following floating-point exceptions are signalling: IEEE_DENORMAL
Note: The following floating-point exceptions are signalling: IEEE_DENORMAL
Note: The following floating-point exceptions are signalling: IEEE_DENORMAL
Note: The following floating-point exceptions are signalling: IEEE_DENORMAL
Note: The following floating-point exceptions are signalling: IEEE_DENORMAL
