
     Program PWSCF v.7.5 starts on 28Aug2026 at  7:19:24 

     This program is part of the open-source Quantum ESPRESSO suite
     for quantum simulation of materials; please cite
         "P. Giannozzi et al., J. Phys.:Condens. Matter 21 395502 (2009);
         "P. Giannozzi et al., J. Phys.:Condens. Matter 29 465901 (2017);
         "P. Giannozzi et al., J. Chem. Phys. 152 154105 (2020);
          URL http://www.quantum-espresso.org", 
     in publications or presentations arising from this work. More details at
     http://www.quantum-espresso.org/quote

     Parallel version (MPI & OpenMP), running on     128 processor cores
     Number of MPI processes:               128
     Threads/MPI process:                     1

     MPI processes distributed on     1 nodes
     224176 MiB available memory on the printing compute node when the environment starts

     Reading input from s0_OOH__u850.run.in

     Current dimensions of program PWSCF are:
     Max number of different atomic species (ntypx) = 10
     Max number of k-points (npk) =  40000
     Max angular momentum in pseudopotentials (lmaxx) =  4
     file O.pbe-n-kjpaw_psl.0.1.UPF: wavefunction(s)  2P renormalized
     Message from routine setup:
     using ibrav=0 with symmetry is DISCOURAGED, use correct ibrav instead

     K-points division:     npool     =       4
     R & G space division:  proc/nbgrp/npool/nimage =      32
     Subspace diagonalization in iterative solution of the eigenvalue problem:
     a serial algorithm will be used


     Parallelization info
     --------------------
     sticks:   dense  smooth     PW     G-vecs:    dense   smooth      PW
     Min         103      51     14                26275     9281    1388
     Max         104      52     15                26300     9316    1415
     Sum        3323    1653    471               841263   297421   44917

     Using Slab Decomposition



     bravais-lattice index     =            0
     lattice parameter (alat)  =       5.5104  a.u.
     unit-cell volume          =    3076.9124 (a.u.)^3
     number of atoms/cell      =           21
     number of atomic types    =            3
     number of electrons       =       169.00
     number of Kohn-Sham states=          102
     kinetic-energy cutoff     =      80.0000  Ry
     charge density cutoff     =     640.0000  Ry
     scf convergence threshold =      1.0E-06
     mixing beta               =       0.3000
     number of iterations used =            8  local-TF  mixing
     Exchange-correlation= SLA  PW   PBX  PBC
                           (   1   4   3   4   0   0   0)
     Hubbard projectors: atomic
     Hubbard parameters of DFT+U (Dudarev formulation) in eV:
     U(Cr-3d) =  8.5000

     Internal variables: lda_plus_u =T, lda_plus_u_kind = 0

     Internal variables: orbital_resolved =F, hub_pot_fix =F, apply_U = F

     celldm(1)=   5.510441  celldm(2)=   0.000000  celldm(3)=   0.000000
     celldm(4)=   0.000000  celldm(5)=   0.000000  celldm(6)=   0.000000

     crystal axes: (cart. coord. in units of alat)
               a(1) = (   1.000000   0.000000   0.000000 )  
               a(2) = (   0.000000   2.144115   0.000000 )  
               a(3) = (   0.000000   0.000000   8.576458 )  

     reciprocal axes: (cart. coord. in units 2 pi/alat)
               b(1) = (  1.000000  0.000000  0.000000 )  
               b(2) = (  0.000000  0.466393  0.000000 )  
               b(3) = (  0.000000  0.000000  0.116598 )  


     PseudoPot. # 1 for Cr read from file:
     /anvil/projects/x-che260157/pseudo/cr_pbe_v1.5.uspp.F.UPF
     MD5 check sum: 0d52af634a40206e4dee301ad30da4bf
     Pseudo is Ultrasoft + core correction, Zval = 14.0
     Generated by new atomic code, or converted to UPF format
     Using radial grid of  857 points,  6 beta functions with: 
                l(1) =   0
                l(2) =   0
                l(3) =   1
                l(4) =   1
                l(5) =   2
                l(6) =   2
     Q(r) pseudized with  8 coefficients,  rinner =    0.950   0.950   0.950
                                                       0.950   0.950

     PseudoPot. # 2 for H  read from file:
     /anvil/projects/x-che260157/pseudo/H.pbe-rrkjus_psl.1.0.0.UPF
     MD5 check sum: f52b6d4d1c606e5624b1dc7b2218f220
     Pseudo is Ultrasoft, Zval =  1.0
     Generated using "atomic" code by A. Dal Corso  v.5.1
     Using radial grid of  929 points,  2 beta functions with: 
                l(1) =   0
                l(2) =   0
     Q(r) pseudized with 0 coefficients 


     PseudoPot. # 3 for O  read from file:
     /anvil/projects/x-che260157/pseudo/O.pbe-n-kjpaw_psl.0.1.UPF
     MD5 check sum: 0234752ac141de4415c5fc33072bef88
     Pseudo is Projector augmented-wave + core cor, Zval =  6.0
     Generated using "atomic" code by A. Dal Corso  v.5.0.99 svn rev. 10869
     Shape of augmentation charge: BESSEL
     Using radial grid of 1095 points,  4 beta functions with: 
                l(1) =   0
                l(2) =   0
                l(3) =   1
                l(4) =   1
     Q(r) pseudized with 0 coefficients 


     atomic species   valence    mass     pseudopotential
     Cr               14.00    51.99600     Cr( 1.00)
     H                 1.00     1.00800     H ( 1.00)
     O                 6.00    15.99900     O ( 1.00)

     Starting magnetic structure 
     atomic species   magnetization
     Cr              0.600
     H               0.000
     O               0.000

      2 Sym. Ops. (no inversion) found ( 1 have fractional translation)



   Cartesian axes

     site n.     atom                  positions (alat units)
         1        Cr     tau(   1) = (   0.0000000   0.5360286   3.2161719  )
         2        Cr     tau(   2) = (   0.5000000   1.6080859   3.2161719  )
         3        Cr     tau(   3) = (   0.0011527   1.6080859   4.3089263  )
         4        Cr     tau(   4) = (   0.4993817   0.5360286   4.2961656  )
         5        Cr     tau(   5) = (  -0.0085889   0.5360286   5.3745755  )
         6        Cr     tau(   6) = (   0.5028693   1.6080859   5.4254587  )
         7        O      tau(   7) = (   0.0000000   1.6080859   3.6342742  )
         8        O      tau(   8) = (   0.0000000   1.6080859   2.7980695  )
         9        O      tau(   9) = (   0.5000000   0.1179263   3.2161719  )
        10        O      tau(  10) = (   0.5000000   0.9541310   3.2161719  )
        11        O      tau(  11) = (  -0.0015627   0.5360286   4.7288986  )
        12        O      tau(  12) = (   0.0000000   0.5360286   3.8701268  )
        13        O      tau(  13) = (   0.5010389   1.1848813   4.3017892  )
        14        O      tau(  14) = (   0.5010389   2.0312906   4.3017892  )
        15        O      tau(  15) = (  -0.0029502   1.6080859   5.8123958  )
        16        O      tau(  16) = (   0.0026206   1.6080859   4.9663566  )
        17        O      tau(  17) = (   0.4972029   0.1158953   5.4026833  )
        18        O      tau(  18) = (   0.4972029   0.9561620   5.4026833  )
        19        O      tau(  19) = (   0.0860179   0.5360286   6.0803268  )
        20        O      tau(  20) = (  -0.1886167   0.5360286   6.4573034  )
        21        H      tau(  21) = (  -0.5167581   0.5360286   6.3029246  )

     number of k points=    15  Marzari-Vanderbilt smearing, width (Ry)=  0.0100
                       cart. coord. in units 2pi/alat
        k(    1) = (   0.0000000   0.0000000   0.0000000), wk =   0.0277778
        k(    2) = (   0.0000000   0.1165982   0.0000000), wk =   0.0555556
        k(    3) = (   0.0000000  -0.2331965   0.0000000), wk =   0.0277778
        k(    4) = (   0.1111111   0.0000000   0.0000000), wk =   0.0555556
        k(    5) = (   0.1111111   0.1165982   0.0000000), wk =   0.1111111
        k(    6) = (   0.1111111  -0.2331965   0.0000000), wk =   0.0555556
        k(    7) = (   0.2222222   0.0000000   0.0000000), wk =   0.0555556
        k(    8) = (   0.2222222   0.1165982   0.0000000), wk =   0.1111111
        k(    9) = (   0.2222222  -0.2331965   0.0000000), wk =   0.0555556
        k(   10) = (   0.3333333   0.0000000   0.0000000), wk =   0.0555556
        k(   11) = (   0.3333333   0.1165982   0.0000000), wk =   0.1111111
        k(   12) = (   0.3333333  -0.2331965   0.0000000), wk =   0.0555556
        k(   13) = (   0.4444444   0.0000000   0.0000000), wk =   0.0555556
        k(   14) = (   0.4444444   0.1165982   0.0000000), wk =   0.1111111
        k(   15) = (   0.4444444  -0.2331965   0.0000000), wk =   0.0555556

     Dense  grid:   841263 G-vectors     FFT dimensions: (  45,  96, 384)

     Smooth grid:   297421 G-vectors     FFT dimensions: (  32,  72, 270)

     Estimated max dynamical RAM per process >      80.23 MB

     Estimated total dynamical RAM >       8.82 GB

     Check: negative core charge=   -0.000001
     Generating pointlists ...
     new r_m :   0.2589 (alat units)  1.4267 (a.u.) for type    1
     new r_m :   0.1496 (alat units)  0.8243 (a.u.) for type    2
     new r_m :   0.1496 (alat units)  0.8243 (a.u.) for type    3

     Initial potential from superposition of free atoms

     starting charge     162.9999, renormalised to     169.0000

     negative rho (up, down):  4.250E-03 1.037E-03

     STARTING HUBBARD OCCUPATIONS:

     =================== HUBBARD OCCUPATIONS ===================
     ------------------------ ATOM    1 ------------------------
     Tr[ns(  1)] (up, down, total) =   3.40000  0.00000  3.40000
     Atomic magnetic moment for atom   1 =   3.40000
     SPIN  1
     eigenvalues:
       0.680  0.680  0.680  0.680  0.680
     eigenvectors (columns):
       1.000  0.000  0.000  0.000  0.000
       0.000  1.000  0.000  0.000  0.000
       0.000  0.000  1.000  0.000  0.000
       0.000  0.000  0.000  1.000  0.000
       0.000  0.000  0.000  0.000  1.000
     occupation matrix ns (before diag.):
       0.680  0.000  0.000  0.000  0.000
       0.000  0.680  0.000  0.000  0.000
       0.000  0.000  0.680  0.000  0.000
       0.000  0.000  0.000  0.680  0.000
       0.000  0.000  0.000  0.000  0.680
     SPIN  2
     eigenvalues:
       0.000  0.000  0.000  0.000  0.000
     eigenvectors (columns):
       1.000  0.000  0.000  0.000  0.000
       0.000  1.000  0.000  0.000  0.000
       0.000  0.000  1.000  0.000  0.000
       0.000  0.000  0.000  1.000  0.000
       0.000  0.000  0.000  0.000  1.000
     occupation matrix ns (before diag.):
       0.000  0.000  0.000  0.000  0.000
       0.000  0.000  0.000  0.000  0.000
       0.000  0.000  0.000  0.000  0.000
       0.000  0.000  0.000  0.000  0.000
       0.000  0.000  0.000  0.000  0.000
     ------------------------ ATOM    2 ------------------------
     Tr[ns(  2)] (up, down, total) =   3.40000  0.00000  3.40000
     Atomic magnetic moment for atom   2 =   3.40000
     SPIN  1
     eigenvalues:
       0.680  0.680  0.680  0.680  0.680
     eigenvectors (columns):
       1.000  0.000  0.000  0.000  0.000
       0.000  1.000  0.000  0.000  0.000
       0.000  0.000  1.000  0.000  0.000
       0.000  0.000  0.000  1.000  0.000
       0.000  0.000  0.000  0.000  1.000
     occupation matrix ns (before diag.):
       0.680  0.000  0.000  0.000  0.000
       0.000  0.680  0.000  0.000  0.000
       0.000  0.000  0.680  0.000  0.000
       0.000  0.000  0.000  0.680  0.000
       0.000  0.000  0.000  0.000  0.680
     SPIN  2
     eigenvalues:
       0.000  0.000  0.000  0.000  0.000
     eigenvectors (columns):
       1.000  0.000  0.000  0.000  0.000
       0.000  1.000  0.000  0.000  0.000
       0.000  0.000  1.000  0.000  0.000
       0.000  0.000  0.000  1.000  0.000
       0.000  0.000  0.000  0.000  1.000
     occupation matrix ns (before diag.):
       0.000  0.000  0.000  0.000  0.000
       0.000  0.000  0.000  0.000  0.000
       0.000  0.000  0.000  0.000  0.000
       0.000  0.000  0.000  0.000  0.000
       0.000  0.000  0.000  0.000  0.000
     ------------------------ ATOM    3 ------------------------
     Tr[ns(  3)] (up, down, total) =   3.40000  0.00000  3.40000
     Atomic magnetic moment for atom   3 =   3.40000
     SPIN  1
     eigenvalues:
       0.680  0.680  0.680  0.680  0.680
     eigenvectors (columns):
       1.000  0.000  0.000  0.000  0.000
       0.000  1.000  0.000  0.000  0.000
       0.000  0.000  1.000  0.000  0.000
       0.000  0.000  0.000  1.000  0.000
       0.000  0.000  0.000  0.000  1.000
     occupation matrix ns (before diag.):
       0.680  0.000  0.000  0.000  0.000
       0.000  0.680  0.000  0.000  0.000
       0.000  0.000  0.680  0.000  0.000
       0.000  0.000  0.000  0.680  0.000
       0.000  0.000  0.000  0.000  0.680
     SPIN  2
     eigenvalues:
       0.000  0.000  0.000  0.000  0.000
     eigenvectors (columns):
       1.000  0.000  0.000  0.000  0.000
       0.000  1.000  0.000  0.000  0.000
       0.000  0.000  1.000  0.000  0.000
       0.000  0.000  0.000  1.000  0.000
       0.000  0.000  0.000  0.000  1.000
     occupation matrix ns (before diag.):
       0.000  0.000  0.000  0.000  0.000
       0.000  0.000  0.000  0.000  0.000
       0.000  0.000  0.000  0.000  0.000
       0.000  0.000  0.000  0.000  0.000
       0.000  0.000  0.000  0.000  0.000
     ------------------------ ATOM    4 ------------------------
     Tr[ns(  4)] (up, down, total) =   3.40000  0.00000  3.40000
     Atomic magnetic moment for atom   4 =   3.40000
     SPIN  1
     eigenvalues:
       0.680  0.680  0.680  0.680  0.680
     eigenvectors (columns):
       1.000  0.000  0.000  0.000  0.000
       0.000  1.000  0.000  0.000  0.000
       0.000  0.000  1.000  0.000  0.000
       0.000  0.000  0.000  1.000  0.000
       0.000  0.000  0.000  0.000  1.000
     occupation matrix ns (before diag.):
       0.680  0.000  0.000  0.000  0.000
       0.000  0.680  0.000  0.000  0.000
       0.000  0.000  0.680  0.000  0.000
       0.000  0.000  0.000  0.680  0.000
       0.000  0.000  0.000  0.000  0.680
     SPIN  2
     eigenvalues:
       0.000  0.000  0.000  0.000  0.000
     eigenvectors (columns):
       1.000  0.000  0.000  0.000  0.000
       0.000  1.000  0.000  0.000  0.000
       0.000  0.000  1.000  0.000  0.000
       0.000  0.000  0.000  1.000  0.000
       0.000  0.000  0.000  0.000  1.000
     occupation matrix ns (before diag.):
       0.000  0.000  0.000  0.000  0.000
       0.000  0.000  0.000  0.000  0.000
       0.000  0.000  0.000  0.000  0.000
       0.000  0.000  0.000  0.000  0.000
       0.000  0.000  0.000  0.000  0.000
     ------------------------ ATOM    5 ------------------------
     Tr[ns(  5)] (up, down, total) =   3.40000  0.00000  3.40000
     Atomic magnetic moment for atom   5 =   3.40000
     SPIN  1
     eigenvalues:
       0.680  0.680  0.680  0.680  0.680
     eigenvectors (columns):
       1.000  0.000  0.000  0.000  0.000
       0.000  1.000  0.000  0.000  0.000
       0.000  0.000  1.000  0.000  0.000
       0.000  0.000  0.000  1.000  0.000
       0.000  0.000  0.000  0.000  1.000
     occupation matrix ns (before diag.):
       0.680  0.000  0.000  0.000  0.000
       0.000  0.680  0.000  0.000  0.000
       0.000  0.000  0.680  0.000  0.000
       0.000  0.000  0.000  0.680  0.000
       0.000  0.000  0.000  0.000  0.680
     SPIN  2
     eigenvalues:
       0.000  0.000  0.000  0.000  0.000
     eigenvectors (columns):
       1.000  0.000  0.000  0.000  0.000
       0.000  1.000  0.000  0.000  0.000
       0.000  0.000  1.000  0.000  0.000
       0.000  0.000  0.000  1.000  0.000
       0.000  0.000  0.000  0.000  1.000
     occupation matrix ns (before diag.):
       0.000  0.000  0.000  0.000  0.000
       0.000  0.000  0.000  0.000  0.000
       0.000  0.000  0.000  0.000  0.000
       0.000  0.000  0.000  0.000  0.000
       0.000  0.000  0.000  0.000  0.000
     ------------------------ ATOM    6 ------------------------
     Tr[ns(  6)] (up, down, total) =   3.40000  0.00000  3.40000
     Atomic magnetic moment for atom   6 =   3.40000
     SPIN  1
     eigenvalues:
       0.680  0.680  0.680  0.680  0.680
     eigenvectors (columns):
       1.000  0.000  0.000  0.000  0.000
       0.000  1.000  0.000  0.000  0.000
       0.000  0.000  1.000  0.000  0.000
       0.000  0.000  0.000  1.000  0.000
       0.000  0.000  0.000  0.000  1.000
     occupation matrix ns (before diag.):
       0.680  0.000  0.000  0.000  0.000
       0.000  0.680  0.000  0.000  0.000
       0.000  0.000  0.680  0.000  0.000
       0.000  0.000  0.000  0.680  0.000
       0.000  0.000  0.000  0.000  0.680
     SPIN  2
     eigenvalues:
       0.000  0.000  0.000  0.000  0.000
     eigenvectors (columns):
       1.000  0.000  0.000  0.000  0.000
       0.000  1.000  0.000  0.000  0.000
       0.000  0.000  1.000  0.000  0.000
       0.000  0.000  0.000  1.000  0.000
       0.000  0.000  0.000  0.000  1.000
     occupation matrix ns (before diag.):
       0.000  0.000  0.000  0.000  0.000
       0.000  0.000  0.000  0.000  0.000
       0.000  0.000  0.000  0.000  0.000
       0.000  0.000  0.000  0.000  0.000
       0.000  0.000  0.000  0.000  0.000

     Number of occupied Hubbard levels =   20.4000

     Atomic wfc used for Hubbard projectors are NOT orthogonalized

     Starting wfcs are  117 randomized atomic wfcs
     Checking if some PAW data can be deallocated... 

     total cpu time spent up to now is        5.9 secs

     per-process dynamical memory:   109.0 Mb

     Self-consistent Calculation

     iteration #  1     ecut=    80.00 Ry     beta= 0.30
     Davidson diagonalization with overlap
     ethr =  1.00E-02,  avg # of iterations =  5.9

     =================== HUBBARD OCCUPATIONS ===================
     ------------------------ ATOM    1 ------------------------
     Tr[ns(  1)] (up, down, total) =   4.97100  0.42042  5.39142
     Atomic magnetic moment for atom   1 =   4.55058
     SPIN  1
     eigenvalues:
       0.986  0.996  0.996  0.996  0.997
     eigenvectors (columns):
       0.973 -0.230 -0.000  0.000 -0.000
       0.000 -0.000 -0.000 -1.000 -0.000
       0.000  0.000 -0.002 -0.000  1.000
      -0.230 -0.973 -0.000  0.000  0.000
      -0.000 -0.000  1.000 -0.000  0.002
     occupation matrix ns (before diag.):
       0.987 -0.000 -0.000  0.002  0.000
      -0.000  0.996 -0.000  0.000  0.000
      -0.000 -0.000  0.997  0.000  0.000
       0.002  0.000  0.000  0.995 -0.000
       0.000  0.000  0.000 -0.000  0.996
     SPIN  2
     eigenvalues:
       0.036  0.045  0.047  0.137  0.157
     eigenvectors (columns):
       0.000 -0.001  0.254 -0.967  0.000
       0.000  1.000  0.002 -0.000  0.000
       1.000 -0.000  0.000  0.000 -0.000
      -0.000 -0.001  0.967  0.254 -0.000
       0.000 -0.000  0.000  0.000  1.000
     occupation matrix ns (before diag.):
       0.131  0.000 -0.000 -0.022  0.000
       0.000  0.045 -0.000  0.000  0.000
      -0.000 -0.000  0.036  0.000 -0.000
      -0.022  0.000  0.000  0.053 -0.000
       0.000  0.000 -0.000 -0.000  0.157
     ------------------------ ATOM    2 ------------------------
     Tr[ns(  2)] (up, down, total) =   4.97863  0.47858  5.45721
     Atomic magnetic moment for atom   2 =   4.50005
     SPIN  1
     eigenvalues:
       0.995  0.995  0.996  0.996  0.996
     eigenvectors (columns):
      -0.000 -0.762 -0.648 -0.012  0.000
      -0.000  0.001  0.017 -1.000  0.000
       0.003 -0.000  0.000 -0.000 -1.000
       0.000  0.648 -0.761 -0.012 -0.000
       1.000 -0.000  0.000 -0.000  0.003
     occupation matrix ns (before diag.):
       0.995  0.000 -0.000  0.000  0.000
       0.000  0.996 -0.000  0.000  0.000
      -0.000 -0.000  0.996  0.000 -0.000
       0.000  0.000  0.000  0.996 -0.000
       0.000  0.000 -0.000 -0.000  0.995
     SPIN  2
     eigenvalues:
       0.047  0.053  0.056  0.159  0.163
     eigenvectors (columns):
      -0.000  0.930  0.000 -0.369 -0.001
      -0.000 -0.000 -0.000 -0.002  1.000
      -1.000 -0.000 -0.000 -0.000 -0.000
       0.000 -0.369 -0.000 -0.930 -0.001
      -0.000 -0.000  1.000  0.000  0.000
     occupation matrix ns (before diag.):
       0.068 -0.000 -0.000  0.036  0.000
      -0.000  0.163 -0.000 -0.000  0.000
      -0.000 -0.000  0.047  0.000 -0.000
       0.036 -0.000  0.000  0.144 -0.000
       0.000  0.000 -0.000 -0.000  0.056
     ------------------------ ATOM    3 ------------------------
     Tr[ns(  3)] (up, down, total) =   4.97546  0.45082  5.42628
     Atomic magnetic moment for atom   3 =   4.52464
     SPIN  1
     eigenvalues:
       0.994  0.995  0.995  0.996  0.996
     eigenvectors (columns):
      -0.328  0.904 -0.275 -0.000  0.000
      -0.003 -0.292 -0.957 -0.000  0.000
      -0.000  0.000 -0.000  0.994 -0.108
       0.945  0.313 -0.098  0.000 -0.000
       0.000 -0.000  0.000  0.108  0.994
     occupation matrix ns (before diag.):
       0.995  0.000 -0.000  0.000  0.000
       0.000  0.995 -0.000  0.000  0.000
      -0.000 -0.000  0.996  0.000 -0.000
       0.000  0.000  0.000  0.994 -0.000
       0.000  0.000 -0.000 -0.000  0.996
     SPIN  2
     eigenvalues:
       0.046  0.047  0.053  0.151  0.154
     eigenvectors (columns):
       0.121  0.000 -0.001 -0.000 -0.993
       0.009  0.000 -1.000  0.000  0.002
      -0.000  1.000  0.000 -0.000  0.000
       0.993  0.000  0.009  0.000  0.121
       0.000  0.000  0.000  1.000 -0.000
     occupation matrix ns (before diag.):
       0.152 -0.000 -0.000 -0.013  0.000
      -0.000  0.053 -0.000 -0.000  0.000
      -0.000 -0.000  0.047  0.000 -0.000
      -0.013 -0.000  0.000  0.048 -0.000
       0.000  0.000 -0.000 -0.000  0.151
     ------------------------ ATOM    4 ------------------------
     Tr[ns(  4)] (up, down, total) =   4.97146  0.46006  5.43152
     Atomic magnetic moment for atom   4 =   4.51140
     SPIN  1
     eigenvalues:
       0.992  0.993  0.995  0.995  0.996
     eigenvectors (columns):
       0.162  0.648  0.744 -0.000  0.000
       0.894 -0.415  0.168 -0.000  0.000
       0.000  0.000  0.000  0.001 -1.000
      -0.418 -0.638  0.647  0.000 -0.000
      -0.000 -0.000  0.000 -1.000 -0.001
     occupation matrix ns (before diag.):
       0.994 -0.000 -0.000  0.001  0.000
      -0.000  0.993 -0.000  0.001  0.000
      -0.000 -0.000  0.996  0.000  0.000
       0.001  0.001  0.000  0.994 -0.000
       0.000  0.000  0.000 -0.000  0.995
     SPIN  2
     eigenvalues:
       0.047  0.047  0.054  0.152  0.160
     eigenvectors (columns):
       0.000  0.916  0.000 -0.020  0.400
       0.000  0.001 -0.000 -0.999 -0.053
       1.000 -0.000 -0.025  0.000  0.000
      -0.000 -0.401 -0.000 -0.049  0.915
       0.025 -0.000  1.000 -0.000 -0.000
     occupation matrix ns (before diag.):
       0.065 -0.000 -0.000  0.041  0.000
      -0.000  0.152 -0.000 -0.000  0.000
      -0.000 -0.000  0.047  0.000 -0.000
       0.041 -0.000  0.000  0.142 -0.000
       0.000  0.000 -0.000 -0.000  0.054
     ------------------------ ATOM    5 ------------------------
     Tr[ns(  5)] (up, down, total) =   2.40692  0.39031  2.79724
     Atomic magnetic moment for atom   5 =   2.01661
     SPIN  1
     eigenvalues:
       0.381  0.445  0.467  0.534  0.579
     eigenvectors (columns):
      -0.666  0.000 -0.420  0.617  0.000
      -0.192  0.000 -0.702 -0.686  0.000
      -0.000  0.010 -0.000 -0.000 -1.000
       0.721 -0.000 -0.575  0.387 -0.000
       0.000  1.000  0.000 -0.000  0.010
     occupation matrix ns (before diag.):
       0.455 -0.039 -0.000  0.057  0.000
      -0.039  0.496 -0.000 -0.006  0.000
      -0.000 -0.000  0.579  0.000 -0.001
       0.057 -0.006  0.000  0.433 -0.000
       0.000  0.000 -0.001 -0.000  0.445
     SPIN  2
     eigenvalues:
       0.033  0.043  0.046  0.118  0.150
     eigenvectors (columns):
      -0.000  0.068  0.152  0.986  0.000
      -0.000  0.984 -0.171 -0.042  0.000
      -1.000 -0.000  0.000 -0.000  0.003
       0.000  0.162  0.974 -0.161 -0.000
       0.003 -0.000  0.000 -0.000  1.000
     occupation matrix ns (before diag.):
       0.116 -0.003 -0.000 -0.011  0.000
      -0.003  0.043 -0.000 -0.000  0.000
      -0.000 -0.000  0.033  0.000  0.000
      -0.011 -0.000  0.000  0.048 -0.000
       0.000  0.000  0.000 -0.000  0.150
     ------------------------ ATOM    6 ------------------------
     Tr[ns(  6)] (up, down, total) =   2.71257  0.35173  3.06431
     Atomic magnetic moment for atom   6 =   2.36084
     SPIN  1
     eigenvalues:
       0.435  0.522  0.541  0.596  0.619
     eigenvectors (columns):
       0.883 -0.182  0.432 -0.000  0.000
       0.020  0.935  0.354 -0.000  0.000
       0.000  0.000  0.000  0.984 -0.177
       0.468  0.304 -0.830  0.000 -0.000
      -0.000  0.000 -0.000  0.177  0.984
     occupation matrix ns (before diag.):
       0.458  0.001 -0.000 -0.043  0.000
       0.001  0.524 -0.000 -0.006  0.000
      -0.000 -0.000  0.596  0.000 -0.004
      -0.043 -0.006  0.000  0.516 -0.000
       0.000  0.000 -0.004 -0.000  0.618
     SPIN  2
     eigenvalues:
       0.026  0.036  0.037  0.106  0.146
     eigenvectors (columns):
      -0.881  0.000  0.000  0.011 -0.473
      -0.004 -0.000 -0.000  1.000  0.031
      -0.000 -0.997 -0.074 -0.000 -0.000
       0.473 -0.000 -0.000  0.029 -0.881
       0.000 -0.074  0.997  0.000  0.000
     occupation matrix ns (before diag.):
       0.053 -0.001 -0.000  0.050  0.000
      -0.001  0.106 -0.000 -0.001  0.000
      -0.000 -0.000  0.036  0.000 -0.000
       0.050 -0.001  0.000  0.119 -0.000
       0.000  0.000 -0.000 -0.000  0.037

     Number of occupied Hubbard levels =   27.5680

     negative rho (up, down):  6.624E-03 1.062E-02

     total cpu time spent up to now is       13.6 secs

     total energy              =   -1635.57993794 Ry
     estimated scf accuracy    <     248.82134371 Ry

     total magnetization       =    24.06 Bohr mag/cell
     absolute magnetization    =    25.94 Bohr mag/cell

     iteration #  2     ecut=    80.00 Ry     beta= 0.30
     Davidson diagonalization with overlap
     ethr =  1.00E-02,  avg # of iterations =  2.0

     negative rho (up, down):  1.391E-02 3.982E-02

     total cpu time spent up to now is       19.0 secs

     total energy              =   -1629.67423104 Ry
     estimated scf accuracy    <     144.73598655 Ry

     total magnetization       =    18.90 Bohr mag/cell
     absolute magnetization    =    23.26 Bohr mag/cell

     iteration #  3     ecut=    80.00 Ry     beta= 0.30
     Davidson diagonalization with overlap
     ethr =  1.00E-02,  avg # of iterations =  7.0

     negative rho (up, down):  1.526E-02 4.181E-02

     total cpu time spent up to now is       27.9 secs

     total energy              =   -1634.98772269 Ry
     estimated scf accuracy    <      11.32465031 Ry

     total magnetization       =    11.38 Bohr mag/cell
     absolute magnetization    =    26.31 Bohr mag/cell

     iteration #  4     ecut=    80.00 Ry     beta= 0.30
     Davidson diagonalization with overlap
     ethr =  6.70E-03,  avg # of iterations =  2.4

     negative rho (up, down):  2.164E-02 5.181E-02

     total cpu time spent up to now is       41.4 secs

     total energy              =   -1634.50068040 Ry
     estimated scf accuracy    <       5.20623237 Ry

     total magnetization       =    11.00 Bohr mag/cell
     absolute magnetization    =    26.20 Bohr mag/cell

     iteration #  5     ecut=    80.00 Ry     beta= 0.30
     Davidson diagonalization with overlap
     ethr =  3.08E-03,  avg # of iterations =  3.3

     negative rho (up, down):  2.584E-02 5.876E-02

     total cpu time spent up to now is       55.8 secs

     total energy              =   -1634.90496853 Ry
     estimated scf accuracy    <       1.51593664 Ry

     total magnetization       =    11.00 Bohr mag/cell
     absolute magnetization    =    26.04 Bohr mag/cell

     iteration #  6     ecut=    80.00 Ry     beta= 0.30
     Davidson diagonalization with overlap
     ethr =  8.97E-04,  avg # of iterations =  5.2

     negative rho (up, down):  2.549E-02 5.997E-02

     total cpu time spent up to now is       62.4 secs

     total energy              =   -1635.00984583 Ry
     estimated scf accuracy    <       0.57833970 Ry

     total magnetization       =    10.99 Bohr mag/cell
     absolute magnetization    =    26.40 Bohr mag/cell

     iteration #  7     ecut=    80.00 Ry     beta= 0.30
     Davidson diagonalization with overlap
     ethr =  3.42E-04,  avg # of iterations =  4.9

     negative rho (up, down):  2.150E-02 5.567E-02

     total cpu time spent up to now is       67.8 secs

     total energy              =   -1635.00575014 Ry
     estimated scf accuracy    <       0.35480712 Ry

     total magnetization       =    11.00 Bohr mag/cell
     absolute magnetization    =    26.46 Bohr mag/cell

     iteration #  8     ecut=    80.00 Ry     beta= 0.30
     Davidson diagonalization with overlap
     ethr =  2.10E-04,  avg # of iterations =  5.7

     negative rho (up, down):  1.862E-02 5.149E-02

     total cpu time spent up to now is       74.4 secs

     total energy              =   -1635.01357505 Ry
     estimated scf accuracy    <       0.18582472 Ry

     total magnetization       =    11.00 Bohr mag/cell
     absolute magnetization    =    26.35 Bohr mag/cell

     iteration #  9     ecut=    80.00 Ry     beta= 0.30
     Davidson diagonalization with overlap
     ethr =  1.10E-04,  avg # of iterations =  5.6

     negative rho (up, down):  1.467E-02 4.653E-02

     total cpu time spent up to now is       80.0 secs

     total energy              =   -1635.01383037 Ry
     estimated scf accuracy    <       0.12600636 Ry

     total magnetization       =    11.00 Bohr mag/cell
     absolute magnetization    =    26.10 Bohr mag/cell

     iteration # 10     ecut=    80.00 Ry     beta= 0.30
     Davidson diagonalization with overlap
     ethr =  7.46E-05,  avg # of iterations =  3.4

     negative rho (up, down):  7.759E-03 3.772E-02

     total cpu time spent up to now is       85.2 secs

     total energy              =   -1635.00422833 Ry
     estimated scf accuracy    <       0.09621153 Ry

     total magnetization       =    11.00 Bohr mag/cell
     absolute magnetization    =    25.93 Bohr mag/cell

     iteration # 11     ecut=    80.00 Ry     beta= 0.30
     Davidson diagonalization with overlap
     ethr =  5.69E-05,  avg # of iterations =  3.6

     negative rho (up, down):  4.012E-03 3.374E-02

     total cpu time spent up to now is       90.1 secs

     total energy              =   -1635.00070264 Ry
     estimated scf accuracy    <       0.06255438 Ry

     total magnetization       =    11.00 Bohr mag/cell
     absolute magnetization    =    25.75 Bohr mag/cell

     iteration # 12     ecut=    80.00 Ry     beta= 0.30
     Davidson diagonalization with overlap
     c_bands:  1 eigenvalues not converged
     ethr =  3.70E-05,  avg # of iterations =  4.5

     negative rho (up, down):  2.264E-03 3.122E-02

     total cpu time spent up to now is       95.2 secs

     total energy              =   -1634.99620368 Ry
     estimated scf accuracy    <       0.03245467 Ry

     total magnetization       =    11.00 Bohr mag/cell
     absolute magnetization    =    25.62 Bohr mag/cell

     iteration # 13     ecut=    80.00 Ry     beta= 0.30
     Davidson diagonalization with overlap
     ethr =  1.92E-05,  avg # of iterations =  7.8

     negative rho (up, down):  3.423E-03 3.288E-02

     total cpu time spent up to now is      102.2 secs

     total energy              =   -1634.99550520 Ry
     estimated scf accuracy    <       0.02130966 Ry

     total magnetization       =    11.00 Bohr mag/cell
     absolute magnetization    =    25.44 Bohr mag/cell

     iteration # 14     ecut=    80.00 Ry     beta= 0.30
     Davidson diagonalization with overlap
     ethr =  1.26E-05,  avg # of iterations =  2.7

     negative rho (up, down):  2.758E-03 3.234E-02

     total cpu time spent up to now is      115.0 secs

     total energy              =   -1634.99518031 Ry
     estimated scf accuracy    <       0.01314533 Ry

     total magnetization       =    11.00 Bohr mag/cell
     absolute magnetization    =    25.36 Bohr mag/cell

     iteration # 15     ecut=    80.00 Ry     beta= 0.30
     Davidson diagonalization with overlap
     ethr =  7.78E-06,  avg # of iterations =  4.0

     negative rho (up, down):  8.153E-03 3.763E-02

     total cpu time spent up to now is      120.2 secs

     total energy              =   -1634.99337301 Ry
     estimated scf accuracy    <       0.01041846 Ry

     total magnetization       =    11.00 Bohr mag/cell
     absolute magnetization    =    25.36 Bohr mag/cell

     iteration # 16     ecut=    80.00 Ry     beta= 0.30
     Davidson diagonalization with overlap
     ethr =  6.16E-06,  avg # of iterations =  6.9

     negative rho (up, down):  9.547E-03 3.901E-02

     total cpu time spent up to now is      126.7 secs

     total energy              =   -1634.99263040 Ry
     estimated scf accuracy    <       0.00715846 Ry

     total magnetization       =    11.00 Bohr mag/cell
     absolute magnetization    =    25.33 Bohr mag/cell

     iteration # 17     ecut=    80.00 Ry     beta= 0.30
     Davidson diagonalization with overlap
     ethr =  4.24E-06,  avg # of iterations =  5.0

     negative rho (up, down):  9.003E-03 3.847E-02

     total cpu time spent up to now is      131.7 secs

     total energy              =   -1634.99223138 Ry
     estimated scf accuracy    <       0.00636657 Ry

     total magnetization       =    11.00 Bohr mag/cell
     absolute magnetization    =    25.35 Bohr mag/cell

     iteration # 18     ecut=    80.00 Ry     beta= 0.30
     Davidson diagonalization with overlap
     ethr =  3.77E-06,  avg # of iterations =  2.9

     negative rho (up, down):  7.149E-03 3.667E-02

     total cpu time spent up to now is      136.7 secs

     total energy              =   -1634.99137839 Ry
     estimated scf accuracy    <       0.00467699 Ry

     total magnetization       =    11.00 Bohr mag/cell
     absolute magnetization    =    25.35 Bohr mag/cell

     iteration # 19     ecut=    80.00 Ry     beta= 0.30
     Davidson diagonalization with overlap
     ethr =  2.77E-06,  avg # of iterations =  5.3

     negative rho (up, down):  7.710E-03 3.739E-02

     total cpu time spent up to now is      142.7 secs

     total energy              =   -1634.99093952 Ry
     estimated scf accuracy    <       0.00256183 Ry

     total magnetization       =    11.00 Bohr mag/cell
     absolute magnetization    =    25.37 Bohr mag/cell

     iteration # 20     ecut=    80.00 Ry     beta= 0.30
     Davidson diagonalization with overlap
     ethr =  1.52E-06,  avg # of iterations =  6.1

     negative rho (up, down):  7.712E-03 3.743E-02

     total cpu time spent up to now is      149.2 secs

     total energy              =   -1634.99086729 Ry
     estimated scf accuracy    <       0.00144740 Ry

     total magnetization       =    11.00 Bohr mag/cell
     absolute magnetization    =    25.40 Bohr mag/cell

     iteration # 21     ecut=    80.00 Ry     beta= 0.30
     Davidson diagonalization with overlap
     ethr =  8.56E-07,  avg # of iterations =  3.6

     negative rho (up, down):  6.030E-03 3.568E-02

     total cpu time spent up to now is      156.5 secs

     total energy              =   -1634.99071625 Ry
     estimated scf accuracy    <       0.00087754 Ry

     total magnetization       =    11.00 Bohr mag/cell
     absolute magnetization    =    25.42 Bohr mag/cell

     iteration # 22     ecut=    80.00 Ry     beta= 0.30
     Davidson diagonalization with overlap
     ethr =  5.19E-07,  avg # of iterations =  5.2

     negative rho (up, down):  4.385E-03 3.378E-02

     total cpu time spent up to now is      162.4 secs

     total energy              =   -1634.99073610 Ry
     estimated scf accuracy    <       0.00033148 Ry

     total magnetization       =    11.00 Bohr mag/cell
     absolute magnetization    =    25.42 Bohr mag/cell

     iteration # 23     ecut=    80.00 Ry     beta= 0.30
     Davidson diagonalization with overlap
     ethr =  1.96E-07,  avg # of iterations =  3.0

     negative rho (up, down):  3.304E-03 3.211E-02

     total cpu time spent up to now is      166.7 secs

     total energy              =   -1634.99076955 Ry
     estimated scf accuracy    <       0.00020788 Ry

     total magnetization       =    11.00 Bohr mag/cell
     absolute magnetization    =    25.41 Bohr mag/cell

     iteration # 24     ecut=    80.00 Ry     beta= 0.30
     Davidson diagonalization with overlap
     ethr =  1.23E-07,  avg # of iterations =  4.6

     negative rho (up, down):  3.111E-03 3.117E-02

     total cpu time spent up to now is      171.8 secs

     total energy              =   -1634.99079716 Ry
     estimated scf accuracy    <       0.00006409 Ry

     total magnetization       =    11.00 Bohr mag/cell
     absolute magnetization    =    25.41 Bohr mag/cell

     iteration # 25     ecut=    80.00 Ry     beta= 0.30
     Davidson diagonalization with overlap
     ethr =  3.79E-08,  avg # of iterations =  5.4

     negative rho (up, down):  3.062E-03 3.087E-02

     total cpu time spent up to now is      177.3 secs

     total energy              =   -1634.99080853 Ry
     estimated scf accuracy    <       0.00001526 Ry

     total magnetization       =    11.00 Bohr mag/cell
     absolute magnetization    =    25.41 Bohr mag/cell

     iteration # 26     ecut=    80.00 Ry     beta= 0.30
     Davidson diagonalization with overlap
     ethr =  9.03E-09,  avg # of iterations =  3.9

     negative rho (up, down):  2.995E-03 3.066E-02

     total cpu time spent up to now is      181.9 secs

     total energy              =   -1634.99081396 Ry
     estimated scf accuracy    <       0.00000594 Ry

     total magnetization       =    11.00 Bohr mag/cell
     absolute magnetization    =    25.41 Bohr mag/cell

     iteration # 27     ecut=    80.00 Ry     beta= 0.30
     Davidson diagonalization with overlap
     ethr =  3.51E-09,  avg # of iterations =  2.1

     negative rho (up, down):  2.887E-03 3.046E-02

     total cpu time spent up to now is      186.3 secs

     total energy              =   -1634.99081625 Ry
     estimated scf accuracy    <       0.00000215 Ry

     total magnetization       =    11.00 Bohr mag/cell
     absolute magnetization    =    25.41 Bohr mag/cell

     iteration # 28     ecut=    80.00 Ry     beta= 0.30
     Davidson diagonalization with overlap
     ethr =  1.27E-09,  avg # of iterations =  3.2

     negative rho (up, down):  2.808E-03 3.032E-02

     Magnetic moment per site  (integrated on atomic sphere of radius R)
     atom   1 (R=0.259)  charge= 10.4499  magn=  2.4663
     atom   2 (R=0.259)  charge= 10.4239  magn=  2.3137
     atom   3 (R=0.259)  charge= 10.4169  magn=  2.3586
     atom   4 (R=0.259)  charge= 10.4173  magn=  2.3354
     atom   5 (R=0.259)  charge= 10.4317  magn=  2.3921
     atom   6 (R=0.259)  charge= 10.4216  magn=  2.3066
     atom   7 (R=0.150)  charge=  2.2899  magn= -0.2333
     atom   8 (R=0.150)  charge=  2.2622  magn= -0.3468
     atom   9 (R=0.150)  charge=  2.2966  magn= -0.1988
     atom  10 (R=0.150)  charge=  2.2966  magn= -0.1988
     atom  11 (R=0.150)  charge=  2.2916  magn= -0.2202
     atom  12 (R=0.150)  charge=  2.2909  magn= -0.2273
     atom  13 (R=0.150)  charge=  2.2958  magn= -0.2320
     atom  14 (R=0.150)  charge=  2.2958  magn= -0.2320
     atom  15 (R=0.150)  charge=  2.2717  magn= -0.3325
     atom  16 (R=0.150)  charge=  2.2821  magn= -0.2506
     atom  17 (R=0.150)  charge=  2.2963  magn= -0.2124
     atom  18 (R=0.150)  charge=  2.2963  magn= -0.2124
     atom  19 (R=0.150)  charge=  2.2646  magn= -0.1996
     atom  20 (R=0.150)  charge=  2.2667  magn= -0.1595
     atom  21 (R=0.150)  charge=  0.4285  magn=  0.0018

     total cpu time spent up to now is      190.4 secs

     End of self-consistent calculation

     =================== HUBBARD OCCUPATIONS ===================
     ------------------------ ATOM    1 ------------------------
     Tr[ns(  1)] (up, down, total) =   3.88893  0.70404  4.59298
     Atomic magnetic moment for atom   1 =   3.18489
     SPIN  1
     eigenvalues:
       0.474  0.511  0.956  0.956  0.992
     eigenvectors (columns):
       0.999  0.000  0.000  0.000 -0.044
       0.000 -0.000 -1.000  0.000 -0.000
       0.000  0.000 -0.000 -1.000 -0.000
      -0.044  0.000  0.000  0.000 -0.999
      -0.000  1.000 -0.000  0.000  0.000
     occupation matrix ns (before diag.):
       0.475 -0.000 -0.000  0.023  0.000
      -0.000  0.956 -0.000  0.000  0.000
      -0.000 -0.000  0.956  0.000 -0.000
       0.023  0.000  0.000  0.991 -0.000
       0.000  0.000 -0.000 -0.000  0.511
     SPIN  2
     eigenvalues:
       0.057  0.068  0.070  0.191  0.318
     eigenvectors (columns):
      -0.000  0.161  0.000  0.987  0.000
      -0.000  0.000  1.000 -0.000  0.000
      -1.000  0.000 -0.000 -0.000  0.000
       0.000  0.987 -0.000 -0.161 -0.000
       0.000  0.000 -0.000 -0.000  1.000
     occupation matrix ns (before diag.):
       0.187 -0.000 -0.000 -0.020  0.000
      -0.000  0.070 -0.000  0.000  0.000
      -0.000 -0.000  0.057  0.000  0.000
      -0.020  0.000  0.000  0.071 -0.000
       0.000  0.000  0.000 -0.000  0.318
     ------------------------ ATOM    2 ------------------------
     Tr[ns(  2)] (up, down, total) =   3.85558  0.84974  4.70533
     Atomic magnetic moment for atom   2 =   3.00584
     SPIN  1
     eigenvalues:
       0.530  0.540  0.868  0.923  0.994
     eigenvectors (columns):
       0.424 -0.002 -0.000 -0.000 -0.906
      -0.005 -1.000  0.000  0.000 -0.000
      -0.000 -0.000 -1.000  0.002  0.000
       0.906 -0.005  0.000  0.000  0.424
       0.000  0.000  0.002  1.000 -0.000
     occupation matrix ns (before diag.):
       0.911  0.000 -0.000 -0.178  0.000
       0.000  0.540 -0.000  0.000  0.000
      -0.000 -0.000  0.868  0.000  0.000
      -0.178  0.000  0.000  0.613 -0.000
       0.000  0.000  0.000 -0.000  0.923
     SPIN  2
     eigenvalues:
       0.068  0.074  0.078  0.308  0.322
     eigenvectors (columns):
       0.000 -0.919  0.000 -0.393  0.001
       0.000 -0.000 -0.000  0.002  1.000
       1.000  0.000  0.000 -0.000 -0.000
      -0.000  0.393 -0.000 -0.919  0.001
      -0.000  0.000  1.000  0.000  0.000
     occupation matrix ns (before diag.):
       0.110 -0.000 -0.000  0.084  0.000
      -0.000  0.322 -0.000  0.000  0.000
      -0.000 -0.000  0.068  0.000  0.000
       0.084  0.000  0.000  0.272 -0.000
       0.000  0.000  0.000 -0.000  0.078
     ------------------------ ATOM    3 ------------------------
     Tr[ns(  3)] (up, down, total) =   3.85561  0.79944  4.65505
     Atomic magnetic moment for atom   3 =   3.05616
     SPIN  1
     eigenvalues:
       0.494  0.523  0.914  0.934  0.992
     eigenvectors (columns):
      -0.000  0.999  0.000  0.001  0.041
      -0.000 -0.001 -0.000  1.000 -0.001
       0.000  0.000 -1.000 -0.000  0.000
       0.000 -0.041  0.000  0.001  0.999
       1.000  0.000  0.000  0.000 -0.000
     occupation matrix ns (before diag.):
       0.524  0.001 -0.000  0.019  0.000
       0.001  0.934 -0.000 -0.000  0.000
      -0.000 -0.000  0.914  0.000 -0.000
       0.019 -0.000  0.000  0.991 -0.000
       0.000  0.000 -0.000 -0.000  0.494
     SPIN  2
     eigenvalues:
       0.064  0.066  0.074  0.291  0.304
     eigenvectors (columns):
      -0.094 -0.000 -0.001  0.996  0.000
      -0.007 -0.000 -1.000 -0.002  0.000
       0.000 -1.000  0.000 -0.000  0.000
      -0.996 -0.000  0.007 -0.094 -0.000
      -0.000  0.000  0.000 -0.000  1.000
     occupation matrix ns (before diag.):
       0.289 -0.000 -0.000 -0.021  0.000
      -0.000  0.074 -0.000 -0.000  0.000
      -0.000 -0.000  0.066  0.000  0.000
      -0.021 -0.000  0.000  0.066 -0.000
       0.000  0.000  0.000 -0.000  0.304
     ------------------------ ATOM    4 ------------------------
     Tr[ns(  4)] (up, down, total) =   3.84291  0.82480  4.66771
     Atomic magnetic moment for atom   4 =   3.01811
     SPIN  1
     eigenvalues:
       0.481  0.525  0.905  0.943  0.989
     eigenvectors (columns):
      -0.014  0.482 -0.000 -0.000 -0.876
      -1.000 -0.029  0.000  0.000 -0.000
      -0.000 -0.000 -0.999  0.036  0.000
      -0.025  0.875  0.000  0.000  0.483
       0.000  0.000  0.036  0.999 -0.000
     occupation matrix ns (before diag.):
       0.881 -0.000 -0.000 -0.196  0.000
      -0.000  0.481 -0.000 -0.001  0.000
      -0.000 -0.000  0.905  0.000  0.001
      -0.196 -0.001  0.000  0.633 -0.000
       0.000  0.000  0.001 -0.000  0.943
     SPIN  2
     eigenvalues:
       0.063  0.073  0.078  0.299  0.312
     eigenvectors (columns):
      -0.901  0.000  0.000  0.032 -0.433
      -0.001 -0.000 -0.000  0.997  0.076
      -0.000 -0.998 -0.056 -0.000 -0.000
       0.435 -0.000 -0.000  0.069 -0.898
       0.000 -0.056  0.998  0.000  0.000
     occupation matrix ns (before diag.):
       0.110 -0.001 -0.000  0.098  0.000
      -0.001  0.299 -0.000 -0.001  0.000
      -0.000 -0.000  0.073  0.000 -0.000
       0.098 -0.001  0.000  0.265 -0.000
       0.000  0.000 -0.000 -0.000  0.078
     ------------------------ ATOM    5 ------------------------
     Tr[ns(  5)] (up, down, total) =   3.86554  0.78107  4.64661
     Atomic magnetic moment for atom   5 =   3.08447
     SPIN  1
     eigenvalues:
       0.490  0.504  0.934  0.947  0.991
     eigenvectors (columns):
       0.999  0.000  0.000 -0.005  0.052
       0.006 -0.000 -0.000  1.000 -0.008
       0.000  0.007 -1.000 -0.000  0.000
      -0.052 -0.000  0.000  0.009  0.999
      -0.000  1.000  0.007  0.000 -0.000
     occupation matrix ns (before diag.):
       0.491 -0.003 -0.000  0.026  0.000
      -0.003  0.947 -0.000 -0.000  0.000
      -0.000 -0.000  0.934  0.000 -0.003
       0.026 -0.000  0.000  0.990 -0.000
       0.000  0.000 -0.003 -0.000  0.504
     SPIN  2
     eigenvalues:
       0.066  0.066  0.075  0.261  0.312
     eigenvectors (columns):
       0.113 -0.000 -0.005  0.994  0.000
       0.067 -0.000 -0.998 -0.012  0.000
      -0.000 -1.000  0.000 -0.000  0.003
       0.991 -0.000  0.068 -0.112 -0.000
       0.000  0.003  0.000 -0.000  1.000
     occupation matrix ns (before diag.):
       0.259 -0.002 -0.000 -0.022  0.000
      -0.002  0.075 -0.000 -0.000  0.000
      -0.000 -0.000  0.066  0.000  0.001
      -0.022 -0.000  0.000  0.069 -0.000
       0.000  0.000  0.001 -0.000  0.312
     ------------------------ ATOM    6 ------------------------
     Tr[ns(  6)] (up, down, total) =   3.85439  0.85426  4.70865
     Atomic magnetic moment for atom   6 =   3.00013
     SPIN  1
     eigenvalues:
       0.536  0.545  0.868  0.926  0.979
     eigenvectors (columns):
      -0.114  0.392 -0.000 -0.000 -0.913
      -0.960 -0.280  0.000  0.000 -0.001
      -0.000 -0.000 -0.987  0.163  0.000
      -0.256  0.876  0.000  0.000  0.408
       0.000  0.000  0.163  0.987 -0.000
     occupation matrix ns (before diag.):
       0.907 -0.001 -0.000 -0.162  0.000
      -0.001  0.537 -0.000 -0.002  0.000
      -0.000 -0.000  0.869  0.000  0.009
      -0.162 -0.002  0.000  0.617 -0.000
       0.000  0.000  0.009 -0.000  0.925
     SPIN  2
     eigenvalues:
       0.071  0.079  0.081  0.308  0.317
     eigenvectors (columns):
      -0.000  0.925  0.000 -0.275 -0.262
      -0.000  0.003 -0.000 -0.684  0.729
      -0.986  0.000 -0.167  0.000 -0.000
       0.000 -0.379 -0.000 -0.675 -0.632
      -0.167 -0.000  0.986 -0.000  0.000
     occupation matrix ns (before diag.):
       0.112 -0.002 -0.000  0.082  0.000
      -0.002  0.312 -0.000 -0.004  0.000
      -0.000 -0.000  0.071  0.000 -0.002
       0.082 -0.004  0.000  0.278 -0.000
       0.000  0.000 -0.002 -0.000  0.080

     Number of occupied Hubbard levels =   27.9763

 ------ SPIN UP ------------


          k = 0.0000 0.0000 0.0000 ( 37133 PWs)   bands (ev):

   -72.7030 -72.5924 -72.5101 -72.4214 -72.3672 -72.1632 -44.1933 -44.0082
   -43.9380 -43.9127 -43.8645 -43.8604 -43.8352 -43.8277 -43.7630 -43.7549
   -43.7524 -43.7215 -43.6754 -43.6494 -43.6127 -43.5949 -43.4355 -43.3846
   -23.9256 -18.4095 -18.1313 -17.8578 -17.3854 -16.9552 -16.8406 -16.6066
   -16.5638 -16.5605 -16.4552 -16.0348 -15.6760 -14.6644  -8.3768  -8.2167
    -8.0000  -7.8690  -7.5305  -7.2657  -6.9931  -6.8799  -6.6315  -5.7521
    -5.1423  -5.0864  -5.0678  -5.0627  -4.8344  -4.8146  -4.6944  -4.6409
    -4.4147  -4.3214  -4.1071  -4.0931  -3.9198  -3.4933  -3.3218  -3.3139
    -3.1276  -3.0020  -2.9506  -2.9342  -2.9103  -2.9090  -2.8557  -2.5166
    -2.5149  -2.4104  -2.3889  -2.2777  -2.1569  -2.0004  -1.6272  -1.4970
    -1.4221  -0.8804  -0.8492  -0.6853  -0.3724  -0.3281  -0.2948  -0.0998
    -0.0103   0.1933   0.4968   0.6449   0.7499   0.8610   0.9963   1.0776
     1.2173   1.7845   2.6171   3.1920   3.7982   4.2330

          k = 0.0000 0.1166 0.0000 ( 37130 PWs)   bands (ev):

   -72.7029 -72.5923 -72.5098 -72.4214 -72.3670 -72.1631 -44.1933 -44.0082
   -43.9370 -43.9127 -43.8615 -43.8580 -43.8352 -43.8277 -43.7630 -43.7558
   -43.7548 -43.7242 -43.6755 -43.6494 -43.6127 -43.5962 -43.4355 -43.3846
   -23.9256 -18.2880 -18.0063 -17.7419 -17.5444 -17.1801 -17.0002 -16.5591
   -16.5474 -16.5102 -16.4954 -16.0329 -15.6698 -14.6634  -8.2640  -8.0723
    -7.8704  -7.7539  -7.5407  -7.0623  -6.9881  -6.9068  -6.4133  -5.6298
    -5.2781  -5.0794  -4.9579  -4.8966  -4.8900  -4.8677  -4.8169  -4.6434
    -4.5855  -4.4130  -4.2854  -4.1057  -4.0586  -3.5902  -3.5284  -3.4643
    -3.4457  -3.4362  -3.3365  -3.2939  -3.2713  -3.1112  -2.9392  -2.5638
    -2.1822  -2.1579  -2.0780  -2.0462  -1.7227  -1.5158  -1.2119  -1.1036
    -0.9603  -0.8913  -0.8796  -0.7150  -0.3808  -0.3597  -0.3058  -0.2623
    -0.2154   0.0301   0.3324   0.4404   0.6137   0.6725   0.7954   0.9560
     1.1876   2.0034   2.9451   3.4656   4.0175   4.3371

          k = 0.0000-0.2332 0.0000 ( 37126 PWs)   bands (ev):

   -72.7029 -72.5923 -72.5096 -72.4214 -72.3668 -72.1629 -44.1934 -44.0083
   -43.9361 -43.9127 -43.8583 -43.8555 -43.8352 -43.8277 -43.7631 -43.7594
   -43.7548 -43.7270 -43.6756 -43.6494 -43.6127 -43.5974 -43.4356 -43.3846
   -23.9256 -18.0428 -17.8689 -17.7739 -17.4860 -17.4440 -17.2910 -16.5441
   -16.5385 -16.5101 -16.4757 -16.0333 -15.6644 -14.6625  -8.1984  -7.8765
    -7.6900  -7.6375  -7.5263  -7.0934  -7.0029  -6.5039  -6.0626  -6.0370
    -5.3629  -5.2389  -5.0500  -4.8352  -4.8158  -4.6682  -4.5631  -4.5145
    -4.4457  -4.4318  -4.3339  -4.3078  -4.1955  -4.1068  -4.0875  -4.0465
    -3.6602  -3.6139  -3.5522  -3.4693  -3.2967  -3.1455  -2.8918  -2.5570
    -1.9939  -1.9831  -1.9331  -1.8724  -1.1693  -1.1413  -1.0499  -0.9321
    -0.8787  -0.6289  -0.6166  -0.5857  -0.5126  -0.4190  -0.3792  -0.3239
    -0.2830  -0.0729   0.0182   0.2835   0.3070   0.4422   0.7245   0.8486
     1.1635   2.1535   3.2672   3.5229   4.3926   4.4672

          k = 0.1111 0.0000 0.0000 ( 37175 PWs)   bands (ev):

   -72.7005 -72.5899 -72.5076 -72.4190 -72.3648 -72.1608 -44.1920 -44.0068
   -43.9345 -43.9338 -43.8609 -43.8584 -43.8561 -43.8246 -43.7751 -43.7616
   -43.7516 -43.7190 -43.6961 -43.6497 -43.6304 -43.5938 -43.4322 -43.4058
   -23.8394 -18.2871 -18.0200 -17.7565 -17.2941 -16.8714 -16.7811 -16.6358
   -16.5919 -16.5805 -16.4827 -16.0677 -15.7053 -14.8381  -8.4011  -8.0302
    -7.8341  -7.7127  -7.3343  -7.1213  -6.7947  -6.7007  -6.5497  -5.7565
    -5.5120  -5.4780  -5.3136  -5.2696  -5.2454  -4.9169  -4.8272  -4.7356
    -4.6197  -4.2401  -4.1692  -3.8837  -3.7152  -3.5673  -3.3909  -3.3085
    -3.2765  -3.1558  -3.0770  -3.0064  -2.9717  -2.9548  -2.8414  -2.7187
    -2.3102  -2.2155  -2.0721  -2.0089  -1.9584  -1.8295  -1.6680  -1.5193
    -1.2911  -1.1421  -1.0099  -0.6503  -0.6365  -0.2375  -0.0706  -0.0431
     0.1676   0.2857   0.4671   0.5781   0.6541   0.7842   0.9061   1.0171
     1.1167   1.8982   2.6930   3.3037   3.8808   4.0514

          k = 0.1111 0.1166 0.0000 ( 37124 PWs)   bands (ev):

   -72.7005 -72.5899 -72.5074 -72.4190 -72.3646 -72.1606 -44.1920 -44.0068
   -43.9340 -43.9335 -43.8584 -43.8565 -43.8559 -43.8246 -43.7751 -43.7616
   -43.7546 -43.7212 -43.6961 -43.6497 -43.6304 -43.5949 -43.4322 -43.4058
   -23.8394 -18.1700 -17.8999 -17.6441 -17.4526 -17.1055 -16.9411 -16.5772
   -16.5644 -16.5336 -16.5122 -16.0657 -15.6991 -14.8371  -8.3755  -7.8712
    -7.6958  -7.5770  -7.3457  -6.9196  -6.8099  -6.7297  -6.3344  -5.6219
    -5.5427  -5.4045  -5.3088  -5.1606  -5.1366  -5.0788  -4.9457  -4.7948
    -4.6089  -4.4227  -4.1725  -4.1607  -3.7479  -3.7026  -3.6318  -3.6071
    -3.5272  -3.3850  -3.3013  -3.2697  -3.1415  -3.0598  -2.7819  -2.6162
    -2.3127  -2.1654  -2.1161  -2.0875  -1.5564  -1.4345  -1.2460  -1.1716
    -1.0577  -0.9463  -0.8628  -0.6526  -0.5698  -0.2211  -0.1435  -0.0801
     0.0490   0.1899   0.2806   0.3687   0.5526   0.6195   0.7345   0.8990
     1.0830   2.0832   2.9603   3.5104   3.9594   4.0625

          k = 0.1111-0.2332 0.0000 ( 37144 PWs)   bands (ev):

   -72.7005 -72.5899 -72.5073 -72.4190 -72.3644 -72.1604 -44.1920 -44.0069
   -43.9339 -43.9328 -43.8564 -43.8555 -43.8539 -43.8247 -43.7751 -43.7617
   -43.7577 -43.7235 -43.6961 -43.6497 -43.6304 -43.5960 -43.4323 -43.4058
   -23.8395 -17.9336 -17.7629 -17.6744 -17.4058 -17.3626 -17.2208 -16.5672
   -16.5587 -16.5256 -16.4835 -16.0660 -15.6938 -14.8362  -8.3603  -7.6770
    -7.5191  -7.4503  -7.3495  -6.9176  -6.8346  -6.3913  -6.0138  -5.9838
    -5.5017  -5.4260  -5.2514  -5.1817  -4.8743  -4.7787  -4.7516  -4.6029
    -4.5989  -4.5804  -4.5207  -4.4592  -4.4014  -4.3730  -4.1583  -3.6620
    -3.5490  -3.3746  -3.2956  -3.2909  -3.1328  -3.0779  -2.7996  -2.5769
    -2.3081  -2.2338  -2.1945  -2.0255  -1.3756  -1.1272  -0.9846  -0.8969
    -0.8042  -0.7152  -0.6226  -0.4828  -0.3812  -0.2807  -0.2484  -0.1091
    -0.0365  -0.0088   0.0990   0.2123   0.3028   0.4307   0.6801   0.7719
     1.0593   2.2140   3.2209   3.5810   3.9523   4.0451

          k = 0.2222 0.0000 0.0000 ( 37192 PWs)   bands (ev):

   -72.6953 -72.5847 -72.5025 -72.4138 -72.3595 -72.1555 -44.1885 -44.0032
   -43.9854 -43.9257 -43.9070 -43.8539 -43.8506 -43.8243 -43.8170 -43.7580
   -43.7497 -43.7466 -43.7125 -43.6891 -43.6348 -43.5908 -43.4576 -43.4239
   -23.6058 -17.9585 -17.7292 -17.4963 -17.0672 -16.7106 -16.6833 -16.6610
   -16.6547 -16.6159 -16.5510 -16.1504 -15.7621 -15.3174  -8.6581  -7.4058
    -7.2453  -7.1228  -6.8820  -6.7263  -6.5040  -6.4541  -6.2293  -6.1549
    -6.1497  -5.9267  -5.8236  -5.6488  -5.3955  -5.2371  -5.2226  -4.5513
    -4.4430  -4.2891  -4.0920  -4.0669  -4.0599  -3.9792  -3.8505  -3.8438
    -3.6237  -3.4720  -3.3128  -3.1319  -3.1022  -3.0639  -2.6408  -2.4050
    -2.1275  -1.9736  -1.8077  -1.7271  -1.6872  -1.6170  -1.5816  -1.4679
    -1.1655  -1.0470  -0.9546  -0.6729  -0.5218  -0.0950  -0.0552  -0.0234
     0.2203   0.2495   0.3884   0.4555   0.5382   0.6584   0.7311   0.8388
     0.9073   2.0188   2.7682   3.3762   3.7953   3.8917

          k = 0.2222 0.1166 0.0000 ( 37137 PWs)   bands (ev):

   -72.6953 -72.5848 -72.5024 -72.4139 -72.3594 -72.1554 -44.1885 -44.0032
   -43.9856 -43.9250 -43.9074 -43.8530 -43.8485 -43.8243 -43.8170 -43.7580
   -43.7516 -43.7461 -43.7137 -43.6889 -43.6348 -43.5915 -43.4575 -43.4239
   -23.6058 -17.8554 -17.6245 -17.3955 -17.2246 -16.9550 -16.8288 -16.6217
   -16.6062 -16.5782 -16.5139 -16.1486 -15.7572 -15.3162  -8.6572  -7.3042
    -7.1850  -7.1083  -6.9144  -6.6310  -6.4448  -6.3408  -6.1989  -6.1395
    -5.9333  -5.8706  -5.7249  -5.5552  -5.4316  -5.2772  -5.1327  -4.6751
    -4.5104  -4.2827  -4.2359  -4.0462  -3.9481  -3.9178  -3.8287  -3.7696
    -3.6847  -3.6614  -3.6498  -3.5804  -3.4007  -3.2573  -2.5766  -2.3507
    -2.2300  -2.0370  -1.9799  -1.9621  -1.8521  -1.3884  -1.2003  -1.0932
    -1.0302  -0.8460  -0.8057  -0.5686  -0.4230  -0.0774  -0.0426   0.0123
     0.1590   0.2119   0.2503   0.3304   0.4668   0.5980   0.6157   0.7844
     0.8202   2.1315   2.9251   3.3957   3.5219   3.5742

          k = 0.2222-0.2332 0.0000 ( 37166 PWs)   bands (ev):

   -72.6954 -72.5848 -72.5022 -72.4140 -72.3593 -72.1553 -44.1885 -44.0032
   -43.9857 -43.9243 -43.9077 -43.8521 -43.8464 -43.8243 -43.8170 -43.7580
   -43.7536 -43.7456 -43.7150 -43.6888 -43.6348 -43.5921 -43.4574 -43.4239
   -23.6058 -17.6464 -17.4907 -17.4170 -17.2303 -17.1612 -17.0697 -16.6264
   -16.6106 -16.5476 -16.4766 -16.1484 -15.7527 -15.3152  -8.6571  -7.1958
    -7.1162  -7.0969  -6.9880  -6.6781  -6.3730  -6.3283  -6.0168  -5.9602
    -5.7630  -5.6254  -5.3866  -5.3854  -5.2634  -5.2599  -5.0709  -4.7522
    -4.7315  -4.6581  -4.6438  -4.5204  -4.2760  -4.2706  -4.2171  -3.8235
    -3.6323  -3.4156  -3.3208  -2.9953  -2.9775  -2.9686  -2.8954  -2.7928
    -2.7914  -2.3903  -2.3425  -1.9375  -1.8664  -1.2783  -1.0876  -0.7147
    -0.6946  -0.6483  -0.3908  -0.3704  -0.2867  -0.1549  -0.1184  -0.0906
     0.0586   0.1124   0.2143   0.2232   0.4320   0.5023   0.5984   0.6142
     0.8053   2.2158   3.0861   3.2524   3.2981   3.3739

          k = 0.3333 0.0000 0.0000 ( 37184 PWs)   bands (ev):

   -72.6909 -72.5804 -72.4984 -72.4096 -72.3551 -72.1512 -44.1842 -44.0409
   -43.9991 -43.9615 -43.9156 -43.8766 -43.8478 -43.8392 -43.8085 -43.8008
   -43.7553 -43.7477 -43.7422 -43.7051 -43.6267 -43.5873 -43.5133 -43.4144
   -23.3064 -17.5262 -17.3723 -17.1907 -16.8295 -16.7965 -16.7369 -16.7147
   -16.6259 -16.5972 -16.4334 -16.2336 -15.9180 -15.7764  -8.7516  -7.1089
    -6.9201  -6.8842  -6.6780  -6.6232  -6.4595  -6.4341  -6.3854  -6.3040
    -5.9766  -5.8995  -5.6203  -5.3965  -5.3701  -5.0195  -4.9180  -4.7873
    -4.7284  -4.5955  -4.3973  -4.3474  -4.2503  -4.0210  -3.9832  -3.9169
    -3.9084  -3.6832  -3.2316  -3.1848  -3.1563  -3.0970  -2.6278  -2.3752
    -2.3168  -2.1316  -2.0527  -1.9949  -1.6775  -1.5989  -1.5742  -1.3908
    -1.3873  -1.1120  -0.6211  -0.4770  -0.2457  -0.1982  -0.1309   0.0117
     0.0283   0.1278   0.2689   0.3715   0.4162   0.5187   0.6197   0.9144
     1.0014   1.9184   2.7475   3.1063   3.7007   3.8684

          k = 0.3333 0.1166 0.0000 ( 37206 PWs)   bands (ev):

   -72.6911 -72.5806 -72.4983 -72.4097 -72.3551 -72.1511 -44.1842 -44.0411
   -43.9991 -43.9620 -43.9151 -43.8766 -43.8496 -43.8383 -43.8084 -43.7984
   -43.7553 -43.7483 -43.7418 -43.7053 -43.6267 -43.5874 -43.5131 -43.4144
   -23.3064 -17.4506 -17.2992 -17.1267 -16.9824 -16.8847 -16.7719 -16.6878
   -16.6836 -16.5624 -16.4147 -16.2326 -15.9163 -15.7744  -8.7543  -7.1826
    -7.1007  -7.0114  -6.9523  -6.8440  -6.7020  -6.1207  -5.9668  -5.8820
    -5.8165  -5.7143  -5.5757  -5.3311  -5.3011  -5.0092  -4.8665  -4.5228
    -4.4180  -4.3518  -4.2528  -4.2315  -4.1865  -4.0271  -3.9750  -3.9063
    -3.8709  -3.8343  -3.8077  -3.7452  -3.6711  -3.2388  -2.6232  -2.2892
    -2.2028  -2.1382  -2.0088  -1.9631  -1.8149  -1.6170  -1.5595  -1.4312
    -1.3875  -1.1044  -0.6789  -0.5915  -0.2632  -0.2413  -0.2161  -0.1043
    -0.0247   0.2279   0.3358   0.4377   0.4917   0.5776   0.6681   0.8502
     0.9795   1.9943   2.8508   3.0300   3.1322   3.1535

          k = 0.3333-0.2332 0.0000 ( 37216 PWs)   bands (ev):

   -72.6913 -72.5807 -72.4983 -72.4099 -72.3550 -72.1511 -44.1842 -44.0414
   -43.9991 -43.9625 -43.9146 -43.8767 -43.8513 -43.8373 -43.8084 -43.7961
   -43.7552 -43.7488 -43.7415 -43.7055 -43.6267 -43.5874 -43.5129 -43.4144
   -23.3064 -17.2902 -17.2005 -17.1100 -17.1052 -16.9510 -16.9311 -16.6917
   -16.6765 -16.5458 -16.4020 -16.2317 -15.9149 -15.7725  -8.7572  -7.2728
    -7.2472  -7.1397  -7.0821  -6.8749  -6.8460  -6.0152  -5.7748  -5.5356
    -5.5172  -5.3397  -5.1423  -5.1361  -5.0974  -4.9938  -4.8398  -4.6801
    -4.6562  -4.6308  -4.4976  -4.4502  -4.3503  -4.0429  -4.0371  -3.8864
    -3.7958  -3.7388  -3.4175  -3.3919  -3.3714  -3.2434  -2.9257  -2.7935
    -2.7587  -2.4717  -2.2811  -2.1879  -1.8421  -1.5148  -1.2668  -1.1757
    -1.1720  -1.0812  -0.7780  -0.6693  -0.3533  -0.2748  -0.2354  -0.0741
    -0.0484   0.2827   0.3283   0.4447   0.4893   0.6301   0.7889   0.7999
     0.9660   2.0597   2.7331   2.7839   2.8549   3.0138

          k = 0.4444 0.0000 0.0000 ( 37180 PWs)   bands (ev):

   -72.6891 -72.5786 -72.4967 -72.4078 -72.3531 -72.1493 -44.1813 -44.0753
   -43.9996 -43.9922 -43.9089 -43.9088 -43.8437 -43.8345 -43.8314 -43.8028
   -43.7799 -43.7492 -43.7466 -43.7003 -43.6210 -43.5849 -43.5479 -43.4081
   -23.0850 -17.1466 -17.1024 -16.9706 -16.8526 -16.7945 -16.7854 -16.7719
   -16.6734 -16.6048 -16.3670 -16.3319 -16.2157 -15.7432  -8.6678  -7.5299
    -7.2688  -7.1698  -6.9346  -6.8780  -6.6578  -6.1612  -5.9535  -5.9000
    -5.8408  -5.5154  -5.3390  -5.1155  -4.9853  -4.9786  -4.7958  -4.7342
    -4.7081  -4.5996  -4.3341  -4.2960  -4.2503  -4.0853  -4.0459  -3.9320
    -3.8818  -3.2398  -3.1576  -3.1300  -3.0596  -2.7058  -2.6927  -2.5859
    -2.5079  -2.4371  -2.3172  -2.1931  -2.0584  -1.9180  -1.7886  -1.7337
    -1.5587  -1.3836  -1.2288  -0.8301  -0.3427  -0.2237  -0.1125  -0.0426
     0.0792   0.1747   0.2712   0.3788   0.3852   0.6759   0.7061   1.1097
     1.2829   1.7896   2.6723   2.9971   3.6058   3.8863

          k = 0.4444 0.1166 0.0000 ( 37248 PWs)   bands (ev):

   -72.6893 -72.5788 -72.4967 -72.4080 -72.3531 -72.1493 -44.1813 -44.0756
   -43.9999 -43.9925 -43.9088 -43.9086 -43.8526 -43.8317 -43.8254 -43.8028
   -43.7789 -43.7492 -43.7461 -43.6998 -43.6210 -43.5845 -43.5476 -43.4081
   -23.0850 -17.1294 -17.0915 -16.9928 -16.8574 -16.8271 -16.7673 -16.7621
   -16.6982 -16.5941 -16.3633 -16.3249 -16.2184 -15.7416  -8.6767  -7.5571
    -7.4471  -7.2753  -7.2429  -7.1495  -7.0257  -6.1266  -5.5583  -5.3799
    -5.3457  -5.2674  -5.1790  -4.9760  -4.8746  -4.8046  -4.7496  -4.6604
    -4.5743  -4.4788  -4.3205  -4.2645  -4.1435  -4.0258  -3.9397  -3.9200
    -3.8743  -3.5496  -3.4295  -3.3929  -3.2337  -2.7254  -2.6593  -2.5515
    -2.4502  -2.3694  -2.2760  -2.2084  -2.1244  -2.0272  -2.0115  -1.9202
    -1.8648  -1.3647  -1.2681  -0.8344  -0.4341  -0.3891  -0.3373  -0.2785
    -0.1832   0.0978   0.2912   0.6712   0.6819   0.7516   0.8889   1.0723
     1.2551   1.8737   2.7539   2.8608   2.9524   3.0055

          k = 0.4444-0.2332 0.0000 ( 37264 PWs)   bands (ev):

   -72.6895 -72.5790 -72.4967 -72.4083 -72.3531 -72.1493 -44.1813 -44.0759
   -44.0003 -43.9928 -43.9088 -43.9083 -43.8576 -43.8319 -43.8203 -43.8028
   -43.7780 -43.7492 -43.7456 -43.6993 -43.6210 -43.5842 -43.5473 -43.4081
   -23.0850 -17.1146 -17.0616 -17.0263 -16.8821 -16.8362 -16.7537 -16.7408
   -16.7344 -16.5870 -16.3645 -16.3133 -16.2220 -15.7400  -8.6867  -7.6273
    -7.5926  -7.4515  -7.4419  -7.2191  -7.1639  -6.1225  -5.4529  -5.1874
    -5.0226  -5.0113  -4.8703  -4.6716  -4.6521  -4.6144  -4.5912  -4.5026
    -4.4177  -4.3398  -4.3102  -4.2984  -4.1850  -3.9396  -3.9101  -3.8465
    -3.7313  -3.5895  -3.5405  -3.4846  -3.4354  -3.0096  -2.8707  -2.7836
    -2.5999  -2.4853  -2.4311  -2.3311  -2.1171  -2.0883  -2.0670  -1.9604
    -1.9490  -1.3912  -1.3106  -0.8406  -0.6099  -0.5274  -0.5049  -0.3209
    -0.2388   0.0831   0.2616   0.6762   0.8477   0.9241   1.0348   1.0405
     1.2322   1.9462   2.5214   2.5747   2.6447   2.8467

 ------ SPIN DOWN ----------


          k = 0.0000 0.0000 0.0000 ( 37133 PWs)   bands (ev):

   -69.3191 -69.3086 -69.2998 -69.1891 -69.1785 -68.9774 -40.8493 -40.8178
   -40.7664 -40.7236 -40.6656 -40.6352 -40.6295 -40.6255 -40.6226 -40.5804
   -40.5638 -40.5460 -40.5141 -40.5036 -40.4850 -40.4428 -40.2377 -40.2324
   -24.3966 -18.9425 -18.6017 -18.2324 -17.8235 -17.5397 -17.2755 -17.2442
   -17.2064 -17.1579 -17.1220 -16.9300 -16.7738 -15.2964  -8.2538  -6.1279
    -5.5643  -5.2877  -5.2069  -5.1275  -4.7996  -4.3121  -4.2317  -4.1812
    -4.1552  -3.8917  -3.5089  -3.4639  -3.4542  -3.3721  -3.3572  -3.2769
    -3.2299  -3.1648  -3.0175  -2.9127  -2.7037  -2.6051  -2.4670  -2.4194
    -2.1234  -2.0025  -1.9255  -1.7768  -1.6510  -1.5950  -1.4683  -1.3158
    -1.2447  -1.1341  -1.0365  -0.9756  -0.9165  -0.8687  -0.6198   4.5059
     5.1050   5.4618   5.4986   5.6302   5.8709   5.9398   5.9814   6.0222
     6.0514   6.0838   6.1779   6.4220   6.4764   6.4911   6.5947   6.6725
     6.6929   6.8054   6.8248   7.0604   7.0966   7.1457

          k = 0.0000 0.1166 0.0000 ( 37130 PWs)   bands (ev):

   -69.3192 -69.3088 -69.3000 -69.1893 -69.1787 -68.9777 -40.8492 -40.8177
   -40.7636 -40.7187 -40.6655 -40.6352 -40.6293 -40.6256 -40.6123 -40.5849
   -40.5637 -40.5559 -40.5142 -40.5060 -40.4851 -40.4428 -40.2377 -40.2324
   -24.3964 -18.8254 -18.4911 -18.1328 -18.0782 -17.7943 -17.5034 -17.1491
   -17.1308 -17.0695 -17.0295 -16.9252 -16.7669 -15.2953  -8.2519  -6.1180
    -5.3676  -5.1469  -5.0939  -5.0445  -4.8002  -4.3577  -4.2367  -4.2199
    -4.0649  -3.7093  -3.5184  -3.4776  -3.4070  -3.3179  -3.3044  -3.2854
    -3.2259  -3.1565  -3.0867  -3.0126  -2.8177  -2.5676  -2.3513  -2.3505
    -2.1539  -2.0460  -1.8917  -1.8468  -1.6932  -1.6541  -1.6302  -1.4321
    -1.3771  -1.3364  -1.2925  -1.1380  -1.0213  -0.8788  -0.6800   4.5474
     5.1328   5.8118   5.8191   5.8649   5.9633   6.0566   6.1186   6.1860
     6.2328   6.2980   6.3524   6.4928   6.4943   6.5492   6.6661   6.6932
     6.7814   6.8857   6.9092   7.1137   7.1375   7.1518

          k = 0.0000-0.2332 0.0000 ( 37126 PWs)   bands (ev):

   -69.3193 -69.3089 -69.3002 -69.1896 -69.1788 -68.9779 -40.8492 -40.8177
   -40.7608 -40.7134 -40.6654 -40.6351 -40.6292 -40.6256 -40.5951 -40.5898
   -40.5726 -40.5635 -40.5142 -40.5084 -40.4853 -40.4427 -40.2377 -40.2324
   -24.3963 -18.5400 -18.4663 -18.2112 -18.1662 -17.8641 -17.8384 -17.1136
   -17.0582 -17.0311 -16.9794 -16.9156 -16.7585 -15.2942  -8.2502  -6.1055
    -5.1734  -5.1063  -4.8944  -4.8889  -4.7467  -4.4406  -4.3300  -4.2620
    -3.9308  -3.4906  -3.4834  -3.4188  -3.3902  -3.3281  -3.2226  -3.1518
    -3.0960  -3.0562  -3.0097  -3.0025  -2.9776  -2.9045  -2.6347  -2.3306
    -2.2794  -2.1418  -2.0169  -1.9378  -1.7796  -1.6324  -1.6112  -1.5779
    -1.4581  -1.4457  -1.3626  -1.2768  -1.1763  -0.8786  -0.7276   4.5853
     5.1564   5.9174   6.0127   6.0877   6.1953   6.2970   6.3598   6.4696
     6.4769   6.5500   6.6869   6.7133   6.7631   6.8029   6.8330   6.8371
     6.8494   6.8609   6.9595   6.9746   7.0029   7.0516

          k = 0.1111 0.0000 0.0000 ( 37175 PWs)   bands (ev):

   -69.3181 -69.3077 -69.2989 -69.1881 -69.1776 -68.9764 -40.8473 -40.8158
   -40.7639 -40.7204 -40.6628 -40.6574 -40.6515 -40.6237 -40.6165 -40.5852
   -40.5769 -40.5453 -40.5343 -40.5074 -40.4995 -40.4412 -40.2608 -40.2276
   -24.3126 -18.8362 -18.5082 -18.1564 -17.7588 -17.4894 -17.2675 -17.2158
   -17.2029 -17.1560 -17.1178 -16.9312 -16.7789 -15.4610  -8.4435  -6.0653
    -5.6463  -5.4503  -5.2132  -5.1622  -4.7519  -4.2912  -4.2053  -4.1332
    -4.1247  -3.8736  -3.8349  -3.7536  -3.4723  -3.2672  -3.2352  -3.1560
    -2.9559  -2.8728  -2.8131  -2.7940  -2.6461  -2.6132  -2.4971  -2.3503
    -2.3390  -2.1831  -2.0399  -1.8200  -1.7539  -1.6003  -1.5746  -1.4659
    -1.3267  -1.3145  -1.2488  -1.0423  -0.9450  -0.9288  -0.6932   4.6055
     5.0932   5.5434   5.6191   5.7402   5.9105   5.9175   5.9514   6.0243
     6.1093   6.1610   6.3584   6.4039   6.5478   6.5643   6.6708   6.7382
     6.7590   6.8722   6.9071   6.9823   6.9901   7.1810

          k = 0.1111 0.1166 0.0000 ( 37124 PWs)   bands (ev):

   -69.3182 -69.3077 -69.2990 -69.1883 -69.1777 -68.9766 -40.8472 -40.8157
   -40.7617 -40.7168 -40.6628 -40.6578 -40.6508 -40.6237 -40.6066 -40.5852
   -40.5810 -40.5544 -40.5342 -40.5074 -40.5014 -40.4412 -40.2608 -40.2276
   -24.3125 -18.7229 -18.4017 -18.0608 -18.0042 -17.7342 -17.4637 -17.1479
   -17.1283 -17.0717 -17.0311 -16.9263 -16.7719 -15.4599  -8.4416  -6.0544
    -5.6303  -5.2614  -5.0238  -4.9828  -4.7476  -4.3160  -4.2115  -4.1374
    -3.9409  -3.8770  -3.7646  -3.5679  -3.4998  -3.2759  -3.2423  -3.1499
    -3.0295  -3.0046  -2.9166  -2.8885  -2.7492  -2.6548  -2.4362  -2.3433
    -2.2883  -2.2100  -2.1179  -1.8881  -1.7752  -1.7198  -1.6606  -1.5527
    -1.4591  -1.4001  -1.3632  -1.1668  -1.0258  -0.9093  -0.7308   4.6409
     5.1135   5.8315   5.8921   5.9495   6.0065   6.1102   6.1377   6.1541
     6.2234   6.2740   6.4092   6.5211   6.6197   6.6468   6.7163   6.7815
     6.8242   6.9337   6.9761   6.9959   7.0653   7.1193

          k = 0.1111-0.2332 0.0000 ( 37144 PWs)   bands (ev):

   -69.3183 -69.3078 -69.2992 -69.1885 -69.1778 -68.9769 -40.8472 -40.8157
   -40.7594 -40.7131 -40.6628 -40.6581 -40.6500 -40.6237 -40.5904 -40.5854
   -40.5852 -40.5698 -40.5342 -40.5072 -40.5036 -40.4412 -40.2608 -40.2276
   -24.3124 -18.4494 -18.3748 -18.1341 -18.0884 -17.8031 -17.7811 -17.1116
   -17.0647 -17.0372 -16.9843 -16.9178 -16.7639 -15.4588  -8.4399  -6.0415
    -5.6245  -5.0498  -4.8054  -4.7876  -4.6620  -4.4109  -4.3269  -4.0566
    -3.7580  -3.6834  -3.6062  -3.5263  -3.3539  -3.2784  -3.2414  -3.1443
    -3.0381  -3.0199  -2.9986  -2.9420  -2.9220  -2.8223  -2.8050  -2.6625
    -2.3338  -2.2809  -2.1887  -1.9568  -1.7977  -1.6640  -1.6186  -1.5845
    -1.5673  -1.4143  -1.3756  -1.2608  -1.1776  -0.9054  -0.7626   4.6744
     5.1305   5.9080   6.0841   6.1412   6.2471   6.3065   6.4611   6.4619
     6.5192   6.5960   6.6504   6.6579   6.7286   6.7403   6.7740   6.7826
     6.7982   6.8315   6.9308   6.9436   6.9920   7.0408

          k = 0.2222 0.0000 0.0000 ( 37192 PWs)   bands (ev):

   -69.3148 -69.3043 -69.2957 -69.1846 -69.1743 -68.9730 -40.8425 -40.8110
   -40.7577 -40.7177 -40.7126 -40.7105 -40.6514 -40.6400 -40.6199 -40.6005
   -40.5900 -40.5679 -40.5652 -40.5442 -40.4891 -40.4331 -40.3205 -40.2155
   -24.0856 -18.5398 -18.2525 -17.9540 -17.5914 -17.3659 -17.2491 -17.1957
   -17.1593 -17.1526 -17.1127 -16.9399 -16.7913 -15.9124  -8.7542  -6.1290
    -5.9001  -5.2304  -5.0905  -5.0813  -4.6767  -4.4713  -4.3559  -4.3045
    -4.0869  -4.0431  -3.9050  -3.7524  -3.6189  -3.3369  -3.1940  -3.0810
    -3.0709  -2.8808  -2.7157  -2.6746  -2.5303  -2.4841  -2.3989  -2.3726
    -2.2276  -2.1980  -2.1589  -2.0974  -1.8924  -1.8842  -1.7167  -1.5730
    -1.5396  -1.4179  -1.4024  -1.3183  -1.1178  -1.0382  -0.8692   4.8460
     5.1156   5.6784   5.8411   5.9336   5.9486   5.9692   5.9713   6.0494
     6.1682   6.3833   6.4324   6.4972   6.6079   6.6533   6.8090   6.8557
     6.8945   6.9965   7.0422   7.0648   7.1506   7.2406

          k = 0.2222 0.1166 0.0000 ( 37137 PWs)   bands (ev):

   -69.3148 -69.3043 -69.2958 -69.1847 -69.1743 -68.9731 -40.8425 -40.8110
   -40.7571 -40.7226 -40.7188 -40.6978 -40.6513 -40.6402 -40.6200 -40.5923
   -40.5912 -40.5693 -40.5645 -40.5515 -40.4904 -40.4331 -40.3205 -40.2155
   -24.0855 -18.4388 -18.1585 -17.8702 -17.8075 -17.5804 -17.3691 -17.1503
   -17.1276 -17.0840 -17.0401 -16.9340 -16.7849 -15.9113  -8.7525  -6.1277
    -5.8861  -5.0383  -4.8588  -4.8474  -4.6555  -4.3132  -4.2923  -4.2378
    -4.1899  -4.0838  -3.8953  -3.5999  -3.5538  -3.3749  -3.2360  -3.2181
    -3.1304  -2.9418  -2.8853  -2.7658  -2.7137  -2.6535  -2.5305  -2.4706
    -2.3544  -2.2069  -2.1583  -2.1206  -2.0157  -1.7786  -1.7536  -1.5895
    -1.4739  -1.4362  -1.3918  -1.3374  -1.1558  -1.0266  -0.8651   4.8781
     5.1223   5.7750   5.8384   5.9095   5.9581   6.0821   6.2224   6.2755
     6.3714   6.4483   6.4684   6.5981   6.6611   6.7222   6.8431   6.8607
     6.8734   6.9854   7.0748   7.1110   7.1255   7.1758

          k = 0.2222-0.2332 0.0000 ( 37166 PWs)   bands (ev):

   -69.3147 -69.3042 -69.2958 -69.1848 -69.1743 -68.9732 -40.8425 -40.8110
   -40.7565 -40.7266 -40.7199 -40.6911 -40.6513 -40.6404 -40.6200 -40.5927
   -40.5785 -40.5707 -40.5644 -40.5637 -40.4917 -40.4330 -40.3204 -40.2155
   -24.0854 -18.2016 -18.1248 -17.9284 -17.8808 -17.6456 -17.6345 -17.1129
   -17.0904 -17.0592 -17.0031 -16.9268 -16.7785 -15.9103  -8.7510  -6.1267
    -5.8716  -4.8651  -4.6211  -4.5395  -4.4631  -4.3563  -4.2927  -4.1612
    -4.0076  -3.8319  -3.8271  -3.7002  -3.5836  -3.3689  -3.3303  -3.2695
    -3.2409  -3.1196  -3.1079  -3.0481  -3.0167  -2.8172  -2.7841  -2.3712
    -2.3604  -2.3341  -2.2257  -2.1718  -1.9234  -1.8273  -1.6468  -1.5681
    -1.4788  -1.4682  -1.3807  -1.2507  -1.2298  -1.0239  -0.8623   4.9074
     5.1270   5.8657   5.9497   6.0440   6.0713   6.0985   6.2484   6.2704
     6.5226   6.5891   6.6776   6.6972   6.7750   6.8096   6.8638   6.8974
     6.9388   6.9593   6.9722   7.0146   7.0316   7.0496

          k = 0.3333 0.0000 0.0000 ( 37184 PWs)   bands (ev):

   -69.3092 -69.2988 -69.2904 -69.1792 -69.1690 -68.9676 -40.8378 -40.8065
   -40.7876 -40.7788 -40.7510 -40.7050 -40.7043 -40.6608 -40.6392 -40.6330
   -40.6127 -40.5807 -40.5574 -40.5451 -40.4773 -40.4217 -40.3903 -40.2018
   -23.7961 -18.1238 -17.9097 -17.7012 -17.4008 -17.2451 -17.2320 -17.1907
   -17.1554 -17.1504 -17.1219 -16.9607 -16.8017 -16.4786  -8.8801  -6.5509
    -5.6983  -5.0952  -4.9526  -4.8909  -4.7543  -4.6048  -4.4760  -4.3668
    -4.1538  -4.0787  -4.0109  -3.9491  -3.6461  -3.4437  -3.4214  -3.3381
    -3.1051  -2.9949  -2.9651  -2.8772  -2.7363  -2.6046  -2.3571  -2.3343
    -2.2933  -2.2101  -2.1935  -2.0230  -1.8645  -1.7612  -1.6975  -1.6647
    -1.6301  -1.5246  -1.4598  -1.3441  -1.2520  -1.2113  -1.0412   5.1156
     5.2030   5.7611   6.0005   6.0878   6.1073   6.1506   6.1561   6.2452
     6.2751   6.4588   6.4899   6.5696   6.5916   6.6192   6.7813   6.7909
     6.9534   7.0018   7.0941   7.1115   7.1798   7.1932

          k = 0.3333 0.1166 0.0000 ( 37206 PWs)   bands (ev):

   -69.3091 -69.2987 -69.2904 -69.1792 -69.1689 -68.9676 -40.8378 -40.8065
   -40.7889 -40.7822 -40.7529 -40.7053 -40.7000 -40.6614 -40.6392 -40.6308
   -40.6127 -40.5753 -40.5582 -40.5499 -40.4779 -40.4217 -40.3901 -40.2018
   -23.7961 -18.0439 -17.8363 -17.6360 -17.5599 -17.4022 -17.2780 -17.1749
   -17.1458 -17.1235 -17.0729 -16.9531 -16.7986 -16.4773  -8.8794  -6.5496
    -5.6802  -4.8466  -4.7952  -4.7124  -4.6830  -4.4962  -4.4258  -4.3272
    -4.2281  -4.0866  -4.0341  -3.8210  -3.7473  -3.6423  -3.4625  -3.2128
    -3.1579  -3.0785  -3.0440  -2.9964  -2.7762  -2.6809  -2.5624  -2.4657
    -2.3988  -2.3356  -2.1082  -1.9572  -1.8667  -1.7998  -1.7450  -1.6623
    -1.6390  -1.4735  -1.4220  -1.3881  -1.2602  -1.1746  -1.0230   5.1475
     5.2001   5.7381   5.8503   5.9481   5.9916   6.0239   6.2158   6.2421
     6.4248   6.5355   6.5528   6.6167   6.6711   6.7511   6.7853   6.8682
     6.9177   6.9555   7.0603   7.1199   7.1558   7.1624

          k = 0.3333-0.2332 0.0000 ( 37216 PWs)   bands (ev):

   -69.3090 -69.2986 -69.2904 -69.1792 -69.1687 -68.9676 -40.8378 -40.8066
   -40.7902 -40.7853 -40.7548 -40.7056 -40.6959 -40.6620 -40.6392 -40.6286
   -40.6127 -40.5653 -40.5593 -40.5590 -40.4785 -40.4217 -40.3900 -40.2018
   -23.7960 -17.8664 -17.7889 -17.6661 -17.6160 -17.4679 -17.4606 -17.1551
   -17.1352 -17.1079 -17.0486 -16.9481 -16.7958 -16.4761  -8.8788  -6.5484
    -5.6618  -4.7507  -4.6027  -4.4297  -4.3872  -4.3349  -4.2976  -4.2372
    -4.2266  -4.1776  -4.1126  -3.8830  -3.8012  -3.5557  -3.5030  -3.4820
    -3.3109  -3.2186  -3.1875  -3.1244  -2.9819  -2.7653  -2.6163  -2.5325
    -2.3785  -2.2676  -2.1429  -2.1076  -1.8316  -1.8133  -1.7453  -1.6496
    -1.5431  -1.4930  -1.4216  -1.4137  -1.2579  -1.1461  -1.0066   5.1690
     5.2019   5.8181   5.8391   5.8452   5.9106   5.9466   6.1582   6.1954
     6.3557   6.3971   6.6121   6.6462   6.7550   6.7569   6.8881   6.9019
     7.0240   7.0345   7.0906   7.0922   7.1198   7.2146

          k = 0.4444 0.0000 0.0000 ( 37180 PWs)   bands (ev):

   -69.3046 -69.2943 -69.2861 -69.1748 -69.1646 -68.9632 -40.8355 -40.8345
   -40.8254 -40.8038 -40.7470 -40.7466 -40.7066 -40.6993 -40.6784 -40.6317
   -40.6101 -40.5631 -40.5505 -40.5505 -40.4696 -40.4369 -40.4140 -40.1930
   -23.5835 -17.7096 -17.6107 -17.5151 -17.3585 -17.2390 -17.2234 -17.2149
   -17.1889 -17.1498 -17.1353 -16.9681 -16.8691 -16.8061  -8.8489  -6.8472
    -5.5563  -5.1627  -4.9798  -4.8606  -4.5929  -4.5853  -4.5506  -4.4458
    -4.3311  -4.2626  -4.1665  -3.8691  -3.8337  -3.5810  -3.4072  -3.1962
    -3.0981  -3.0565  -2.9263  -2.7824  -2.7494  -2.6966  -2.6770  -2.6696
    -2.3150  -2.1936  -2.1927  -1.9703  -1.9509  -1.8962  -1.8253  -1.7308
    -1.6422  -1.5846  -1.5771  -1.3008  -1.2970  -1.1245  -0.9333   5.2569
     5.3098   5.8718   6.0938   6.1639   6.2017   6.2695   6.3561   6.3900
     6.4831   6.5159   6.5663   6.6185   6.6450   6.6686   6.7066   6.7708
     6.7901   6.8849   6.9463   6.9752   7.0559   7.1076

          k = 0.4444 0.1166 0.0000 ( 37248 PWs)   bands (ev):

   -69.3044 -69.2941 -69.2860 -69.1748 -69.1644 -68.9631 -40.8360 -40.8353
   -40.8281 -40.8039 -40.7519 -40.7469 -40.7071 -40.6967 -40.6737 -40.6317
   -40.6101 -40.5611 -40.5524 -40.5505 -40.4698 -40.4365 -40.4140 -40.1930
   -23.5835 -17.6548 -17.5592 -17.4675 -17.3751 -17.2965 -17.2690 -17.2195
   -17.2028 -17.1927 -17.1294 -16.9700 -16.8669 -16.8059  -8.8500  -6.8435
    -5.5354  -4.9976  -4.9671  -4.7339  -4.6229  -4.5457  -4.4551  -4.4469
    -4.3026  -4.2576  -4.0532  -3.9887  -3.6046  -3.5212  -3.3763  -3.2963
    -3.1890  -3.1007  -3.0549  -2.9826  -2.8842  -2.8371  -2.7648  -2.4668
    -2.3314  -2.2024  -2.0311  -1.9894  -1.9664  -1.9033  -1.7888  -1.7475
    -1.7340  -1.6893  -1.5506  -1.3955  -1.3269  -1.1317  -0.9400   5.2499
     5.3313   5.7981   5.9054   5.9296   5.9986   6.0838   6.2024   6.2857
     6.3283   6.3933   6.4924   6.6209   6.7323   6.7769   6.8288   6.9201
     6.9376   6.9828   7.0455   7.1273   7.1665   7.1906

          k = 0.4444-0.2332 0.0000 ( 37264 PWs)   bands (ev):

   -69.3042 -69.2939 -69.2859 -69.1747 -69.1642 -68.9630 -40.8373 -40.8354
   -40.8307 -40.8040 -40.7563 -40.7473 -40.7077 -40.6943 -40.6695 -40.6317
   -40.6102 -40.5570 -40.5563 -40.5506 -40.4699 -40.4361 -40.4140 -40.1930
   -23.5834 -17.5437 -17.4795 -17.4543 -17.3921 -17.3653 -17.3335 -17.2856
   -17.2033 -17.1935 -17.1352 -16.9731 -16.8651 -16.8058  -8.8511  -6.8401
    -5.5120  -4.9096  -4.8441  -4.7585  -4.6762  -4.4812  -4.3425  -4.3402
    -4.2109  -4.1267  -3.9055  -3.6935  -3.6655  -3.6099  -3.5841  -3.4688
    -3.3504  -3.1860  -3.1483  -3.0595  -3.0460  -2.8452  -2.7845  -2.3708
    -2.2949  -2.1385  -2.0581  -2.0123  -1.9498  -1.9145  -1.9102  -1.7926
    -1.6301  -1.6066  -1.5845  -1.5584  -1.4031  -1.1281  -0.9494   5.2345
     5.3580   5.7534   5.7582   5.7982   5.8475   5.9699   6.1190   6.1458
     6.2341   6.3628   6.4804   6.5150   6.7360   6.7482   6.9412   6.9762
     6.9841   7.0836   7.1385   7.1647   7.2217   7.2235

     the Fermi energy is     0.2283 ev

!    total energy              =   -1634.99081787 Ry
     estimated scf accuracy    <       0.00000060 Ry
     smearing contrib. (-TS)   =      -0.00035126 Ry
     internal energy E=F+TS    =   -1634.99046661 Ry

     The total energy is F=E-TS. E is the sum of the following terms:
     one-electron contribution =  -15569.78935283 Ry
     hartree contribution      =    7816.56367577 Ry
     xc contribution           =    -239.87829949 Ry
     ewald contribution        =    6489.03319546 Ry
     Hubbard energy            =       2.36230144 Ry
     one-center paw contrib.   =    -133.28198696 Ry

     total magnetization       =    11.00 Bohr mag/cell
     absolute magnetization    =    25.41 Bohr mag/cell

     convergence has been achieved in  28 iterations

     negative rho (up, down):  2.808E-03 3.032E-02
     force_hub    :      1.07s CPU      1.08s WALL (       1 calls)
     dndtau       :      0.78s CPU      0.80s WALL (     504 calls)
     dprojdtau    :      0.07s CPU      0.07s WALL (    3024 calls)
     matel_dSdtau :      0.69s CPU      0.70s WALL (     504 calls)

     Forces acting on atoms (cartesian axes, Ry/au):

     atom    1 type  1   force =    -0.00008686    0.00000000    0.03152733
     atom    2 type  1   force =     0.00005492    0.00000000   -0.02018248
     atom    3 type  1   force =    -0.00054002    0.00000000   -0.01321213
     atom    4 type  1   force =     0.00121947    0.00000000    0.00583945
     atom    5 type  1   force =     0.00341017    0.00000000    0.01315581
     atom    6 type  1   force =    -0.00634778    0.00000000   -0.05220724
     atom    7 type  3   force =     0.00032467    0.00000000    0.05148080
     atom    8 type  3   force =    -0.00001634    0.00000000   -0.04526135
     atom    9 type  3   force =    -0.00003622   -0.00605441   -0.03756028
     atom   10 type  3   force =    -0.00003622    0.00605441   -0.03756028
     atom   11 type  3   force =     0.00051839    0.00000000   -0.00394753
     atom   12 type  3   force =    -0.00080990    0.00000000   -0.01155011
     atom   13 type  3   force =    -0.00051553   -0.00512553    0.00038642
     atom   14 type  3   force =    -0.00051553    0.00512553    0.00038642
     atom   15 type  3   force =     0.00690195    0.00000000    0.07439112
     atom   16 type  3   force =     0.00051541    0.00000000    0.01352073
     atom   17 type  3   force =    -0.00510394   -0.00910636    0.00382127
     atom   18 type  3   force =    -0.00510394    0.00910636    0.00382127
     atom   19 type  3   force =    -0.01316901    0.00000000    0.02661327
     atom   20 type  3   force =     0.02191703    0.00000000   -0.00118242
     atom   21 type  2   force =    -0.00258072    0.00000000   -0.00228005

     Total force =     0.103041     Total SCF correction =     0.002171

     Writing all to output data dir ./tmp_s0_OOH__u850/s0_OOH__u850.save/ :
     XML data file, charge density, pseudopotentials, collected wavefunctions

     init_run     :      4.48s CPU      4.58s WALL (       1 calls)
     electrons    :    182.00s CPU    184.61s WALL (       1 calls)
     forces       :      1.89s CPU      1.92s WALL (       1 calls)

     Called by init_run:
     wfcinit      :      2.17s CPU      2.21s WALL (       1 calls)
     potinit      :      0.53s CPU      0.54s WALL (       1 calls)
     hinit0       :      0.52s CPU      0.54s WALL (       1 calls)

     Called by electrons:
     c_bands      :    136.28s CPU    138.07s WALL (      28 calls)
     sum_band     :     31.50s CPU     32.02s WALL (      28 calls)
     v_of_rho     :      3.24s CPU      3.29s WALL (      29 calls)
     newd         :      2.43s CPU      2.47s WALL (      29 calls)
     PAW_pot      :      3.60s CPU      3.61s WALL (      29 calls)
     mix_rho      :      3.97s CPU      4.04s WALL (      28 calls)

     Called by c_bands:
     init_us_2    :      1.47s CPU      1.50s WALL (     480 calls)
     cegterg      :     92.60s CPU     93.93s WALL (     224 calls)

     Called by *egterg:
     cdiaghg      :     10.16s CPU     10.25s WALL (     954 calls)
     h_psi        :     64.26s CPU     65.25s WALL (     962 calls)
     s_psi        :      3.22s CPU      3.27s WALL (     978 calls)
     g_psi        :      0.22s CPU      0.23s WALL (     730 calls)

     Called by h_psi:
     h_psi:calbec :      5.52s CPU      5.61s WALL (     962 calls)
     vloc_psi     :     52.61s CPU     53.42s WALL (     962 calls)
                                        0.00s GPU  (     962 calls)
     add_vuspsi   :      3.04s CPU      3.09s WALL (     962 calls)
     vhpsi        :      2.83s CPU      2.85s WALL (     962 calls)

     General routines
     calbec       :     11.99s CPU     12.15s WALL (    4444 calls)
     fft          :      2.53s CPU      2.57s WALL (     738 calls)
     ffts         :      2.36s CPU      2.39s WALL (    3435 calls)
     fftw         :     59.15s CPU     60.09s WALL (  121568 calls)
     interpolate  :      0.48s CPU      0.48s WALL (      58 calls)

     Parallel routines

     Hubbard U routines
     new_ns       :      1.89s CPU      1.94s WALL (      28 calls)
     vhpsi        :      2.83s CPU      2.85s WALL (     962 calls)
     force_hub    :      1.07s CPU      1.08s WALL (       1 calls)

     PWSCF        :   3m10.39s CPU   3m13.51s WALL


   This run was terminated on:   7:22:38  28Aug2026            

=------------------------------------------------------------------------------=
   JOB DONE.
=------------------------------------------------------------------------------=
Note: The following floating-point exceptions are signalling: IEEE_DENORMAL
Note: The following floating-point exceptions are signalling: IEEE_DENORMAL
