
     Program PWSCF v.7.5 starts on 28Aug2026 at  6:13:23 

     This program is part of the open-source Quantum ESPRESSO suite
     for quantum simulation of materials; please cite
         "P. Giannozzi et al., J. Phys.:Condens. Matter 21 395502 (2009);
         "P. Giannozzi et al., J. Phys.:Condens. Matter 29 465901 (2017);
         "P. Giannozzi et al., J. Chem. Phys. 152 154105 (2020);
          URL http://www.quantum-espresso.org", 
     in publications or presentations arising from this work. More details at
     http://www.quantum-espresso.org/quote

     Parallel version (MPI & OpenMP), running on     128 processor cores
     Number of MPI processes:               128
     Threads/MPI process:                     1

     MPI processes distributed on     1 nodes
     224397 MiB available memory on the printing compute node when the environment starts

     Reading input from s0_OH__u550.run.in

     Current dimensions of program PWSCF are:
     Max number of different atomic species (ntypx) = 10
     Max number of k-points (npk) =  40000
     Max angular momentum in pseudopotentials (lmaxx) =  4
     file O.pbe-n-kjpaw_psl.0.1.UPF: wavefunction(s)  2P renormalized
     Message from routine setup:
     using ibrav=0 with symmetry is DISCOURAGED, use correct ibrav instead

     K-points division:     npool     =       4
     R & G space division:  proc/nbgrp/npool/nimage =      32
     Subspace diagonalization in iterative solution of the eigenvalue problem:
     a serial algorithm will be used


     Parallelization info
     --------------------
     sticks:   dense  smooth     PW     G-vecs:    dense   smooth      PW
     Min         103      51     14                26275     9281    1388
     Max         104      52     15                26300     9316    1415
     Sum        3323    1653    471               841263   297421   44917

     Using Slab Decomposition



     bravais-lattice index     =            0
     lattice parameter (alat)  =       5.5104  a.u.
     unit-cell volume          =    3076.9124 (a.u.)^3
     number of atoms/cell      =           20
     number of atomic types    =            3
     number of electrons       =       163.00
     number of Kohn-Sham states=           98
     kinetic-energy cutoff     =      80.0000  Ry
     charge density cutoff     =     640.0000  Ry
     scf convergence threshold =      1.0E-06
     mixing beta               =       0.3000
     number of iterations used =            8  local-TF  mixing
     Exchange-correlation= SLA  PW   PBX  PBC
                           (   1   4   3   4   0   0   0)
     Hubbard projectors: atomic
     Hubbard parameters of DFT+U (Dudarev formulation) in eV:
     U(Cr-3d) =  5.5000

     Internal variables: lda_plus_u =T, lda_plus_u_kind = 0

     Internal variables: orbital_resolved =F, hub_pot_fix =F, apply_U = F

     celldm(1)=   5.510441  celldm(2)=   0.000000  celldm(3)=   0.000000
     celldm(4)=   0.000000  celldm(5)=   0.000000  celldm(6)=   0.000000

     crystal axes: (cart. coord. in units of alat)
               a(1) = (   1.000000   0.000000   0.000000 )  
               a(2) = (   0.000000   2.144115   0.000000 )  
               a(3) = (   0.000000   0.000000   8.576458 )  

     reciprocal axes: (cart. coord. in units 2 pi/alat)
               b(1) = (  1.000000  0.000000  0.000000 )  
               b(2) = (  0.000000  0.466393  0.000000 )  
               b(3) = (  0.000000  0.000000  0.116598 )  


     PseudoPot. # 1 for Cr read from file:
     /anvil/projects/x-che260157/pseudo/cr_pbe_v1.5.uspp.F.UPF
     MD5 check sum: 0d52af634a40206e4dee301ad30da4bf
     Pseudo is Ultrasoft + core correction, Zval = 14.0
     Generated by new atomic code, or converted to UPF format
     Using radial grid of  857 points,  6 beta functions with: 
                l(1) =   0
                l(2) =   0
                l(3) =   1
                l(4) =   1
                l(5) =   2
                l(6) =   2
     Q(r) pseudized with  8 coefficients,  rinner =    0.950   0.950   0.950
                                                       0.950   0.950

     PseudoPot. # 2 for H  read from file:
     /anvil/projects/x-che260157/pseudo/H.pbe-rrkjus_psl.1.0.0.UPF
     MD5 check sum: f52b6d4d1c606e5624b1dc7b2218f220
     Pseudo is Ultrasoft, Zval =  1.0
     Generated using "atomic" code by A. Dal Corso  v.5.1
     Using radial grid of  929 points,  2 beta functions with: 
                l(1) =   0
                l(2) =   0
     Q(r) pseudized with 0 coefficients 


     PseudoPot. # 3 for O  read from file:
     /anvil/projects/x-che260157/pseudo/O.pbe-n-kjpaw_psl.0.1.UPF
     MD5 check sum: 0234752ac141de4415c5fc33072bef88
     Pseudo is Projector augmented-wave + core cor, Zval =  6.0
     Generated using "atomic" code by A. Dal Corso  v.5.0.99 svn rev. 10869
     Shape of augmentation charge: BESSEL
     Using radial grid of 1095 points,  4 beta functions with: 
                l(1) =   0
                l(2) =   0
                l(3) =   1
                l(4) =   1
     Q(r) pseudized with 0 coefficients 


     atomic species   valence    mass     pseudopotential
     Cr               14.00    51.99600     Cr( 1.00)
     H                 1.00     1.00800     H ( 1.00)
     O                 6.00    15.99900     O ( 1.00)

     Starting magnetic structure 
     atomic species   magnetization
     Cr              0.600
     H               0.000
     O               0.000

      2 Sym. Ops. (no inversion) found ( 1 have fractional translation)



   Cartesian axes

     site n.     atom                  positions (alat units)
         1        Cr     tau(   1) = (   0.0000000   0.5360286   3.2161719  )
         2        Cr     tau(   2) = (   0.5000000   1.6080859   3.2161719  )
         3        Cr     tau(   3) = (  -0.0045866   1.6080859   4.3058521  )
         4        Cr     tau(   4) = (   0.4986853   0.5360286   4.3030576  )
         5        Cr     tau(   5) = (  -0.0014913   0.5360286   5.4105325  )
         6        Cr     tau(   6) = (   0.4918552   1.6080859   5.4140377  )
         7        O      tau(   7) = (   0.0000000   1.6080859   3.6342742  )
         8        O      tau(   8) = (   0.0000000   1.6080859   2.7980695  )
         9        O      tau(   9) = (   0.5000000   0.1179263   3.2161719  )
        10        O      tau(  10) = (   0.5000000   0.9541310   3.2161719  )
        11        O      tau(  11) = (  -0.0020806   0.5360286   4.7322491  )
        12        O      tau(  12) = (   0.0000000   0.5360286   3.8701268  )
        13        O      tau(  13) = (   0.4959276   1.1851994   4.2991401  )
        14        O      tau(  14) = (   0.4959276   2.0309725   4.2991401  )
        15        O      tau(  15) = (  -0.0067460   1.6080859   5.8016285  )
        16        O      tau(  16) = (  -0.0070311   1.6080859   4.9574288  )
        17        O      tau(  17) = (   0.4950777   0.1142789   5.3927666  )
        18        O      tau(  18) = (   0.4950777   0.9577784   5.3927666  )
        19        O      tau(  19) = (  -0.0210039   0.5360286   6.0465650  )
        20        H      tau(  20) = (   0.2916328   0.5360286   6.1748138  )

     number of k points=    15  Marzari-Vanderbilt smearing, width (Ry)=  0.0100
                       cart. coord. in units 2pi/alat
        k(    1) = (   0.0000000   0.0000000   0.0000000), wk =   0.0277778
        k(    2) = (   0.0000000   0.1165982   0.0000000), wk =   0.0555556
        k(    3) = (   0.0000000  -0.2331965   0.0000000), wk =   0.0277778
        k(    4) = (   0.1111111   0.0000000   0.0000000), wk =   0.0555556
        k(    5) = (   0.1111111   0.1165982   0.0000000), wk =   0.1111111
        k(    6) = (   0.1111111  -0.2331965   0.0000000), wk =   0.0555556
        k(    7) = (   0.2222222   0.0000000   0.0000000), wk =   0.0555556
        k(    8) = (   0.2222222   0.1165982   0.0000000), wk =   0.1111111
        k(    9) = (   0.2222222  -0.2331965   0.0000000), wk =   0.0555556
        k(   10) = (   0.3333333   0.0000000   0.0000000), wk =   0.0555556
        k(   11) = (   0.3333333   0.1165982   0.0000000), wk =   0.1111111
        k(   12) = (   0.3333333  -0.2331965   0.0000000), wk =   0.0555556
        k(   13) = (   0.4444444   0.0000000   0.0000000), wk =   0.0555556
        k(   14) = (   0.4444444   0.1165982   0.0000000), wk =   0.1111111
        k(   15) = (   0.4444444  -0.2331965   0.0000000), wk =   0.0555556

     Dense  grid:   841263 G-vectors     FFT dimensions: (  45,  96, 384)

     Smooth grid:   297421 G-vectors     FFT dimensions: (  32,  72, 270)

     Estimated max dynamical RAM per process >      79.14 MB

     Estimated total dynamical RAM >       8.69 GB

     Check: negative core charge=   -0.000001
     Generating pointlists ...
     new r_m :   0.2605 (alat units)  1.4355 (a.u.) for type    1
     new r_m :   0.1394 (alat units)  0.7681 (a.u.) for type    2
     new r_m :   0.1394 (alat units)  0.7681 (a.u.) for type    3

     Initial potential from superposition of free atoms

     starting charge     156.9999, renormalised to     163.0000

     negative rho (up, down):  4.260E-03 1.042E-03

     STARTING HUBBARD OCCUPATIONS:

     =================== HUBBARD OCCUPATIONS ===================
     ------------------------ ATOM    1 ------------------------
     Tr[ns(  1)] (up, down, total) =   3.40000  0.00000  3.40000
     Atomic magnetic moment for atom   1 =   3.40000
     SPIN  1
     eigenvalues:
       0.680  0.680  0.680  0.680  0.680
     eigenvectors (columns):
       1.000  0.000  0.000  0.000  0.000
       0.000  1.000  0.000  0.000  0.000
       0.000  0.000  1.000  0.000  0.000
       0.000  0.000  0.000  1.000  0.000
       0.000  0.000  0.000  0.000  1.000
     occupation matrix ns (before diag.):
       0.680  0.000  0.000  0.000  0.000
       0.000  0.680  0.000  0.000  0.000
       0.000  0.000  0.680  0.000  0.000
       0.000  0.000  0.000  0.680  0.000
       0.000  0.000  0.000  0.000  0.680
     SPIN  2
     eigenvalues:
       0.000  0.000  0.000  0.000  0.000
     eigenvectors (columns):
       1.000  0.000  0.000  0.000  0.000
       0.000  1.000  0.000  0.000  0.000
       0.000  0.000  1.000  0.000  0.000
       0.000  0.000  0.000  1.000  0.000
       0.000  0.000  0.000  0.000  1.000
     occupation matrix ns (before diag.):
       0.000  0.000  0.000  0.000  0.000
       0.000  0.000  0.000  0.000  0.000
       0.000  0.000  0.000  0.000  0.000
       0.000  0.000  0.000  0.000  0.000
       0.000  0.000  0.000  0.000  0.000
     ------------------------ ATOM    2 ------------------------
     Tr[ns(  2)] (up, down, total) =   3.40000  0.00000  3.40000
     Atomic magnetic moment for atom   2 =   3.40000
     SPIN  1
     eigenvalues:
       0.680  0.680  0.680  0.680  0.680
     eigenvectors (columns):
       1.000  0.000  0.000  0.000  0.000
       0.000  1.000  0.000  0.000  0.000
       0.000  0.000  1.000  0.000  0.000
       0.000  0.000  0.000  1.000  0.000
       0.000  0.000  0.000  0.000  1.000
     occupation matrix ns (before diag.):
       0.680  0.000  0.000  0.000  0.000
       0.000  0.680  0.000  0.000  0.000
       0.000  0.000  0.680  0.000  0.000
       0.000  0.000  0.000  0.680  0.000
       0.000  0.000  0.000  0.000  0.680
     SPIN  2
     eigenvalues:
       0.000  0.000  0.000  0.000  0.000
     eigenvectors (columns):
       1.000  0.000  0.000  0.000  0.000
       0.000  1.000  0.000  0.000  0.000
       0.000  0.000  1.000  0.000  0.000
       0.000  0.000  0.000  1.000  0.000
       0.000  0.000  0.000  0.000  1.000
     occupation matrix ns (before diag.):
       0.000  0.000  0.000  0.000  0.000
       0.000  0.000  0.000  0.000  0.000
       0.000  0.000  0.000  0.000  0.000
       0.000  0.000  0.000  0.000  0.000
       0.000  0.000  0.000  0.000  0.000
     ------------------------ ATOM    3 ------------------------
     Tr[ns(  3)] (up, down, total) =   3.40000  0.00000  3.40000
     Atomic magnetic moment for atom   3 =   3.40000
     SPIN  1
     eigenvalues:
       0.680  0.680  0.680  0.680  0.680
     eigenvectors (columns):
       1.000  0.000  0.000  0.000  0.000
       0.000  1.000  0.000  0.000  0.000
       0.000  0.000  1.000  0.000  0.000
       0.000  0.000  0.000  1.000  0.000
       0.000  0.000  0.000  0.000  1.000
     occupation matrix ns (before diag.):
       0.680  0.000  0.000  0.000  0.000
       0.000  0.680  0.000  0.000  0.000
       0.000  0.000  0.680  0.000  0.000
       0.000  0.000  0.000  0.680  0.000
       0.000  0.000  0.000  0.000  0.680
     SPIN  2
     eigenvalues:
       0.000  0.000  0.000  0.000  0.000
     eigenvectors (columns):
       1.000  0.000  0.000  0.000  0.000
       0.000  1.000  0.000  0.000  0.000
       0.000  0.000  1.000  0.000  0.000
       0.000  0.000  0.000  1.000  0.000
       0.000  0.000  0.000  0.000  1.000
     occupation matrix ns (before diag.):
       0.000  0.000  0.000  0.000  0.000
       0.000  0.000  0.000  0.000  0.000
       0.000  0.000  0.000  0.000  0.000
       0.000  0.000  0.000  0.000  0.000
       0.000  0.000  0.000  0.000  0.000
     ------------------------ ATOM    4 ------------------------
     Tr[ns(  4)] (up, down, total) =   3.40000  0.00000  3.40000
     Atomic magnetic moment for atom   4 =   3.40000
     SPIN  1
     eigenvalues:
       0.680  0.680  0.680  0.680  0.680
     eigenvectors (columns):
       1.000  0.000  0.000  0.000  0.000
       0.000  1.000  0.000  0.000  0.000
       0.000  0.000  1.000  0.000  0.000
       0.000  0.000  0.000  1.000  0.000
       0.000  0.000  0.000  0.000  1.000
     occupation matrix ns (before diag.):
       0.680  0.000  0.000  0.000  0.000
       0.000  0.680  0.000  0.000  0.000
       0.000  0.000  0.680  0.000  0.000
       0.000  0.000  0.000  0.680  0.000
       0.000  0.000  0.000  0.000  0.680
     SPIN  2
     eigenvalues:
       0.000  0.000  0.000  0.000  0.000
     eigenvectors (columns):
       1.000  0.000  0.000  0.000  0.000
       0.000  1.000  0.000  0.000  0.000
       0.000  0.000  1.000  0.000  0.000
       0.000  0.000  0.000  1.000  0.000
       0.000  0.000  0.000  0.000  1.000
     occupation matrix ns (before diag.):
       0.000  0.000  0.000  0.000  0.000
       0.000  0.000  0.000  0.000  0.000
       0.000  0.000  0.000  0.000  0.000
       0.000  0.000  0.000  0.000  0.000
       0.000  0.000  0.000  0.000  0.000
     ------------------------ ATOM    5 ------------------------
     Tr[ns(  5)] (up, down, total) =   3.40000  0.00000  3.40000
     Atomic magnetic moment for atom   5 =   3.40000
     SPIN  1
     eigenvalues:
       0.680  0.680  0.680  0.680  0.680
     eigenvectors (columns):
       1.000  0.000  0.000  0.000  0.000
       0.000  1.000  0.000  0.000  0.000
       0.000  0.000  1.000  0.000  0.000
       0.000  0.000  0.000  1.000  0.000
       0.000  0.000  0.000  0.000  1.000
     occupation matrix ns (before diag.):
       0.680  0.000  0.000  0.000  0.000
       0.000  0.680  0.000  0.000  0.000
       0.000  0.000  0.680  0.000  0.000
       0.000  0.000  0.000  0.680  0.000
       0.000  0.000  0.000  0.000  0.680
     SPIN  2
     eigenvalues:
       0.000  0.000  0.000  0.000  0.000
     eigenvectors (columns):
       1.000  0.000  0.000  0.000  0.000
       0.000  1.000  0.000  0.000  0.000
       0.000  0.000  1.000  0.000  0.000
       0.000  0.000  0.000  1.000  0.000
       0.000  0.000  0.000  0.000  1.000
     occupation matrix ns (before diag.):
       0.000  0.000  0.000  0.000  0.000
       0.000  0.000  0.000  0.000  0.000
       0.000  0.000  0.000  0.000  0.000
       0.000  0.000  0.000  0.000  0.000
       0.000  0.000  0.000  0.000  0.000
     ------------------------ ATOM    6 ------------------------
     Tr[ns(  6)] (up, down, total) =   3.40000  0.00000  3.40000
     Atomic magnetic moment for atom   6 =   3.40000
     SPIN  1
     eigenvalues:
       0.680  0.680  0.680  0.680  0.680
     eigenvectors (columns):
       1.000  0.000  0.000  0.000  0.000
       0.000  1.000  0.000  0.000  0.000
       0.000  0.000  1.000  0.000  0.000
       0.000  0.000  0.000  1.000  0.000
       0.000  0.000  0.000  0.000  1.000
     occupation matrix ns (before diag.):
       0.680  0.000  0.000  0.000  0.000
       0.000  0.680  0.000  0.000  0.000
       0.000  0.000  0.680  0.000  0.000
       0.000  0.000  0.000  0.680  0.000
       0.000  0.000  0.000  0.000  0.680
     SPIN  2
     eigenvalues:
       0.000  0.000  0.000  0.000  0.000
     eigenvectors (columns):
       1.000  0.000  0.000  0.000  0.000
       0.000  1.000  0.000  0.000  0.000
       0.000  0.000  1.000  0.000  0.000
       0.000  0.000  0.000  1.000  0.000
       0.000  0.000  0.000  0.000  1.000
     occupation matrix ns (before diag.):
       0.000  0.000  0.000  0.000  0.000
       0.000  0.000  0.000  0.000  0.000
       0.000  0.000  0.000  0.000  0.000
       0.000  0.000  0.000  0.000  0.000
       0.000  0.000  0.000  0.000  0.000

     Number of occupied Hubbard levels =   20.4000

     Atomic wfc used for Hubbard projectors are NOT orthogonalized

     Starting wfcs are  113 randomized atomic wfcs
     Checking if some PAW data can be deallocated... 

     total cpu time spent up to now is        3.7 secs

     per-process dynamical memory:   107.8 Mb

     Self-consistent Calculation

     iteration #  1     ecut=    80.00 Ry     beta= 0.30
     Davidson diagonalization with overlap
     ethr =  1.00E-02,  avg # of iterations =  5.3

     =================== HUBBARD OCCUPATIONS ===================
     ------------------------ ATOM    1 ------------------------
     Tr[ns(  1)] (up, down, total) =   4.74320  0.44531  5.18851
     Atomic magnetic moment for atom   1 =   4.29789
     SPIN  1
     eigenvalues:
       0.821  0.951  0.984  0.990  0.996
     eigenvectors (columns):
      -0.000  0.918 -0.396  0.006 -0.000
      -0.000  0.003 -0.007 -1.000 -0.000
      -0.000  0.000  0.000 -0.000  1.000
       0.000 -0.396 -0.918  0.005  0.000
       1.000  0.000  0.000 -0.000  0.000
     occupation matrix ns (before diag.):
       0.956 -0.000 -0.000  0.012  0.000
      -0.000  0.990 -0.000  0.000  0.000
      -0.000 -0.000  0.996  0.000  0.000
       0.012  0.000  0.000  0.979 -0.000
       0.000  0.000  0.000 -0.000  0.821
     SPIN  2
     eigenvalues:
       0.043  0.052  0.055  0.120  0.175
     eigenvectors (columns):
       0.000 -0.001  0.223 -0.975  0.000
       0.000  1.000  0.003 -0.001  0.000
       1.000 -0.000  0.000  0.000 -0.000
      -0.000 -0.002  0.975  0.223 -0.000
       0.000 -0.000  0.000  0.000  1.000
     occupation matrix ns (before diag.):
       0.116  0.000 -0.000 -0.014  0.000
       0.000  0.052 -0.000 -0.000  0.000
      -0.000 -0.000  0.043  0.000 -0.000
      -0.014 -0.000  0.000  0.058 -0.000
       0.000  0.000 -0.000 -0.000  0.175
     ------------------------ ATOM    2 ------------------------
     Tr[ns(  2)] (up, down, total) =   4.02966  0.54008  4.56975
     Atomic magnetic moment for atom   2 =   3.48958
     SPIN  1
     eigenvalues:
       0.513  0.560  0.979  0.983  0.995
     eigenvectors (columns):
      -0.003  0.426 -0.905 -0.000 -0.000
       1.000  0.007  0.000 -0.000 -0.000
       0.000 -0.000 -0.000 -0.000  1.000
      -0.007  0.905  0.426  0.000  0.000
      -0.000  0.000  0.000 -1.000 -0.000
     occupation matrix ns (before diag.):
       0.903 -0.000 -0.000 -0.161  0.000
      -0.000  0.513 -0.000  0.000  0.000
      -0.000 -0.000  0.995  0.000 -0.000
      -0.161  0.000  0.000  0.636 -0.000
       0.000  0.000 -0.000 -0.000  0.983
     SPIN  2
     eigenvalues:
       0.055  0.062  0.065  0.176  0.182
     eigenvectors (columns):
      -0.000  0.928  0.000  0.372  0.002
      -0.000 -0.000 -0.000  0.007 -1.000
      -1.000 -0.000 -0.001  0.000  0.000
       0.000 -0.372 -0.000  0.928  0.006
      -0.001 -0.000  1.000 -0.000 -0.000
     occupation matrix ns (before diag.):
       0.078 -0.000 -0.000  0.039  0.000
      -0.000  0.182 -0.000 -0.000  0.000
      -0.000 -0.000  0.055  0.000 -0.000
       0.039 -0.000  0.000  0.160 -0.000
       0.000  0.000 -0.000 -0.000  0.065
     ------------------------ ATOM    3 ------------------------
     Tr[ns(  3)] (up, down, total) =   3.90278  0.51405  4.41683
     Atomic magnetic moment for atom   3 =   3.38873
     SPIN  1
     eigenvalues:
       0.471  0.496  0.968  0.978  0.990
     eigenvectors (columns):
      -0.000 -0.999 -0.036  0.007  0.000
      -0.000 -0.007 -0.019 -1.000  0.000
       0.000 -0.000  0.000 -0.000 -1.000
       0.000  0.036 -0.999  0.019 -0.000
       1.000 -0.000  0.000 -0.000  0.000
     occupation matrix ns (before diag.):
       0.496 -0.003 -0.000  0.017  0.000
      -0.003  0.978 -0.000 -0.000  0.000
      -0.000 -0.000  0.990  0.000 -0.000
       0.017 -0.000  0.000  0.967 -0.000
       0.000  0.000 -0.000 -0.000  0.471
     SPIN  2
     eigenvalues:
       0.054  0.055  0.062  0.170  0.173
     eigenvectors (columns):
       0.119 -0.000  0.004 -0.000  0.993
      -0.021 -0.000 -1.000  0.000  0.006
      -0.000 -1.000  0.000  0.001 -0.000
       0.993 -0.000 -0.021  0.000 -0.119
       0.000  0.001  0.000  1.000  0.000
     occupation matrix ns (before diag.):
       0.172  0.001 -0.000 -0.014  0.000
       0.001  0.062 -0.000  0.000  0.000
      -0.000 -0.000  0.055  0.000  0.000
      -0.014  0.000  0.000  0.056 -0.000
       0.000  0.000  0.000 -0.000  0.170
     ------------------------ ATOM    4 ------------------------
     Tr[ns(  4)] (up, down, total) =   3.91139  0.51695  4.42834
     Atomic magnetic moment for atom   4 =   3.39444
     SPIN  1
     eigenvalues:
       0.475  0.496  0.965  0.982  0.993
     eigenvectors (columns):
      -0.096  0.434  0.000  0.896  0.000
       0.978  0.211 -0.000  0.003  0.000
       0.000 -0.000  0.001  0.000 -1.000
      -0.188  0.876 -0.000 -0.444 -0.000
      -0.000  0.000 -1.000  0.000 -0.001
     occupation matrix ns (before diag.):
       0.886  0.003 -0.000 -0.194  0.000
       0.003  0.476 -0.000  0.003  0.000
      -0.000 -0.000  0.993  0.000  0.000
      -0.194  0.003  0.000  0.591 -0.000
       0.000  0.000  0.000 -0.000  0.965
     SPIN  2
     eigenvalues:
       0.055  0.055  0.062  0.168  0.177
     eigenvectors (columns):
       0.914 -0.000  0.000 -0.023  0.406
       0.002  0.000 -0.000 -0.998 -0.062
       0.000  0.999 -0.038  0.000 -0.000
      -0.407  0.000 -0.000 -0.057  0.912
      -0.000  0.038  0.999 -0.000 -0.000
     occupation matrix ns (before diag.):
       0.075 -0.000 -0.000  0.045  0.000
      -0.000  0.168 -0.000 -0.000  0.000
      -0.000 -0.000  0.055  0.000 -0.000
       0.045 -0.000  0.000  0.156 -0.000
       0.000  0.000 -0.000 -0.000  0.062
     ------------------------ ATOM    5 ------------------------
     Tr[ns(  5)] (up, down, total) =   1.61019  0.45140  2.06160
     Atomic magnetic moment for atom   5 =   1.15879
     SPIN  1
     eigenvalues:
       0.173  0.271  0.292  0.392  0.483
     eigenvectors (columns):
      -0.056  0.216  0.000 -0.000 -0.975
      -0.092  0.971  0.000  0.000  0.220
       0.000  0.000 -1.000  0.006  0.000
      -0.994 -0.102 -0.000 -0.000  0.034
      -0.000 -0.000  0.006  1.000 -0.000
     occupation matrix ns (before diag.):
       0.472 -0.046 -0.000 -0.012  0.000
      -0.046  0.280 -0.000 -0.007  0.000
      -0.000 -0.000  0.292  0.000  0.001
      -0.012 -0.007  0.000  0.175 -0.000
       0.000  0.000  0.001 -0.000  0.392
     SPIN  2
     eigenvalues:
       0.039  0.051  0.055  0.140  0.166
     eigenvectors (columns):
      -0.000 -0.184  0.045  0.982  0.000
      -0.000  0.396 -0.911  0.116  0.000
      -1.000 -0.000  0.000 -0.000  0.001
       0.000 -0.899 -0.411 -0.150 -0.000
       0.001 -0.000 -0.000 -0.000  1.000
     occupation matrix ns (before diag.):
       0.136  0.010 -0.000 -0.013  0.000
       0.010  0.055 -0.000 -0.000  0.000
      -0.000 -0.000  0.039  0.000  0.000
      -0.013 -0.000  0.000  0.054 -0.000
       0.000  0.000  0.000 -0.000  0.166
     ------------------------ ATOM    6 ------------------------
     Tr[ns(  6)] (up, down, total) =   1.74260  0.52855  2.27115
     Atomic magnetic moment for atom   6 =   1.21405
     SPIN  1
     eigenvalues:
       0.279  0.295  0.311  0.416  0.441
     eigenvectors (columns):
       0.000 -0.980  0.000  0.198 -0.005
       0.000 -0.000 -0.000 -0.028 -1.000
       0.997  0.000  0.079  0.000  0.000
      -0.000  0.198 -0.000  0.980 -0.028
      -0.079  0.000  0.997 -0.000 -0.000
     occupation matrix ns (before diag.):
       0.299  0.000 -0.000  0.024  0.000
       0.000  0.441 -0.000  0.001  0.000
      -0.000 -0.000  0.280  0.000  0.003
       0.024  0.001  0.000  0.412 -0.000
       0.000  0.000  0.003 -0.000  0.311
     SPIN  2
     eigenvalues:
       0.051  0.061  0.063  0.175  0.178
     eigenvectors (columns):
       0.000 -0.000  0.935 -0.022 -0.354
       0.000 -0.000 -0.000  0.998 -0.061
       1.000  0.009 -0.000 -0.000 -0.000
      -0.000  0.000 -0.355 -0.057 -0.933
      -0.009  1.000  0.000  0.000  0.000
     occupation matrix ns (before diag.):
       0.078  0.000 -0.000  0.038  0.000
       0.000  0.175 -0.000  0.000  0.000
      -0.000 -0.000  0.051  0.000  0.000
       0.038  0.000  0.000  0.164 -0.000
       0.000  0.000  0.000 -0.000  0.061

     Number of occupied Hubbard levels =   22.9362

     negative rho (up, down):  3.265E-03 6.291E-03

     total cpu time spent up to now is       19.1 secs

     total energy              =   -1593.19426006 Ry
     estimated scf accuracy    <      64.27327670 Ry

     total magnetization       =    15.44 Bohr mag/cell
     absolute magnetization    =    20.23 Bohr mag/cell

     iteration #  2     ecut=    80.00 Ry     beta= 0.30
     Davidson diagonalization with overlap
     ethr =  1.00E-02,  avg # of iterations =  1.0

     negative rho (up, down):  6.678E-03 2.149E-02

     total cpu time spent up to now is       22.2 secs

     total energy              =   -1592.24837766 Ry
     estimated scf accuracy    <      39.87367582 Ry

     total magnetization       =    14.22 Bohr mag/cell
     absolute magnetization    =    18.86 Bohr mag/cell

     iteration #  3     ecut=    80.00 Ry     beta= 0.30
     Davidson diagonalization with overlap
     ethr =  1.00E-02,  avg # of iterations =  3.4

     negative rho (up, down):  1.324E-02 3.852E-02

     total cpu time spent up to now is       27.8 secs

     total energy              =   -1593.91883798 Ry
     estimated scf accuracy    <      12.61890002 Ry

     total magnetization       =    12.97 Bohr mag/cell
     absolute magnetization    =    20.07 Bohr mag/cell

     iteration #  4     ecut=    80.00 Ry     beta= 0.30
     Davidson diagonalization with overlap
     ethr =  7.74E-03,  avg # of iterations =  5.7

     negative rho (up, down):  6.640E-03 2.234E-02

     total cpu time spent up to now is       32.1 secs

     total energy              =   -1592.23989159 Ry
     estimated scf accuracy    <      29.54672000 Ry

     total magnetization       =     9.97 Bohr mag/cell
     absolute magnetization    =    20.05 Bohr mag/cell

     iteration #  5     ecut=    80.00 Ry     beta= 0.30
     Davidson diagonalization with overlap
     ethr =  7.74E-03,  avg # of iterations =  1.6

     negative rho (up, down):  7.598E-03 2.646E-02

     total cpu time spent up to now is       35.4 secs

     total energy              =   -1594.26578701 Ry
     estimated scf accuracy    <       6.54093520 Ry

     total magnetization       =    10.96 Bohr mag/cell
     absolute magnetization    =    20.99 Bohr mag/cell

     iteration #  6     ecut=    80.00 Ry     beta= 0.30
     Davidson diagonalization with overlap
     ethr =  4.01E-03,  avg # of iterations =  1.4

     negative rho (up, down):  9.842E-03 3.338E-02

     total cpu time spent up to now is       38.6 secs

     total energy              =   -1594.15412504 Ry
     estimated scf accuracy    <       8.90454125 Ry

     total magnetization       =    11.00 Bohr mag/cell
     absolute magnetization    =    19.61 Bohr mag/cell

     iteration #  7     ecut=    80.00 Ry     beta= 0.30
     Davidson diagonalization with overlap
     ethr =  4.01E-03,  avg # of iterations =  1.1

     negative rho (up, down):  9.860E-03 3.330E-02

     total cpu time spent up to now is       41.8 secs

     total energy              =   -1594.29815177 Ry
     estimated scf accuracy    <       1.34544893 Ry

     total magnetization       =    11.00 Bohr mag/cell
     absolute magnetization    =    20.81 Bohr mag/cell

     iteration #  8     ecut=    80.00 Ry     beta= 0.30
     Davidson diagonalization with overlap
     ethr =  8.25E-04,  avg # of iterations =  4.0

     negative rho (up, down):  1.017E-02 3.406E-02

     total cpu time spent up to now is       45.9 secs

     total energy              =   -1594.29877946 Ry
     estimated scf accuracy    <       1.35216997 Ry

     total magnetization       =    11.00 Bohr mag/cell
     absolute magnetization    =    20.66 Bohr mag/cell

     iteration #  9     ecut=    80.00 Ry     beta= 0.30
     Davidson diagonalization with overlap
     ethr =  8.25E-04,  avg # of iterations =  1.2

     negative rho (up, down):  1.062E-02 3.499E-02

     total cpu time spent up to now is       49.0 secs

     total energy              =   -1594.31915866 Ry
     estimated scf accuracy    <       0.87151564 Ry

     total magnetization       =    11.00 Bohr mag/cell
     absolute magnetization    =    20.74 Bohr mag/cell

     iteration # 10     ecut=    80.00 Ry     beta= 0.30
     Davidson diagonalization with overlap
     ethr =  5.35E-04,  avg # of iterations =  2.4

     negative rho (up, down):  1.039E-02 3.500E-02

     total cpu time spent up to now is       52.5 secs

     total energy              =   -1594.34785628 Ry
     estimated scf accuracy    <       0.16840722 Ry

     total magnetization       =    11.00 Bohr mag/cell
     absolute magnetization    =    21.17 Bohr mag/cell

     iteration # 11     ecut=    80.00 Ry     beta= 0.30
     Davidson diagonalization with overlap
     ethr =  1.03E-04,  avg # of iterations =  6.5

     negative rho (up, down):  9.527E-03 3.448E-02

     total cpu time spent up to now is       59.4 secs

     total energy              =   -1594.36851854 Ry
     estimated scf accuracy    <       0.13892829 Ry

     total magnetization       =    11.00 Bohr mag/cell
     absolute magnetization    =    21.17 Bohr mag/cell

     iteration # 12     ecut=    80.00 Ry     beta= 0.30
     Davidson diagonalization with overlap
     ethr =  8.52E-05,  avg # of iterations =  1.6

     negative rho (up, down):  7.425E-03 3.368E-02

     total cpu time spent up to now is       62.7 secs

     total energy              =   -1594.37548443 Ry
     estimated scf accuracy    <       0.09317273 Ry

     total magnetization       =    11.00 Bohr mag/cell
     absolute magnetization    =    21.41 Bohr mag/cell

     iteration # 13     ecut=    80.00 Ry     beta= 0.30
     Davidson diagonalization with overlap
     ethr =  5.72E-05,  avg # of iterations = 10.4

     negative rho (up, down):  6.350E-03 3.257E-02

     total cpu time spent up to now is       67.8 secs

     total energy              =   -1594.39220144 Ry
     estimated scf accuracy    <       0.12672054 Ry

     total magnetization       =    11.00 Bohr mag/cell
     absolute magnetization    =    21.77 Bohr mag/cell

     iteration # 14     ecut=    80.00 Ry     beta= 0.30
     Davidson diagonalization with overlap
     ethr =  5.72E-05,  avg # of iterations =  1.1

     negative rho (up, down):  5.013E-03 3.141E-02

     total cpu time spent up to now is       70.9 secs

     total energy              =   -1594.38972336 Ry
     estimated scf accuracy    <       0.06711325 Ry

     total magnetization       =    11.00 Bohr mag/cell
     absolute magnetization    =    21.75 Bohr mag/cell

     iteration # 15     ecut=    80.00 Ry     beta= 0.30
     Davidson diagonalization with overlap
     ethr =  4.12E-05,  avg # of iterations =  2.1

     negative rho (up, down):  3.764E-03 3.002E-02

     total cpu time spent up to now is       74.2 secs

     total energy              =   -1594.39074285 Ry
     estimated scf accuracy    <       0.03225616 Ry

     total magnetization       =    11.00 Bohr mag/cell
     absolute magnetization    =    21.80 Bohr mag/cell

     iteration # 16     ecut=    80.00 Ry     beta= 0.30
     Davidson diagonalization with overlap
     ethr =  1.98E-05,  avg # of iterations =  3.3

     negative rho (up, down):  8.856E-04 2.651E-02

     total cpu time spent up to now is       78.0 secs

     total energy              =   -1594.38767355 Ry
     estimated scf accuracy    <       0.03298140 Ry

     total magnetization       =    11.00 Bohr mag/cell
     absolute magnetization    =    21.82 Bohr mag/cell

     iteration # 17     ecut=    80.00 Ry     beta= 0.30
     Davidson diagonalization with overlap
     ethr =  1.98E-05,  avg # of iterations =  4.9

     negative rho (up, down):  8.138E-04 2.642E-02

     total cpu time spent up to now is       81.9 secs

     total energy              =   -1594.39028113 Ry
     estimated scf accuracy    <       0.00752106 Ry

     total magnetization       =    11.00 Bohr mag/cell
     absolute magnetization    =    21.87 Bohr mag/cell

     iteration # 18     ecut=    80.00 Ry     beta= 0.30
     Davidson diagonalization with overlap
     ethr =  4.61E-06,  avg # of iterations =  6.1

     negative rho (up, down):  2.504E-04 2.641E-02

     total cpu time spent up to now is       86.2 secs

     total energy              =   -1594.38911010 Ry
     estimated scf accuracy    <       0.00596401 Ry

     total magnetization       =    11.00 Bohr mag/cell
     absolute magnetization    =    21.88 Bohr mag/cell

     iteration # 19     ecut=    80.00 Ry     beta= 0.30
     Davidson diagonalization with overlap
     ethr =  3.66E-06,  avg # of iterations =  6.3

     negative rho (up, down):  2.045E-04 2.644E-02

     total cpu time spent up to now is       90.6 secs

     total energy              =   -1594.38922096 Ry
     estimated scf accuracy    <       0.00316899 Ry

     total magnetization       =    11.00 Bohr mag/cell
     absolute magnetization    =    21.95 Bohr mag/cell

     iteration # 20     ecut=    80.00 Ry     beta= 0.30
     Davidson diagonalization with overlap
     ethr =  1.94E-06,  avg # of iterations =  3.1

     negative rho (up, down):  4.895E-04 2.671E-02

     total cpu time spent up to now is       94.3 secs

     total energy              =   -1594.38912970 Ry
     estimated scf accuracy    <       0.00220460 Ry

     total magnetization       =    11.00 Bohr mag/cell
     absolute magnetization    =    21.95 Bohr mag/cell

     iteration # 21     ecut=    80.00 Ry     beta= 0.30
     Davidson diagonalization with overlap
     ethr =  1.35E-06,  avg # of iterations =  1.5

     negative rho (up, down):  6.059E-04 2.670E-02

     total cpu time spent up to now is       98.8 secs

     total energy              =   -1594.38913599 Ry
     estimated scf accuracy    <       0.00151899 Ry

     total magnetization       =    11.00 Bohr mag/cell
     absolute magnetization    =    21.95 Bohr mag/cell

     iteration # 22     ecut=    80.00 Ry     beta= 0.30
     Davidson diagonalization with overlap
     ethr =  9.32E-07,  avg # of iterations =  2.3

     negative rho (up, down):  2.801E-03 2.900E-02

     total cpu time spent up to now is      102.4 secs

     total energy              =   -1594.38910655 Ry
     estimated scf accuracy    <       0.00086082 Ry

     total magnetization       =    11.00 Bohr mag/cell
     absolute magnetization    =    21.94 Bohr mag/cell

     iteration # 23     ecut=    80.00 Ry     beta= 0.30
     Davidson diagonalization with overlap
     ethr =  5.28E-07,  avg # of iterations =  2.6

     negative rho (up, down):  3.346E-03 2.945E-02

     total cpu time spent up to now is      106.4 secs

     total energy              =   -1594.38914901 Ry
     estimated scf accuracy    <       0.00059427 Ry

     total magnetization       =    11.00 Bohr mag/cell
     absolute magnetization    =    21.94 Bohr mag/cell

     iteration # 24     ecut=    80.00 Ry     beta= 0.30
     Davidson diagonalization with overlap
     ethr =  3.65E-07,  avg # of iterations =  1.3

     negative rho (up, down):  2.944E-03 2.885E-02

     total cpu time spent up to now is      110.3 secs

     total energy              =   -1594.38915522 Ry
     estimated scf accuracy    <       0.00042538 Ry

     total magnetization       =    11.00 Bohr mag/cell
     absolute magnetization    =    21.95 Bohr mag/cell

     iteration # 25     ecut=    80.00 Ry     beta= 0.30
     Davidson diagonalization with overlap
     ethr =  2.61E-07,  avg # of iterations =  1.3

     negative rho (up, down):  2.759E-03 2.826E-02

     total cpu time spent up to now is      113.5 secs

     total energy              =   -1594.38919543 Ry
     estimated scf accuracy    <       0.00020779 Ry

     total magnetization       =    11.00 Bohr mag/cell
     absolute magnetization    =    21.94 Bohr mag/cell

     iteration # 26     ecut=    80.00 Ry     beta= 0.30
     Davidson diagonalization with overlap
     ethr =  1.27E-07,  avg # of iterations =  1.9

     negative rho (up, down):  2.773E-03 2.787E-02

     total cpu time spent up to now is      117.3 secs

     total energy              =   -1594.38924197 Ry
     estimated scf accuracy    <       0.00010444 Ry

     total magnetization       =    11.00 Bohr mag/cell
     absolute magnetization    =    21.94 Bohr mag/cell

     iteration # 27     ecut=    80.00 Ry     beta= 0.30
     Davidson diagonalization with overlap
     ethr =  6.41E-08,  avg # of iterations =  2.0

     negative rho (up, down):  2.755E-03 2.747E-02

     total cpu time spent up to now is      120.5 secs

     total energy              =   -1594.38926659 Ry
     estimated scf accuracy    <       0.00003775 Ry

     total magnetization       =    11.00 Bohr mag/cell
     absolute magnetization    =    21.95 Bohr mag/cell

     iteration # 28     ecut=    80.00 Ry     beta= 0.30
     Davidson diagonalization with overlap
     ethr =  2.32E-08,  avg # of iterations =  3.1

     negative rho (up, down):  2.692E-03 2.721E-02

     total cpu time spent up to now is      124.1 secs

     total energy              =   -1594.38927756 Ry
     estimated scf accuracy    <       0.00001430 Ry

     total magnetization       =    11.00 Bohr mag/cell
     absolute magnetization    =    21.95 Bohr mag/cell

     iteration # 29     ecut=    80.00 Ry     beta= 0.30
     Davidson diagonalization with overlap
     ethr =  8.77E-09,  avg # of iterations =  2.5

     negative rho (up, down):  2.682E-03 2.710E-02

     total cpu time spent up to now is      127.7 secs

     total energy              =   -1594.38928105 Ry
     estimated scf accuracy    <       0.00000400 Ry

     total magnetization       =    11.00 Bohr mag/cell
     absolute magnetization    =    21.94 Bohr mag/cell

     iteration # 30     ecut=    80.00 Ry     beta= 0.30
     Davidson diagonalization with overlap
     ethr =  2.45E-09,  avg # of iterations =  3.1

     negative rho (up, down):  2.697E-03 2.705E-02

     total cpu time spent up to now is      131.3 secs

     total energy              =   -1594.38928326 Ry
     estimated scf accuracy    <       0.00000168 Ry

     total magnetization       =    11.00 Bohr mag/cell
     absolute magnetization    =    21.94 Bohr mag/cell

     iteration # 31     ecut=    80.00 Ry     beta= 0.30
     Davidson diagonalization with overlap
     ethr =  1.03E-09,  avg # of iterations =  2.5

     negative rho (up, down):  2.661E-03 2.699E-02

     Magnetic moment per site  (integrated on atomic sphere of radius R)
     atom   1 (R=0.261)  charge= 10.4804  magn=  2.3418
     atom   2 (R=0.261)  charge= 10.4316  magn=  2.0965
     atom   3 (R=0.261)  charge= 10.4308  magn=  2.1586
     atom   4 (R=0.261)  charge= 10.4321  magn=  2.1563
     atom   5 (R=0.261)  charge= 10.4251  magn=  2.0994
     atom   6 (R=0.261)  charge= 10.4271  magn=  2.0701
     atom   7 (R=0.139)  charge=  1.9713  magn= -0.1476
     atom   8 (R=0.139)  charge=  1.9491  magn= -0.2477
     atom   9 (R=0.139)  charge=  1.9721  magn= -0.1337
     atom  10 (R=0.139)  charge=  1.9721  magn= -0.1337
     atom  11 (R=0.139)  charge=  1.9659  magn= -0.1637
     atom  12 (R=0.139)  charge=  1.9689  magn= -0.1528
     atom  13 (R=0.139)  charge=  1.9716  magn= -0.1507
     atom  14 (R=0.139)  charge=  1.9716  magn= -0.1507
     atom  15 (R=0.139)  charge=  1.9529  magn= -0.2529
     atom  16 (R=0.139)  charge=  1.9650  magn= -0.1608
     atom  17 (R=0.139)  charge=  1.9713  magn= -0.1500
     atom  18 (R=0.139)  charge=  1.9713  magn= -0.1500
     atom  19 (R=0.139)  charge=  1.9696  magn= -0.1287
     atom  20 (R=0.139)  charge=  0.3945  magn=  0.0045

     total cpu time spent up to now is      134.8 secs

     End of self-consistent calculation

     =================== HUBBARD OCCUPATIONS ===================
     ------------------------ ATOM    1 ------------------------
     Tr[ns(  1)] (up, down, total) =   3.81789  0.83780  4.65569
     Atomic magnetic moment for atom   1 =   2.98009
     SPIN  1
     eigenvalues:
       0.480  0.498  0.918  0.934  0.988
     eigenvectors (columns):
      -0.999  0.000 -0.000  0.000  0.044
       0.000 -0.000  0.000  1.000  0.000
      -0.000 -0.000  1.000 -0.000  0.000
       0.044  0.000 -0.000 -0.000  0.999
       0.000  1.000  0.000  0.000 -0.000
     occupation matrix ns (before diag.):
       0.481  0.000 -0.000  0.022  0.000
       0.000  0.934 -0.000  0.000  0.000
      -0.000 -0.000  0.918  0.000  0.000
       0.022  0.000  0.000  0.987 -0.000
       0.000  0.000  0.000 -0.000  0.498
     SPIN  2
     eigenvalues:
       0.080  0.086  0.094  0.229  0.350
     eigenvectors (columns):
      -0.000  0.140 -0.000 -0.990  0.000
       0.000  0.000  1.000  0.000  0.000
       1.000  0.000 -0.000  0.000 -0.000
      -0.000  0.990 -0.000  0.140 -0.000
       0.000  0.000 -0.000  0.000  1.000
     occupation matrix ns (before diag.):
       0.226 -0.000 -0.000 -0.020  0.000
      -0.000  0.094 -0.000 -0.000  0.000
      -0.000 -0.000  0.080  0.000 -0.000
      -0.020 -0.000  0.000  0.089 -0.000
       0.000  0.000 -0.000 -0.000  0.350
     ------------------------ ATOM    2 ------------------------
     Tr[ns(  2)] (up, down, total) =   3.71374  1.03463  4.74836
     Atomic magnetic moment for atom   2 =   2.67911
     SPIN  1
     eigenvalues:
       0.542  0.542  0.757  0.880  0.992
     eigenvectors (columns):
      -0.138  0.387 -0.000 -0.000 -0.912
      -0.942 -0.335  0.000  0.000  0.000
      -0.000 -0.000 -1.000  0.000  0.000
      -0.305  0.859  0.000  0.000  0.411
       0.000  0.000  0.000  1.000 -0.000
     occupation matrix ns (before diag.):
       0.916 -0.000 -0.000 -0.168  0.000
      -0.000  0.542 -0.000 -0.000  0.000
      -0.000 -0.000  0.757  0.000  0.000
      -0.168 -0.000  0.000  0.618 -0.000
       0.000  0.000  0.000 -0.000  0.880
     SPIN  2
     eigenvalues:
       0.099  0.100  0.108  0.353  0.374
     eigenvectors (columns):
       0.000  0.917  0.000 -0.399  0.002
       0.000 -0.000 -0.000 -0.005 -1.000
       1.000 -0.000 -0.002 -0.000  0.000
      -0.000 -0.399 -0.000 -0.917  0.004
       0.002 -0.000  1.000  0.000 -0.000
     occupation matrix ns (before diag.):
       0.141  0.000 -0.000  0.093  0.000
       0.000  0.374 -0.000 -0.000  0.000
      -0.000 -0.000  0.099  0.000 -0.000
       0.093 -0.000  0.000  0.313 -0.000
       0.000  0.000 -0.000 -0.000  0.108
     ------------------------ ATOM    3 ------------------------
     Tr[ns(  3)] (up, down, total) =   3.73649  0.97978  4.71627
     Atomic magnetic moment for atom   3 =   2.75670
     SPIN  1
     eigenvalues:
       0.499  0.532  0.822  0.894  0.989
     eigenvectors (columns):
      -0.000 -0.999 -0.000 -0.007  0.048
      -0.000 -0.007  0.000  1.000  0.002
      -0.000 -0.000  1.000 -0.000  0.000
       0.000  0.048 -0.000 -0.001  0.999
       1.000 -0.000  0.000  0.000 -0.000
     occupation matrix ns (before diag.):
       0.533 -0.002 -0.000  0.022  0.000
      -0.002  0.894 -0.000  0.000  0.000
      -0.000 -0.000  0.822  0.000  0.000
       0.022  0.000  0.000  0.988 -0.000
       0.000  0.000  0.000 -0.000  0.499
     SPIN  2
     eigenvalues:
       0.084  0.099  0.104  0.344  0.348
     eigenvectors (columns):
      -0.080 -0.000  0.005  0.997  0.000
       0.010 -0.000 -1.000  0.006  0.000
       0.000 -1.000  0.000 -0.000  0.000
      -0.997 -0.000 -0.010 -0.080 -0.000
      -0.000  0.000  0.000 -0.000  1.000
     occupation matrix ns (before diag.):
       0.342  0.001 -0.000 -0.021  0.000
       0.001  0.104 -0.000  0.000  0.000
      -0.000 -0.000  0.099  0.000  0.000
      -0.021  0.000  0.000  0.086 -0.000
       0.000  0.000  0.000 -0.000  0.348
     ------------------------ ATOM    4 ------------------------
     Tr[ns(  4)] (up, down, total) =   3.73492  0.98504  4.71995
     Atomic magnetic moment for atom   4 =   2.74988
     SPIN  1
     eigenvalues:
       0.495  0.532  0.808  0.915  0.985
     eigenvectors (columns):
      -0.014  0.473 -0.000 -0.000 -0.881
      -0.999 -0.032  0.000  0.000 -0.001
      -0.000 -0.000 -1.000  0.023  0.000
      -0.029  0.881  0.000  0.000  0.473
       0.000  0.000  0.023  1.000 -0.000
     occupation matrix ns (before diag.):
       0.884  0.000 -0.000 -0.189  0.000
       0.000  0.495 -0.000 -0.001  0.000
      -0.000 -0.000  0.808  0.000  0.002
      -0.189 -0.001  0.000  0.633 -0.000
       0.000  0.000  0.002 -0.000  0.915
     SPIN  2
     eigenvalues:
       0.082  0.104  0.105  0.342  0.352
     eigenvectors (columns):
      -0.895  0.000  0.000  0.047 -0.443
      -0.002 -0.000 -0.000  0.994  0.110
      -0.000 -0.900 -0.435 -0.000 -0.000
       0.445 -0.000 -0.000  0.100 -0.890
       0.000 -0.435  0.900  0.000  0.000
     occupation matrix ns (before diag.):
       0.136 -0.001 -0.000  0.107  0.000
      -0.001  0.342 -0.000 -0.001  0.000
      -0.000 -0.000  0.104  0.000 -0.001
       0.107 -0.001  0.000  0.298 -0.000
       0.000  0.000 -0.001 -0.000  0.105
     ------------------------ ATOM    5 ------------------------
     Tr[ns(  5)] (up, down, total) =   3.69848  1.02194  4.72042
     Atomic magnetic moment for atom   5 =   2.67654
     SPIN  1
     eigenvalues:
       0.505  0.553  0.728  0.923  0.990
     eigenvectors (columns):
      -0.000  0.997  0.000 -0.013 -0.071
      -0.000 -0.013 -0.000 -1.000  0.003
       0.004  0.000 -1.000  0.000 -0.000
       0.000 -0.071  0.000 -0.002 -0.997
       1.000  0.000  0.004 -0.000  0.000
     occupation matrix ns (before diag.):
       0.555  0.005 -0.000  0.031  0.000
       0.005  0.923 -0.000 -0.001  0.000
      -0.000 -0.000  0.728  0.000 -0.001
       0.031 -0.001  0.000  0.988 -0.000
       0.000  0.000 -0.001 -0.000  0.505
     SPIN  2
     eigenvalues:
       0.085  0.103  0.114  0.354  0.366
     eigenvectors (columns):
       0.075 -0.020 -0.000 -0.000 -0.997
       0.033 -0.999  0.000  0.000  0.023
      -0.000 -0.000 -1.000  0.002  0.000
       0.997  0.034 -0.000  0.000  0.074
       0.000  0.000  0.002  1.000 -0.000
     occupation matrix ns (before diag.):
       0.364 -0.006 -0.000 -0.021  0.000
      -0.006  0.103 -0.000 -0.000  0.000
      -0.000 -0.000  0.114  0.000  0.001
      -0.021 -0.000  0.000  0.087 -0.000
       0.000  0.000  0.001 -0.000  0.354
     ------------------------ ATOM    6 ------------------------
     Tr[ns(  6)] (up, down, total) =   3.71043  1.05487  4.76530
     Atomic magnetic moment for atom   6 =   2.65555
     SPIN  1
     eigenvalues:
       0.544  0.557  0.777  0.886  0.946
     eigenvectors (columns):
       0.014  0.415  0.000 -0.000  0.910
      -1.000  0.030 -0.000  0.000  0.001
      -0.000 -0.000  1.000 -0.024 -0.000
       0.027  0.909 -0.000  0.000 -0.415
       0.000  0.000  0.024  1.000  0.000
     occupation matrix ns (before diag.):
       0.879  0.001 -0.000 -0.147  0.000
       0.001  0.544 -0.000  0.000  0.000
      -0.000 -0.000  0.777  0.000 -0.003
      -0.147  0.000  0.000  0.624 -0.000
       0.000  0.000 -0.003 -0.000  0.886
     SPIN  2
     eigenvalues:
       0.107  0.107  0.114  0.361  0.365
     eigenvectors (columns):
      -0.000  0.921  0.000 -0.384 -0.060
      -0.000  0.001 -0.000  0.157 -0.988
      -0.999 -0.000  0.051 -0.000  0.000
       0.000 -0.389 -0.000 -0.910 -0.145
       0.051  0.000  0.999  0.000 -0.000
     occupation matrix ns (before diag.):
       0.146  0.000 -0.000  0.091  0.000
       0.000  0.365 -0.000  0.001  0.000
      -0.000 -0.000  0.107  0.000  0.000
       0.091  0.001  0.000  0.323 -0.000
       0.000  0.000  0.000 -0.000  0.114

     Number of occupied Hubbard levels =   28.3260

 ------ SPIN UP ------------


          k = 0.0000 0.0000 0.0000 ( 37133 PWs)   bands (ev):

   -73.1479 -73.1227 -73.1203 -73.1120 -73.0686 -72.8941 -44.6325 -44.5169
   -44.4833 -44.4678 -44.4486 -44.4248 -44.4192 -44.4031 -44.4019 -44.3640
   -44.3457 -44.3362 -44.3174 -44.3061 -44.2952 -44.2807 -44.1537 -44.0525
   -18.9516 -18.7202 -18.4312 -18.0345 -17.8484 -17.4703 -17.3615 -17.1972
   -17.0852 -17.0125 -17.0023 -16.5779 -16.1936  -7.9505  -7.7897  -7.6775
    -7.1579  -6.6898  -6.5045  -6.4543  -5.7446  -5.3178  -5.2495  -5.1795
    -5.1394  -4.8810  -4.8482  -4.7546  -4.6000  -3.9847  -3.7827  -3.5852
    -3.5535  -3.4604  -3.2236  -3.1524  -3.0818  -3.0283  -2.9399  -2.8999
    -2.8615  -2.8286  -2.7491  -2.6452  -2.6093  -2.5796  -2.5249  -2.5195
    -2.3835  -2.3763  -2.1799  -2.0210  -1.7313  -1.4056  -1.3699  -1.1927
    -0.9604  -0.8676  -0.8341  -0.7118  -0.6088  -0.3903  -0.3298  -0.1750
     0.2203   0.4284   0.7415   0.7984   0.9176   1.0001   1.3076   2.1804
     2.7217   3.2384

          k = 0.0000 0.1166 0.0000 ( 37130 PWs)   bands (ev):

   -73.1478 -73.1224 -73.1205 -73.1119 -73.0686 -72.8940 -44.6325 -44.5117
   -44.4805 -44.4678 -44.4540 -44.4246 -44.4193 -44.4032 -44.3962 -44.3671
   -44.3457 -44.3422 -44.3172 -44.3058 -44.2955 -44.2810 -44.1537 -44.0525
   -18.8307 -18.6121 -18.3404 -18.0461 -17.9850 -17.6754 -17.5050 -17.1342
   -17.0845 -17.0160 -16.9890 -16.5758 -16.1866  -7.7112  -7.5631  -7.4547
    -7.1569  -6.7074  -6.4937  -6.2393  -5.5517  -5.3014  -5.1132  -5.0239
    -4.9848  -4.8408  -4.7631  -4.7311  -4.6612  -4.6011  -4.1491  -3.8434
    -3.7582  -3.6953  -3.6239  -3.6061  -3.4157  -3.3750  -3.3483  -3.2616
    -3.2359  -3.1106  -3.0397  -2.5073  -2.3833  -2.3547  -2.1784  -2.1494
    -1.9679  -1.9131  -1.6332  -1.4537  -1.3797  -1.3058  -1.2556  -1.0835
    -0.9168  -0.8573  -0.8000  -0.7530  -0.6985  -0.5829  -0.4158  -0.2720
     0.0591   0.2358   0.5923   0.6386   0.7263   0.9283   1.5432   2.5614
     3.0833   3.4294

          k = 0.0000-0.2332 0.0000 ( 37126 PWs)   bands (ev):

   -73.1478 -73.1219 -73.1207 -73.1118 -73.0686 -72.8938 -44.6325 -44.5053
   -44.4776 -44.4678 -44.4607 -44.4245 -44.4195 -44.4032 -44.3887 -44.3703
   -44.3499 -44.3457 -44.3169 -44.3056 -44.2958 -44.2812 -44.1537 -44.0526
   -18.5970 -18.4355 -18.4269 -18.0457 -18.0167 -17.8201 -17.7996 -17.0989
   -17.0938 -17.0027 -16.9803 -16.5762 -16.1805  -7.4288  -7.2817  -7.2350
    -7.1012  -6.7488  -6.5392  -5.6759  -5.5330  -5.3353  -4.9421  -4.9235
    -4.8309  -4.8267  -4.7708  -4.7572  -4.7147  -4.6075  -4.3013  -4.2515
    -4.1587  -4.1538  -4.1232  -3.9399  -3.8727  -3.7359  -3.6807  -3.3934
    -3.3151  -3.1641  -3.0478  -2.4193  -2.1566  -2.0667  -2.0016  -1.9540
    -1.7438  -1.5078  -1.4584  -1.3977  -1.2665  -1.1859  -0.9209  -0.8969
    -0.8752  -0.8080  -0.7314  -0.7217  -0.6909  -0.5681  -0.5463  -0.3524
    -0.1007   0.0680   0.2285   0.5042   0.5777   0.8839   1.7089   2.9676
     3.1869   3.7819

          k = 0.1111 0.0000 0.0000 ( 37175 PWs)   bands (ev):

   -73.1457 -73.1207 -73.1182 -73.1100 -73.0665 -72.8920 -44.6311 -44.5141
   -44.4813 -44.4662 -44.4468 -44.4225 -44.4165 -44.4012 -44.3978 -44.3663
   -44.3616 -44.3375 -44.3357 -44.3254 -44.3152 -44.3007 -44.1505 -44.0728
   -18.8340 -18.6151 -18.3361 -17.9735 -17.7649 -17.3956 -17.3096 -17.2245
   -17.1104 -17.0330 -17.0304 -16.6101 -16.2179  -7.7375  -7.5893  -7.4853
    -6.9812  -6.5206  -6.3832  -6.3036  -5.7754  -5.5364  -5.4608  -5.4137
    -5.2439  -5.0986  -4.8690  -4.7161  -4.6312  -4.2144  -3.8910  -3.6521
    -3.5602  -3.4649  -3.4384  -3.3759  -3.3081  -3.2836  -3.2039  -2.9519
    -2.9028  -2.8310  -2.7880  -2.6852  -2.6282  -2.5796  -2.5270  -2.4092
    -2.2816  -2.1798  -1.9922  -1.8793  -1.8292  -1.4616  -1.3139  -1.2435
    -1.1350  -0.9253  -0.7429  -0.6282  -0.3712  -0.1616  -0.1315  -0.1286
     0.1594   0.3295   0.6690   0.7079   0.8253   0.9045   1.4018   2.2919
     2.8326   3.2976

          k = 0.1111 0.1166 0.0000 ( 37124 PWs)   bands (ev):

   -73.1457 -73.1204 -73.1184 -73.1098 -73.0665 -72.8919 -44.6311 -44.5096
   -44.4789 -44.4662 -44.4517 -44.4223 -44.4166 -44.4012 -44.3925 -44.3667
   -44.3644 -44.3407 -44.3371 -44.3250 -44.3154 -44.3008 -44.1505 -44.0728
   -18.7179 -18.5128 -18.2487 -17.9671 -17.9168 -17.6102 -17.4501 -17.1487
   -17.1076 -17.0338 -17.0093 -16.6080 -16.2113  -7.5044  -7.3672  -7.2665
    -6.9796  -6.5408  -6.3540  -6.1314  -5.6259  -5.5011  -5.3337  -5.2837
    -5.1710  -5.0921  -4.8679  -4.6383  -4.5881  -4.4030  -4.2743  -3.9330
    -3.7350  -3.7214  -3.6979  -3.6249  -3.5179  -3.4900  -3.4749  -3.4499
    -3.3566  -3.2842  -2.9048  -2.6903  -2.5373  -2.4505  -2.3784  -2.2896
    -1.9224  -1.8516  -1.6712  -1.4631  -1.3442  -1.3039  -1.1263  -1.0289
    -0.9471  -0.8649  -0.7490  -0.5460  -0.5066  -0.3282  -0.2420  -0.0819
    -0.0231   0.1517   0.5198   0.5673   0.6521   0.8254   1.5974   2.6170
     3.1023   3.3898

          k = 0.1111-0.2332 0.0000 ( 37144 PWs)   bands (ev):

   -73.1457 -73.1199 -73.1187 -73.1097 -73.0665 -72.8918 -44.6311 -44.5041
   -44.4764 -44.4662 -44.4576 -44.4222 -44.4168 -44.4013 -44.3854 -44.3680
   -44.3673 -44.3467 -44.3368 -44.3246 -44.3156 -44.3010 -44.1505 -44.0728
   -18.4979 -18.3429 -18.3246 -17.9728 -17.9406 -17.7541 -17.7388 -17.1168
   -17.1118 -17.0140 -17.0004 -16.6083 -16.2055  -7.2321  -7.0934  -7.0525
    -6.9260  -6.5884  -6.4050  -5.6867  -5.6094  -5.4296  -5.0945  -5.0240
    -4.9875  -4.9798  -4.9271  -4.7662  -4.7359  -4.6330  -4.3477  -4.2981
    -4.2474  -4.1112  -4.0406  -3.9216  -3.8730  -3.8482  -3.7690  -3.5026
    -3.4607  -3.3346  -2.9065  -2.6547  -2.3916  -2.3439  -2.2313  -2.2093
    -1.8067  -1.7750  -1.3122  -1.2362  -1.1917  -1.1062  -0.9431  -0.7561
    -0.7352  -0.6646  -0.6524  -0.5566  -0.5279  -0.4236  -0.3687  -0.2104
    -0.0445   0.0220   0.1765   0.4398   0.4913   0.7751   1.7384   3.0198
     3.1381   3.3916

          k = 0.2222 0.0000 0.0000 ( 37192 PWs)   bands (ev):

   -73.1409 -73.1160 -73.1136 -73.1054 -73.0618 -72.8873 -44.6275 -44.5071
   -44.4760 -44.4623 -44.4424 -44.4181 -44.4168 -44.4088 -44.3988 -44.3868
   -44.3840 -44.3729 -44.3645 -44.3554 -44.3500 -44.3348 -44.1424 -44.1230
   -18.5167 -18.3390 -18.0904 -17.8173 -17.5524 -17.2943 -17.2300 -17.1892
   -17.1738 -17.1013 -17.0805 -16.6886 -16.2626  -7.1611  -7.0436  -6.9662
    -6.5769  -6.2094  -6.1709  -6.0961  -6.0801  -5.9899  -5.7587  -5.6390
    -5.5091  -5.0305  -4.9801  -4.8173  -4.5959  -4.3917  -4.2467  -4.2034
    -4.1592  -4.0149  -3.9423  -3.7372  -3.6691  -3.4370  -3.2961  -3.1583
    -3.0790  -3.0712  -3.0077  -2.7259  -2.6637  -2.4165  -2.2866  -2.1665
    -2.0741  -1.9915  -1.8514  -1.8319  -1.6132  -1.4616  -1.3438  -1.0714
    -1.0045  -0.8363  -0.6669  -0.3449  -0.3232  -0.3187  -0.0444   0.0267
     0.2045   0.3446   0.4578   0.5127   0.5965   0.6471   1.4915   2.4663
     2.9093   3.2185

          k = 0.2222 0.1166 0.0000 ( 37137 PWs)   bands (ev):

   -73.1410 -73.1157 -73.1138 -73.1053 -73.0619 -72.8872 -44.6275 -44.5043
   -44.4749 -44.4623 -44.4460 -44.4189 -44.4168 -44.4090 -44.3987 -44.3836
   -44.3823 -44.3736 -44.3643 -44.3563 -44.3494 -44.3385 -44.1424 -44.1229
   -18.4164 -18.2553 -18.0137 -17.7883 -17.7272 -17.4760 -17.3394 -17.1671
   -17.1617 -17.0637 -17.0490 -16.6871 -16.2578  -6.9641  -6.8572  -6.7931
    -6.5714  -6.2072  -6.1474  -6.0635  -5.9962  -5.9046  -5.7153  -5.6219
    -5.4090  -5.0070  -4.9200  -4.7438  -4.5849  -4.3730  -4.2906  -4.2706
    -4.1920  -4.0842  -4.0101  -3.8304  -3.7946  -3.6422  -3.5924  -3.5686
    -3.4809  -3.2446  -3.1432  -2.7429  -2.6486  -2.5432  -2.3981  -2.3129
    -2.2385  -2.0502  -1.5314  -1.3571  -1.2325  -1.1310  -1.1047  -0.9745
    -0.9676  -0.7301  -0.5804  -0.4636  -0.3165  -0.1575  -0.0946  -0.0433
     0.0626   0.2268   0.3621   0.4311   0.4793   0.5496   1.6119   2.6301
     2.8772   3.0548

          k = 0.2222-0.2332 0.0000 ( 37166 PWs)   bands (ev):

   -73.1410 -73.1153 -73.1142 -73.1052 -73.0619 -72.8871 -44.6275 -44.5012
   -44.4737 -44.4623 -44.4499 -44.4196 -44.4167 -44.4091 -44.3986 -44.3832
   -44.3770 -44.3747 -44.3641 -44.3565 -44.3494 -44.3431 -44.1424 -44.1228
   -18.2433 -18.0996 -18.0594 -17.7877 -17.7723 -17.6085 -17.5820 -17.1730
   -17.1289 -17.0502 -17.0227 -16.6873 -16.2535  -6.7628  -6.6617  -6.6572
    -6.5721  -6.2761  -6.1600  -6.1416  -5.7073  -5.4707  -5.2791  -5.2108
    -5.1579  -5.1247  -5.0957  -5.0892  -4.9395  -4.7646  -4.5788  -4.5718
    -4.3664  -4.0868  -4.0316  -3.9937  -3.7799  -3.6509  -3.5734  -3.4997
    -3.4748  -3.4735  -3.0685  -2.9426  -2.8810  -2.8248  -2.4730  -2.4708
    -2.2522  -2.0084  -1.4622  -1.2402  -0.8448  -0.8176  -0.8059  -0.7481
    -0.7349  -0.5845  -0.5577  -0.4824  -0.3637  -0.2613  -0.1954  -0.0498
     0.0177   0.1593   0.2658   0.3203   0.3340   0.4770   1.7015   2.7007
     2.7295   2.7874

          k = 0.3333 0.0000 0.0000 ( 37184 PWs)   bands (ev):

   -73.1365 -73.1115 -73.1095 -73.1012 -73.0576 -72.8830 -44.6232 -44.4989
   -44.4732 -44.4699 -44.4583 -44.4441 -44.4373 -44.4243 -44.4191 -44.4102
   -44.4045 -44.4009 -44.3865 -44.3730 -44.3483 -44.3350 -44.1779 -44.1331
   -18.1002 -17.9994 -17.7972 -17.6284 -17.3741 -17.3305 -17.2451 -17.1968
   -17.1814 -17.1245 -17.0050 -16.7569 -16.2673  -6.8793  -6.5816  -6.5161
    -6.4260  -6.3194  -6.2798  -6.2772  -6.1260  -6.0161  -5.7547  -5.5412
    -5.2336  -5.1630  -5.0682  -4.9292  -4.7595  -4.7329  -4.5082  -4.3863
    -4.3215  -4.1727  -3.9777  -3.9027  -3.6008  -3.4931  -3.4757  -3.4293
    -3.3677  -3.0673  -3.0195  -2.8461  -2.6452  -2.5500  -2.2808  -2.1342
    -2.0652  -2.0308  -1.9536  -1.8986  -1.7471  -1.7099  -1.4521  -0.8491
    -0.7826  -0.7301  -0.6486  -0.4993  -0.4793  -0.2638  -0.1619   0.1103
     0.1579   0.2003   0.2786   0.4339   0.6126   0.6895   1.3830   2.3784
     2.7662   3.1865

          k = 0.3333 0.1166 0.0000 ( 37206 PWs)   bands (ev):

   -73.1366 -73.1113 -73.1098 -73.1012 -73.0577 -72.8829 -44.6232 -44.4990
   -44.4741 -44.4710 -44.4583 -44.4473 -44.4355 -44.4244 -44.4176 -44.4101
   -44.4029 -44.4009 -44.3865 -44.3703 -44.3484 -44.3368 -44.1777 -44.1331
   -18.0348 -17.9453 -17.7445 -17.6077 -17.5300 -17.3883 -17.2851 -17.2361
   -17.1486 -17.1087 -16.9899 -16.7574 -16.2658  -6.8987  -6.7003  -6.5965
    -6.5818  -6.4109  -6.2856  -6.0153  -5.9665  -5.9277  -5.6771  -5.4537
    -5.1210  -5.0630  -4.8100  -4.6864  -4.5881  -4.5051  -4.3699  -4.3402
    -4.3000  -4.1932  -4.0579  -3.9526  -3.8759  -3.8150  -3.7423  -3.6011
    -3.5204  -3.1472  -3.0901  -2.7893  -2.6351  -2.5689  -2.4743  -2.3308
    -2.2399  -2.1551  -1.8082  -1.7038  -1.6400  -1.5171  -1.3948  -0.9644
    -0.8632  -0.7830  -0.6869  -0.6165  -0.4327  -0.4145  -0.1050   0.0632
     0.2060   0.3534   0.4048   0.4574   0.5224   0.6468   1.4670   2.4287
     2.4809   2.6237

          k = 0.3333-0.2332 0.0000 ( 37216 PWs)   bands (ev):

   -73.1367 -73.1110 -73.1101 -73.1012 -73.0578 -72.8829 -44.6232 -44.4990
   -44.4750 -44.4720 -44.4583 -44.4500 -44.4338 -44.4246 -44.4164 -44.4101
   -44.4012 -44.4009 -44.3865 -44.3674 -44.3486 -44.3388 -44.1774 -44.1331
   -17.9536 -17.7944 -17.7720 -17.6350 -17.5793 -17.4799 -17.4017 -17.2323
   -17.1261 -17.0992 -16.9815 -16.7582 -16.2643  -6.9164  -6.7883  -6.7292
    -6.6989  -6.4456  -6.4222  -5.7325  -5.7246  -5.3515  -5.3411  -5.2213
    -5.1106  -5.0423  -5.0358  -4.8338  -4.7034  -4.6515  -4.4005  -4.3843
    -4.2656  -4.1882  -4.0367  -3.9786  -3.6448  -3.5557  -3.5475  -3.4415
    -3.3546  -3.3343  -3.2369  -3.1848  -3.1205  -2.9492  -2.6069  -2.5483
    -2.4723  -2.1694  -1.8733  -1.5805  -1.2989  -1.2910  -1.1969  -1.0697
    -0.9653  -0.8273  -0.7370  -0.6132  -0.4973  -0.3762  -0.1508   0.0402
     0.2568   0.3673   0.3994   0.5421   0.5597   0.6132   1.5370   2.1888
     2.2446   2.2913

          k = 0.4444 0.0000 0.0000 ( 37180 PWs)   bands (ev):

   -73.1343 -73.1089 -73.1077 -73.0992 -73.0554 -72.8807 -44.6204 -44.5084
   -44.4935 -44.4784 -44.4658 -44.4623 -44.4538 -44.4489 -44.4385 -44.4340
   -44.4064 -44.3959 -44.3822 -44.3620 -44.3436 -44.3369 -44.2126 -44.1270
   -17.7877 -17.7130 -17.5728 -17.4865 -17.4264 -17.3277 -17.2912 -17.2335
   -17.2077 -17.1359 -16.9350 -16.7479 -16.2336  -7.2742  -6.8212  -6.7127
    -6.5399  -6.4156  -6.1486  -5.9886  -5.9328  -5.8844  -5.7885  -5.6811
    -5.5521  -5.0749  -4.9897  -4.8532  -4.5203  -4.5029  -4.4048  -4.4030
    -3.9741  -3.9519  -3.7237  -3.6606  -3.6187  -3.6056  -3.5292  -3.3442
    -3.3283  -3.0644  -3.0185  -2.8471  -2.5596  -2.4522  -2.3672  -2.3175
    -2.2899  -2.1998  -2.1786  -2.0795  -2.0221  -1.9433  -1.7774  -1.6315
    -1.4487  -0.8216  -0.7231  -0.3927  -0.2146  -0.1649  -0.0920  -0.0761
    -0.0157   0.1114   0.3950   0.5510   0.8076   0.9524   1.2462   2.1890
     2.8234   3.0405

          k = 0.4444 0.1166 0.0000 ( 37248 PWs)   bands (ev):

   -73.1344 -73.1089 -73.1079 -73.0991 -73.0556 -72.8807 -44.6204 -44.5093
   -44.4969 -44.4791 -44.4707 -44.4624 -44.4511 -44.4481 -44.4336 -44.4331
   -44.4064 -44.3959 -44.3822 -44.3616 -44.3431 -44.3364 -44.2122 -44.1270
   -17.7790 -17.7017 -17.5792 -17.5202 -17.4263 -17.3264 -17.2821 -17.2541
   -17.1806 -17.1331 -16.9443 -16.7487 -16.2326  -7.2876  -7.0251  -6.8723
    -6.8144  -6.7510  -6.5892  -5.8035  -5.6516  -5.4753  -5.4066  -5.2303
    -5.0898  -5.0063  -4.9753  -4.6160  -4.5368  -4.5203  -4.3791  -4.1578
    -4.0641  -3.9132  -3.8770  -3.8021  -3.6728  -3.6099  -3.4389  -3.3274
    -3.2027  -3.0852  -2.9479  -2.8595  -2.6804  -2.5587  -2.5190  -2.4301
    -2.3864  -2.2916  -2.1549  -2.1220  -2.0309  -1.9923  -1.8990  -1.6194
    -1.4980  -0.8893  -0.8548  -0.7803  -0.6579  -0.6024  -0.2519  -0.0350
     0.4507   0.5328   0.5534   0.6551   0.7481   0.9283   1.3305   2.2356
     2.3121   2.4196

          k = 0.4444-0.2332 0.0000 ( 37264 PWs)   bands (ev):

   -73.1345 -73.1088 -73.1081 -73.0991 -73.0557 -72.8807 -44.6204 -44.5102
   -44.4999 -44.4798 -44.4745 -44.4625 -44.4502 -44.4459 -44.4322 -44.4296
   -44.4063 -44.3959 -44.3822 -44.3612 -44.3426 -44.3359 -44.2118 -44.1270
   -17.7695 -17.6875 -17.5839 -17.5547 -17.4305 -17.3119 -17.2980 -17.2509
   -17.1679 -17.1271 -16.9544 -16.7495 -16.2316  -7.3046  -7.1728  -7.1012
    -7.0765  -6.7346  -6.7099  -5.6469  -5.4085  -5.2119  -5.1873  -5.1870
    -5.0908  -4.9268  -4.6255  -4.5575  -4.3803  -4.1994  -4.0844  -4.0452
    -4.0388  -3.9824  -3.8859  -3.7146  -3.7103  -3.4539  -3.3329  -3.3098
    -3.2655  -3.2367  -3.1774  -3.0242  -2.9610  -2.8231  -2.6286  -2.5797
    -2.4196  -2.3047  -2.2578  -2.1256  -1.9918  -1.9760  -1.8499  -1.6679
    -1.5763  -1.1339  -1.0417  -0.9479  -0.7916  -0.7879  -0.2950  -0.0174
     0.5264   0.6512   0.6827   0.7800   0.8005   0.9070   1.4033   1.9847
     2.0287   2.0791

 ------ SPIN DOWN ----------


          k = 0.0000 0.0000 0.0000 ( 37133 PWs)   bands (ev):

   -70.2761 -70.2424 -70.1580 -70.1099 -70.0164 -69.9509 -41.8134 -41.7807
   -41.6956 -41.6767 -41.6505 -41.6265 -41.5702 -41.5283 -41.4783 -41.4774
   -41.4256 -41.3105 -41.3081 -41.2933 -41.2596 -41.2342 -41.2331 -41.1525
   -19.3642 -19.1092 -18.7591 -18.4575 -18.2408 -17.9580 -17.7276 -17.6811
   -17.6142 -17.5474 -17.5235 -17.3332 -17.0935  -6.2125  -6.0315  -5.9653
    -5.4810  -5.0426  -4.9830  -4.9643  -4.8105  -4.4982  -4.2421  -4.1445
    -4.0934  -4.0255  -3.9612  -3.9305  -3.8245  -3.8092  -3.7664  -3.3729
    -3.1946  -3.0144  -2.9873  -2.9068  -2.6475  -2.5221  -2.3190  -2.2661
    -2.1782  -2.0218  -2.0166  -1.8148  -1.7521  -1.6367  -1.5164  -1.4230
    -1.3750  -1.3256  -1.2464  -0.9747   3.4219   3.6413   3.7094   3.8107
     3.9522   4.1181   4.1406   4.1883   4.2727   4.3134   4.3506   4.4319
     4.4782   4.5572   4.7088   4.7421   4.8788   5.0645   5.1676   5.3198
     5.5905   5.6608

          k = 0.0000 0.1166 0.0000 ( 37130 PWs)   bands (ev):

   -70.2762 -70.2425 -70.1581 -70.1100 -70.0165 -69.9510 -41.8096 -41.7807
   -41.6932 -41.6751 -41.6540 -41.6264 -41.5702 -41.5283 -41.4782 -41.4773
   -41.4278 -41.3105 -41.3074 -41.2940 -41.2596 -41.2345 -41.2341 -41.1526
   -19.2487 -19.0075 -18.6874 -18.5001 -18.4101 -18.1466 -17.9301 -17.5795
   -17.5262 -17.5215 -17.4903 -17.3321 -17.0873  -5.9753  -5.8019  -5.7417
    -5.4706  -5.0620  -5.0131  -4.9543  -4.6872  -4.3019  -4.2355  -4.1409
    -4.0948  -4.0179  -4.0052  -3.9266  -3.8294  -3.8096  -3.7233  -3.6066
    -3.3099  -3.1247  -2.9566  -2.8246  -2.6682  -2.5183  -2.3700  -2.3194
    -2.2613  -2.1510  -2.0714  -1.9485  -1.7838  -1.7770  -1.7403  -1.5722
    -1.5292  -1.4632  -1.2601  -1.0912   3.4377   3.9513   4.0023   4.1357
     4.1525   4.2021   4.3522   4.3547   4.3841   4.4179   4.4334   4.4554
     4.4836   4.6465   4.7110   4.7709   4.9220   4.9698   5.1869   5.3453
     5.4696   5.7780

          k = 0.0000-0.2332 0.0000 ( 37126 PWs)   bands (ev):

   -70.2763 -70.2426 -70.1582 -70.1101 -70.0167 -69.9511 -41.8058 -41.7806
   -41.6909 -41.6736 -41.6577 -41.6264 -41.5702 -41.5282 -41.4782 -41.4773
   -41.4301 -41.3106 -41.3066 -41.2948 -41.2596 -41.2358 -41.2340 -41.1528
   -19.0050 -18.8750 -18.8134 -18.5632 -18.4296 -18.2843 -18.1668 -17.5237
   -17.4894 -17.4868 -17.4749 -17.3315 -17.0814  -5.7259  -5.5115  -5.4891
    -5.3621  -5.0847  -5.0740  -4.9993  -4.4837  -4.2289  -4.1379  -4.1239
    -4.0962  -4.0095  -3.9228  -3.8918  -3.8101  -3.7456  -3.7322  -3.7060
    -3.5571  -3.4948  -3.0062  -2.9344  -2.6461  -2.5587  -2.5173  -2.4723
    -2.4112  -2.2063  -2.2015  -1.9738  -1.9595  -1.8341  -1.7698  -1.6916
    -1.5883  -1.3604  -1.3462  -1.2192   3.4303   4.1082   4.1627   4.3007
     4.3383   4.3501   4.4696   4.5418   4.5587   4.5801   4.5950   4.6600
     4.7182   4.7867   4.7879   4.8690   4.8862   5.1384   5.1815   5.2160
     5.3011   5.5129

          k = 0.1111 0.0000 0.0000 ( 37175 PWs)   bands (ev):

   -70.2748 -70.2411 -70.1567 -70.1087 -70.0151 -69.9496 -41.8106 -41.7790
   -41.6933 -41.6746 -41.6470 -41.6243 -41.5669 -41.5238 -41.4997 -41.4769
   -41.4217 -41.3328 -41.3300 -41.3150 -41.2574 -41.2551 -41.2287 -41.1753
   -19.2565 -19.0145 -18.6796 -18.3991 -18.1730 -17.9054 -17.6910 -17.6890
   -17.6231 -17.5580 -17.5303 -17.3481 -17.1093  -6.1143  -5.9600  -5.9042
    -5.4420  -5.1136  -4.9602  -4.9215  -4.7986  -4.7397  -4.5299  -4.4948
    -4.3620  -4.0356  -4.0139  -3.8765  -3.5148  -3.3922  -3.3237  -3.2529
    -3.1415  -3.1144  -2.9958  -2.8841  -2.8323  -2.7177  -2.5771  -2.3015
    -2.2230  -2.1406  -2.0659  -1.9458  -1.8427  -1.8287  -1.6571  -1.6465
    -1.4159  -1.4003  -1.2918  -1.0706   3.4802   3.7877   3.8518   3.9602
     3.9610   4.1142   4.2001   4.2539   4.2898   4.3390   4.4477   4.4839
     4.5208   4.6133   4.7208   4.8107   4.8977   4.9976   5.2485   5.2638
     5.5166   5.5772

          k = 0.1111 0.1166 0.0000 ( 37124 PWs)   bands (ev):

   -70.2749 -70.2412 -70.1568 -70.1088 -70.0152 -69.9497 -41.8075 -41.7789
   -41.6914 -41.6734 -41.6502 -41.6243 -41.5669 -41.5238 -41.4996 -41.4769
   -41.4238 -41.3327 -41.3293 -41.3155 -41.2572 -41.2551 -41.2300 -41.1753
   -19.1455 -18.9179 -18.6112 -18.4284 -18.3462 -18.0922 -17.8898 -17.5873
   -17.5356 -17.5291 -17.5001 -17.3458 -17.1033  -5.8805  -5.7179  -5.6676
    -5.4262  -5.1342  -4.9833  -4.9108  -4.7463  -4.5930  -4.4954  -4.4360
    -4.2364  -4.0479  -3.9677  -3.8719  -3.5741  -3.5339  -3.4756  -3.4023
    -3.2742  -3.1855  -2.9778  -2.9207  -2.8539  -2.7564  -2.6626  -2.3829
    -2.2884  -2.2278  -2.1821  -2.0917  -1.9361  -1.9012  -1.7645  -1.6032
    -1.5560  -1.4523  -1.2705  -1.1485   3.4996   4.0900   4.1209   4.1675
     4.2288   4.2454   4.2890   4.3563   4.4131   4.4239   4.4683   4.5273
     4.6249   4.6585   4.7273   4.8743   4.9015   4.9540   5.1398   5.3796
     5.4112   5.5854

          k = 0.1111-0.2332 0.0000 ( 37144 PWs)   bands (ev):

   -70.2749 -70.2413 -70.1569 -70.1088 -70.0153 -69.9498 -41.8042 -41.7789
   -41.6894 -41.6721 -41.6535 -41.6242 -41.5669 -41.5238 -41.4995 -41.4769
   -41.4258 -41.3327 -41.3286 -41.3160 -41.2570 -41.2551 -41.2314 -41.1753
   -18.9167 -18.7819 -18.7329 -18.4869 -18.3673 -18.2237 -18.1169 -17.5358
   -17.5002 -17.4987 -17.4848 -17.3442 -17.0975  -5.6524  -5.4125  -5.3982
    -5.2938  -5.1218  -5.0567  -4.9776  -4.6213  -4.4574  -4.3577  -4.3373
    -4.1072  -3.9755  -3.9380  -3.7855  -3.7799  -3.6238  -3.5855  -3.5455
    -3.4475  -3.4403  -3.2954  -3.1285  -2.9758  -2.8316  -2.6195  -2.5917
    -2.3351  -2.2633  -2.2093  -2.1723  -1.9742  -1.8438  -1.8336  -1.6524
    -1.5690  -1.3513  -1.3489  -1.2521   3.4970   4.2188   4.2301   4.2817
     4.3324   4.4226   4.5446   4.5759   4.5772   4.6283   4.6574   4.7327
     4.7547   4.7809   4.8470   4.9114   4.9134   5.1286   5.1383   5.1463
     5.2439   5.2750

          k = 0.2222 0.0000 0.0000 ( 37192 PWs)   bands (ev):

   -70.2709 -70.2373 -70.1531 -70.1050 -70.0113 -69.9458 -41.8040 -41.7746
   -41.6876 -41.6694 -41.6383 -41.6193 -41.5678 -41.5471 -41.5124 -41.4741
   -41.4118 -41.3898 -41.3862 -41.3700 -41.3169 -41.2439 -41.2336 -41.2176
   -18.9595 -18.7588 -18.4698 -18.2479 -17.9966 -17.7809 -17.7112 -17.6463
   -17.6131 -17.5859 -17.5506 -17.3875 -17.1453  -5.8903  -5.7990  -5.7663
    -5.5465  -5.1872  -5.0999  -4.9913  -4.9068  -4.8661  -4.7051  -4.4789
    -4.3813  -4.1614  -3.9689  -3.8210  -3.7360  -3.6240  -3.4521  -3.2537
    -3.2101  -3.0752  -3.0558  -2.8565  -2.7947  -2.6876  -2.6838  -2.5879
    -2.5307  -2.3785  -2.1280  -2.0935  -2.0264  -1.9929  -1.8383  -1.7747
    -1.6848  -1.4919  -1.4286  -1.3440   3.6054   3.9629   4.0472   4.1088
     4.1157   4.2354   4.2820   4.3605   4.3672   4.4462   4.5045   4.6138
     4.6611   4.6676   4.7271   4.8324   4.9990   5.0616   5.1871   5.2858
     5.3111   5.4239

          k = 0.2222 0.1166 0.0000 ( 37137 PWs)   bands (ev):

   -70.2710 -70.2373 -70.1531 -70.1050 -70.0114 -69.9458 -41.8023 -41.7746
   -41.6868 -41.6690 -41.6407 -41.6193 -41.5676 -41.5469 -41.5124 -41.4741
   -41.4138 -41.3894 -41.3855 -41.3697 -41.3165 -41.2439 -41.2354 -41.2168
   -18.8633 -18.6782 -18.4112 -18.2472 -18.1751 -17.9590 -17.8015 -17.6088
   -17.5637 -17.5450 -17.5252 -17.3819 -17.1401  -5.7595  -5.5684  -5.4974
    -5.4099  -5.1951  -4.9554  -4.9002  -4.8788  -4.8703  -4.6749  -4.5980
    -4.1833  -4.1245  -4.0030  -3.8731  -3.7824  -3.7068  -3.5632  -3.4101
    -3.3106  -3.2268  -3.1266  -3.0355  -2.9994  -2.9153  -2.7462  -2.6833
    -2.6413  -2.3549  -2.2018  -2.1506  -1.9889  -1.9125  -1.8044  -1.7721
    -1.6008  -1.5167  -1.4334  -1.3291   3.6379   4.0352   4.0994   4.1149
     4.2541   4.2963   4.3636   4.4486   4.4919   4.5542   4.5969   4.6392
     4.7210   4.7832   4.8314   4.8589   5.0249   5.0269   5.2115   5.2564
     5.2851   5.3657

          k = 0.2222-0.2332 0.0000 ( 37166 PWs)   bands (ev):

   -70.2710 -70.2374 -70.1531 -70.1050 -70.0114 -69.9458 -41.8005 -41.7746
   -41.6860 -41.6686 -41.6432 -41.6192 -41.5674 -41.5468 -41.5124 -41.4741
   -41.4157 -41.3891 -41.3848 -41.3695 -41.3160 -41.2439 -41.2369 -41.2161
   -18.6825 -18.5312 -18.5170 -18.2907 -18.2047 -18.0747 -17.9910 -17.5719
   -17.5376 -17.5250 -17.5070 -17.3779 -17.1354  -5.7074  -5.3364  -5.2216
    -5.1040  -4.9847  -4.9636  -4.9124  -4.7329  -4.6866  -4.5486  -4.5217
    -4.2406  -4.1274  -4.0528  -4.0106  -3.9073  -3.8567  -3.6433  -3.6022
    -3.5824  -3.5432  -3.3951  -3.2095  -3.0437  -2.9271  -2.8649  -2.7652
    -2.7099  -2.3515  -2.1764  -2.1749  -1.9434  -1.9245  -1.8070  -1.6444
    -1.6233  -1.4533  -1.4499  -1.3302   3.6492   4.0938   4.1087   4.2499
     4.2709   4.3156   4.5172   4.6061   4.6161   4.7467   4.7691   4.8039
     4.8280   4.8371   4.9447   4.9696   4.9859   4.9930   5.0351   5.0693
     5.0944   5.1374

          k = 0.3333 0.0000 0.0000 ( 37184 PWs)   bands (ev):

   -70.2657 -70.2321 -70.1479 -70.0998 -70.0061 -69.9405 -41.7967 -41.7699
   -41.6815 -41.6637 -41.6310 -41.6283 -41.6105 -41.5431 -41.4993 -41.4729
   -41.4554 -41.4514 -41.4318 -41.4006 -41.3857 -41.3008 -41.2311 -41.2049
   -18.5551 -18.4264 -18.2111 -18.0652 -17.7944 -17.7407 -17.6795 -17.6739
   -17.6194 -17.5909 -17.5687 -17.4276 -17.1703  -6.1951  -5.6540  -5.5307
    -5.4373  -5.2438  -5.2286  -5.0748  -5.0171  -4.8048  -4.6605  -4.6316
    -4.5359  -4.1764  -4.1333  -4.0132  -3.8880  -3.7525  -3.6144  -3.5437
    -3.3962  -3.3182  -3.1658  -2.9464  -2.8699  -2.8016  -2.7763  -2.6113
    -2.5496  -2.2893  -2.1949  -2.1364  -2.0612  -2.0236  -1.9610  -1.8032
    -1.8005  -1.6614  -1.6402  -1.6184   3.7536   3.9803   4.1113   4.1501
     4.3140   4.3411   4.4263   4.4795   4.5242   4.5855   4.6026   4.6694
     4.7312   4.7458   4.7958   4.9195   4.9281   5.0436   5.0890   5.2557
     5.3241   5.4545

          k = 0.3333 0.1166 0.0000 ( 37206 PWs)   bands (ev):

   -70.2656 -70.2320 -70.1479 -70.0997 -70.0061 -69.9404 -41.7967 -41.7699
   -41.6821 -41.6644 -41.6366 -41.6240 -41.6101 -41.5431 -41.4993 -41.4730
   -41.4547 -41.4503 -41.4333 -41.3998 -41.3848 -41.3014 -41.2311 -41.2048
   -18.4892 -18.3702 -18.1664 -18.0435 -17.9611 -17.8275 -17.7306 -17.6472
   -17.6050 -17.5763 -17.5473 -17.4219 -17.1682  -6.1780  -5.3927  -5.3221
    -5.2773  -5.2371  -5.1061  -5.0513  -4.9246  -4.8536  -4.7296  -4.5876
    -4.4219  -4.3321  -4.2530  -4.0772  -3.8745  -3.7669  -3.6812  -3.6104
    -3.5076  -3.2869  -3.1985  -3.1342  -3.0199  -2.9167  -2.8556  -2.6682
    -2.4227  -2.3480  -2.2357  -2.1568  -2.0969  -2.0816  -1.9547  -1.8254
    -1.7740  -1.6889  -1.5792  -1.5159   3.7819   3.9584   4.0276   4.0904
     4.1432   4.2245   4.3533   4.4363   4.4858   4.5869   4.6784   4.7489
     4.8066   4.8852   4.9251   4.9652   5.0295   5.0913   5.1172   5.1967
     5.2739   5.2939

          k = 0.3333-0.2332 0.0000 ( 37216 PWs)   bands (ev):

   -70.2656 -70.2319 -70.1479 -70.0997 -70.0061 -69.9403 -41.7966 -41.7699
   -41.6827 -41.6650 -41.6398 -41.6222 -41.6098 -41.5431 -41.4993 -41.4730
   -41.4541 -41.4492 -41.4347 -41.3992 -41.3839 -41.3020 -41.2311 -41.2048
   -18.3980 -18.2321 -18.2078 -18.0670 -18.0058 -17.9161 -17.8515 -17.6326
   -17.5896 -17.5677 -17.5318 -17.4193 -17.1663  -6.1666  -5.2312  -5.1716
    -5.0102  -4.9818  -4.9260  -4.9070  -4.8754  -4.7928  -4.7843  -4.7032
    -4.4455  -4.3031  -4.2967  -4.1735  -4.0868  -3.8530  -3.8025  -3.7714
    -3.6229  -3.5445  -3.3312  -3.1176  -3.0198  -2.9143  -2.8373  -2.6657
    -2.6322  -2.2930  -2.2737  -2.2547  -2.0887  -2.0212  -1.8958  -1.8701
    -1.8231  -1.6390  -1.5414  -1.4476   3.7920   3.9329   3.9492   4.0479
     4.0628   4.2480   4.3933   4.4272   4.4820   4.5028   4.6006   4.6229
     4.8955   4.9042   4.9558   5.0548   5.0820   5.0906   5.1444   5.1847
     5.1919   5.2550

          k = 0.4444 0.0000 0.0000 ( 37180 PWs)   bands (ev):

   -70.2617 -70.2281 -70.1440 -70.0959 -70.0021 -69.9363 -41.7922 -41.7670
   -41.6776 -41.6733 -41.6601 -41.6216 -41.6087 -41.5364 -41.5006 -41.4946
   -41.4907 -41.4821 -41.4612 -41.4311 -41.3932 -41.3451 -41.2228 -41.1966
   -18.2304 -18.1183 -18.0082 -17.9279 -17.7623 -17.7562 -17.6926 -17.6554
   -17.6448 -17.6423 -17.5896 -17.4235 -17.1696  -6.5268  -5.6678  -5.4622
    -5.3862  -5.2043  -5.1742  -5.1503  -5.0028  -4.9273  -4.9085  -4.7646
    -4.4513  -4.4118  -4.1881  -4.0553  -3.8479  -3.7859  -3.5950  -3.4390
    -3.3255  -3.2935  -3.2828  -3.2146  -3.2070  -2.7587  -2.7319  -2.5569
    -2.5200  -2.4375  -2.3270  -2.1879  -2.1644  -2.0986  -1.9938  -1.9900
    -1.9057  -1.7650  -1.6296  -1.5131   3.8702   4.0440   4.1679   4.2743
     4.2799   4.3253   4.4233   4.4800   4.5925   4.5939   4.6699   4.7275
     4.7844   4.7926   4.9467   4.9997   5.0312   5.1031   5.1530   5.2214
     5.2938   5.3856

          k = 0.4444 0.1166 0.0000 ( 37248 PWs)   bands (ev):

   -70.2617 -70.2280 -70.1439 -70.0957 -70.0021 -69.9362 -41.7933 -41.7670
   -41.6794 -41.6745 -41.6616 -41.6209 -41.6087 -41.5364 -41.4998 -41.4929
   -41.4907 -41.4825 -41.4615 -41.4298 -41.3927 -41.3456 -41.2228 -41.1965
   -18.2179 -18.0765 -17.9766 -17.9079 -17.8178 -17.7446 -17.7388 -17.6882
   -17.6456 -17.6355 -17.5882 -17.4315 -17.1695  -6.5163  -5.5525  -5.4770
    -5.3492  -5.1931  -5.1607  -5.0531  -4.9917  -4.9421  -4.8061  -4.6577
    -4.5180  -4.2139  -4.1352  -3.9515  -3.8649  -3.8038  -3.7460  -3.6174
    -3.5699  -3.4298  -3.3851  -3.2648  -2.8766  -2.8670  -2.7047  -2.5463
    -2.4084  -2.3569  -2.2849  -2.2610  -2.1744  -2.1313  -2.0882  -2.0567
    -1.9327  -1.8117  -1.6814  -1.5576   3.8786   3.9376   3.9981   4.0380
     4.1034   4.1854   4.3022   4.4157   4.4562   4.5442   4.5959   4.6561
     4.9086   4.9516   4.9898   5.0547   5.0672   5.0960   5.1532   5.1969
     5.2162   5.2495

          k = 0.4444-0.2332 0.0000 ( 37264 PWs)   bands (ev):

   -70.2616 -70.2279 -70.1439 -70.0956 -70.0020 -69.9361 -41.7943 -41.7670
   -41.6811 -41.6756 -41.6631 -41.6202 -41.6086 -41.5364 -41.4989 -41.4913
   -41.4908 -41.4828 -41.4618 -41.4284 -41.3923 -41.3462 -41.2228 -41.1963
   -18.2058 -17.9732 -17.9699 -17.9137 -17.8528 -17.7846 -17.7560 -17.7271
   -17.6431 -17.6281 -17.5921 -17.4405 -17.1694  -6.5074  -5.5090  -5.4495
    -5.4095  -5.2124  -5.1250  -4.8872  -4.8441  -4.7605  -4.7089  -4.5093
    -4.3300  -4.3058  -4.1262  -4.1094  -4.0620  -3.9696  -3.7835  -3.7721
    -3.5629  -3.4976  -3.4240  -3.2479  -2.9238  -2.7552  -2.5606  -2.4849
    -2.4084  -2.3915  -2.3901  -2.3104  -2.3000  -2.1991  -2.0379  -1.9504
    -1.9224  -1.8593  -1.8050  -1.6096   3.7945   3.8709   3.8737   3.9210
     3.9410   4.1402   4.2644   4.3041   4.3974   4.4321   4.5013   4.5136
     4.9176   4.9543   5.0320   5.0434   5.1673   5.1857   5.2027   5.2306
     5.2498   5.4020

     the Fermi energy is    -0.1113 ev

!    total energy              =   -1594.38928434 Ry
     estimated scf accuracy    <       0.00000042 Ry
     smearing contrib. (-TS)   =      -0.00029945 Ry
     internal energy E=F+TS    =   -1594.38898490 Ry

     The total energy is F=E-TS. E is the sum of the following terms:
     one-electron contribution =  -15594.48373365 Ry
     hartree contribution      =    7823.13071890 Ry
     xc contribution           =    -232.00310368 Ry
     ewald contribution        =    6530.92609983 Ry
     Hubbard energy            =       1.78467175 Ry
     one-center paw contrib.   =    -123.74363805 Ry

     total magnetization       =    11.00 Bohr mag/cell
     absolute magnetization    =    21.94 Bohr mag/cell

     convergence has been achieved in  31 iterations

     negative rho (up, down):  2.661E-03 2.699E-02
     force_hub    :      0.89s CPU      0.91s WALL (       1 calls)
     dndtau       :      0.70s CPU      0.71s WALL (     480 calls)
     dprojdtau    :      0.06s CPU      0.06s WALL (    2880 calls)
     matel_dSdtau :      0.61s CPU      0.62s WALL (     480 calls)

     Forces acting on atoms (cartesian axes, Ry/au):

     atom    1 type  1   force =     0.00006086    0.00000000    0.06090449
     atom    2 type  1   force =     0.00031591    0.00000000   -0.03419681
     atom    3 type  1   force =     0.00110134    0.00000000   -0.00780772
     atom    4 type  1   force =     0.00003417    0.00000000   -0.00435877
     atom    5 type  1   force =    -0.00203639    0.00000000   -0.01933111
     atom    6 type  1   force =     0.00122419    0.00000000   -0.02004467
     atom    7 type  3   force =    -0.00140694    0.00000000    0.04359482
     atom    8 type  3   force =    -0.00017375    0.00000000   -0.01119453
     atom    9 type  3   force =    -0.00001369   -0.00456804   -0.03855383
     atom   10 type  3   force =    -0.00001369    0.00456804   -0.03855383
     atom   11 type  3   force =    -0.00106042    0.00000000    0.00951540
     atom   12 type  3   force =    -0.00212099    0.00000000   -0.00334573
     atom   13 type  3   force =     0.00074114   -0.00150095    0.00126362
     atom   14 type  3   force =     0.00074114    0.00150095    0.00126362
     atom   15 type  3   force =    -0.00015196    0.00000000    0.02672066
     atom   16 type  3   force =     0.00025509    0.00000000    0.00897995
     atom   17 type  3   force =     0.00151947   -0.00228317    0.00176014
     atom   18 type  3   force =     0.00151947    0.00228317    0.00176014
     atom   19 type  3   force =    -0.00033790    0.00000000    0.01964610
     atom   20 type  2   force =    -0.00019707    0.00000000    0.00197804

     Total force =     0.046570     Total SCF correction =     0.000914

     Writing all to output data dir ./tmp_s0_OH__u550/s0_OH__u550.save/ :
     XML data file, charge density, pseudopotentials, collected wavefunctions

     init_run     :      3.24s CPU      3.36s WALL (       1 calls)
     electrons    :    129.56s CPU    131.16s WALL (       1 calls)
     forces       :      1.58s CPU      1.60s WALL (       1 calls)

     Called by init_run:
     wfcinit      :      1.49s CPU      1.52s WALL (       1 calls)
     potinit      :      0.81s CPU      0.84s WALL (       1 calls)
     hinit0       :      0.50s CPU      0.53s WALL (       1 calls)

     Called by electrons:
     c_bands      :    100.49s CPU    101.63s WALL (      31 calls)
     sum_band     :     18.18s CPU     18.46s WALL (      31 calls)
     v_of_rho     :      3.57s CPU      3.62s WALL (      32 calls)
     newd         :      1.80s CPU      1.83s WALL (      32 calls)
     PAW_pot      :      1.84s CPU      1.85s WALL (      32 calls)
     mix_rho      :      3.10s CPU      3.15s WALL (      31 calls)

     Called by c_bands:
     init_us_2    :      1.87s CPU      1.90s WALL (     528 calls)
     cegterg      :     70.52s CPU     71.38s WALL (     248 calls)

     Called by *egterg:
     cdiaghg      :      9.23s CPU      9.30s WALL (     991 calls)
     h_psi        :     45.44s CPU     46.13s WALL (     999 calls)
     s_psi        :      3.56s CPU      3.59s WALL (    1015 calls)
     g_psi        :      0.23s CPU      0.23s WALL (     743 calls)

     Called by h_psi:
     h_psi:calbec :      4.73s CPU      4.77s WALL (     999 calls)
     vloc_psi     :     35.11s CPU     35.72s WALL (     999 calls)
                                        0.00s GPU  (     999 calls)
     add_vuspsi   :      3.26s CPU      3.29s WALL (     999 calls)
     vhpsi        :      1.91s CPU      1.93s WALL (     999 calls)

     General routines
     calbec       :      9.43s CPU      9.52s WALL (    4470 calls)
     fft          :      2.59s CPU      2.63s WALL (     813 calls)
     ffts         :      2.09s CPU      2.11s WALL (    3816 calls)
     fftw         :     40.55s CPU     41.22s WALL (  126864 calls)
     interpolate  :      0.52s CPU      0.52s WALL (      64 calls)

     Parallel routines

     Hubbard U routines
     new_ns       :      0.93s CPU      0.95s WALL (      31 calls)
     vhpsi        :      1.91s CPU      1.93s WALL (     999 calls)
     force_hub    :      0.89s CPU      0.91s WALL (       1 calls)

     PWSCF        :   2m15.11s CPU   2m17.17s WALL


   This run was terminated on:   6:15:40  28Aug2026            

=------------------------------------------------------------------------------=
   JOB DONE.
=------------------------------------------------------------------------------=
Note: The following floating-point exceptions are signalling: IEEE_DENORMAL
Note: The following floating-point exceptions are signalling: IEEE_DENORMAL
Note: The following floating-point exceptions are signalling: IEEE_DENORMAL
Note: The following floating-point exceptions are signalling: IEEE_DENORMAL
