
     Program PWSCF v.7.5 starts on 28Aug2026 at  6:50:21 

     This program is part of the open-source Quantum ESPRESSO suite
     for quantum simulation of materials; please cite
         "P. Giannozzi et al., J. Phys.:Condens. Matter 21 395502 (2009);
         "P. Giannozzi et al., J. Phys.:Condens. Matter 29 465901 (2017);
         "P. Giannozzi et al., J. Chem. Phys. 152 154105 (2020);
          URL http://www.quantum-espresso.org", 
     in publications or presentations arising from this work. More details at
     http://www.quantum-espresso.org/quote

     Parallel version (MPI & OpenMP), running on     128 processor cores
     Number of MPI processes:               128
     Threads/MPI process:                     1

     MPI processes distributed on     1 nodes
     221896 MiB available memory on the printing compute node when the environment starts

     Reading input from s0_OOH__u150.run.in

     Current dimensions of program PWSCF are:
     Max number of different atomic species (ntypx) = 10
     Max number of k-points (npk) =  40000
     Max angular momentum in pseudopotentials (lmaxx) =  4
     file O.pbe-n-kjpaw_psl.0.1.UPF: wavefunction(s)  2P renormalized
     Message from routine setup:
     using ibrav=0 with symmetry is DISCOURAGED, use correct ibrav instead

     K-points division:     npool     =       4
     R & G space division:  proc/nbgrp/npool/nimage =      32
     Subspace diagonalization in iterative solution of the eigenvalue problem:
     a serial algorithm will be used


     Parallelization info
     --------------------
     sticks:   dense  smooth     PW     G-vecs:    dense   smooth      PW
     Min         103      51     14                26275     9281    1388
     Max         104      52     15                26300     9316    1415
     Sum        3323    1653    471               841263   297421   44917

     Using Slab Decomposition



     bravais-lattice index     =            0
     lattice parameter (alat)  =       5.5104  a.u.
     unit-cell volume          =    3076.9124 (a.u.)^3
     number of atoms/cell      =           21
     number of atomic types    =            3
     number of electrons       =       169.00
     number of Kohn-Sham states=          102
     kinetic-energy cutoff     =      80.0000  Ry
     charge density cutoff     =     640.0000  Ry
     scf convergence threshold =      1.0E-06
     mixing beta               =       0.3000
     number of iterations used =            8  local-TF  mixing
     Exchange-correlation= SLA  PW   PBX  PBC
                           (   1   4   3   4   0   0   0)
     Hubbard projectors: atomic
     Hubbard parameters of DFT+U (Dudarev formulation) in eV:
     U(Cr-3d) =  1.5000

     Internal variables: lda_plus_u =T, lda_plus_u_kind = 0

     Internal variables: orbital_resolved =F, hub_pot_fix =F, apply_U = F

     celldm(1)=   5.510441  celldm(2)=   0.000000  celldm(3)=   0.000000
     celldm(4)=   0.000000  celldm(5)=   0.000000  celldm(6)=   0.000000

     crystal axes: (cart. coord. in units of alat)
               a(1) = (   1.000000   0.000000   0.000000 )  
               a(2) = (   0.000000   2.144115   0.000000 )  
               a(3) = (   0.000000   0.000000   8.576458 )  

     reciprocal axes: (cart. coord. in units 2 pi/alat)
               b(1) = (  1.000000  0.000000  0.000000 )  
               b(2) = (  0.000000  0.466393  0.000000 )  
               b(3) = (  0.000000  0.000000  0.116598 )  


     PseudoPot. # 1 for Cr read from file:
     /anvil/projects/x-che260157/pseudo/cr_pbe_v1.5.uspp.F.UPF
     MD5 check sum: 0d52af634a40206e4dee301ad30da4bf
     Pseudo is Ultrasoft + core correction, Zval = 14.0
     Generated by new atomic code, or converted to UPF format
     Using radial grid of  857 points,  6 beta functions with: 
                l(1) =   0
                l(2) =   0
                l(3) =   1
                l(4) =   1
                l(5) =   2
                l(6) =   2
     Q(r) pseudized with  8 coefficients,  rinner =    0.950   0.950   0.950
                                                       0.950   0.950

     PseudoPot. # 2 for H  read from file:
     /anvil/projects/x-che260157/pseudo/H.pbe-rrkjus_psl.1.0.0.UPF
     MD5 check sum: f52b6d4d1c606e5624b1dc7b2218f220
     Pseudo is Ultrasoft, Zval =  1.0
     Generated using "atomic" code by A. Dal Corso  v.5.1
     Using radial grid of  929 points,  2 beta functions with: 
                l(1) =   0
                l(2) =   0
     Q(r) pseudized with 0 coefficients 


     PseudoPot. # 3 for O  read from file:
     /anvil/projects/x-che260157/pseudo/O.pbe-n-kjpaw_psl.0.1.UPF
     MD5 check sum: 0234752ac141de4415c5fc33072bef88
     Pseudo is Projector augmented-wave + core cor, Zval =  6.0
     Generated using "atomic" code by A. Dal Corso  v.5.0.99 svn rev. 10869
     Shape of augmentation charge: BESSEL
     Using radial grid of 1095 points,  4 beta functions with: 
                l(1) =   0
                l(2) =   0
                l(3) =   1
                l(4) =   1
     Q(r) pseudized with 0 coefficients 


     atomic species   valence    mass     pseudopotential
     Cr               14.00    51.99600     Cr( 1.00)
     H                 1.00     1.00800     H ( 1.00)
     O                 6.00    15.99900     O ( 1.00)

     Starting magnetic structure 
     atomic species   magnetization
     Cr              0.600
     H               0.000
     O               0.000

      2 Sym. Ops. (no inversion) found ( 1 have fractional translation)



   Cartesian axes

     site n.     atom                  positions (alat units)
         1        Cr     tau(   1) = (   0.0000000   0.5360286   3.2161719  )
         2        Cr     tau(   2) = (   0.5000000   1.6080859   3.2161719  )
         3        Cr     tau(   3) = (   0.0011527   1.6080859   4.3089263  )
         4        Cr     tau(   4) = (   0.4993817   0.5360286   4.2961656  )
         5        Cr     tau(   5) = (  -0.0085889   0.5360286   5.3745755  )
         6        Cr     tau(   6) = (   0.5028693   1.6080859   5.4254587  )
         7        O      tau(   7) = (   0.0000000   1.6080859   3.6342742  )
         8        O      tau(   8) = (   0.0000000   1.6080859   2.7980695  )
         9        O      tau(   9) = (   0.5000000   0.1179263   3.2161719  )
        10        O      tau(  10) = (   0.5000000   0.9541310   3.2161719  )
        11        O      tau(  11) = (  -0.0015627   0.5360286   4.7288986  )
        12        O      tau(  12) = (   0.0000000   0.5360286   3.8701268  )
        13        O      tau(  13) = (   0.5010389   1.1848813   4.3017892  )
        14        O      tau(  14) = (   0.5010389   2.0312906   4.3017892  )
        15        O      tau(  15) = (  -0.0029502   1.6080859   5.8123958  )
        16        O      tau(  16) = (   0.0026206   1.6080859   4.9663566  )
        17        O      tau(  17) = (   0.4972029   0.1158953   5.4026833  )
        18        O      tau(  18) = (   0.4972029   0.9561620   5.4026833  )
        19        O      tau(  19) = (   0.0860179   0.5360286   6.0803268  )
        20        O      tau(  20) = (  -0.1886167   0.5360286   6.4573034  )
        21        H      tau(  21) = (  -0.5167581   0.5360286   6.3029246  )

     number of k points=    15  Marzari-Vanderbilt smearing, width (Ry)=  0.0100
                       cart. coord. in units 2pi/alat
        k(    1) = (   0.0000000   0.0000000   0.0000000), wk =   0.0277778
        k(    2) = (   0.0000000   0.1165982   0.0000000), wk =   0.0555556
        k(    3) = (   0.0000000  -0.2331965   0.0000000), wk =   0.0277778
        k(    4) = (   0.1111111   0.0000000   0.0000000), wk =   0.0555556
        k(    5) = (   0.1111111   0.1165982   0.0000000), wk =   0.1111111
        k(    6) = (   0.1111111  -0.2331965   0.0000000), wk =   0.0555556
        k(    7) = (   0.2222222   0.0000000   0.0000000), wk =   0.0555556
        k(    8) = (   0.2222222   0.1165982   0.0000000), wk =   0.1111111
        k(    9) = (   0.2222222  -0.2331965   0.0000000), wk =   0.0555556
        k(   10) = (   0.3333333   0.0000000   0.0000000), wk =   0.0555556
        k(   11) = (   0.3333333   0.1165982   0.0000000), wk =   0.1111111
        k(   12) = (   0.3333333  -0.2331965   0.0000000), wk =   0.0555556
        k(   13) = (   0.4444444   0.0000000   0.0000000), wk =   0.0555556
        k(   14) = (   0.4444444   0.1165982   0.0000000), wk =   0.1111111
        k(   15) = (   0.4444444  -0.2331965   0.0000000), wk =   0.0555556

     Dense  grid:   841263 G-vectors     FFT dimensions: (  45,  96, 384)

     Smooth grid:   297421 G-vectors     FFT dimensions: (  32,  72, 270)

     Estimated max dynamical RAM per process >      80.23 MB

     Estimated total dynamical RAM >       8.82 GB

     Check: negative core charge=   -0.000001
     Generating pointlists ...
     new r_m :   0.2589 (alat units)  1.4267 (a.u.) for type    1
     new r_m :   0.1496 (alat units)  0.8243 (a.u.) for type    2
     new r_m :   0.1496 (alat units)  0.8243 (a.u.) for type    3

     Initial potential from superposition of free atoms

     starting charge     162.9999, renormalised to     169.0000

     negative rho (up, down):  4.250E-03 1.037E-03

     STARTING HUBBARD OCCUPATIONS:

     =================== HUBBARD OCCUPATIONS ===================
     ------------------------ ATOM    1 ------------------------
     Tr[ns(  1)] (up, down, total) =   3.40000  0.00000  3.40000
     Atomic magnetic moment for atom   1 =   3.40000
     SPIN  1
     eigenvalues:
       0.680  0.680  0.680  0.680  0.680
     eigenvectors (columns):
       1.000  0.000  0.000  0.000  0.000
       0.000  1.000  0.000  0.000  0.000
       0.000  0.000  1.000  0.000  0.000
       0.000  0.000  0.000  1.000  0.000
       0.000  0.000  0.000  0.000  1.000
     occupation matrix ns (before diag.):
       0.680  0.000  0.000  0.000  0.000
       0.000  0.680  0.000  0.000  0.000
       0.000  0.000  0.680  0.000  0.000
       0.000  0.000  0.000  0.680  0.000
       0.000  0.000  0.000  0.000  0.680
     SPIN  2
     eigenvalues:
       0.000  0.000  0.000  0.000  0.000
     eigenvectors (columns):
       1.000  0.000  0.000  0.000  0.000
       0.000  1.000  0.000  0.000  0.000
       0.000  0.000  1.000  0.000  0.000
       0.000  0.000  0.000  1.000  0.000
       0.000  0.000  0.000  0.000  1.000
     occupation matrix ns (before diag.):
       0.000  0.000  0.000  0.000  0.000
       0.000  0.000  0.000  0.000  0.000
       0.000  0.000  0.000  0.000  0.000
       0.000  0.000  0.000  0.000  0.000
       0.000  0.000  0.000  0.000  0.000
     ------------------------ ATOM    2 ------------------------
     Tr[ns(  2)] (up, down, total) =   3.40000  0.00000  3.40000
     Atomic magnetic moment for atom   2 =   3.40000
     SPIN  1
     eigenvalues:
       0.680  0.680  0.680  0.680  0.680
     eigenvectors (columns):
       1.000  0.000  0.000  0.000  0.000
       0.000  1.000  0.000  0.000  0.000
       0.000  0.000  1.000  0.000  0.000
       0.000  0.000  0.000  1.000  0.000
       0.000  0.000  0.000  0.000  1.000
     occupation matrix ns (before diag.):
       0.680  0.000  0.000  0.000  0.000
       0.000  0.680  0.000  0.000  0.000
       0.000  0.000  0.680  0.000  0.000
       0.000  0.000  0.000  0.680  0.000
       0.000  0.000  0.000  0.000  0.680
     SPIN  2
     eigenvalues:
       0.000  0.000  0.000  0.000  0.000
     eigenvectors (columns):
       1.000  0.000  0.000  0.000  0.000
       0.000  1.000  0.000  0.000  0.000
       0.000  0.000  1.000  0.000  0.000
       0.000  0.000  0.000  1.000  0.000
       0.000  0.000  0.000  0.000  1.000
     occupation matrix ns (before diag.):
       0.000  0.000  0.000  0.000  0.000
       0.000  0.000  0.000  0.000  0.000
       0.000  0.000  0.000  0.000  0.000
       0.000  0.000  0.000  0.000  0.000
       0.000  0.000  0.000  0.000  0.000
     ------------------------ ATOM    3 ------------------------
     Tr[ns(  3)] (up, down, total) =   3.40000  0.00000  3.40000
     Atomic magnetic moment for atom   3 =   3.40000
     SPIN  1
     eigenvalues:
       0.680  0.680  0.680  0.680  0.680
     eigenvectors (columns):
       1.000  0.000  0.000  0.000  0.000
       0.000  1.000  0.000  0.000  0.000
       0.000  0.000  1.000  0.000  0.000
       0.000  0.000  0.000  1.000  0.000
       0.000  0.000  0.000  0.000  1.000
     occupation matrix ns (before diag.):
       0.680  0.000  0.000  0.000  0.000
       0.000  0.680  0.000  0.000  0.000
       0.000  0.000  0.680  0.000  0.000
       0.000  0.000  0.000  0.680  0.000
       0.000  0.000  0.000  0.000  0.680
     SPIN  2
     eigenvalues:
       0.000  0.000  0.000  0.000  0.000
     eigenvectors (columns):
       1.000  0.000  0.000  0.000  0.000
       0.000  1.000  0.000  0.000  0.000
       0.000  0.000  1.000  0.000  0.000
       0.000  0.000  0.000  1.000  0.000
       0.000  0.000  0.000  0.000  1.000
     occupation matrix ns (before diag.):
       0.000  0.000  0.000  0.000  0.000
       0.000  0.000  0.000  0.000  0.000
       0.000  0.000  0.000  0.000  0.000
       0.000  0.000  0.000  0.000  0.000
       0.000  0.000  0.000  0.000  0.000
     ------------------------ ATOM    4 ------------------------
     Tr[ns(  4)] (up, down, total) =   3.40000  0.00000  3.40000
     Atomic magnetic moment for atom   4 =   3.40000
     SPIN  1
     eigenvalues:
       0.680  0.680  0.680  0.680  0.680
     eigenvectors (columns):
       1.000  0.000  0.000  0.000  0.000
       0.000  1.000  0.000  0.000  0.000
       0.000  0.000  1.000  0.000  0.000
       0.000  0.000  0.000  1.000  0.000
       0.000  0.000  0.000  0.000  1.000
     occupation matrix ns (before diag.):
       0.680  0.000  0.000  0.000  0.000
       0.000  0.680  0.000  0.000  0.000
       0.000  0.000  0.680  0.000  0.000
       0.000  0.000  0.000  0.680  0.000
       0.000  0.000  0.000  0.000  0.680
     SPIN  2
     eigenvalues:
       0.000  0.000  0.000  0.000  0.000
     eigenvectors (columns):
       1.000  0.000  0.000  0.000  0.000
       0.000  1.000  0.000  0.000  0.000
       0.000  0.000  1.000  0.000  0.000
       0.000  0.000  0.000  1.000  0.000
       0.000  0.000  0.000  0.000  1.000
     occupation matrix ns (before diag.):
       0.000  0.000  0.000  0.000  0.000
       0.000  0.000  0.000  0.000  0.000
       0.000  0.000  0.000  0.000  0.000
       0.000  0.000  0.000  0.000  0.000
       0.000  0.000  0.000  0.000  0.000
     ------------------------ ATOM    5 ------------------------
     Tr[ns(  5)] (up, down, total) =   3.40000  0.00000  3.40000
     Atomic magnetic moment for atom   5 =   3.40000
     SPIN  1
     eigenvalues:
       0.680  0.680  0.680  0.680  0.680
     eigenvectors (columns):
       1.000  0.000  0.000  0.000  0.000
       0.000  1.000  0.000  0.000  0.000
       0.000  0.000  1.000  0.000  0.000
       0.000  0.000  0.000  1.000  0.000
       0.000  0.000  0.000  0.000  1.000
     occupation matrix ns (before diag.):
       0.680  0.000  0.000  0.000  0.000
       0.000  0.680  0.000  0.000  0.000
       0.000  0.000  0.680  0.000  0.000
       0.000  0.000  0.000  0.680  0.000
       0.000  0.000  0.000  0.000  0.680
     SPIN  2
     eigenvalues:
       0.000  0.000  0.000  0.000  0.000
     eigenvectors (columns):
       1.000  0.000  0.000  0.000  0.000
       0.000  1.000  0.000  0.000  0.000
       0.000  0.000  1.000  0.000  0.000
       0.000  0.000  0.000  1.000  0.000
       0.000  0.000  0.000  0.000  1.000
     occupation matrix ns (before diag.):
       0.000  0.000  0.000  0.000  0.000
       0.000  0.000  0.000  0.000  0.000
       0.000  0.000  0.000  0.000  0.000
       0.000  0.000  0.000  0.000  0.000
       0.000  0.000  0.000  0.000  0.000
     ------------------------ ATOM    6 ------------------------
     Tr[ns(  6)] (up, down, total) =   3.40000  0.00000  3.40000
     Atomic magnetic moment for atom   6 =   3.40000
     SPIN  1
     eigenvalues:
       0.680  0.680  0.680  0.680  0.680
     eigenvectors (columns):
       1.000  0.000  0.000  0.000  0.000
       0.000  1.000  0.000  0.000  0.000
       0.000  0.000  1.000  0.000  0.000
       0.000  0.000  0.000  1.000  0.000
       0.000  0.000  0.000  0.000  1.000
     occupation matrix ns (before diag.):
       0.680  0.000  0.000  0.000  0.000
       0.000  0.680  0.000  0.000  0.000
       0.000  0.000  0.680  0.000  0.000
       0.000  0.000  0.000  0.680  0.000
       0.000  0.000  0.000  0.000  0.680
     SPIN  2
     eigenvalues:
       0.000  0.000  0.000  0.000  0.000
     eigenvectors (columns):
       1.000  0.000  0.000  0.000  0.000
       0.000  1.000  0.000  0.000  0.000
       0.000  0.000  1.000  0.000  0.000
       0.000  0.000  0.000  1.000  0.000
       0.000  0.000  0.000  0.000  1.000
     occupation matrix ns (before diag.):
       0.000  0.000  0.000  0.000  0.000
       0.000  0.000  0.000  0.000  0.000
       0.000  0.000  0.000  0.000  0.000
       0.000  0.000  0.000  0.000  0.000
       0.000  0.000  0.000  0.000  0.000

     Number of occupied Hubbard levels =   20.4000

     Atomic wfc used for Hubbard projectors are NOT orthogonalized

     Starting wfcs are  117 randomized atomic wfcs
     Checking if some PAW data can be deallocated... 

     total cpu time spent up to now is        4.8 secs

     per-process dynamical memory:   108.8 Mb

     Self-consistent Calculation

     iteration #  1     ecut=    80.00 Ry     beta= 0.30
     Davidson diagonalization with overlap
     ethr =  1.00E-02,  avg # of iterations =  4.7

     =================== HUBBARD OCCUPATIONS ===================
     ------------------------ ATOM    1 ------------------------
     Tr[ns(  1)] (up, down, total) =   4.97066  1.06239  6.03305
     Atomic magnetic moment for atom   1 =   3.90826
     SPIN  1
     eigenvalues:
       0.987  0.995  0.996  0.996  0.997
     eigenvectors (columns):
       0.981  0.193 -0.000 -0.000 -0.000
      -0.000  0.001  1.000  0.000 -0.000
       0.000 -0.000  0.000 -0.002  1.000
      -0.193  0.981 -0.001 -0.000  0.000
      -0.000  0.000 -0.000  1.000  0.002
     occupation matrix ns (before diag.):
       0.988  0.000 -0.000  0.001  0.000
       0.000  0.996 -0.000 -0.000  0.000
      -0.000 -0.000  0.997  0.000  0.000
       0.001 -0.000  0.000  0.995 -0.000
       0.000  0.000  0.000 -0.000  0.996
     SPIN  2
     eigenvalues:
       0.072  0.207  0.213  0.258  0.312
     eigenvectors (columns):
      -0.000 -0.000 -0.001 -0.971 -0.238
      -0.000 -0.000 -1.000  0.001 -0.000
      -1.000 -0.000  0.000  0.000 -0.000
       0.000  0.000  0.000  0.238 -0.971
      -0.000  1.000 -0.000 -0.000  0.000
     occupation matrix ns (before diag.):
       0.261 -0.000 -0.000  0.013  0.000
      -0.000  0.213 -0.000  0.000  0.000
      -0.000 -0.000  0.072  0.000 -0.000
       0.013  0.000  0.000  0.309 -0.000
       0.000  0.000 -0.000 -0.000  0.207
     ------------------------ ATOM    2 ------------------------
     Tr[ns(  2)] (up, down, total) =   4.97643  0.75317  5.72959
     Atomic magnetic moment for atom   2 =   4.22326
     SPIN  1
     eigenvalues:
       0.994  0.995  0.996  0.996  0.996
     eigenvectors (columns):
      -0.819  0.000 -0.573 -0.020  0.000
       0.001 -0.000  0.035 -0.999  0.000
      -0.000  0.004  0.000 -0.000 -1.000
       0.573 -0.000 -0.819 -0.028 -0.000
       0.000  1.000  0.000 -0.000  0.004
     occupation matrix ns (before diag.):
       0.995  0.000 -0.000  0.001  0.000
       0.000  0.996 -0.000  0.000  0.000
      -0.000 -0.000  0.996  0.000 -0.000
       0.001  0.000  0.000  0.995 -0.000
       0.000  0.000 -0.000 -0.000  0.995
     SPIN  2
     eigenvalues:
       0.086  0.086  0.147  0.215  0.219
     eigenvectors (columns):
       0.943  0.000  0.000 -0.333 -0.001
       0.000 -0.000 -0.000 -0.004  1.000
       0.000  0.000 -1.000 -0.000 -0.000
      -0.333 -0.000  0.000 -0.943 -0.003
      -0.000  1.000  0.000  0.000  0.000
     occupation matrix ns (before diag.):
       0.100 -0.000 -0.000  0.040  0.000
      -0.000  0.219 -0.000 -0.000  0.000
      -0.000 -0.000  0.147  0.000 -0.000
       0.040 -0.000  0.000  0.200 -0.000
       0.000  0.000 -0.000 -0.000  0.086
     ------------------------ ATOM    3 ------------------------
     Tr[ns(  3)] (up, down, total) =   4.97242  0.63646  5.60888
     Atomic magnetic moment for atom   3 =   4.33596
     SPIN  1
     eigenvalues:
       0.993  0.994  0.994  0.995  0.995
     eigenvectors (columns):
       0.177  0.140 -0.974  0.000  0.000
       0.011 -0.990 -0.141  0.000  0.000
       0.000 -0.000 -0.000 -1.000  0.007
      -0.984  0.014 -0.177 -0.000 -0.000
      -0.000  0.000  0.000  0.007  1.000
     occupation matrix ns (before diag.):
       0.994  0.000 -0.000  0.000  0.000
       0.000  0.994 -0.000  0.000  0.000
      -0.000 -0.000  0.995  0.000  0.000
       0.000  0.000  0.000  0.993 -0.000
       0.000  0.000  0.000 -0.000  0.995
     SPIN  2
     eigenvalues:
       0.069  0.077  0.084  0.200  0.207
     eigenvectors (columns):
      -0.117  0.000 -0.002 -0.000 -0.993
      -0.006  0.000 -1.000  0.000  0.003
       0.000  1.000  0.000 -0.000  0.000
      -0.993  0.000  0.007  0.000  0.117
      -0.000  0.000  0.000  1.000 -0.000
     occupation matrix ns (before diag.):
       0.205 -0.000 -0.000 -0.016  0.000
      -0.000  0.084 -0.000 -0.000  0.000
      -0.000 -0.000  0.077  0.000 -0.000
      -0.016 -0.000  0.000  0.071 -0.000
       0.000  0.000 -0.000 -0.000  0.200
     ------------------------ ATOM    4 ------------------------
     Tr[ns(  4)] (up, down, total) =   4.96592  0.64437  5.61029
     Atomic magnetic moment for atom   4 =   4.32155
     SPIN  1
     eigenvalues:
       0.991  0.992  0.993  0.994  0.995
     eigenvectors (columns):
      -0.037  0.479  0.877 -0.000 -0.000
      -0.998 -0.069 -0.004 -0.000 -0.000
      -0.000  0.000  0.000 -0.002  1.000
       0.058 -0.875  0.481  0.000  0.000
       0.000 -0.000 -0.000 -1.000 -0.002
     occupation matrix ns (before diag.):
       0.993 -0.000 -0.000  0.000  0.000
      -0.000  0.991 -0.000  0.000  0.000
      -0.000 -0.000  0.995  0.000 -0.000
       0.000  0.000  0.000  0.993 -0.000
       0.000  0.000 -0.000 -0.000  0.994
     SPIN  2
     eigenvalues:
       0.073  0.074  0.083  0.204  0.211
     eigenvectors (columns):
       0.000  0.919  0.000 -0.028  0.394
       0.000  0.002 -0.000 -0.997 -0.074
       1.000 -0.000 -0.025  0.000 -0.000
      -0.000 -0.395 -0.000 -0.069  0.916
       0.025 -0.000  1.000 -0.000 -0.000
     occupation matrix ns (before diag.):
       0.095 -0.000 -0.000  0.050  0.000
      -0.000  0.204 -0.000 -0.000  0.000
      -0.000 -0.000  0.073  0.000 -0.000
       0.050 -0.000  0.000  0.189 -0.000
       0.000  0.000 -0.000 -0.000  0.083
     ------------------------ ATOM    5 ------------------------
     Tr[ns(  5)] (up, down, total) =   1.24481  0.53276  1.77757
     Atomic magnetic moment for atom   5 =   0.71205
     SPIN  1
     eigenvalues:
       0.159  0.159  0.198  0.350  0.380
     eigenvectors (columns):
       0.093 -0.000 -0.106  0.990  0.000
       0.040 -0.000 -0.993 -0.110 -0.000
      -0.000 -1.000  0.000 -0.000  0.003
       0.995 -0.000  0.050 -0.088 -0.000
       0.000  0.003  0.000 -0.000  1.000
     occupation matrix ns (before diag.):
       0.346 -0.017 -0.000 -0.017  0.000
      -0.017  0.199 -0.000 -0.000  0.000
      -0.000 -0.000  0.159  0.000  0.001
      -0.017 -0.000  0.000  0.160 -0.000
       0.000  0.000  0.001 -0.000  0.380
     SPIN  2
     eigenvalues:
       0.049  0.063  0.067  0.155  0.198
     eigenvectors (columns):
      -0.000  0.080  0.150  0.985  0.000
      -0.000  0.975 -0.217 -0.046  0.000
      -1.000 -0.000  0.000 -0.000  0.002
       0.000  0.207  0.965 -0.164 -0.000
       0.002 -0.000  0.000 -0.000  1.000
     occupation matrix ns (before diag.):
       0.153 -0.004 -0.000 -0.014  0.000
      -0.004  0.064 -0.000 -0.000  0.000
      -0.000 -0.000  0.049  0.000  0.000
      -0.014 -0.000  0.000  0.070 -0.000
       0.000  0.000  0.000 -0.000  0.198
     ------------------------ ATOM    6 ------------------------
     Tr[ns(  6)] (up, down, total) =   1.87446  0.56465  2.43912
     Atomic magnetic moment for atom   6 =   1.30981
     SPIN  1
     eigenvalues:
       0.278  0.328  0.366  0.437  0.465
     eigenvectors (columns):
      -0.000 -0.982  0.000 -0.186 -0.021
      -0.000 -0.012 -0.000  0.177 -0.984
      -0.990  0.000 -0.141  0.000  0.000
       0.000 -0.187  0.000  0.966  0.176
      -0.141  0.000  0.990 -0.000 -0.000
     occupation matrix ns (before diag.):
       0.332 -0.001 -0.000 -0.020  0.000
      -0.001  0.464 -0.000 -0.005  0.000
      -0.000 -0.000  0.280  0.000 -0.012
      -0.020 -0.005  0.000  0.434 -0.000
       0.000  0.000 -0.012 -0.000  0.364
     SPIN  2
     eigenvalues:
       0.054  0.056  0.069  0.191  0.195
     eigenvectors (columns):
      -0.000 -0.000 -0.886 -0.096  0.453
      -0.000 -0.000 -0.025 -0.967 -0.254
      -0.995 -0.098  0.000  0.000  0.000
       0.000  0.000  0.462 -0.237  0.855
      -0.098  0.995 -0.000 -0.000 -0.000
     occupation matrix ns (before diag.):
       0.096 -0.003 -0.000  0.052  0.000
      -0.003  0.191 -0.000  0.000  0.000
      -0.000 -0.000  0.054  0.000 -0.000
       0.052  0.000  0.000  0.168 -0.000
       0.000  0.000 -0.000 -0.000  0.056

     Number of occupied Hubbard levels =   27.1985

     negative rho (up, down):  7.760E-03 1.202E-02

     total cpu time spent up to now is       11.6 secs

     total energy              =   -1636.93571643 Ry
     estimated scf accuracy    <     273.09531782 Ry

     total magnetization       =    21.49 Bohr mag/cell
     absolute magnetization    =    22.59 Bohr mag/cell

     iteration #  2     ecut=    80.00 Ry     beta= 0.30
     Davidson diagonalization with overlap
     ethr =  1.00E-02,  avg # of iterations =  1.3

     negative rho (up, down):  1.255E-02 3.381E-02

     total cpu time spent up to now is       24.8 secs

     total energy              =   -1634.57493740 Ry
     estimated scf accuracy    <     103.07291496 Ry

     total magnetization       =    15.75 Bohr mag/cell
     absolute magnetization    =    21.79 Bohr mag/cell

     iteration #  3     ecut=    80.00 Ry     beta= 0.30
     Davidson diagonalization with overlap
     ethr =  1.00E-02,  avg # of iterations =  3.9

     negative rho (up, down):  1.356E-02 3.650E-02

     total cpu time spent up to now is       30.7 secs

     total energy              =   -1637.18964759 Ry
     estimated scf accuracy    <      20.19776593 Ry

     total magnetization       =    10.21 Bohr mag/cell
     absolute magnetization    =    19.16 Bohr mag/cell

     iteration #  4     ecut=    80.00 Ry     beta= 0.30
     Davidson diagonalization with overlap
     ethr =  1.00E-02,  avg # of iterations =  3.1

     negative rho (up, down):  1.921E-02 4.654E-02

     total cpu time spent up to now is       35.5 secs

     total energy              =   -1636.82264985 Ry
     estimated scf accuracy    <       9.32080769 Ry

     total magnetization       =    11.35 Bohr mag/cell
     absolute magnetization    =    19.51 Bohr mag/cell

     iteration #  5     ecut=    80.00 Ry     beta= 0.30
     Davidson diagonalization with overlap
     ethr =  5.52E-03,  avg # of iterations =  2.5

     negative rho (up, down):  2.522E-02 5.605E-02

     total cpu time spent up to now is       41.1 secs

     total energy              =   -1637.04260505 Ry
     estimated scf accuracy    <       3.96375089 Ry

     total magnetization       =    11.22 Bohr mag/cell
     absolute magnetization    =    19.10 Bohr mag/cell

     iteration #  6     ecut=    80.00 Ry     beta= 0.30
     Davidson diagonalization with overlap
     ethr =  2.35E-03,  avg # of iterations =  4.0

     negative rho (up, down):  2.328E-02 4.913E-02

     total cpu time spent up to now is       46.5 secs

     total energy              =   -1637.35941367 Ry
     estimated scf accuracy    <       1.15528818 Ry

     total magnetization       =    11.00 Bohr mag/cell
     absolute magnetization    =    17.43 Bohr mag/cell

     iteration #  7     ecut=    80.00 Ry     beta= 0.30
     Davidson diagonalization with overlap
     ethr =  6.84E-04,  avg # of iterations =  2.6

     negative rho (up, down):  2.421E-02 4.854E-02

     total cpu time spent up to now is       51.1 secs

     total energy              =   -1637.31167633 Ry
     estimated scf accuracy    <       0.74122116 Ry

     total magnetization       =    11.00 Bohr mag/cell
     absolute magnetization    =    17.10 Bohr mag/cell

     iteration #  8     ecut=    80.00 Ry     beta= 0.30
     Davidson diagonalization with overlap
     ethr =  4.39E-04,  avg # of iterations =  3.2

     negative rho (up, down):  2.423E-02 4.852E-02

     total cpu time spent up to now is       55.9 secs

     total energy              =   -1637.33139313 Ry
     estimated scf accuracy    <       0.39330234 Ry

     total magnetization       =    11.00 Bohr mag/cell
     absolute magnetization    =    17.51 Bohr mag/cell

     iteration #  9     ecut=    80.00 Ry     beta= 0.30
     Davidson diagonalization with overlap
     ethr =  2.33E-04,  avg # of iterations =  3.7

     negative rho (up, down):  1.966E-02 4.182E-02

     total cpu time spent up to now is       61.3 secs

     total energy              =   -1637.32860190 Ry
     estimated scf accuracy    <       0.20532722 Ry

     total magnetization       =    11.00 Bohr mag/cell
     absolute magnetization    =    17.33 Bohr mag/cell

     iteration # 10     ecut=    80.00 Ry     beta= 0.30
     Davidson diagonalization with overlap
     ethr =  1.21E-04,  avg # of iterations =  3.2

     negative rho (up, down):  1.600E-02 3.747E-02

     total cpu time spent up to now is       69.9 secs

     total energy              =   -1637.32536195 Ry
     estimated scf accuracy    <       0.24216902 Ry

     total magnetization       =    11.00 Bohr mag/cell
     absolute magnetization    =    17.37 Bohr mag/cell

     iteration # 11     ecut=    80.00 Ry     beta= 0.30
     Davidson diagonalization with overlap
     ethr =  1.21E-04,  avg # of iterations =  1.2

     negative rho (up, down):  1.094E-02 3.222E-02

     total cpu time spent up to now is       77.0 secs

     total energy              =   -1637.31221586 Ry
     estimated scf accuracy    <       0.16943460 Ry

     total magnetization       =    11.00 Bohr mag/cell
     absolute magnetization    =    17.33 Bohr mag/cell

     iteration # 12     ecut=    80.00 Ry     beta= 0.30
     Davidson diagonalization with overlap
     ethr =  1.00E-04,  avg # of iterations =  3.5

     negative rho (up, down):  4.263E-03 2.555E-02

     total cpu time spent up to now is       83.3 secs

     total energy              =   -1637.30548468 Ry
     estimated scf accuracy    <       0.08938508 Ry

     total magnetization       =    11.00 Bohr mag/cell
     absolute magnetization    =    17.28 Bohr mag/cell

     iteration # 13     ecut=    80.00 Ry     beta= 0.30
     Davidson diagonalization with overlap
     ethr =  5.29E-05,  avg # of iterations =  2.2

     negative rho (up, down):  2.967E-03 2.430E-02

     total cpu time spent up to now is       87.4 secs

     total energy              =   -1637.29758478 Ry
     estimated scf accuracy    <       0.06714856 Ry

     total magnetization       =    11.00 Bohr mag/cell
     absolute magnetization    =    17.25 Bohr mag/cell

     iteration # 14     ecut=    80.00 Ry     beta= 0.30
     Davidson diagonalization with overlap
     ethr =  3.97E-05,  avg # of iterations =  2.4

     negative rho (up, down):  8.902E-03 3.026E-02

     total cpu time spent up to now is       94.8 secs

     total energy              =   -1637.29699745 Ry
     estimated scf accuracy    <       0.02340485 Ry

     total magnetization       =    11.00 Bohr mag/cell
     absolute magnetization    =    17.13 Bohr mag/cell

     iteration # 15     ecut=    80.00 Ry     beta= 0.30
     Davidson diagonalization with overlap
     ethr =  1.38E-05,  avg # of iterations =  6.8

     negative rho (up, down):  5.748E-03 2.694E-02

     total cpu time spent up to now is      114.6 secs

     total energy              =   -1637.29637154 Ry
     estimated scf accuracy    <       0.01135116 Ry

     total magnetization       =    11.00 Bohr mag/cell
     absolute magnetization    =    17.02 Bohr mag/cell

     iteration # 16     ecut=    80.00 Ry     beta= 0.30
     Davidson diagonalization with overlap
     ethr =  6.72E-06,  avg # of iterations =  4.1

     negative rho (up, down):  7.725E-03 2.882E-02

     total cpu time spent up to now is      119.7 secs

     total energy              =   -1637.29555994 Ry
     estimated scf accuracy    <       0.00912496 Ry

     total magnetization       =    11.00 Bohr mag/cell
     absolute magnetization    =    17.02 Bohr mag/cell

     iteration # 17     ecut=    80.00 Ry     beta= 0.30
     Davidson diagonalization with overlap
     ethr =  5.40E-06,  avg # of iterations =  1.5

     negative rho (up, down):  6.345E-03 2.734E-02

     total cpu time spent up to now is      124.8 secs

     total energy              =   -1637.29400686 Ry
     estimated scf accuracy    <       0.00629667 Ry

     total magnetization       =    11.00 Bohr mag/cell
     absolute magnetization    =    16.95 Bohr mag/cell

     iteration # 18     ecut=    80.00 Ry     beta= 0.30
     Davidson diagonalization with overlap
     ethr =  3.73E-06,  avg # of iterations =  3.9

     negative rho (up, down):  9.053E-03 3.019E-02

     total cpu time spent up to now is      130.4 secs

     total energy              =   -1637.29384098 Ry
     estimated scf accuracy    <       0.00411713 Ry

     total magnetization       =    11.00 Bohr mag/cell
     absolute magnetization    =    16.97 Bohr mag/cell

     iteration # 19     ecut=    80.00 Ry     beta= 0.30
     Davidson diagonalization with overlap
     ethr =  2.44E-06,  avg # of iterations =  2.3

     negative rho (up, down):  9.957E-03 3.121E-02

     total cpu time spent up to now is      135.8 secs

     total energy              =   -1637.29360812 Ry
     estimated scf accuracy    <       0.00309263 Ry

     total magnetization       =    11.00 Bohr mag/cell
     absolute magnetization    =    16.95 Bohr mag/cell

     iteration # 20     ecut=    80.00 Ry     beta= 0.30
     Davidson diagonalization with overlap
     ethr =  1.83E-06,  avg # of iterations =  3.7

     negative rho (up, down):  7.755E-03 2.910E-02

     total cpu time spent up to now is      140.6 secs

     total energy              =   -1637.29311237 Ry
     estimated scf accuracy    <       0.00205954 Ry

     total magnetization       =    11.00 Bohr mag/cell
     absolute magnetization    =    16.94 Bohr mag/cell

     iteration # 21     ecut=    80.00 Ry     beta= 0.30
     Davidson diagonalization with overlap
     ethr =  1.22E-06,  avg # of iterations =  1.8

     negative rho (up, down):  6.604E-03 2.791E-02

     total cpu time spent up to now is      148.7 secs

     total energy              =   -1637.29289467 Ry
     estimated scf accuracy    <       0.00247667 Ry

     total magnetization       =    11.00 Bohr mag/cell
     absolute magnetization    =    16.96 Bohr mag/cell

     iteration # 22     ecut=    80.00 Ry     beta= 0.30
     Davidson diagonalization with overlap
     ethr =  1.22E-06,  avg # of iterations =  1.1

     negative rho (up, down):  4.727E-03 2.582E-02

     total cpu time spent up to now is      153.5 secs

     total energy              =   -1637.29289123 Ry
     estimated scf accuracy    <       0.00072344 Ry

     total magnetization       =    11.00 Bohr mag/cell
     absolute magnetization    =    16.92 Bohr mag/cell

     iteration # 23     ecut=    80.00 Ry     beta= 0.30
     Davidson diagonalization with overlap
     ethr =  4.28E-07,  avg # of iterations =  1.9

     negative rho (up, down):  3.948E-03 2.488E-02

     total cpu time spent up to now is      163.4 secs

     total energy              =   -1637.29294122 Ry
     estimated scf accuracy    <       0.00026764 Ry

     total magnetization       =    11.00 Bohr mag/cell
     absolute magnetization    =    16.92 Bohr mag/cell

     iteration # 24     ecut=    80.00 Ry     beta= 0.30
     Davidson diagonalization with overlap
     ethr =  1.58E-07,  avg # of iterations =  2.4

     negative rho (up, down):  3.026E-03 2.362E-02

     total cpu time spent up to now is      168.2 secs

     total energy              =   -1637.29298114 Ry
     estimated scf accuracy    <       0.00010666 Ry

     total magnetization       =    11.00 Bohr mag/cell
     absolute magnetization    =    16.92 Bohr mag/cell

     iteration # 25     ecut=    80.00 Ry     beta= 0.30
     Davidson diagonalization with overlap
     ethr =  6.31E-08,  avg # of iterations =  3.0

     negative rho (up, down):  2.429E-03 2.239E-02

     total cpu time spent up to now is      172.7 secs

     total energy              =   -1637.29299069 Ry
     estimated scf accuracy    <       0.00002742 Ry

     total magnetization       =    11.00 Bohr mag/cell
     absolute magnetization    =    16.92 Bohr mag/cell

     iteration # 26     ecut=    80.00 Ry     beta= 0.30
     Davidson diagonalization with overlap
     ethr =  1.62E-08,  avg # of iterations =  3.2

     negative rho (up, down):  2.305E-03 2.214E-02

     total cpu time spent up to now is      184.9 secs

     total energy              =   -1637.29299655 Ry
     estimated scf accuracy    <       0.00000552 Ry

     total magnetization       =    11.00 Bohr mag/cell
     absolute magnetization    =    16.92 Bohr mag/cell

     iteration # 27     ecut=    80.00 Ry     beta= 0.30
     Davidson diagonalization with overlap
     ethr =  3.26E-09,  avg # of iterations =  3.2

     negative rho (up, down):  2.169E-03 2.192E-02

     total cpu time spent up to now is      190.5 secs

     total energy              =   -1637.29300040 Ry
     estimated scf accuracy    <       0.00000260 Ry

     total magnetization       =    11.00 Bohr mag/cell
     absolute magnetization    =    16.92 Bohr mag/cell

     iteration # 28     ecut=    80.00 Ry     beta= 0.30
     Davidson diagonalization with overlap
     ethr =  1.54E-09,  avg # of iterations =  2.9

     negative rho (up, down):  2.198E-03 2.188E-02

     Magnetic moment per site  (integrated on atomic sphere of radius R)
     atom   1 (R=0.259)  charge= 10.4320  magn=  2.0615
     atom   2 (R=0.259)  charge= 10.3596  magn=  1.6651
     atom   3 (R=0.259)  charge= 10.3744  magn=  1.8380
     atom   4 (R=0.259)  charge= 10.3801  magn=  1.8501
     atom   5 (R=0.259)  charge= 10.3949  magn=  1.9055
     atom   6 (R=0.259)  charge= 10.3591  magn=  1.6280
     atom   7 (R=0.150)  charge=  2.2829  magn= -0.0787
     atom   8 (R=0.150)  charge=  2.2557  magn= -0.1528
     atom   9 (R=0.150)  charge=  2.2882  magn= -0.0670
     atom  10 (R=0.150)  charge=  2.2882  magn= -0.0670
     atom  11 (R=0.150)  charge=  2.2829  magn= -0.0743
     atom  12 (R=0.150)  charge=  2.2814  magn= -0.0775
     atom  13 (R=0.150)  charge=  2.2885  magn= -0.0738
     atom  14 (R=0.150)  charge=  2.2885  magn= -0.0738
     atom  15 (R=0.150)  charge=  2.2639  magn= -0.1296
     atom  16 (R=0.150)  charge=  2.2752  magn= -0.0919
     atom  17 (R=0.150)  charge=  2.2880  magn= -0.0673
     atom  18 (R=0.150)  charge=  2.2880  magn= -0.0673
     atom  19 (R=0.150)  charge=  2.2632  magn= -0.1662
     atom  20 (R=0.150)  charge=  2.2678  magn= -0.1407
     atom  21 (R=0.150)  charge=  0.4284  magn=  0.0017

     total cpu time spent up to now is      196.0 secs

     End of self-consistent calculation

     =================== HUBBARD OCCUPATIONS ===================
     ------------------------ ATOM    1 ------------------------
     Tr[ns(  1)] (up, down, total) =   3.65906  1.07764  4.73669
     Atomic magnetic moment for atom   1 =   2.58142
     SPIN  1
     eigenvalues:
       0.493  0.497  0.811  0.881  0.977
     eigenvectors (columns):
      -0.000 -0.999 -0.000 -0.001  0.044
      -0.000 -0.001  0.000  1.000  0.000
      -0.000 -0.000  1.000 -0.000  0.000
       0.000  0.044 -0.000 -0.000  0.999
       1.000 -0.000  0.000  0.000 -0.000
     occupation matrix ns (before diag.):
       0.498 -0.000 -0.000  0.021  0.000
      -0.000  0.881 -0.000  0.000  0.000
      -0.000 -0.000  0.811  0.000  0.000
       0.021  0.000  0.000  0.976 -0.000
       0.000  0.000  0.000 -0.000  0.493
     SPIN  2
     eigenvalues:
       0.123  0.137  0.147  0.281  0.389
     eigenvectors (columns):
      -0.106  0.000  0.000 -0.994  0.000
       0.000  0.000 -1.000 -0.000  0.000
       0.000  1.000  0.000  0.000 -0.000
      -0.994  0.000 -0.000  0.106 -0.000
      -0.000  0.000  0.000  0.000  1.000
     occupation matrix ns (before diag.):
       0.280  0.000 -0.000 -0.017  0.000
       0.000  0.147 -0.000  0.000  0.000
      -0.000 -0.000  0.137  0.000 -0.000
      -0.017  0.000  0.000  0.125 -0.000
       0.000  0.000 -0.000 -0.000  0.389
     ------------------------ ATOM    2 ------------------------
     Tr[ns(  2)] (up, down, total) =   3.44466  1.37216  4.81682
     Atomic magnetic moment for atom   2 =   2.07250
     SPIN  1
     eigenvalues:
       0.539  0.547  0.658  0.778  0.922
     eigenvectors (columns):
      -0.004  0.423  0.000 -0.000 -0.906
       1.000  0.010 -0.000  0.000 -0.000
       0.000 -0.000  1.000 -0.002  0.000
      -0.009  0.906  0.000  0.000  0.423
      -0.000  0.000  0.002  1.000 -0.000
     occupation matrix ns (before diag.):
       0.855  0.000 -0.000 -0.144  0.000
       0.000  0.539 -0.000  0.000  0.000
      -0.000 -0.000  0.658  0.000 -0.000
      -0.144  0.000  0.000  0.614 -0.000
       0.000  0.000 -0.000 -0.000  0.778
     SPIN  2
     eigenvalues:
       0.163  0.181  0.188  0.406  0.435
     eigenvectors (columns):
       0.912 -0.000  0.000  0.410  0.000
       0.000  0.000 -0.000 -0.001  1.000
       0.000  1.000  0.004  0.000 -0.000
      -0.410  0.000 -0.000  0.912  0.001
      -0.000 -0.004  1.000 -0.000  0.000
     occupation matrix ns (before diag.):
       0.204  0.000 -0.000  0.091  0.000
       0.000  0.435 -0.000  0.000  0.000
      -0.000 -0.000  0.181  0.000  0.000
       0.091  0.000  0.000  0.365 -0.000
       0.000  0.000  0.000 -0.000  0.188
     ------------------------ ATOM    3 ------------------------
     Tr[ns(  3)] (up, down, total) =   3.53359  1.23996  4.77355
     Atomic magnetic moment for atom   3 =   2.29363
     SPIN  1
     eigenvalues:
       0.496  0.524  0.725  0.809  0.980
     eigenvectors (columns):
      -0.000 -0.999 -0.000  0.001 -0.040
      -0.000 -0.001  0.000 -1.000 -0.000
      -0.001 -0.000  1.000  0.000 -0.000
       0.000  0.040 -0.000  0.000 -0.999
       1.000 -0.000  0.001 -0.000  0.000
     occupation matrix ns (before diag.):
       0.525 -0.000 -0.000  0.018  0.000
      -0.000  0.809 -0.000  0.000  0.000
      -0.000 -0.000  0.725  0.000  0.000
       0.018  0.000  0.000  0.979 -0.000
       0.000  0.000  0.000 -0.000  0.496
     SPIN  2
     eigenvalues:
       0.124  0.165  0.170  0.387  0.393
     eigenvectors (columns):
       0.060 -0.001  0.000  0.998  0.000
       0.001 -1.000 -0.000 -0.001  0.000
      -0.000 -0.000  1.000 -0.000 -0.000
       0.998  0.002  0.000 -0.060 -0.000
       0.000  0.000  0.000 -0.000  1.000
     occupation matrix ns (before diag.):
       0.387 -0.000 -0.000 -0.016  0.000
      -0.000  0.165 -0.000 -0.000  0.000
      -0.000 -0.000  0.170  0.000 -0.000
      -0.016 -0.000  0.000  0.125 -0.000
       0.000  0.000 -0.000 -0.000  0.393
     ------------------------ ATOM    4 ------------------------
     Tr[ns(  4)] (up, down, total) =   3.54682  1.24240  4.78923
     Atomic magnetic moment for atom   4 =   2.30442
     SPIN  1
     eigenvalues:
       0.491  0.527  0.714  0.849  0.966
     eigenvectors (columns):
       0.010  0.484 -0.000 -0.000  0.875
       1.000 -0.020  0.000  0.000  0.000
       0.000 -0.000 -1.000  0.021 -0.000
       0.018  0.875  0.000  0.000 -0.484
      -0.000  0.000  0.021  1.000  0.000
     occupation matrix ns (before diag.):
       0.863 -0.000 -0.000 -0.186  0.000
      -0.000  0.491 -0.000 -0.001  0.000
      -0.000 -0.000  0.715  0.000  0.003
      -0.186 -0.001  0.000  0.630 -0.000
       0.000  0.000  0.003 -0.000  0.849
     SPIN  2
     eigenvalues:
       0.118  0.166  0.181  0.384  0.393
     eigenvectors (columns):
      -0.886  0.000  0.000  0.036 -0.462
      -0.001 -0.000 -0.000  0.997  0.080
      -0.000  0.041 -0.999 -0.000 -0.000
       0.463 -0.000 -0.000  0.072 -0.883
       0.000  0.999  0.041  0.000  0.000
     occupation matrix ns (before diag.):
       0.177 -0.001 -0.000  0.113  0.000
      -0.001  0.384 -0.000 -0.001  0.000
      -0.000 -0.000  0.181  0.000 -0.001
       0.113 -0.001  0.000  0.334 -0.000
       0.000  0.000 -0.001 -0.000  0.166
     ------------------------ ATOM    5 ------------------------
     Tr[ns(  5)] (up, down, total) =   3.57640  1.19987  4.77628
     Atomic magnetic moment for atom   5 =   2.37653
     SPIN  1
     eigenvalues:
       0.496  0.508  0.734  0.861  0.977
     eigenvectors (columns):
      -0.000  0.998  0.000  0.003 -0.066
      -0.000  0.004 -0.000 -1.000  0.017
       0.006  0.000 -1.000  0.000 -0.000
       0.000 -0.066  0.000 -0.017 -0.998
       1.000  0.000  0.006 -0.000  0.000
     occupation matrix ns (before diag.):
       0.510 -0.002 -0.000  0.031  0.000
      -0.002  0.861 -0.000 -0.002  0.000
      -0.000 -0.000  0.734  0.000 -0.001
       0.031 -0.002  0.000  0.975 -0.000
       0.000  0.000 -0.001 -0.000  0.496
     SPIN  2
     eigenvalues:
       0.124  0.160  0.167  0.354  0.395
     eigenvectors (columns):
       0.082 -0.000 -0.000 -0.997  0.000
       0.014 -1.000  0.000  0.001  0.000
      -0.000 -0.000 -1.000  0.000  0.002
       0.997  0.014 -0.000  0.082 -0.000
       0.000  0.000  0.002  0.000  1.000
     occupation matrix ns (before diag.):
       0.352 -0.000 -0.000 -0.019  0.000
      -0.000  0.160 -0.000 -0.000  0.000
      -0.000 -0.000  0.167  0.000  0.001
      -0.019 -0.000  0.000  0.126 -0.000
       0.000  0.000  0.001 -0.000  0.395
     ------------------------ ATOM    6 ------------------------
     Tr[ns(  6)] (up, down, total) =   3.42657  1.40207  4.82864
     Atomic magnetic moment for atom   6 =   2.02450
     SPIN  1
     eigenvalues:
       0.536  0.546  0.678  0.813  0.855
     eigenvectors (columns):
      -0.086  0.421 -0.000 -0.000 -0.903
      -0.981 -0.196  0.000  0.000  0.002
      -0.000 -0.000 -0.985  0.175 -0.000
      -0.177  0.885  0.000  0.000  0.430
       0.000  0.000  0.175  0.985 -0.000
     occupation matrix ns (before diag.):
       0.798 -0.001 -0.000 -0.120  0.000
      -0.001  0.536 -0.000 -0.002  0.000
      -0.000 -0.000  0.682  0.000  0.023
      -0.120 -0.002  0.000  0.603 -0.000
       0.000  0.000  0.023 -0.000  0.809
     SPIN  2
     eigenvalues:
       0.180  0.189  0.199  0.408  0.426
     eigenvectors (columns):
      -0.918 -0.000  0.000  0.386 -0.089
      -0.001  0.000 -0.000  0.222  0.975
      -0.000 -0.720 -0.694  0.000 -0.000
       0.397  0.000 -0.000  0.895 -0.204
       0.000 -0.694  0.720 -0.000  0.000
     occupation matrix ns (before diag.):
       0.216 -0.002 -0.000  0.083  0.000
      -0.002  0.425 -0.000 -0.003  0.000
      -0.000 -0.000  0.194  0.000 -0.005
       0.083 -0.003  0.000  0.373 -0.000
       0.000  0.000 -0.005 -0.000  0.194

     Number of occupied Hubbard levels =   28.7212

 ------ SPIN UP ------------


          k = 0.0000 0.0000 0.0000 ( 37133 PWs)   bands (ev):

   -73.0425 -73.0070 -72.9317 -72.9309 -72.9190 -72.8743 -44.3959 -44.3884
   -44.3705 -44.3494 -44.3228 -44.3114 -44.2913 -44.2697 -44.2428 -44.2052
   -44.1972 -44.1773 -44.1642 -44.1366 -44.1217 -44.1146 -44.0961 -44.0144
   -23.6734 -18.8929 -18.5631 -18.2965 -17.8872 -17.3894 -17.2898 -17.1708
   -17.1459 -17.0609 -16.9839 -16.4712 -16.0434 -14.4481  -7.8684  -7.0032
    -6.8884  -6.8136  -6.4340  -5.7588  -5.6531  -5.3568  -5.1734  -4.9046
    -4.8119  -4.7746  -4.7100  -4.6559  -4.5139  -4.4513  -4.3498  -3.9769
    -3.7141  -3.5189  -3.1774  -3.1381  -2.9808  -2.8899  -2.7735  -2.6127
    -2.5328  -2.4424  -2.3262  -2.1510  -1.9258  -1.8925  -1.8176  -1.6976
    -1.4706  -1.3892  -1.3732  -1.3038  -1.1426  -1.1164  -1.0758  -1.0675
    -0.9938  -0.9620  -0.8247  -0.8222  -0.4918  -0.3600  -0.3534  -0.1141
     0.0899   0.2700   0.2853   0.6668   0.8963   1.1892   1.3844   1.3860
     1.4685   1.5665   2.1981   2.8007   3.4115   3.8850

          k = 0.0000 0.1166 0.0000 ( 37130 PWs)   bands (ev):

   -73.0425 -73.0070 -72.9317 -72.9309 -72.9190 -72.8743 -44.3959 -44.3866
   -44.3686 -44.3494 -44.3228 -44.3091 -44.2913 -44.2697 -44.2427 -44.2071
   -44.1991 -44.1772 -44.1667 -44.1367 -44.1218 -44.1146 -44.0961 -44.0145
   -23.6733 -18.7748 -18.4421 -18.1833 -18.0433 -17.6190 -17.4598 -17.1681
   -17.0829 -17.0479 -16.9601 -16.4672 -16.0348 -14.4472  -7.8600  -6.7341
    -6.6145  -6.5336  -6.3938  -5.7674  -5.4976  -5.3417  -4.9998  -4.8341
    -4.7304  -4.7110  -4.6954  -4.6604  -4.4532  -4.4012  -4.3491  -4.0016
    -3.9806  -3.7470  -3.6439  -3.4324  -3.3236  -3.2246  -2.9857  -2.8251
    -2.6782  -2.5402  -2.4515  -2.4203  -2.2914  -1.9286  -1.9219  -1.7154
    -1.5704  -1.2880  -1.2498  -1.2053  -1.1363  -1.0849  -1.0158  -0.7648
    -0.6537  -0.6284  -0.5362  -0.4861  -0.4291  -0.3889  -0.1875  -0.0839
     0.0945   0.2510   0.3077   0.6371   0.8295   1.1106   1.1913   1.2850
     1.4128   1.6627   2.5203   3.0548   3.5893   3.9106

          k = 0.0000-0.2332 0.0000 ( 37126 PWs)   bands (ev):

   -73.0424 -73.0070 -72.9317 -72.9309 -72.9190 -72.8743 -44.3959 -44.3848
   -44.3668 -44.3493 -44.3227 -44.3066 -44.2914 -44.2697 -44.2427 -44.2091
   -44.2011 -44.1771 -44.1692 -44.1367 -44.1220 -44.1146 -44.0960 -44.0146
   -23.6732 -18.5472 -18.3345 -18.2218 -17.9294 -17.9127 -17.7256 -17.1609
   -17.0811 -17.0415 -16.9238 -16.4646 -16.0271 -14.4465  -7.8549  -6.5523
    -6.2529  -6.1913  -6.1309  -5.7787  -5.4751  -5.0569  -4.7532  -4.7513
    -4.6932  -4.6461  -4.6417  -4.6056  -4.5783  -4.4543  -4.3481  -4.2327
    -4.0289  -4.0032  -3.9900  -3.8621  -3.8162  -3.6104  -3.1072  -2.9241
    -2.8683  -2.8434  -2.7835  -2.5663  -2.4681  -1.9876  -1.6754  -1.5684
    -1.4878  -1.3303  -1.2407  -1.1629  -1.0972  -0.9333  -0.8367  -0.6404
    -0.6071  -0.5667  -0.5350  -0.4678  -0.2014  -0.0110   0.0126   0.0758
     0.0862   0.3032   0.5450   0.6232   0.6690   0.7633   1.0828   1.1220
     1.3245   1.8396   2.8759   3.0861   3.9221   3.9649

          k = 0.1111 0.0000 0.0000 ( 37175 PWs)   bands (ev):

   -73.0408 -73.0054 -72.9300 -72.9293 -72.9173 -72.8726 -44.3942 -44.3866
   -44.3686 -44.3465 -44.3218 -44.3094 -44.2884 -44.2686 -44.2614 -44.2025
   -44.1961 -44.1944 -44.1615 -44.1558 -44.1412 -44.1161 -44.1114 -44.0337
   -23.5872 -18.7795 -18.4619 -18.2049 -17.8096 -17.3282 -17.2476 -17.1768
   -17.1719 -17.0858 -17.0110 -16.4985 -16.0600 -14.6180  -8.0650  -6.8380
    -6.7389  -6.6728  -6.2959  -5.6609  -5.5414  -5.2793  -5.2651  -5.1629
    -5.0967  -5.0036  -4.8992  -4.7684  -4.4267  -4.3261  -4.3002  -3.5850
    -3.5460  -3.4288  -3.0790  -3.0159  -2.9340  -2.9261  -2.8545  -2.7041
    -2.6690  -2.6501  -2.5090  -2.3845  -2.3612  -2.0791  -1.9534  -1.9007
    -1.7067  -1.6705  -1.6046  -1.4264  -1.1299  -1.1055  -1.0597  -0.9748
    -0.8967  -0.7683  -0.5386  -0.5163  -0.3358  -0.2383  -0.2378   0.0755
     0.2883   0.3529   0.5687   0.5737   0.8329   1.1025   1.2894   1.3933
     1.4877   1.5012   2.2724   2.8993   3.4672   3.6059

          k = 0.1111 0.1166 0.0000 ( 37124 PWs)   bands (ev):

   -73.0408 -73.0054 -72.9300 -72.9293 -72.9173 -72.8726 -44.3942 -44.3851
   -44.3671 -44.3465 -44.3217 -44.3075 -44.2885 -44.2686 -44.2614 -44.2041
   -44.1982 -44.1939 -44.1637 -44.1558 -44.1412 -44.1159 -44.1114 -44.0337
   -23.5871 -18.6659 -18.3455 -18.0948 -17.9625 -17.5603 -17.4118 -17.1872
   -17.0992 -17.0724 -16.9714 -16.4946 -16.0522 -14.6172  -8.0602  -6.5701
    -6.4601  -6.3860  -6.2538  -5.6689  -5.4262  -5.2631  -5.1746  -5.1196
    -4.9971  -4.9581  -4.8732  -4.6823  -4.4229  -4.3211  -4.2481  -3.7873
    -3.6531  -3.5651  -3.4372  -3.4102  -3.1779  -3.0911  -3.0633  -3.0052
    -2.9525  -2.8778  -2.6696  -2.5666  -2.5311  -2.3465  -1.9331  -1.8345
    -1.6905  -1.6068  -1.5084  -1.3819  -1.1619  -0.9458  -0.8078  -0.6776
    -0.5584  -0.4254  -0.3243  -0.3051  -0.2495  -0.2019  -0.1110  -0.0209
     0.2262   0.3700   0.5355   0.5906   0.7736   1.0350   1.1169   1.2192
     1.3456   1.7273   2.5387   3.0930   3.5442   3.6181

          k = 0.1111-0.2332 0.0000 ( 37144 PWs)   bands (ev):

   -73.0408 -73.0053 -72.9301 -72.9293 -72.9173 -72.8726 -44.3942 -44.3835
   -44.3655 -44.3465 -44.3217 -44.3055 -44.2885 -44.2686 -44.2614 -44.2057
   -44.2002 -44.1936 -44.1659 -44.1558 -44.1413 -44.1158 -44.1114 -44.0338
   -23.5870 -18.4480 -18.2382 -18.1319 -17.8532 -17.8454 -17.6678 -17.1815
   -17.1066 -17.0566 -16.9323 -16.4919 -16.0452 -14.6165  -8.0570  -6.4032
    -6.0803  -6.0328  -5.9683  -5.6844  -5.4252  -5.1744  -5.0334  -5.0125
    -4.9353  -4.8494  -4.8402  -4.5362  -4.3968  -4.3526  -4.2530  -4.2008
    -3.9194  -3.7412  -3.7050  -3.6237  -3.5892  -3.4497  -3.3793  -3.2851
    -3.2078  -3.0504  -2.9501  -2.6204  -2.5776  -2.4051  -1.8446  -1.6982
    -1.4603  -1.4588  -1.3908  -1.3404  -1.1693  -0.7928  -0.7303  -0.5479
    -0.5056  -0.3631  -0.3350  -0.3336  -0.2073   0.0957   0.1808   0.2225
     0.3758   0.4668   0.5012   0.6132   0.6558   0.7392   1.0066   1.0616
     1.2331   1.8859   2.8246   3.1348   3.5695   3.5733

          k = 0.2222 0.0000 0.0000 ( 37192 PWs)   bands (ev):

   -73.0368 -73.0013 -72.9259 -72.9252 -72.9131 -72.8686 -44.3899 -44.3819
   -44.3639 -44.3393 -44.3204 -44.3063 -44.3044 -44.2824 -44.2672 -44.2405
   -44.2039 -44.1955 -44.1901 -44.1874 -44.1661 -44.1545 -44.1035 -44.0821
   -23.3537 -18.4701 -18.1933 -17.9656 -17.6151 -17.2740 -17.2392 -17.1926
   -17.1489 -17.0796 -17.0697 -16.5642 -16.0860 -15.0892  -8.3824  -6.3948
    -6.3381  -6.2970  -5.9759  -5.6051  -5.5596  -5.4406  -5.4065  -5.3241
    -5.2654  -4.9996  -4.9932  -4.5300  -4.4919  -4.2789  -4.0997  -3.9510
    -3.7480  -3.6566  -3.5590  -3.5053  -3.3274  -3.2916  -3.0366  -2.7823
    -2.7111  -2.5937  -2.5781  -2.4185  -2.3271  -2.2935  -2.1045  -2.0885
    -1.9244  -1.8863  -1.6928  -1.3504  -1.1406  -1.0200  -0.7547  -0.7002
    -0.6529  -0.5982  -0.4950  -0.3243  -0.2631  -0.0021   0.1523   0.2824
     0.4518   0.4818   0.6089   0.6946   0.8407   0.9157   1.0407   1.1985
     1.2717   1.6379   2.3621   2.9710   3.3154   3.4836

          k = 0.2222 0.1166 0.0000 ( 37137 PWs)   bands (ev):

   -73.0368 -73.0013 -72.9259 -72.9252 -72.9131 -72.8686 -44.3899 -44.3813
   -44.3633 -44.3392 -44.3204 -44.3064 -44.3036 -44.2825 -44.2672 -44.2407
   -44.2036 -44.1964 -44.1901 -44.1878 -44.1656 -44.1560 -44.1035 -44.0819
   -23.3536 -18.3711 -18.0922 -17.8674 -17.7568 -17.4478 -17.3264 -17.2304
   -17.1481 -17.1100 -16.9695 -16.5609 -16.0812 -15.0885  -8.3803  -6.1462
    -6.0587  -6.0149  -5.9177  -5.6091  -5.4482  -5.4358  -5.3320  -5.2960
    -5.2251  -5.1495  -4.7804  -4.5484  -4.4291  -4.2906  -4.1409  -4.0292
    -3.9123  -3.8588  -3.7560  -3.6191  -3.4339  -3.2290  -3.1106  -3.0409
    -2.9542  -2.8737  -2.8318  -2.7437  -2.6970  -2.2467  -2.0046  -1.9402
    -1.8278  -1.7840  -1.6796  -1.4721  -1.1402  -1.0392  -0.6515  -0.5532
    -0.3764  -0.3122  -0.2392  -0.1793  -0.1690   0.0402   0.2605   0.3126
     0.4058   0.4702   0.4896   0.6899   0.7610   0.8866   0.9558   1.0744
     1.1502   1.7773   2.5244   3.0007   3.1598   3.2336

          k = 0.2222-0.2332 0.0000 ( 37166 PWs)   bands (ev):

   -73.0368 -73.0013 -72.9260 -72.9252 -72.9131 -72.8686 -44.3899 -44.3806
   -44.3626 -44.3392 -44.3204 -44.3065 -44.3027 -44.2825 -44.2672 -44.2409
   -44.2032 -44.1974 -44.1894 -44.1890 -44.1650 -44.1577 -44.1035 -44.0817
   -23.3535 -18.1838 -17.9867 -17.8990 -17.6960 -17.6604 -17.5421 -17.2339
   -17.1725 -17.0816 -16.9332 -16.5584 -16.0768 -15.0878  -8.3788  -6.0435
    -5.7223  -5.6680  -5.6424  -5.4879  -5.4756  -5.3788  -5.2500  -5.1242
    -5.0494  -5.0374  -4.7312  -4.5861  -4.5098  -4.4845  -4.4255  -4.3087
    -4.0726  -4.0367  -3.9197  -3.5845  -3.5515  -3.3525  -3.2457  -3.2209
    -3.2018  -3.1869  -3.1416  -2.9698  -2.7087  -2.0948  -1.9684  -1.8386
    -1.6829  -1.6516  -1.6148  -1.4551  -1.3736  -1.0516  -0.5759  -0.4170
    -0.2940  -0.2709  -0.0609  -0.0080   0.1133   0.1281   0.3301   0.4051
     0.4243   0.4346   0.4985   0.6644   0.6979   0.8650   0.9146   0.9483
     0.9902   1.8752   2.6812   2.9028   2.9064   2.9567

          k = 0.3333 0.0000 0.0000 ( 37184 PWs)   bands (ev):

   -73.0325 -72.9969 -72.9215 -72.9208 -72.9086 -72.8642 -44.3867 -44.3767
   -44.3607 -44.3586 -44.3284 -44.3160 -44.3057 -44.2988 -44.2682 -44.2597
   -44.2558 -44.2447 -44.2221 -44.1875 -44.1793 -44.1464 -44.1363 -44.0944
   -23.0546 -18.0530 -17.8561 -17.6788 -17.4124 -17.3382 -17.3175 -17.2208
   -17.1579 -17.1343 -16.9148 -16.6178 -16.0766 -15.6870  -8.4968  -6.2080
    -5.9225  -5.8423  -5.7827  -5.7284  -5.5831  -5.4758  -5.4702  -5.2791
    -5.2414  -5.1223  -4.9579  -4.6871  -4.5130  -4.5063  -4.2957  -4.1124
    -4.1099  -3.9676  -3.8456  -3.4815  -3.4457  -3.2899  -3.0792  -3.0683
    -2.9821  -2.8843  -2.8206  -2.7050  -2.3780  -2.1888  -2.1764  -1.9029
    -1.7935  -1.6354  -1.3894  -1.2953  -1.0574  -0.9995  -0.7074  -0.6489
    -0.6347  -0.6235  -0.4834  -0.3940   0.0754   0.0956   0.1744   0.2536
     0.4065   0.4089   0.6094   0.7044   0.7442   0.8495   0.9370   1.1680
     1.2108   1.5450   2.3617   2.7150   3.2724   3.3910

          k = 0.3333 0.1166 0.0000 ( 37206 PWs)   bands (ev):

   -73.0325 -72.9969 -72.9215 -72.9208 -72.9086 -72.8642 -44.3867 -44.3772
   -44.3608 -44.3592 -44.3284 -44.3159 -44.3059 -44.2998 -44.2682 -44.2593
   -44.2552 -44.2437 -44.2204 -44.1878 -44.1794 -44.1493 -44.1339 -44.0944
   -23.0546 -17.9820 -17.7867 -17.6212 -17.5202 -17.4055 -17.3190 -17.2516
   -17.2320 -17.1034 -16.9000 -16.6165 -16.0756 -15.6862  -8.4967  -6.2037
    -5.7848  -5.7184  -5.6260  -5.5995  -5.5896  -5.5006  -5.4272  -5.3772
    -5.1874  -5.1498  -5.0259  -4.6199  -4.5145  -4.3677  -4.2931  -4.1328
    -4.1214  -3.9848  -3.7689  -3.5826  -3.4803  -3.3847  -3.1626  -3.1129
    -3.0145  -2.8278  -2.7973  -2.7280  -2.5862  -2.3501  -2.0964  -1.9517
    -1.8140  -1.7522  -1.3640  -1.2855  -1.2020  -1.0347  -0.6704  -0.6233
    -0.5944  -0.4235  -0.4090  -0.3555  -0.2236   0.0468   0.0815   0.1773
     0.2954   0.4639   0.5837   0.8373   0.8469   0.8940   1.0490   1.1060
     1.1669   1.6366   2.4732   2.6549   2.7463   2.8085

          k = 0.3333-0.2332 0.0000 ( 37216 PWs)   bands (ev):

   -73.0325 -72.9969 -72.9216 -72.9209 -72.9086 -72.8642 -44.3867 -44.3778
   -44.3610 -44.3598 -44.3284 -44.3159 -44.3061 -44.3008 -44.2682 -44.2590
   -44.2545 -44.2426 -44.2188 -44.1880 -44.1796 -44.1516 -44.1322 -44.0944
   -23.0545 -17.8484 -17.7095 -17.6281 -17.5746 -17.4499 -17.4302 -17.2925
   -17.2479 -17.0885 -16.8896 -16.6153 -16.0747 -15.6855  -8.4967  -6.2080
    -5.7786  -5.7004  -5.6246  -5.5173  -5.4523  -5.3677  -5.3036  -5.2269
    -5.1375  -4.9743  -4.9663  -4.6466  -4.6333  -4.4898  -4.4302  -4.1571
    -4.1290  -3.9606  -3.8199  -3.6482  -3.5292  -3.2699  -3.1897  -3.1217
    -3.0557  -2.9447  -2.8966  -2.8505  -2.6210  -2.1885  -2.1607  -2.0641
    -1.8956  -1.7442  -1.5624  -1.2346  -1.0426  -0.9966  -0.8622  -0.7398
    -0.5652  -0.5364  -0.2135  -0.2125  -0.1833  -0.1624   0.0827   0.1686
     0.3471   0.4692   0.4994   0.8570   0.8604   0.9347   1.0967   1.1712
     1.1796   1.7086   2.3820   2.3999   2.4749   2.6266

          k = 0.4444 0.0000 0.0000 ( 37180 PWs)   bands (ev):

   -73.0298 -72.9942 -72.9188 -72.9181 -72.9058 -72.8615 -44.3999 -44.3776
   -44.3732 -44.3551 -44.3386 -44.3210 -44.3165 -44.2951 -44.2927 -44.2795
   -44.2626 -44.2581 -44.2569 -44.1823 -44.1739 -44.1711 -44.1411 -44.0885
   -22.8338 -17.6701 -17.5779 -17.4830 -17.4249 -17.3696 -17.3527 -17.2680
   -17.2091 -17.1505 -16.8549 -16.6111 -16.1080 -16.0423  -8.4476  -6.5153
    -5.9540  -5.7697  -5.7657  -5.5291  -5.5056  -5.4587  -5.4290  -5.3545
    -5.2297  -5.1991  -5.1355  -4.8627  -4.5715  -4.4201  -4.4053  -4.2993
    -4.1317  -3.7357  -3.4916  -3.4818  -3.4671  -3.4421  -3.4223  -3.2217
    -2.8954  -2.6730  -2.5566  -2.5289  -2.4966  -2.2056  -2.1236  -2.0124
    -1.8789  -1.6371  -1.4939  -1.4358  -1.0990  -0.8155  -0.7115  -0.6878
    -0.6433  -0.5609  -0.5574  -0.3390  -0.3243  -0.3084   0.0533   0.2653
     0.3353   0.4788   0.5095   0.5751   0.7056   0.9520   1.0072   1.3185
     1.3930   1.4452   2.2791   2.5950   3.1626   3.4147

          k = 0.4444 0.1166 0.0000 ( 37248 PWs)   bands (ev):

   -73.0298 -72.9942 -72.9188 -72.9182 -72.9058 -72.8615 -44.4000 -44.3776
   -44.3751 -44.3571 -44.3387 -44.3209 -44.3165 -44.2990 -44.2908 -44.2775
   -44.2626 -44.2569 -44.2540 -44.1821 -44.1737 -44.1723 -44.1398 -44.0885
   -22.8338 -17.6505 -17.5672 -17.5061 -17.4425 -17.3625 -17.3495 -17.2705
   -17.2300 -17.1369 -16.8584 -16.6100 -16.1069 -16.0419  -8.4506  -6.5131
    -6.0969  -5.9295  -5.8925  -5.8101  -5.7124  -5.3445  -5.3195  -5.1666
    -5.1116  -4.9814  -4.9178  -4.5685  -4.5427  -4.4200  -4.2820  -4.1041
    -3.9436  -3.8773  -3.7100  -3.6579  -3.5215  -3.3347  -3.2356  -3.0577
    -2.9522  -2.6635  -2.5172  -2.4725  -2.2979  -2.2329  -2.2231  -2.0581
    -1.8511  -1.7933  -1.5910  -1.3370  -1.2630  -0.8169  -0.7473  -0.6882
    -0.6537  -0.6193  -0.5440  -0.5082  -0.3731  -0.3284  -0.3098  -0.2010
    -0.1343   0.2469   0.4778   0.9555   1.0678   1.1235   1.2396   1.2657
     1.4203   1.4801   2.3672   2.4771   2.6025   2.6165

          k = 0.4444-0.2332 0.0000 ( 37264 PWs)   bands (ev):

   -73.0298 -72.9942 -72.9188 -72.9182 -72.9059 -72.8615 -44.4001 -44.3776
   -44.3769 -44.3590 -44.3389 -44.3209 -44.3165 -44.3023 -44.2889 -44.2756
   -44.2626 -44.2569 -44.2506 -44.1819 -44.1735 -44.1734 -44.1387 -44.0885
   -22.8338 -17.6185 -17.5736 -17.5132 -17.4678 -17.3711 -17.3328 -17.2655
   -17.2562 -17.1272 -16.8618 -16.6090 -16.1058 -16.0414  -8.4536  -6.5141
    -6.2102  -6.1389  -6.0562  -5.8415  -5.6912  -5.2226  -5.0818  -5.0488
    -4.9947  -4.8961  -4.8854  -4.7904  -4.4356  -4.2770  -4.1024  -3.9919
    -3.9687  -3.8631  -3.7504  -3.4650  -3.4131  -3.3025  -3.0370  -3.0042
    -2.8368  -2.7915  -2.6625  -2.6283  -2.4411  -2.4199  -2.0705  -2.0213
    -1.8008  -1.5124  -1.4925  -1.4324  -1.3702  -1.0121  -0.8992  -0.8365
    -0.7751  -0.7213  -0.6429  -0.6009  -0.5943  -0.4914  -0.3305  -0.3262
    -0.1583   0.1088   0.4879   0.9833   1.1546   1.2824   1.3535   1.3934
     1.4066   1.5491   2.1782   2.2027   2.2735   2.6025

 ------ SPIN DOWN ----------


          k = 0.0000 0.0000 0.0000 ( 37133 PWs)   bands (ev):

   -70.7530 -70.5711 -70.4965 -70.3999 -70.3132 -70.0901 -42.2418 -42.2110
   -42.0811 -42.0648 -41.9759 -41.9055 -41.8835 -41.8471 -41.7929 -41.6667
   -41.6580 -41.6577 -41.6036 -41.5681 -41.5241 -41.4419 -41.3889 -41.2816
   -24.0796 -19.0283 -18.6934 -18.4148 -18.0429 -17.6108 -17.4806 -17.3585
   -17.3258 -17.2470 -17.1773 -16.8315 -16.5126 -15.0094  -8.0008  -6.2914
    -6.1468  -6.0903  -5.8438  -5.7107  -5.1191  -4.9965  -4.8676  -4.7896
    -4.3398  -4.3135  -4.2524  -4.2142  -4.2019  -4.0397  -4.0308  -3.9287
    -3.5451  -3.4162  -3.2211  -3.0852  -2.8972  -2.8159  -2.6744  -2.5909
    -2.2893  -2.1922  -2.1045  -2.0040  -1.8763  -1.7826  -1.4557  -1.3987
    -1.2780  -1.1167  -0.9684  -0.9537  -0.7592  -0.6464  -0.2929   2.1302
     2.1674   2.2260   2.2414   2.3105   2.3296   2.4073   2.4414   2.6176
     2.7749   2.7815   2.8383   2.8998   2.9637   3.1775   3.2272   3.5810
     3.7138   3.7799   4.0081   4.4024   4.9974   5.1582

          k = 0.0000 0.1166 0.0000 ( 37130 PWs)   bands (ev):

   -70.7530 -70.5711 -70.4965 -70.3999 -70.3132 -70.0901 -42.2410 -42.2103
   -42.0811 -42.0634 -41.9759 -41.9055 -41.8835 -41.8471 -41.7928 -41.6681
   -41.6579 -41.6577 -41.6045 -41.5679 -41.5243 -41.4419 -41.3896 -41.2816
   -24.0795 -18.9122 -18.5749 -18.3022 -18.2086 -17.8258 -17.6385 -17.3547
   -17.2657 -17.2278 -17.1547 -16.8279 -16.5039 -15.0085  -7.9982  -6.0482
    -5.8827  -5.8293  -5.7977  -5.6613  -5.1204  -4.9522  -4.8722  -4.6567
    -4.3064  -4.2196  -4.2007  -4.1890  -4.1802  -4.0316  -3.9966  -3.9265
    -3.7499  -3.5037  -3.4423  -3.3472  -3.1357  -2.7515  -2.7074  -2.6200
    -2.3303  -2.3004  -2.1467  -1.9813  -1.9215  -1.7960  -1.7124  -1.5278
    -1.3978  -1.2760  -1.2384  -1.0426  -0.9691  -0.7095  -0.3324   2.1468
     2.4473   2.4797   2.5165   2.5534   2.5639   2.6044   2.6352   2.7068
     2.7808   2.8241   2.8931   2.9392   2.9700   3.2118   3.3547   3.4481
     3.6212   3.8380   3.9553   4.5545   5.0348   5.2047

          k = 0.0000-0.2332 0.0000 ( 37126 PWs)   bands (ev):

   -70.7531 -70.5712 -70.4965 -70.4000 -70.3132 -70.0901 -42.2403 -42.2096
   -42.0810 -42.0621 -41.9758 -41.9055 -41.8835 -41.8471 -41.7928 -41.6695
   -41.6579 -41.6578 -41.6053 -41.5677 -41.5245 -41.4419 -41.3903 -41.2816
   -24.0794 -18.6789 -18.5000 -18.3393 -18.1297 -18.0490 -17.9103 -17.3479
   -17.2561 -17.2123 -17.1236 -16.8261 -16.4962 -15.0078  -7.9963  -5.8712
    -5.8007  -5.5123  -5.4820  -5.4065  -5.1350  -4.9590  -4.8787  -4.3480
    -4.2712  -4.1980  -4.1768  -4.1649  -4.1337  -4.0633  -4.0309  -3.9233
    -3.7023  -3.6794  -3.6615  -3.6311  -3.3870  -3.3257  -2.6540  -2.5990
    -2.4928  -2.3356  -2.2927  -2.0268  -1.9992  -1.9568  -1.6559  -1.6366
    -1.4380  -1.3732  -1.3488  -1.1631  -0.9591  -0.8217  -0.3668   2.1399
     2.5737   2.6309   2.7395   2.7516   2.7593   2.7678   2.8151   2.8636
     2.8706   2.9662   2.9782   2.9855   3.0214   3.0901   3.3851   3.4781
     3.6414   3.6808   4.3100   4.4301   5.0937   5.1713

          k = 0.1111 0.0000 0.0000 ( 37175 PWs)   bands (ev):

   -70.7514 -70.5695 -70.4949 -70.3984 -70.3116 -70.0884 -42.2401 -42.2092
   -42.0792 -42.0629 -41.9745 -41.9038 -41.9027 -41.8436 -41.7889 -41.6800
   -41.6629 -41.6565 -41.5996 -41.5893 -41.5462 -41.4645 -41.3846 -41.3050
   -23.9955 -18.9181 -18.5953 -18.3275 -17.9690 -17.5506 -17.4387 -17.3678
   -17.3478 -17.2687 -17.2009 -16.8568 -16.5312 -15.1709  -8.1989  -6.1661
    -6.0447  -5.9939  -5.7761  -5.6374  -5.3206  -5.0615  -4.9522  -4.7725
    -4.7203  -4.4935  -4.4794  -4.4185  -4.0142  -3.9404  -3.9188  -3.3773
    -3.2015  -3.1408  -3.0938  -2.9003  -2.8533  -2.7802  -2.6754  -2.6451
    -2.5723  -2.4525  -2.2123  -2.1018  -1.9271  -1.7985  -1.6802  -1.6386
    -1.5434  -1.2933  -1.1797  -0.9526  -0.9177  -0.6895  -0.3634   2.2016
     2.2922   2.3333   2.3931   2.4156   2.4763   2.5066   2.5232   2.6453
     2.7927   2.8280   2.9303   3.0028   3.0950   3.1401   3.3192   3.4921
     3.6974   3.7834   3.9245   4.4518   4.9277   5.0412

          k = 0.1111 0.1166 0.0000 ( 37124 PWs)   bands (ev):

   -70.7514 -70.5695 -70.4949 -70.3984 -70.3116 -70.0884 -42.2394 -42.2087
   -42.0792 -42.0618 -41.9745 -41.9037 -41.9029 -41.8436 -41.7889 -41.6800
   -41.6642 -41.6565 -41.6003 -41.5890 -41.5463 -41.4644 -41.3852 -41.3049
   -23.9954 -18.8067 -18.4816 -18.2188 -18.1304 -17.7650 -17.5911 -17.3707
   -17.2825 -17.2487 -17.1696 -16.8531 -16.5231 -15.1701  -8.1968  -5.9298
    -5.7772  -5.7459  -5.7059  -5.5827  -5.3235  -5.0671  -4.9038  -4.7456
    -4.5955  -4.5236  -4.4166  -4.2573  -4.0075  -3.9382  -3.8948  -3.4278
    -3.3992  -3.2986  -3.2389  -3.1781  -2.9625  -2.9334  -2.7234  -2.6898
    -2.6174  -2.5840  -2.3657  -2.2054  -1.9719  -1.8721  -1.7444  -1.7030
    -1.5946  -1.3810  -1.2758  -1.0179  -0.9413  -0.7677  -0.3868   2.2693
     2.3295   2.5259   2.5906   2.6025   2.6214   2.6913   2.7498   2.7961
     2.8396   2.8886   3.0061   3.0791   3.1140   3.1943   3.3744   3.4355
     3.5593   3.7895   3.9637   4.5630   4.9152   4.9934

          k = 0.1111-0.2332 0.0000 ( 37144 PWs)   bands (ev):

   -70.7515 -70.5696 -70.4949 -70.3984 -70.3116 -70.0884 -42.2388 -42.2082
   -42.0792 -42.0606 -41.9745 -41.9033 -41.9032 -41.8436 -41.7888 -41.6800
   -41.6656 -41.6565 -41.6010 -41.5888 -41.5464 -41.4644 -41.3858 -41.3049
   -23.9953 -18.5843 -18.4067 -18.2548 -18.0585 -17.9778 -17.8510 -17.3653
   -17.2793 -17.2282 -17.1366 -16.8512 -16.5159 -15.1693  -8.1952  -5.7791
    -5.7295  -5.3923  -5.3729  -5.3524  -5.2479  -5.0872  -4.9474  -4.6469
    -4.4824  -4.4022  -4.3981  -4.0452  -3.9749  -3.9358  -3.8469  -3.8065
    -3.5004  -3.4865  -3.3981  -3.3223  -3.3171  -3.2145  -2.9815  -2.9109
    -2.6983  -2.5820  -2.4903  -2.3638  -2.0480  -1.8986  -1.8311  -1.6489
    -1.4275  -1.3077  -1.2792  -1.1284  -0.9963  -0.8617  -0.4083   2.2575
     2.4718   2.5742   2.6559   2.7156   2.7222   2.8305   2.8941   2.9730
     2.9880   3.1070   3.1173   3.1566   3.1761   3.2303   3.3532   3.4457
     3.5628   3.7160   4.2639   4.4494   4.7916   4.8174

          k = 0.2222 0.0000 0.0000 ( 37192 PWs)   bands (ev):

   -70.7472 -70.5654 -70.4908 -70.3942 -70.3074 -70.0841 -42.2356 -42.2049
   -42.0781 -42.0581 -41.9723 -41.9486 -41.8977 -41.8347 -41.7788 -41.7357
   -41.6567 -41.6532 -41.6396 -41.6020 -41.5893 -41.5215 -41.3737 -41.3641
   -23.7679 -18.6168 -18.3340 -18.0991 -17.7830 -17.4673 -17.4053 -17.3746
   -17.3239 -17.3083 -17.2613 -16.9207 -16.5655 -15.6164  -8.5247  -5.9408
    -5.8205  -5.7851  -5.6972  -5.6072  -5.3324  -5.0964  -4.9480  -4.9406
    -4.9138  -4.6551  -4.5532  -4.2927  -4.1094  -3.8900  -3.7461  -3.5373
    -3.4454  -3.3555  -3.1380  -3.0611  -2.9420  -2.7549  -2.6524  -2.4947
    -2.4847  -2.3711  -2.3392  -2.1902  -2.0667  -1.8758  -1.8536  -1.7672
    -1.6574  -1.5816  -1.5802  -1.0891  -1.0624  -0.8643  -0.5449   2.1267
     2.3405   2.5495   2.6212   2.6925   2.7030   2.7322   2.8070   2.8907
     2.9133   2.9663   2.9959   3.0776   3.1467   3.2869   3.3299   3.5019
     3.5185   3.6909   3.9702   4.4047   4.7106   4.7787

          k = 0.2222 0.1166 0.0000 ( 37137 PWs)   bands (ev):

   -70.7473 -70.5654 -70.4908 -70.3942 -70.3074 -70.0841 -42.2353 -42.2047
   -42.0781 -42.0576 -41.9722 -41.9486 -41.8978 -41.8347 -41.7788 -41.7357
   -41.6586 -41.6533 -41.6383 -41.6018 -41.5898 -41.5214 -41.3741 -41.3640
   -23.7678 -18.5202 -18.2361 -18.0045 -17.9294 -17.6368 -17.4987 -17.4062
   -17.3287 -17.2862 -17.1902 -16.9173 -16.5600 -15.6155  -8.5233  -5.9178
    -5.5912  -5.5740  -5.4928  -5.4289  -5.3000  -4.9689  -4.9318  -4.8991
    -4.8342  -4.7337  -4.5885  -4.1114  -4.0309  -3.8965  -3.8329  -3.6832
    -3.5703  -3.4910  -3.2889  -3.1851  -3.0153  -2.9541  -2.8106  -2.7509
    -2.7217  -2.5594  -2.4203  -2.4039  -2.1101  -1.8746  -1.8137  -1.5988
    -1.5681  -1.4968  -1.4361  -1.1175  -1.0871  -0.9237  -0.5343   2.1422
     2.3848   2.5449   2.5632   2.6872   2.7033   2.8019   2.9354   2.9789
     3.0548   3.1012   3.1647   3.2109   3.2391   3.3119   3.3498   3.4550
     3.5152   3.6875   4.0691   4.4214   4.5808   4.6510

          k = 0.2222-0.2332 0.0000 ( 37166 PWs)   bands (ev):

   -70.7473 -70.5654 -70.4908 -70.3943 -70.3074 -70.0841 -42.2350 -42.2044
   -42.0781 -42.0571 -41.9722 -41.9487 -41.8978 -41.8347 -41.7788 -41.7358
   -41.6603 -41.6533 -41.6373 -41.6017 -41.5902 -41.5212 -41.3744 -41.3638
   -23.7677 -18.3317 -18.1612 -18.0364 -17.8905 -17.7978 -17.7157 -17.4094
   -17.3402 -17.2588 -17.1565 -16.9153 -16.5551 -15.6148  -8.5221  -5.9122
    -5.5494  -5.4473  -5.1554  -5.0576  -4.9498  -4.9404  -4.8946  -4.8225
    -4.6832  -4.5897  -4.5708  -4.1411  -4.0310  -4.0031  -3.9318  -3.8868
    -3.8197  -3.6141  -3.5198  -3.3603  -3.3441  -3.1875  -3.0229  -2.8364
    -2.7566  -2.7130  -2.5425  -2.5419  -2.1593  -1.8850  -1.7303  -1.5553
    -1.4072  -1.3350  -1.2642  -1.1804  -1.0720  -1.0607  -0.5256   2.2241
     2.3409   2.4261   2.5889   2.6638   2.7164   2.8874   2.9684   3.1252
     3.1562   3.2347   3.2545   3.3246   3.3382   3.4429   3.4814   3.5104
     3.5792   3.7469   4.1585   4.2320   4.3188   4.3393

          k = 0.3333 0.0000 0.0000 ( 37184 PWs)   bands (ev):

   -70.7423 -70.5605 -70.4859 -70.3893 -70.3024 -70.0789 -42.2306 -42.2000
   -42.0911 -42.0527 -41.9907 -41.9646 -41.8920 -41.8243 -41.7986 -41.7674
   -41.7069 -41.6652 -41.6466 -41.6421 -41.5863 -41.5776 -41.4312 -41.3613
   -23.4773 -18.2082 -18.0040 -17.8238 -17.5874 -17.5092 -17.4733 -17.3873
   -17.3309 -17.3200 -17.1744 -16.9867 -16.5698 -16.1797  -8.6598  -6.3265
    -5.5614  -5.4544  -5.4296  -5.3638  -5.2081  -5.1778  -5.0976  -4.9032
    -4.8534  -4.6593  -4.6038  -4.5174  -4.2143  -4.1272  -3.8820  -3.7646
    -3.7509  -3.5769  -3.4241  -3.2287  -3.0656  -2.9789  -2.7233  -2.6921
    -2.5815  -2.4157  -2.3597  -2.3237  -2.0018  -1.9385  -1.8572  -1.6704
    -1.5874  -1.4384  -1.2971  -1.2859  -1.1227  -1.0828  -0.7270   2.1777
     2.2282   2.5143   2.7456   2.7595   2.8696   2.9071   2.9226   3.0329
     3.0686   3.0843   3.2112   3.2424   3.2571   3.3780   3.4041   3.4405
     3.4834   3.5749   4.0091   4.1798   4.6736   4.7799

          k = 0.3333 0.1166 0.0000 ( 37206 PWs)   bands (ev):

   -70.7423 -70.5605 -70.4859 -70.3893 -70.3024 -70.0789 -42.2307 -42.2001
   -42.0912 -42.0529 -41.9908 -41.9646 -41.8920 -41.8243 -41.7988 -41.7674
   -41.7075 -41.6647 -41.6468 -41.6416 -41.5859 -41.5778 -41.4309 -41.3614
   -23.4773 -18.1393 -17.9369 -17.7714 -17.6909 -17.5725 -17.4803 -17.4140
   -17.4038 -17.2912 -17.1533 -16.9853 -16.5687 -16.1787  -8.6596  -6.3234
    -5.3899  -5.3155  -5.2606  -5.2014  -5.1761  -5.0712  -5.0572  -4.8906
    -4.8529  -4.7405  -4.6183  -4.5114  -4.3076  -4.1396  -3.9646  -3.8497
    -3.7063  -3.6794  -3.3995  -3.3165  -3.0825  -3.0515  -2.8381  -2.8182
    -2.6980  -2.5598  -2.4010  -2.1453  -2.1350  -1.8904  -1.8556  -1.6355
    -1.5604  -1.5037  -1.2556  -1.2344  -1.1726  -1.0777  -0.7072   2.0708
     2.1771   2.3389   2.5458   2.5930   2.8114   2.9199   2.9920   3.0334
     3.2120   3.2459   3.2653   3.3203   3.3493   3.3991   3.4254   3.5238
     3.5626   3.6903   4.0439   4.1837   4.3058   4.3545

          k = 0.3333-0.2332 0.0000 ( 37216 PWs)   bands (ev):

   -70.7423 -70.5605 -70.4859 -70.3893 -70.3023 -70.0789 -42.2308 -42.2002
   -42.0912 -42.0532 -41.9908 -41.9646 -41.8920 -41.8243 -41.7989 -41.7674
   -41.7081 -41.6642 -41.6469 -41.6412 -41.5856 -41.5779 -41.4306 -41.3615
   -23.4772 -18.0091 -17.8747 -17.7837 -17.7389 -17.6020 -17.5919 -17.4593
   -17.4122 -17.2763 -17.1401 -16.9842 -16.5677 -16.1777  -8.6594  -6.3220
    -5.3367  -5.1884  -5.1048  -5.0525  -4.9682  -4.9431  -4.9268  -4.8771
    -4.7913  -4.7320  -4.5773  -4.4515  -4.3298  -4.3200  -4.2019  -3.9243
    -3.7053  -3.6583  -3.6334  -3.4977  -3.3174  -3.0145  -2.9189  -2.7753
    -2.7326  -2.6464  -2.4384  -2.3876  -2.0631  -1.8918  -1.6500  -1.6354
    -1.5949  -1.4273  -1.3621  -1.2072  -1.1244  -1.0722  -0.6855   1.9704
     2.1050   2.1398   2.4250   2.6054   2.8189   2.8990   2.9598   3.0392
     3.2543   3.2788   3.3712   3.3804   3.4444   3.5182   3.5722   3.6025
     3.6722   3.8217   3.8918   3.9508   4.0641   4.1752

          k = 0.4444 0.0000 0.0000 ( 37180 PWs)   bands (ev):

   -70.7390 -70.5572 -70.4826 -70.3860 -70.2989 -70.0754 -42.2273 -42.1968
   -42.1131 -42.0492 -42.0015 -41.9630 -41.8886 -41.8395 -41.8175 -41.7600
   -41.7462 -41.7063 -41.6443 -41.6348 -41.6284 -41.5700 -41.4749 -41.3531
   -23.2637 -17.8240 -17.7308 -17.6394 -17.5906 -17.5247 -17.5191 -17.4290
   -17.3769 -17.3477 -17.1088 -17.0034 -16.5753 -16.5457  -8.6307  -6.6258
    -5.5508  -5.3257  -5.2976  -5.2497  -5.2041  -5.1522  -5.1096  -4.9472
    -4.8411  -4.8094  -4.7444  -4.3905  -4.3029  -4.2788  -4.0308  -3.9646
    -3.8866  -3.4714  -3.2153  -3.2007  -3.1865  -3.1585  -3.0091  -2.9886
    -2.5002  -2.4446  -2.2470  -2.1389  -2.0870  -2.0477  -1.8782  -1.7918
    -1.6741  -1.4358  -1.3671  -1.3493  -1.1800  -0.8236  -0.7581   2.2548
     2.3293   2.4277   2.5816   2.5985   2.8712   2.9076   2.9707   3.0925
     3.1781   3.1933   3.2427   3.2790   3.3925   3.4294   3.4801   3.5006
     3.6229   3.7414   3.8779   4.0933   4.5905   4.7567

          k = 0.4444 0.1166 0.0000 ( 37248 PWs)   bands (ev):

   -70.7390 -70.5572 -70.4826 -70.3859 -70.2989 -70.0754 -42.2277 -42.1972
   -42.1132 -42.0500 -42.0015 -41.9630 -41.8886 -41.8396 -41.8175 -41.7600
   -41.7467 -41.7055 -41.6444 -41.6343 -41.6279 -41.5699 -41.4745 -41.3531
   -23.2637 -17.8004 -17.7171 -17.6594 -17.6041 -17.5322 -17.5071 -17.4422
   -17.4009 -17.3306 -17.1126 -17.0026 -16.5735 -16.5456  -8.6326  -6.6203
    -5.5240  -5.4198  -5.3515  -5.2440  -5.1709  -5.0842  -5.0022  -4.9549
    -4.8925  -4.7889  -4.6062  -4.4072  -4.2574  -4.1278  -3.9887  -3.8001
    -3.7454  -3.6342  -3.4630  -3.4241  -3.2622  -3.1142  -3.0240  -2.7083
    -2.6150  -2.4171  -2.1932  -2.1187  -2.0585  -1.9534  -1.8874  -1.8370
    -1.6880  -1.5644  -1.4073  -1.3322  -1.3032  -0.8249  -0.7570   2.0651
     2.1268   2.2411   2.3217   2.3799   2.7617   2.8823   2.9968   3.1383
     3.1946   3.2796   3.3911   3.4169   3.4440   3.4822   3.5139   3.5328
     3.6750   3.7742   3.9188   4.0947   4.1585   4.1822

          k = 0.4444-0.2332 0.0000 ( 37264 PWs)   bands (ev):

   -70.7390 -70.5572 -70.4826 -70.3859 -70.2989 -70.0754 -42.2281 -42.1975
   -42.1133 -42.0507 -42.0016 -41.9630 -41.8886 -41.8398 -41.8175 -41.7600
   -41.7472 -41.7047 -41.6444 -41.6339 -41.6275 -41.5699 -41.4740 -41.3530
   -23.2636 -17.7507 -17.7368 -17.6533 -17.6364 -17.5408 -17.4921 -17.4521
   -17.4227 -17.3208 -17.1164 -17.0017 -16.5717 -16.5456  -8.6345  -6.6156
    -5.5290  -5.5145  -5.3988  -5.2854  -5.1767  -5.1148  -4.8452  -4.7340
    -4.7153  -4.6320  -4.5230  -4.4611  -4.3540  -4.0227  -3.9334  -3.9179
    -3.8301  -3.7675  -3.5708  -3.3623  -3.2709  -3.0733  -2.9579  -2.8141
    -2.4769  -2.2987  -2.2205  -2.2139  -2.0936  -2.0228  -1.8851  -1.7575
    -1.7330  -1.4979  -1.4586  -1.4291  -1.3735  -0.8093  -0.7739   1.8351
     1.9328   1.9980   2.2050   2.3634   2.6748   2.8856   2.9936   3.1313
     3.1943   3.3075   3.3564   3.4383   3.4569   3.4636   3.6134   3.6456
     3.7607   3.8510   3.8546   3.9465   4.0124   4.0442

     the Fermi energy is     0.4762 ev

!    total energy              =   -1637.29300232 Ry
     estimated scf accuracy    <       0.00000092 Ry
     smearing contrib. (-TS)   =      -0.00042083 Ry
     internal energy E=F+TS    =   -1637.29258149 Ry

     The total energy is F=E-TS. E is the sum of the following terms:
     one-electron contribution =  -15566.31158620 Ry
     hartree contribution      =    7811.42289910 Ry
     xc contribution           =    -238.73286539 Ry
     ewald contribution        =    6489.03319546 Ry
     Hubbard energy            =       0.58175216 Ry
     one-center paw contrib.   =    -133.28597661 Ry

     total magnetization       =    11.00 Bohr mag/cell
     absolute magnetization    =    16.92 Bohr mag/cell

     convergence has been achieved in  28 iterations

     negative rho (up, down):  2.198E-03 2.188E-02
     force_hub    :      1.03s CPU      1.05s WALL (       1 calls)
     dndtau       :      0.82s CPU      0.84s WALL (     504 calls)
     dprojdtau    :      0.07s CPU      0.08s WALL (    3024 calls)
     matel_dSdtau :      0.72s CPU      0.73s WALL (     504 calls)

     Forces acting on atoms (cartesian axes, Ry/au):

     atom    1 type  1   force =     0.00005375    0.00000000    0.09441267
     atom    2 type  1   force =    -0.00001745    0.00000000   -0.08051101
     atom    3 type  1   force =    -0.00050501    0.00000000    0.00927563
     atom    4 type  1   force =     0.00078776    0.00000000   -0.00002730
     atom    5 type  1   force =    -0.00232153    0.00000000   -0.00140401
     atom    6 type  1   force =     0.00059162    0.00000000    0.02327017
     atom    7 type  3   force =     0.00051653    0.00000000    0.04344229
     atom    8 type  3   force =    -0.00001652    0.00000000    0.04611568
     atom    9 type  3   force =    -0.00004260    0.01093313   -0.03732840
     atom   10 type  3   force =    -0.00004260   -0.01093313   -0.03732840
     atom   11 type  3   force =     0.00030273    0.00000000    0.00153995
     atom   12 type  3   force =    -0.00073645    0.00000000   -0.01088926
     atom   13 type  3   force =    -0.00047560    0.00198767   -0.00151428
     atom   14 type  3   force =    -0.00047560   -0.00198767   -0.00151428
     atom   15 type  3   force =    -0.00007118    0.00000000   -0.03031613
     atom   16 type  3   force =    -0.00022241    0.00000000   -0.00761688
     atom   17 type  3   force =     0.00213690    0.00391200   -0.00019425
     atom   18 type  3   force =     0.00213690   -0.00391200   -0.00019425
     atom   19 type  3   force =    -0.01263622    0.00000000   -0.01172510
     atom   20 type  3   force =     0.01048518    0.00000000    0.00245632
     atom   21 type  2   force =     0.00055179    0.00000000    0.00005083

     Total force =     0.045628     Total SCF correction =     0.003202

     Writing all to output data dir ./tmp_s0_OOH__u150/s0_OOH__u150.save/ :
     XML data file, charge density, pseudopotentials, collected wavefunctions

     init_run     :      4.45s CPU      4.59s WALL (       1 calls)
     electrons    :    189.32s CPU    191.18s WALL (       1 calls)
     forces       :      1.76s CPU      1.79s WALL (       1 calls)

     Called by init_run:
     wfcinit      :      1.42s CPU      1.46s WALL (       1 calls)
     potinit      :      0.43s CPU      0.46s WALL (       1 calls)
     hinit0       :      0.57s CPU      0.58s WALL (       1 calls)

     Called by electrons:
     c_bands      :    125.67s CPU    126.88s WALL (      28 calls)
     sum_band     :     45.96s CPU     46.39s WALL (      28 calls)
     v_of_rho     :      3.70s CPU      3.76s WALL (      29 calls)
     newd         :      2.32s CPU      2.35s WALL (      29 calls)
     PAW_pot      :      4.26s CPU      4.28s WALL (      29 calls)
     mix_rho      :      5.32s CPU      5.38s WALL (      28 calls)

     Called by c_bands:
     init_us_2    :      1.40s CPU      1.42s WALL (     480 calls)
     cegterg      :     85.77s CPU     86.70s WALL (     224 calls)

     Called by *egterg:
     cdiaghg      :      9.02s CPU      9.08s WALL (     849 calls)
     h_psi        :     56.67s CPU     57.44s WALL (     857 calls)
     s_psi        :      3.12s CPU      3.14s WALL (     873 calls)
     g_psi        :      0.22s CPU      0.22s WALL (     625 calls)

     Called by h_psi:
     h_psi:calbec :      5.81s CPU      5.86s WALL (     857 calls)
     vloc_psi     :     44.47s CPU     45.14s WALL (     857 calls)
                                        0.00s GPU  (     857 calls)
     add_vuspsi   :      2.95s CPU      2.97s WALL (     857 calls)
     vhpsi        :      3.17s CPU      3.19s WALL (     857 calls)

     General routines
     calbec       :     13.16s CPU     13.28s WALL (    4234 calls)
     fft          :      2.98s CPU      3.02s WALL (     738 calls)
     ffts         :      2.58s CPU      2.61s WALL (    3435 calls)
     fftw         :     59.83s CPU     60.62s WALL (  119998 calls)
     interpolate  :      0.46s CPU      0.46s WALL (      58 calls)

     Parallel routines

     Hubbard U routines
     new_ns       :      2.28s CPU      2.30s WALL (      28 calls)
     vhpsi        :      3.17s CPU      3.19s WALL (     857 calls)
     force_hub    :      1.03s CPU      1.05s WALL (       1 calls)

     PWSCF        :   3m16.41s CPU   3m18.80s WALL


   This run was terminated on:   6:53:40  28Aug2026            

=------------------------------------------------------------------------------=
   JOB DONE.
=------------------------------------------------------------------------------=
Note: The following floating-point exceptions are signalling: IEEE_DENORMAL
Note: The following floating-point exceptions are signalling: IEEE_DENORMAL
