
     Program PWSCF v.7.5 starts on 28Aug2026 at  6:21:20 

     This program is part of the open-source Quantum ESPRESSO suite
     for quantum simulation of materials; please cite
         "P. Giannozzi et al., J. Phys.:Condens. Matter 21 395502 (2009);
         "P. Giannozzi et al., J. Phys.:Condens. Matter 29 465901 (2017);
         "P. Giannozzi et al., J. Chem. Phys. 152 154105 (2020);
          URL http://www.quantum-espresso.org", 
     in publications or presentations arising from this work. More details at
     http://www.quantum-espresso.org/quote

     Parallel version (MPI & OpenMP), running on     128 processor cores
     Number of MPI processes:               128
     Threads/MPI process:                     1

     MPI processes distributed on     1 nodes
     205532 MiB available memory on the printing compute node when the environment starts

     Reading input from s0_OOH__u000.run.in

     Current dimensions of program PWSCF are:
     Max number of different atomic species (ntypx) = 10
     Max number of k-points (npk) =  40000
     Max angular momentum in pseudopotentials (lmaxx) =  4
     file O.pbe-n-kjpaw_psl.0.1.UPF: wavefunction(s)  2P renormalized
     Message from routine setup:
     using ibrav=0 with symmetry is DISCOURAGED, use correct ibrav instead

     K-points division:     npool     =       4
     R & G space division:  proc/nbgrp/npool/nimage =      32
     Subspace diagonalization in iterative solution of the eigenvalue problem:
     a serial algorithm will be used


     Parallelization info
     --------------------
     sticks:   dense  smooth     PW     G-vecs:    dense   smooth      PW
     Min         103      51     14                26275     9281    1388
     Max         104      52     15                26300     9316    1415
     Sum        3323    1653    471               841263   297421   44917

     Using Slab Decomposition



     bravais-lattice index     =            0
     lattice parameter (alat)  =       5.5104  a.u.
     unit-cell volume          =    3076.9124 (a.u.)^3
     number of atoms/cell      =           21
     number of atomic types    =            3
     number of electrons       =       169.00
     number of Kohn-Sham states=          102
     kinetic-energy cutoff     =      80.0000  Ry
     charge density cutoff     =     640.0000  Ry
     scf convergence threshold =      1.0E-06
     mixing beta               =       0.3000
     number of iterations used =            8  local-TF  mixing
     Exchange-correlation= SLA  PW   PBX  PBC
                           (   1   4   3   4   0   0   0)

     celldm(1)=   5.510441  celldm(2)=   0.000000  celldm(3)=   0.000000
     celldm(4)=   0.000000  celldm(5)=   0.000000  celldm(6)=   0.000000

     crystal axes: (cart. coord. in units of alat)
               a(1) = (   1.000000   0.000000   0.000000 )  
               a(2) = (   0.000000   2.144115   0.000000 )  
               a(3) = (   0.000000   0.000000   8.576458 )  

     reciprocal axes: (cart. coord. in units 2 pi/alat)
               b(1) = (  1.000000  0.000000  0.000000 )  
               b(2) = (  0.000000  0.466393  0.000000 )  
               b(3) = (  0.000000  0.000000  0.116598 )  


     PseudoPot. # 1 for Cr read from file:
     /anvil/projects/x-che260157/pseudo/cr_pbe_v1.5.uspp.F.UPF
     MD5 check sum: 0d52af634a40206e4dee301ad30da4bf
     Pseudo is Ultrasoft + core correction, Zval = 14.0
     Generated by new atomic code, or converted to UPF format
     Using radial grid of  857 points,  6 beta functions with: 
                l(1) =   0
                l(2) =   0
                l(3) =   1
                l(4) =   1
                l(5) =   2
                l(6) =   2
     Q(r) pseudized with  8 coefficients,  rinner =    0.950   0.950   0.950
                                                       0.950   0.950

     PseudoPot. # 2 for H  read from file:
     /anvil/projects/x-che260157/pseudo/H.pbe-rrkjus_psl.1.0.0.UPF
     MD5 check sum: f52b6d4d1c606e5624b1dc7b2218f220
     Pseudo is Ultrasoft, Zval =  1.0
     Generated using "atomic" code by A. Dal Corso  v.5.1
     Using radial grid of  929 points,  2 beta functions with: 
                l(1) =   0
                l(2) =   0
     Q(r) pseudized with 0 coefficients 


     PseudoPot. # 3 for O  read from file:
     /anvil/projects/x-che260157/pseudo/O.pbe-n-kjpaw_psl.0.1.UPF
     MD5 check sum: 0234752ac141de4415c5fc33072bef88
     Pseudo is Projector augmented-wave + core cor, Zval =  6.0
     Generated using "atomic" code by A. Dal Corso  v.5.0.99 svn rev. 10869
     Shape of augmentation charge: BESSEL
     Using radial grid of 1095 points,  4 beta functions with: 
                l(1) =   0
                l(2) =   0
                l(3) =   1
                l(4) =   1
     Q(r) pseudized with 0 coefficients 


     atomic species   valence    mass     pseudopotential
     Cr               14.00    51.99600     Cr( 1.00)
     H                 1.00     1.00800     H ( 1.00)
     O                 6.00    15.99900     O ( 1.00)

     Starting magnetic structure 
     atomic species   magnetization
     Cr              0.600
     H               0.000
     O               0.000

      2 Sym. Ops. (no inversion) found ( 1 have fractional translation)



   Cartesian axes

     site n.     atom                  positions (alat units)
         1        Cr     tau(   1) = (   0.0000000   0.5360286   3.2161719  )
         2        Cr     tau(   2) = (   0.5000000   1.6080859   3.2161719  )
         3        Cr     tau(   3) = (   0.0011527   1.6080859   4.3089263  )
         4        Cr     tau(   4) = (   0.4993817   0.5360286   4.2961656  )
         5        Cr     tau(   5) = (  -0.0085889   0.5360286   5.3745755  )
         6        Cr     tau(   6) = (   0.5028693   1.6080859   5.4254587  )
         7        O      tau(   7) = (   0.0000000   1.6080859   3.6342742  )
         8        O      tau(   8) = (   0.0000000   1.6080859   2.7980695  )
         9        O      tau(   9) = (   0.5000000   0.1179263   3.2161719  )
        10        O      tau(  10) = (   0.5000000   0.9541310   3.2161719  )
        11        O      tau(  11) = (  -0.0015627   0.5360286   4.7288986  )
        12        O      tau(  12) = (   0.0000000   0.5360286   3.8701268  )
        13        O      tau(  13) = (   0.5010389   1.1848813   4.3017892  )
        14        O      tau(  14) = (   0.5010389   2.0312906   4.3017892  )
        15        O      tau(  15) = (  -0.0029502   1.6080859   5.8123958  )
        16        O      tau(  16) = (   0.0026206   1.6080859   4.9663566  )
        17        O      tau(  17) = (   0.4972029   0.1158953   5.4026833  )
        18        O      tau(  18) = (   0.4972029   0.9561620   5.4026833  )
        19        O      tau(  19) = (   0.0860179   0.5360286   6.0803268  )
        20        O      tau(  20) = (  -0.1886167   0.5360286   6.4573034  )
        21        H      tau(  21) = (  -0.5167581   0.5360286   6.3029246  )

     number of k points=    15  Marzari-Vanderbilt smearing, width (Ry)=  0.0100
                       cart. coord. in units 2pi/alat
        k(    1) = (   0.0000000   0.0000000   0.0000000), wk =   0.0277778
        k(    2) = (   0.0000000   0.1165982   0.0000000), wk =   0.0555556
        k(    3) = (   0.0000000  -0.2331965   0.0000000), wk =   0.0277778
        k(    4) = (   0.1111111   0.0000000   0.0000000), wk =   0.0555556
        k(    5) = (   0.1111111   0.1165982   0.0000000), wk =   0.1111111
        k(    6) = (   0.1111111  -0.2331965   0.0000000), wk =   0.0555556
        k(    7) = (   0.2222222   0.0000000   0.0000000), wk =   0.0555556
        k(    8) = (   0.2222222   0.1165982   0.0000000), wk =   0.1111111
        k(    9) = (   0.2222222  -0.2331965   0.0000000), wk =   0.0555556
        k(   10) = (   0.3333333   0.0000000   0.0000000), wk =   0.0555556
        k(   11) = (   0.3333333   0.1165982   0.0000000), wk =   0.1111111
        k(   12) = (   0.3333333  -0.2331965   0.0000000), wk =   0.0555556
        k(   13) = (   0.4444444   0.0000000   0.0000000), wk =   0.0555556
        k(   14) = (   0.4444444   0.1165982   0.0000000), wk =   0.1111111
        k(   15) = (   0.4444444  -0.2331965   0.0000000), wk =   0.0555556

     Dense  grid:   841263 G-vectors     FFT dimensions: (  45,  96, 384)

     Smooth grid:   297421 G-vectors     FFT dimensions: (  32,  72, 270)

     Estimated max dynamical RAM per process >      75.44 MB

     Estimated total dynamical RAM >       8.23 GB

     Check: negative core charge=   -0.000001
     Generating pointlists ...
     new r_m :   0.2589 (alat units)  1.4267 (a.u.) for type    1
     new r_m :   0.1496 (alat units)  0.8243 (a.u.) for type    2
     new r_m :   0.1496 (alat units)  0.8243 (a.u.) for type    3

     Initial potential from superposition of free atoms

     starting charge     162.9999, renormalised to     169.0000

     negative rho (up, down):  4.250E-03 1.037E-03
     Starting wfcs are  117 randomized atomic wfcs
     Checking if some PAW data can be deallocated... 

     total cpu time spent up to now is        3.0 secs

     per-process dynamical memory:   104.8 Mb

     Self-consistent Calculation

     iteration #  1     ecut=    80.00 Ry     beta= 0.30
     Davidson diagonalization with overlap
     ethr =  1.00E-02,  avg # of iterations =  4.9

     negative rho (up, down):  7.059E-03 1.069E-02

     total cpu time spent up to now is       10.1 secs

     total energy              =   -1636.91745637 Ry
     estimated scf accuracy    <     295.92973868 Ry

     total magnetization       =    20.58 Bohr mag/cell
     absolute magnetization    =    21.58 Bohr mag/cell

     iteration #  2     ecut=    80.00 Ry     beta= 0.30
     Davidson diagonalization with overlap
     ethr =  1.00E-02,  avg # of iterations =  1.6

     negative rho (up, down):  1.045E-02 2.772E-02

     total cpu time spent up to now is       13.6 secs

     total energy              =   -1636.49819251 Ry
     estimated scf accuracy    <      78.71853705 Ry

     total magnetization       =    14.88 Bohr mag/cell
     absolute magnetization    =    21.34 Bohr mag/cell

     iteration #  3     ecut=    80.00 Ry     beta= 0.30
     Davidson diagonalization with overlap
     ethr =  1.00E-02,  avg # of iterations =  3.3

     negative rho (up, down):  1.266E-02 3.725E-02

     total cpu time spent up to now is       17.3 secs

     total energy              =   -1637.66549669 Ry
     estimated scf accuracy    <      31.05583595 Ry

     total magnetization       =    13.71 Bohr mag/cell
     absolute magnetization    =    21.36 Bohr mag/cell

     iteration #  4     ecut=    80.00 Ry     beta= 0.30
     Davidson diagonalization with overlap
     ethr =  1.00E-02,  avg # of iterations =  1.9

     negative rho (up, down):  1.894E-02 5.149E-02

     total cpu time spent up to now is       20.7 secs

     total energy              =   -1637.13921545 Ry
     estimated scf accuracy    <      14.70097435 Ry

     total magnetization       =    12.11 Bohr mag/cell
     absolute magnetization    =    19.95 Bohr mag/cell

     iteration #  5     ecut=    80.00 Ry     beta= 0.30
     Davidson diagonalization with overlap
     ethr =  8.70E-03,  avg # of iterations =  3.2

     negative rho (up, down):  2.428E-02 5.898E-02

     total cpu time spent up to now is       27.1 secs

     total energy              =   -1637.71620622 Ry
     estimated scf accuracy    <       5.74898068 Ry

     total magnetization       =    12.11 Bohr mag/cell
     absolute magnetization    =    17.14 Bohr mag/cell

     iteration #  6     ecut=    80.00 Ry     beta= 0.30
     Davidson diagonalization with overlap
     ethr =  3.40E-03,  avg # of iterations =  4.7

     negative rho (up, down):  2.264E-02 5.138E-02

     total cpu time spent up to now is       31.3 secs

     total energy              =   -1638.15182275 Ry
     estimated scf accuracy    <       1.99355457 Ry

     total magnetization       =    11.61 Bohr mag/cell
     absolute magnetization    =    15.12 Bohr mag/cell

     iteration #  7     ecut=    80.00 Ry     beta= 0.30
     Davidson diagonalization with overlap
     ethr =  1.18E-03,  avg # of iterations =  4.8

     negative rho (up, down):  2.256E-02 4.872E-02

     total cpu time spent up to now is       35.8 secs

     total energy              =   -1638.10725905 Ry
     estimated scf accuracy    <       1.87171214 Ry

     total magnetization       =    11.11 Bohr mag/cell
     absolute magnetization    =    14.98 Bohr mag/cell

     iteration #  8     ecut=    80.00 Ry     beta= 0.30
     Davidson diagonalization with overlap
     ethr =  1.11E-03,  avg # of iterations =  2.2

     negative rho (up, down):  1.859E-02 4.038E-02

     total cpu time spent up to now is       39.3 secs

     total energy              =   -1637.70956153 Ry
     estimated scf accuracy    <       1.85476954 Ry

     total magnetization       =    11.00 Bohr mag/cell
     absolute magnetization    =    14.78 Bohr mag/cell

     iteration #  9     ecut=    80.00 Ry     beta= 0.30
     Davidson diagonalization with overlap
     ethr =  1.10E-03,  avg # of iterations =  4.5

     negative rho (up, down):  2.004E-02 4.023E-02

     total cpu time spent up to now is       43.4 secs

     total energy              =   -1638.28353331 Ry
     estimated scf accuracy    <       9.81834585 Ry

     total magnetization       =    13.94 Bohr mag/cell
     absolute magnetization    =    15.70 Bohr mag/cell

     iteration # 10     ecut=    80.00 Ry     beta= 0.30
     Davidson diagonalization with overlap
     ethr =  1.10E-03,  avg # of iterations =  1.1

     negative rho (up, down):  2.144E-02 4.211E-02

     total cpu time spent up to now is       46.4 secs

     total energy              =   -1638.07953817 Ry
     estimated scf accuracy    <       9.46790241 Ry

     total magnetization       =    14.16 Bohr mag/cell
     absolute magnetization    =    15.43 Bohr mag/cell

     iteration # 11     ecut=    80.00 Ry     beta= 0.30
     Davidson diagonalization with overlap
     ethr =  1.10E-03,  avg # of iterations =  1.0

     negative rho (up, down):  2.118E-02 4.154E-02

     total cpu time spent up to now is       49.5 secs

     total energy              =   -1638.01091951 Ry
     estimated scf accuracy    <       5.09497810 Ry

     total magnetization       =    13.60 Bohr mag/cell
     absolute magnetization    =    15.02 Bohr mag/cell

     iteration # 12     ecut=    80.00 Ry     beta= 0.30
     Davidson diagonalization with overlap
     ethr =  1.10E-03,  avg # of iterations =  1.0

     negative rho (up, down):  1.988E-02 3.956E-02

     total cpu time spent up to now is       52.7 secs

     total energy              =   -1637.98275964 Ry
     estimated scf accuracy    <       3.28375221 Ry

     total magnetization       =    13.17 Bohr mag/cell
     absolute magnetization    =    14.83 Bohr mag/cell

     iteration # 13     ecut=    80.00 Ry     beta= 0.30
     Davidson diagonalization with overlap
     ethr =  1.10E-03,  avg # of iterations =  1.0

     negative rho (up, down):  1.531E-02 3.415E-02

     total cpu time spent up to now is       55.7 secs

     total energy              =   -1637.71079529 Ry
     estimated scf accuracy    <       2.97071386 Ry

     total magnetization       =    13.25 Bohr mag/cell
     absolute magnetization    =    14.83 Bohr mag/cell

     iteration # 14     ecut=    80.00 Ry     beta= 0.30
     Davidson diagonalization with overlap
     ethr =  1.10E-03,  avg # of iterations =  2.0

     negative rho (up, down):  1.501E-02 3.365E-02

     total cpu time spent up to now is       59.1 secs

     total energy              =   -1637.94685798 Ry
     estimated scf accuracy    <       1.00481296 Ry

     total magnetization       =    11.00 Bohr mag/cell
     absolute magnetization    =    13.92 Bohr mag/cell

     iteration # 15     ecut=    80.00 Ry     beta= 0.30
     Davidson diagonalization with overlap
     ethr =  5.95E-04,  avg # of iterations =  1.2

     negative rho (up, down):  1.398E-02 3.260E-02

     total cpu time spent up to now is       63.1 secs

     total energy              =   -1637.88574951 Ry
     estimated scf accuracy    <       0.54824256 Ry

     total magnetization       =    11.00 Bohr mag/cell
     absolute magnetization    =    13.97 Bohr mag/cell

     iteration # 16     ecut=    80.00 Ry     beta= 0.30
     Davidson diagonalization with overlap
     ethr =  3.24E-04,  avg # of iterations =  2.2

     negative rho (up, down):  1.131E-02 2.964E-02

     total cpu time spent up to now is       67.3 secs

     total energy              =   -1637.90420112 Ry
     estimated scf accuracy    <       1.26399765 Ry

     total magnetization       =    12.75 Bohr mag/cell
     absolute magnetization    =    14.59 Bohr mag/cell

     iteration # 17     ecut=    80.00 Ry     beta= 0.30
     Davidson diagonalization with overlap
     ethr =  3.24E-04,  avg # of iterations =  1.0

     negative rho (up, down):  7.221E-03 2.560E-02

     total cpu time spent up to now is       70.6 secs

     total energy              =   -1637.91148534 Ry
     estimated scf accuracy    <       0.11128083 Ry

     total magnetization       =    11.99 Bohr mag/cell
     absolute magnetization    =    14.32 Bohr mag/cell

     iteration # 18     ecut=    80.00 Ry     beta= 0.30
     Davidson diagonalization with overlap
     ethr =  6.58E-05,  avg # of iterations =  3.3

     negative rho (up, down):  4.946E-03 2.325E-02

     total cpu time spent up to now is       74.6 secs

     total energy              =   -1637.99145093 Ry
     estimated scf accuracy    <       2.91183580 Ry

     total magnetization       =    13.35 Bohr mag/cell
     absolute magnetization    =    14.81 Bohr mag/cell

     iteration # 19     ecut=    80.00 Ry     beta= 0.30
     Davidson diagonalization with overlap
     ethr =  6.58E-05,  avg # of iterations =  1.1

     negative rho (up, down):  2.903E-03 2.121E-02

     total cpu time spent up to now is       77.9 secs

     total energy              =   -1637.99515482 Ry
     estimated scf accuracy    <       3.40300403 Ry

     total magnetization       =    13.44 Bohr mag/cell
     absolute magnetization    =    14.82 Bohr mag/cell

     iteration # 20     ecut=    80.00 Ry     beta= 0.30
     Davidson diagonalization with overlap
     ethr =  6.58E-05,  avg # of iterations =  1.5

     negative rho (up, down):  5.911E-04 1.916E-02

     total cpu time spent up to now is       81.3 secs

     total energy              =   -1637.88530183 Ry
     estimated scf accuracy    <       3.31628700 Ry

     total magnetization       =    13.39 Bohr mag/cell
     absolute magnetization    =    14.80 Bohr mag/cell

     iteration # 21     ecut=    80.00 Ry     beta= 0.30
     Davidson diagonalization with overlap
     ethr =  6.58E-05,  avg # of iterations =  1.6

     negative rho (up, down):  6.819E-04 1.965E-02

     total cpu time spent up to now is       85.2 secs

     total energy              =   -1637.87571163 Ry
     estimated scf accuracy    <       0.91083687 Ry

     total magnetization       =    12.24 Bohr mag/cell
     absolute magnetization    =    14.39 Bohr mag/cell

     iteration # 22     ecut=    80.00 Ry     beta= 0.30
     Davidson diagonalization with overlap
     ethr =  6.58E-05,  avg # of iterations =  1.3

     negative rho (up, down):  1.690E-03 2.080E-02

     total cpu time spent up to now is       88.5 secs

     total energy              =   -1637.88802785 Ry
     estimated scf accuracy    <       0.02801630 Ry

     total magnetization       =    11.23 Bohr mag/cell
     absolute magnetization    =    14.13 Bohr mag/cell

     iteration # 23     ecut=    80.00 Ry     beta= 0.30
     Davidson diagonalization with overlap
     ethr =  1.66E-05,  avg # of iterations =  5.5

     negative rho (up, down):  9.263E-04 2.017E-02

     total cpu time spent up to now is       94.7 secs

     total energy              =   -1637.89565582 Ry
     estimated scf accuracy    <       0.68152698 Ry

     total magnetization       =    11.95 Bohr mag/cell
     absolute magnetization    =    14.51 Bohr mag/cell

     iteration # 24     ecut=    80.00 Ry     beta= 0.30
     Davidson diagonalization with overlap
     ethr =  1.66E-05,  avg # of iterations =  1.3

     negative rho (up, down):  9.508E-04 2.019E-02

     total cpu time spent up to now is       99.7 secs

     total energy              =   -1637.89995463 Ry
     estimated scf accuracy    <       0.23256641 Ry

     total magnetization       =    11.35 Bohr mag/cell
     absolute magnetization    =    14.69 Bohr mag/cell

     iteration # 25     ecut=    80.00 Ry     beta= 0.30
     Davidson diagonalization with overlap
     ethr =  1.66E-05,  avg # of iterations =  1.0

     negative rho (up, down):  1.487E-03 2.065E-02

     total cpu time spent up to now is      102.8 secs

     total energy              =   -1637.90810373 Ry
     estimated scf accuracy    <       0.32821256 Ry

     total magnetization       =    11.47 Bohr mag/cell
     absolute magnetization    =    14.68 Bohr mag/cell

     iteration # 26     ecut=    80.00 Ry     beta= 0.30
     Davidson diagonalization with overlap
     ethr =  1.66E-05,  avg # of iterations =  1.3

     negative rho (up, down):  2.589E-03 2.161E-02

     total cpu time spent up to now is      106.1 secs

     total energy              =   -1637.89977106 Ry
     estimated scf accuracy    <       0.61404007 Ry

     total magnetization       =    11.64 Bohr mag/cell
     absolute magnetization    =    14.73 Bohr mag/cell

     iteration # 27     ecut=    80.00 Ry     beta= 0.30
     Davidson diagonalization with overlap
     ethr =  1.66E-05,  avg # of iterations =  1.6

     negative rho (up, down):  8.705E-03 2.754E-02

     total cpu time spent up to now is      109.4 secs

     total energy              =   -1637.90923351 Ry
     estimated scf accuracy    <       0.15330237 Ry

     total magnetization       =    10.95 Bohr mag/cell
     absolute magnetization    =    14.95 Bohr mag/cell

     iteration # 28     ecut=    80.00 Ry     beta= 0.30
     Davidson diagonalization with overlap
     ethr =  1.66E-05,  avg # of iterations =  1.5

     negative rho (up, down):  8.424E-03 2.727E-02

     total cpu time spent up to now is      112.9 secs

     total energy              =   -1637.90892952 Ry
     estimated scf accuracy    <       0.19811596 Ry

     total magnetization       =    10.98 Bohr mag/cell
     absolute magnetization    =    14.99 Bohr mag/cell

     iteration # 29     ecut=    80.00 Ry     beta= 0.30
     Davidson diagonalization with overlap
     ethr =  1.66E-05,  avg # of iterations =  1.0

     negative rho (up, down):  6.663E-03 2.550E-02

     total cpu time spent up to now is      115.9 secs

     total energy              =   -1637.90153820 Ry
     estimated scf accuracy    <       0.19642225 Ry

     total magnetization       =    11.00 Bohr mag/cell
     absolute magnetization    =    15.01 Bohr mag/cell

     iteration # 30     ecut=    80.00 Ry     beta= 0.30
     Davidson diagonalization with overlap
     ethr =  1.66E-05,  avg # of iterations =  1.5

     negative rho (up, down):  5.507E-03 2.444E-02

     total cpu time spent up to now is      119.2 secs

     total energy              =   -1637.89859041 Ry
     estimated scf accuracy    <       0.13750377 Ry

     total magnetization       =    11.00 Bohr mag/cell
     absolute magnetization    =    15.03 Bohr mag/cell

     iteration # 31     ecut=    80.00 Ry     beta= 0.30
     Davidson diagonalization with overlap
     ethr =  1.66E-05,  avg # of iterations =  1.1

     negative rho (up, down):  6.950E-03 2.593E-02

     total cpu time spent up to now is      122.5 secs

     total energy              =   -1637.89490824 Ry
     estimated scf accuracy    <       0.11396810 Ry

     total magnetization       =    11.00 Bohr mag/cell
     absolute magnetization    =    15.03 Bohr mag/cell

     iteration # 32     ecut=    80.00 Ry     beta= 0.30
     Davidson diagonalization with overlap
     ethr =  1.66E-05,  avg # of iterations =  1.4

     negative rho (up, down):  6.673E-03 2.563E-02

     total cpu time spent up to now is      125.8 secs

     total energy              =   -1637.89567897 Ry
     estimated scf accuracy    <       0.07370410 Ry

     total magnetization       =    11.00 Bohr mag/cell
     absolute magnetization    =    14.98 Bohr mag/cell

     iteration # 33     ecut=    80.00 Ry     beta= 0.30
     Davidson diagonalization with overlap
     ethr =  1.66E-05,  avg # of iterations =  1.0

     negative rho (up, down):  6.007E-03 2.493E-02

     total cpu time spent up to now is      128.8 secs

     total energy              =   -1637.89571870 Ry
     estimated scf accuracy    <       0.08007968 Ry

     total magnetization       =    11.00 Bohr mag/cell
     absolute magnetization    =    14.99 Bohr mag/cell

     iteration # 34     ecut=    80.00 Ry     beta= 0.30
     Davidson diagonalization with overlap
     ethr =  1.66E-05,  avg # of iterations =  1.0

     negative rho (up, down):  7.644E-03 2.659E-02

     total cpu time spent up to now is      131.9 secs

     total energy              =   -1637.89515059 Ry
     estimated scf accuracy    <       0.08644221 Ry

     total magnetization       =    11.00 Bohr mag/cell
     absolute magnetization    =    15.00 Bohr mag/cell

     iteration # 35     ecut=    80.00 Ry     beta= 0.30
     Davidson diagonalization with overlap
     ethr =  1.66E-05,  avg # of iterations =  1.0

     negative rho (up, down):  4.008E-03 2.323E-02

     total cpu time spent up to now is      134.9 secs

     total energy              =   -1637.88161735 Ry
     estimated scf accuracy    <       0.11393754 Ry

     total magnetization       =    11.00 Bohr mag/cell
     absolute magnetization    =    15.05 Bohr mag/cell

     iteration # 36     ecut=    80.00 Ry     beta= 0.30
     Davidson diagonalization with overlap
     ethr =  1.66E-05,  avg # of iterations =  5.1

     negative rho (up, down):  1.587E-03 2.052E-02

     total cpu time spent up to now is      138.9 secs

     total energy              =   -1637.88022995 Ry
     estimated scf accuracy    <       0.32241770 Ry

     total magnetization       =    11.00 Bohr mag/cell
     absolute magnetization    =    14.05 Bohr mag/cell

     iteration # 37     ecut=    80.00 Ry     beta= 0.30
     Davidson diagonalization with overlap
     ethr =  1.66E-05,  avg # of iterations =  3.2

     negative rho (up, down):  4.525E-04 1.940E-02

     total cpu time spent up to now is      142.7 secs

     total energy              =   -1637.89526795 Ry
     estimated scf accuracy    <       0.03929767 Ry

     total magnetization       =    11.00 Bohr mag/cell
     absolute magnetization    =    14.84 Bohr mag/cell

     iteration # 38     ecut=    80.00 Ry     beta= 0.30
     Davidson diagonalization with overlap
     ethr =  1.66E-05,  avg # of iterations =  1.0

     negative rho (up, down):  3.778E-04 1.921E-02

     total cpu time spent up to now is      145.8 secs

     total energy              =   -1637.89528362 Ry
     estimated scf accuracy    <       0.00922855 Ry

     total magnetization       =    11.00 Bohr mag/cell
     absolute magnetization    =    14.72 Bohr mag/cell

     iteration # 39     ecut=    80.00 Ry     beta= 0.30
     Davidson diagonalization with overlap
     ethr =  5.46E-06,  avg # of iterations =  1.9

     negative rho (up, down):  3.821E-04 1.918E-02

     total cpu time spent up to now is      149.2 secs

     total energy              =   -1637.89541301 Ry
     estimated scf accuracy    <       0.00468130 Ry

     total magnetization       =    11.00 Bohr mag/cell
     absolute magnetization    =    14.69 Bohr mag/cell

     iteration # 40     ecut=    80.00 Ry     beta= 0.30
     Davidson diagonalization with overlap
     ethr =  2.77E-06,  avg # of iterations =  5.1

     negative rho (up, down):  4.243E-04 1.918E-02

     total cpu time spent up to now is      153.6 secs

     total energy              =   -1637.89541040 Ry
     estimated scf accuracy    <       0.00402292 Ry

     total magnetization       =    11.00 Bohr mag/cell
     absolute magnetization    =    14.68 Bohr mag/cell

     iteration # 41     ecut=    80.00 Ry     beta= 0.30
     Davidson diagonalization with overlap
     ethr =  2.38E-06,  avg # of iterations =  2.1

     negative rho (up, down):  9.804E-04 1.934E-02

     total cpu time spent up to now is      157.3 secs

     total energy              =   -1637.89524656 Ry
     estimated scf accuracy    <       0.00306607 Ry

     total magnetization       =    11.00 Bohr mag/cell
     absolute magnetization    =    14.66 Bohr mag/cell

     iteration # 42     ecut=    80.00 Ry     beta= 0.30
     Davidson diagonalization with overlap
     c_bands:  1 eigenvalues not converged
     c_bands:  1 eigenvalues not converged
     ethr =  1.81E-06,  avg # of iterations =  4.5

     negative rho (up, down):  1.650E-03 1.972E-02

     total cpu time spent up to now is      161.7 secs

     total energy              =   -1637.89532152 Ry
     estimated scf accuracy    <       0.00060064 Ry

     total magnetization       =    11.00 Bohr mag/cell
     absolute magnetization    =    14.58 Bohr mag/cell

     iteration # 43     ecut=    80.00 Ry     beta= 0.30
     Davidson diagonalization with overlap
     ethr =  3.55E-07,  avg # of iterations =  2.2

     negative rho (up, down):  1.913E-03 2.007E-02

     total cpu time spent up to now is      165.1 secs

     total energy              =   -1637.89535503 Ry
     estimated scf accuracy    <       0.00050453 Ry

     total magnetization       =    11.00 Bohr mag/cell
     absolute magnetization    =    14.61 Bohr mag/cell

     iteration # 44     ecut=    80.00 Ry     beta= 0.30
     Davidson diagonalization with overlap
     ethr =  2.99E-07,  avg # of iterations =  1.5

     negative rho (up, down):  2.119E-03 2.031E-02

     total cpu time spent up to now is      168.4 secs

     total energy              =   -1637.89542288 Ry
     estimated scf accuracy    <       0.00014041 Ry

     total magnetization       =    11.00 Bohr mag/cell
     absolute magnetization    =    14.58 Bohr mag/cell

     iteration # 45     ecut=    80.00 Ry     beta= 0.30
     Davidson diagonalization with overlap
     ethr =  8.31E-08,  avg # of iterations =  2.2

     negative rho (up, down):  2.149E-03 2.013E-02

     total cpu time spent up to now is      171.8 secs

     total energy              =   -1637.89543824 Ry
     estimated scf accuracy    <       0.00007380 Ry

     total magnetization       =    11.00 Bohr mag/cell
     absolute magnetization    =    14.59 Bohr mag/cell

     iteration # 46     ecut=    80.00 Ry     beta= 0.30
     Davidson diagonalization with overlap
     ethr =  4.37E-08,  avg # of iterations =  2.0

     negative rho (up, down):  2.023E-03 1.990E-02

     total cpu time spent up to now is      175.2 secs

     total energy              =   -1637.89544545 Ry
     estimated scf accuracy    <       0.00002233 Ry

     total magnetization       =    11.00 Bohr mag/cell
     absolute magnetization    =    14.59 Bohr mag/cell

     iteration # 47     ecut=    80.00 Ry     beta= 0.30
     Davidson diagonalization with overlap
     ethr =  1.32E-08,  avg # of iterations =  2.8

     negative rho (up, down):  1.944E-03 1.962E-02

     total cpu time spent up to now is      178.8 secs

     total energy              =   -1637.89545905 Ry
     estimated scf accuracy    <       0.00000830 Ry

     total magnetization       =    11.00 Bohr mag/cell
     absolute magnetization    =    14.58 Bohr mag/cell

     iteration # 48     ecut=    80.00 Ry     beta= 0.30
     Davidson diagonalization with overlap
     ethr =  4.91E-09,  avg # of iterations =  3.2

     negative rho (up, down):  1.936E-03 1.957E-02

     total cpu time spent up to now is      184.1 secs

     total energy              =   -1637.89546263 Ry
     estimated scf accuracy    <       0.00000326 Ry

     total magnetization       =    11.00 Bohr mag/cell
     absolute magnetization    =    14.58 Bohr mag/cell

     iteration # 49     ecut=    80.00 Ry     beta= 0.30
     Davidson diagonalization with overlap
     ethr =  1.93E-09,  avg # of iterations =  2.5

     negative rho (up, down):  1.951E-03 1.955E-02

     total cpu time spent up to now is      187.5 secs

     total energy              =   -1637.89546439 Ry
     estimated scf accuracy    <       0.00000133 Ry

     total magnetization       =    11.00 Bohr mag/cell
     absolute magnetization    =    14.58 Bohr mag/cell

     iteration # 50     ecut=    80.00 Ry     beta= 0.30
     Davidson diagonalization with overlap
     ethr =  7.89E-10,  avg # of iterations =  3.7

     negative rho (up, down):  2.006E-03 1.961E-02

     Magnetic moment per site  (integrated on atomic sphere of radius R)
     atom   1 (R=0.259)  charge= 10.4298  magn=  1.9388
     atom   2 (R=0.259)  charge= 10.3521  magn=  1.4654
     atom   3 (R=0.259)  charge= 10.3735  magn=  1.7113
     atom   4 (R=0.259)  charge= 10.3794  magn=  1.7343
     atom   5 (R=0.259)  charge= 10.3902  magn=  1.7618
     atom   6 (R=0.259)  charge= 10.3532  magn=  1.4351
     atom   7 (R=0.150)  charge=  2.2815  magn= -0.0464
     atom   8 (R=0.150)  charge=  2.2548  magn= -0.0760
     atom   9 (R=0.150)  charge=  2.2865  magn= -0.0315
     atom  10 (R=0.150)  charge=  2.2865  magn= -0.0315
     atom  11 (R=0.150)  charge=  2.2814  magn= -0.0386
     atom  12 (R=0.150)  charge=  2.2795  magn= -0.0452
     atom  13 (R=0.150)  charge=  2.2872  magn= -0.0364
     atom  14 (R=0.150)  charge=  2.2872  magn= -0.0364
     atom  15 (R=0.150)  charge=  2.2623  magn= -0.0705
     atom  16 (R=0.150)  charge=  2.2743  magn= -0.0465
     atom  17 (R=0.150)  charge=  2.2862  magn= -0.0322
     atom  18 (R=0.150)  charge=  2.2862  magn= -0.0322
     atom  19 (R=0.150)  charge=  2.2632  magn= -0.1480
     atom  20 (R=0.150)  charge=  2.2682  magn= -0.1298
     atom  21 (R=0.150)  charge=  0.4284  magn=  0.0016

     total cpu time spent up to now is      191.2 secs

     End of self-consistent calculation

 ------ SPIN UP ------------


          k = 0.0000 0.0000 0.0000 ( 37133 PWs)   bands (ev):

   -73.0845 -73.0456 -72.9618 -72.9519 -72.9499 -72.9456 -44.4198 -44.4097
   -44.3914 -44.3776 -44.3419 -44.3370 -44.3175 -44.3032 -44.2859 -44.2372
   -44.2206 -44.2169 -44.2052 -44.1932 -44.1724 -44.1697 -44.1351 -44.1130
   -23.5356 -19.0498 -18.7077 -18.4411 -18.0541 -17.5591 -17.4497 -17.3453
   -17.3052 -17.2213 -17.1470 -16.6387 -16.2143 -14.3273  -7.7289  -6.9006
    -6.8034  -6.7324  -6.3779  -5.7175  -5.6039  -5.2769  -5.1093  -4.9820
    -4.8786  -4.8402  -4.8095  -4.5507  -4.5178  -4.4619  -4.4576  -3.9338
    -3.6701  -3.5935  -3.2832  -3.1916  -3.1183  -3.0073  -2.8393  -2.6574
    -2.5346  -2.4761  -2.3948  -2.2262  -1.9903  -1.9105  -1.8286  -1.6621
    -1.3742  -1.1739  -1.1064  -1.0129  -0.9411  -0.8824  -0.8040  -0.6629
    -0.6565  -0.6516  -0.6187  -0.5745  -0.5267  -0.4954  -0.0956   0.0713
     0.1967   0.3087   0.4626   0.6714   0.9600   1.2557   1.3454   1.4393
     1.5285   1.6427   2.1453   2.7635   3.3844   3.8491

          k = 0.0000 0.1166 0.0000 ( 37130 PWs)   bands (ev):

   -73.0844 -73.0456 -72.9618 -72.9517 -72.9499 -72.9458 -44.4181 -44.4097
   -44.3895 -44.3776 -44.3395 -44.3369 -44.3176 -44.3031 -44.2859 -44.2371
   -44.2226 -44.2186 -44.2052 -44.1956 -44.1725 -44.1698 -44.1348 -44.1133
   -23.5355 -18.9329 -18.5876 -18.3282 -18.2098 -17.7797 -17.6167 -17.3492
   -17.2491 -17.2128 -17.1130 -16.6349 -16.2051 -14.3266  -7.7203  -6.6234
    -6.5191  -6.4397  -6.3306  -5.7252  -5.4535  -5.2578  -4.9381  -4.9245
    -4.8096  -4.8066  -4.7779  -4.5608  -4.5227  -4.4569  -4.3517  -4.0427
    -3.9276  -3.7943  -3.7070  -3.5245  -3.3455  -3.2144  -2.9900  -2.8627
    -2.6490  -2.5534  -2.4526  -2.3733  -2.2449  -1.9923  -1.8465  -1.8064
    -1.5700  -1.2945  -1.2896  -1.0821  -0.9794  -0.8802  -0.6762  -0.6290
    -0.4236  -0.3569  -0.2984  -0.2772  -0.1683  -0.1269   0.0185   0.1065
     0.2626   0.3074   0.4739   0.6720   0.9250   1.1922   1.2495   1.3340
     1.4677   1.6339   2.4588   3.0107   3.5385   3.8615

          k = 0.0000-0.2332 0.0000 ( 37126 PWs)   bands (ev):

   -73.0844 -73.0456 -72.9618 -72.9516 -72.9499 -72.9459 -44.4163 -44.4097
   -44.3875 -44.3776 -44.3371 -44.3368 -44.3176 -44.3031 -44.2859 -44.2370
   -44.2247 -44.2204 -44.2052 -44.1981 -44.1726 -44.1698 -44.1345 -44.1136
   -23.5354 -18.7083 -18.4927 -18.3674 -18.0818 -18.0710 -17.8790 -17.3440
   -17.2449 -17.2109 -17.0743 -16.6324 -16.1969 -14.3260  -7.7153  -6.4735
    -6.1289  -6.0662  -6.0094  -5.7321  -5.4116  -4.9636  -4.8608  -4.8071
    -4.7379  -4.7254  -4.7127  -4.5720  -4.5256  -4.5173  -4.4551  -4.2180
    -4.1183  -4.0869  -4.0635  -3.8960  -3.7589  -3.5798  -3.0466  -2.9260
    -2.8405  -2.7965  -2.7264  -2.4891  -2.4158  -1.9281  -1.8268  -1.6438
    -1.5875  -1.3607  -1.2669  -1.1256  -0.9152  -0.8250  -0.7738  -0.6382
    -0.2208  -0.2158  -0.1841  -0.1576   0.0112   0.2123   0.2285   0.2881
     0.2993   0.4680   0.6478   0.7124   0.7473   0.8993   1.0930   1.2464
     1.3467   1.8005   2.8225   3.0328   3.8589   3.8603

          k = 0.1111 0.0000 0.0000 ( 37175 PWs)   bands (ev):

   -73.0829 -73.0441 -72.9603 -72.9503 -72.9484 -72.9441 -44.4179 -44.4076
   -44.3895 -44.3751 -44.3399 -44.3364 -44.3211 -44.3146 -44.2848 -44.2556
   -44.2178 -44.2140 -44.2023 -44.1917 -44.1904 -44.1886 -44.1548 -44.1322
   -23.4494 -18.9379 -18.6081 -18.3511 -17.9789 -17.5026 -17.4195 -17.3388
   -17.3311 -17.2461 -17.1739 -16.6655 -16.2287 -14.4961  -7.9282  -6.7530
    -6.6720  -6.6081  -6.2537  -5.6416  -5.5078  -5.2724  -5.2378  -5.1294
    -5.0932  -5.0593  -4.9309  -4.7616  -4.4755  -4.4194  -4.2545  -3.5573
    -3.5352  -3.4956  -3.1049  -3.0830  -3.0152  -2.9904  -2.9009  -2.8069
    -2.7044  -2.6794  -2.4507  -2.3960  -2.3916  -2.0375  -1.9228  -1.8920
    -1.7313  -1.6427  -1.5109  -1.2589  -0.9052  -0.8929  -0.7534  -0.6313
    -0.5668  -0.4485  -0.3537  -0.3050  -0.2503  -0.0566   0.0460   0.1198
     0.2836   0.5398   0.5777   0.7296   0.9009   1.1754   1.3439   1.4520
     1.4598   1.5676   2.2215   2.8575   3.4330   3.5352

          k = 0.1111 0.1166 0.0000 ( 37124 PWs)   bands (ev):

   -73.0829 -73.0441 -72.9603 -72.9502 -72.9484 -72.9442 -44.4165 -44.4076
   -44.3880 -44.3750 -44.3379 -44.3364 -44.3211 -44.3147 -44.2849 -44.2557
   -44.2195 -44.2156 -44.2023 -44.1926 -44.1917 -44.1886 -44.1544 -44.1323
   -23.4493 -18.8256 -18.4925 -18.2414 -18.1307 -17.7224 -17.5701 -17.3676
   -17.2670 -17.2384 -17.1241 -16.6618 -16.2205 -14.4954  -7.9232  -6.4771
    -6.3814  -6.3078  -6.2055  -5.6490  -5.3972  -5.2446  -5.1459  -5.1028
    -5.0480  -4.9886  -4.9029  -4.6747  -4.4701  -4.4087  -4.2138  -3.8159
    -3.6646  -3.6125  -3.4802  -3.4623  -3.2174  -3.0989  -3.0787  -3.0227
    -2.9920  -2.8660  -2.6399  -2.5167  -2.4566  -2.2659  -1.9709  -1.8494
    -1.7051  -1.6465  -1.4228  -1.1690  -1.0445  -0.8095  -0.6840  -0.3837
    -0.3013  -0.2264  -0.1165  -0.0759  -0.0341  -0.0083   0.0895   0.2186
     0.2949   0.5506   0.5749   0.7455   0.8677   1.1170   1.1766   1.2745
     1.4175   1.6847   2.4817   3.0453   3.4904   3.5434

          k = 0.1111-0.2332 0.0000 ( 37144 PWs)   bands (ev):

   -73.0829 -73.0441 -72.9603 -72.9500 -72.9484 -72.9444 -44.4151 -44.4076
   -44.3863 -44.3750 -44.3363 -44.3359 -44.3211 -44.3147 -44.2849 -44.2558
   -44.2211 -44.2171 -44.2023 -44.1949 -44.1917 -44.1885 -44.1541 -44.1325
   -23.4492 -18.6110 -18.3982 -18.2794 -18.0066 -18.0044 -17.8219 -17.3645
   -17.2706 -17.2286 -17.0832 -16.6593 -16.2132 -14.4948  -7.9200  -6.3414
    -5.9669  -5.9223  -5.8558  -5.6579  -5.3904  -5.1602  -5.0497  -5.0028
    -4.9709  -4.9514  -4.8638  -4.5144  -4.4315  -4.4006  -4.3122  -4.1985
    -3.9084  -3.8456  -3.7865  -3.6857  -3.6513  -3.4594  -3.3792  -3.2132
    -3.1420  -2.9966  -2.9165  -2.5527  -2.5004  -2.3407  -1.9429  -1.7330
    -1.4828  -1.4236  -1.3054  -1.2294  -1.0690  -0.8255  -0.6652  -0.2703
    -0.2336  -0.1629  -0.1384  -0.1172   0.0460   0.3638   0.4190   0.4622
     0.5618   0.5825   0.6221   0.6988   0.7853   0.8670   1.0285   1.1876
     1.2639   1.8411   2.7733   3.0764   3.4941   3.4980

          k = 0.2222 0.0000 0.0000 ( 37192 PWs)   bands (ev):

   -73.0791 -73.0402 -72.9563 -72.9463 -72.9445 -72.9402 -44.4133 -44.4029
   -44.3848 -44.3712 -44.3655 -44.3349 -44.3325 -44.3146 -44.2975 -44.2797
   -44.2404 -44.2368 -44.2107 -44.2069 -44.2045 -44.1943 -44.1833 -44.1803
   -23.2158 -18.6321 -18.3431 -18.1154 -17.7901 -17.4560 -17.3982 -17.3772
   -17.3092 -17.2426 -17.2206 -16.7306 -16.2498 -14.9646  -8.2509  -6.3608
    -6.3248  -6.2739  -5.9539  -5.5860  -5.5322  -5.4657  -5.4284  -5.3319
    -5.2669  -5.0179  -4.9654  -4.5027  -4.4760  -4.2940  -4.1465  -3.9093
    -3.7815  -3.7017  -3.5575  -3.5303  -3.3148  -3.2441  -2.9863  -2.8349
    -2.7253  -2.6122  -2.5513  -2.4792  -2.3425  -2.2679  -2.1565  -2.1044
    -1.9566  -1.9031  -1.5398  -1.2444  -1.1883  -0.7400  -0.6615  -0.3928
    -0.3098  -0.2908  -0.2366  -0.2068   0.0412   0.2792   0.3124   0.3642
     0.5317   0.6496   0.6792   0.8729   0.8956   1.0068   1.1044   1.2596
     1.3577   1.5974   2.3264   2.9211   3.2478   3.4238

          k = 0.2222 0.1166 0.0000 ( 37137 PWs)   bands (ev):

   -73.0791 -73.0402 -72.9563 -72.9462 -72.9445 -72.9403 -44.4128 -44.4029
   -44.3842 -44.3712 -44.3655 -44.3341 -44.3324 -44.3146 -44.2976 -44.2797
   -44.2400 -44.2364 -44.2117 -44.2078 -44.2038 -44.1943 -44.1873 -44.1779
   -23.2157 -18.5346 -18.2430 -18.0181 -17.9285 -17.6107 -17.4907 -17.4049
   -17.3134 -17.2881 -17.1224 -16.7275 -16.2450 -14.9640  -8.2486  -6.1031
    -6.0302  -5.9781  -5.8974  -5.5407  -5.4855  -5.4544  -5.3404  -5.3006
    -5.2350  -5.1570  -4.7226  -4.5420  -4.4064  -4.3244  -4.1786  -4.0695
    -3.9604  -3.8930  -3.7466  -3.6247  -3.4159  -3.2741  -3.0943  -3.0700
    -3.0160  -2.9032  -2.8343  -2.7236  -2.6310  -2.1944  -1.9881  -1.9051
    -1.8086  -1.7512  -1.5456  -1.3310  -1.1849  -0.8805  -0.5842  -0.3427
    -0.1962  -0.0634   0.0715   0.0972   0.1490   0.2528   0.3900   0.4175
     0.5305   0.5679   0.6621   0.8303   0.8696   0.9827   1.0247   1.1488
     1.2451   1.7338   2.4852   2.9513   3.0923   3.1520

          k = 0.2222-0.2332 0.0000 ( 37166 PWs)   bands (ev):

   -73.0791 -73.0402 -72.9563 -72.9461 -72.9445 -72.9403 -44.4122 -44.4029
   -44.3835 -44.3713 -44.3655 -44.3333 -44.3324 -44.3147 -44.2977 -44.2798
   -44.2395 -44.2360 -44.2127 -44.2087 -44.2031 -44.1943 -44.1898 -44.1769
   -23.2156 -18.3514 -18.1512 -18.0517 -17.8543 -17.8160 -17.6971 -17.4159
   -17.3373 -17.2619 -17.0856 -16.7252 -16.2406 -14.9634  -8.2470  -6.0158
    -5.6199  -5.6154  -5.5528  -5.4572  -5.4437  -5.3765  -5.2395  -5.2075
    -5.1391  -5.1139  -4.6485  -4.5667  -4.5079  -4.5062  -4.4324  -4.3264
    -4.1061  -4.0486  -3.9679  -3.6253  -3.5922  -3.4447  -3.2873  -3.2743
    -3.2233  -3.1610  -3.1166  -2.9302  -2.6429  -2.0844  -1.9030  -1.7140
    -1.5878  -1.5379  -1.4556  -1.4328  -1.2652  -1.1167  -0.3020  -0.2990
    -0.1936  -0.1088   0.0818   0.2218   0.3606   0.3934   0.4839   0.5602
     0.5823   0.6398   0.6863   0.7776   0.8155   0.9839   0.9962   1.0700
     1.0750   1.8294   2.6344   2.8346   2.8435   2.8842

          k = 0.3333 0.0000 0.0000 ( 37184 PWs)   bands (ev):

   -73.0747 -73.0357 -72.9518 -72.9417 -72.9401 -72.9357 -44.4243 -44.4082
   -44.3945 -44.3794 -44.3620 -44.3592 -44.3303 -44.3293 -44.2956 -44.2945
   -44.2899 -44.2776 -44.2606 -44.2342 -44.2026 -44.1987 -44.1855 -44.1751
   -22.9166 -18.2183 -18.0095 -17.8322 -17.5958 -17.5144 -17.4766 -17.3813
   -17.3233 -17.3211 -17.0691 -16.7869 -16.2375 -15.5604  -8.3706  -6.0918
    -5.9665  -5.8825  -5.7990  -5.7092  -5.5852  -5.4999  -5.4526  -5.3265
    -5.2183  -5.1317  -4.9664  -4.7058  -4.5366  -4.4392  -4.3170  -4.1821
    -4.0596  -3.9858  -3.8762  -3.4831  -3.4702  -3.2769  -3.1267  -3.0877
    -2.9972  -2.8254  -2.7917  -2.7239  -2.3932  -2.2481  -2.2169  -1.9103
    -1.7865  -1.6491  -1.3791  -1.3652  -0.8886  -0.8719  -0.6853  -0.3313
    -0.2771  -0.1551  -0.1506  -0.0691   0.1162   0.3342   0.4171   0.5020
     0.5181   0.6085   0.6651   0.7586   0.8792   0.9513   1.0336   1.2479
     1.2789   1.5113   2.3345   2.6632   3.2173   3.3449

          k = 0.3333 0.1166 0.0000 ( 37206 PWs)   bands (ev):

   -73.0747 -73.0357 -72.9519 -72.9417 -72.9401 -72.9358 -44.4245 -44.4088
   -44.3945 -44.3804 -44.3621 -44.3592 -44.3306 -44.3302 -44.2951 -44.2934
   -44.2890 -44.2776 -44.2587 -44.2347 -44.2028 -44.1989 -44.1855 -44.1752
   -22.9166 -18.1489 -17.9415 -17.7782 -17.6912 -17.5708 -17.4917 -17.4130
   -17.3981 -17.2910 -17.0542 -16.7857 -16.2368 -15.5598  -8.3703  -6.0724
    -5.7681  -5.6982  -5.6576  -5.6326  -5.5682  -5.5034  -5.4067  -5.3600
    -5.2278  -5.1707  -5.0024  -4.7030  -4.5475  -4.4030  -4.3307  -4.1990
    -4.1486  -4.0432  -3.7452  -3.6307  -3.4698  -3.3931  -3.1757  -3.1044
    -3.0213  -2.8465  -2.8037  -2.6848  -2.5584  -2.3371  -2.1450  -1.9297
    -1.7989  -1.7423  -1.3212  -1.2868  -1.1028  -0.8795  -0.6042  -0.5469
    -0.2164  -0.0984   0.0127   0.0180   0.0525   0.1510   0.2244   0.4102
     0.5057   0.5730   0.6950   0.9394   0.9631   1.0000   1.1477   1.1841
     1.2398   1.6083   2.4439   2.6005   2.7013   2.7565

          k = 0.3333-0.2332 0.0000 ( 37216 PWs)   bands (ev):

   -73.0747 -73.0357 -72.9519 -72.9416 -72.9401 -72.9358 -44.4246 -44.4095
   -44.3945 -44.3814 -44.3623 -44.3592 -44.3318 -44.3302 -44.2949 -44.2921
   -44.2881 -44.2776 -44.2568 -44.2353 -44.2031 -44.1992 -44.1855 -44.1753
   -22.9165 -18.0208 -17.8745 -17.7897 -17.7287 -17.6075 -17.5889 -17.4706
   -17.4135 -17.2773 -17.0436 -16.7847 -16.2360 -15.5592  -8.3702  -6.0722
    -5.6723  -5.6216  -5.5664  -5.4772  -5.4202  -5.4092  -5.3716  -5.2294
    -5.2244  -5.0585  -5.0516  -4.7197  -4.6919  -4.5403  -4.3453  -4.2313
    -4.1582  -4.0109  -3.8700  -3.7125  -3.5739  -3.2926  -3.2300  -3.1892
    -2.9956  -2.9815  -2.9805  -2.7982  -2.5560  -2.1597  -2.0733  -1.9704
    -1.9131  -1.5921  -1.5397  -1.1532  -1.0438  -0.8734  -0.7288  -0.6366
    -0.3695  -0.2219  -0.1234   0.1702   0.1843   0.2161   0.2361   0.4299
     0.5105   0.5487   0.6384   0.9402   0.9896   1.0406   1.1595   1.2760
     1.2866   1.6827   2.3281   2.3441   2.4192   2.6364

          k = 0.4444 0.0000 0.0000 ( 37180 PWs)   bands (ev):

   -73.0718 -73.0328 -72.9489 -72.9387 -72.9373 -72.9328 -44.4578 -44.4048
   -44.3968 -44.3917 -44.3760 -44.3538 -44.3343 -44.3263 -44.3257 -44.3246
   -44.2969 -44.2874 -44.2802 -44.2652 -44.1972 -44.1933 -44.1797 -44.1698
   -22.6957 -17.8337 -17.7332 -17.6499 -17.5995 -17.5288 -17.5235 -17.4287
   -17.3726 -17.3454 -17.0096 -16.7845 -16.2040 -15.9819  -8.3259  -6.3684
    -5.9478  -5.7335  -5.7041  -5.6001  -5.5669  -5.5438  -5.4117  -5.3595
    -5.2554  -5.2125  -5.0506  -4.8387  -4.6477  -4.4813  -4.4577  -4.3775
    -4.0235  -3.7815  -3.6006  -3.5848  -3.5581  -3.4557  -3.4130  -3.2478
    -2.8917  -2.7543  -2.5719  -2.5065  -2.4567  -2.2383  -2.2158  -2.0136
    -1.9582  -1.6026  -1.5355  -1.4280  -1.0718  -0.5602  -0.5038  -0.2793
    -0.2436  -0.1454  -0.1247  -0.1085   0.0352   0.0984   0.1266   0.3347
     0.3918   0.5458   0.6675   0.6703   0.8561   1.0601   1.1261   1.3598
     1.4045   1.4889   2.2408   2.5478   3.1174   3.3738

          k = 0.4444 0.1166 0.0000 ( 37248 PWs)   bands (ev):

   -73.0718 -73.0328 -72.9489 -72.9387 -72.9373 -72.9328 -44.4580 -44.4068
   -44.3970 -44.3917 -44.3793 -44.3537 -44.3324 -44.3304 -44.3243 -44.3232
   -44.2920 -44.2874 -44.2803 -44.2655 -44.1971 -44.1931 -44.1797 -44.1694
   -22.6957 -17.8127 -17.7241 -17.6732 -17.6167 -17.5322 -17.5123 -17.4334
   -17.3959 -17.3246 -17.0129 -16.7841 -16.2037 -15.9811  -8.3288  -6.3630
    -6.0323  -5.8861  -5.8366  -5.7512  -5.6629  -5.4221  -5.3808  -5.2363
    -5.1853  -5.0411  -4.9194  -4.6258  -4.5881  -4.5040  -4.3063  -4.1275
    -3.9763  -3.9232  -3.7724  -3.7225  -3.5742  -3.3493  -3.2938  -3.0946
    -2.9562  -2.7295  -2.5364  -2.4935  -2.3078  -2.2800  -2.1855  -2.1043
    -1.8635  -1.8165  -1.5520  -1.3596  -1.1421  -0.7269  -0.5578  -0.3845
    -0.2519  -0.2299  -0.1591  -0.1218  -0.0976  -0.0950  -0.0799   0.0545
     0.1003   0.3259   0.5941   1.0636   1.1681   1.2299   1.3164   1.3362
     1.4352   1.4967   2.3248   2.4350   2.5583   2.5700

          k = 0.4444-0.2332 0.0000 ( 37264 PWs)   bands (ev):

   -73.0718 -73.0328 -72.9489 -72.9387 -72.9373 -72.9328 -44.4581 -44.4086
   -44.3971 -44.3917 -44.3822 -44.3536 -44.3343 -44.3311 -44.3223 -44.3216
   -44.2880 -44.2874 -44.2805 -44.2657 -44.1969 -44.1930 -44.1797 -44.1691
   -22.6957 -17.7729 -17.7454 -17.6666 -17.6495 -17.5413 -17.4961 -17.4393
   -17.4110 -17.3126 -17.0162 -16.7836 -16.2035 -15.9803  -8.3318  -6.3620
    -6.1152  -6.0794  -5.9631  -5.7849  -5.6316  -5.2161  -5.1545  -5.1475
    -5.0802  -5.0013  -4.9903  -4.8414  -4.5353  -4.2443  -4.1828  -4.0402
    -4.0336  -3.9397  -3.8127  -3.5663  -3.4697  -3.3536  -3.1340  -3.1094
    -2.8179  -2.7436  -2.7078  -2.6483  -2.4340  -2.3444  -2.1234  -2.0016
    -1.8925  -1.4883  -1.4395  -1.4280  -1.2435  -0.8255  -0.7956  -0.6986
    -0.6951  -0.4913  -0.2149  -0.1048  -0.0976  -0.0831  -0.0653   0.0584
     0.0992   0.1560   0.6031   1.0997   1.2052   1.3449   1.4219   1.4713
     1.4859   1.5531   2.1365   2.1596   2.2295   2.4180

 ------ SPIN DOWN ----------


          k = 0.0000 0.0000 0.0000 ( 37133 PWs)   bands (ev):

   -71.0572 -70.9211 -70.6983 -70.5959 -70.5410 -70.2848 -42.5035 -42.4538
   -42.3703 -42.2668 -42.2263 -42.2019 -42.1760 -42.1326 -42.0504 -42.0351
   -41.8470 -41.8418 -41.8140 -41.7791 -41.7143 -41.6707 -41.5860 -41.4703
   -23.9020 -19.0879 -18.7460 -18.4799 -18.1288 -17.6663 -17.5560 -17.4353
   -17.3646 -17.2867 -17.2170 -16.8223 -16.4441 -14.8353  -7.8541  -6.4901
    -6.3527  -6.2944  -5.9334  -5.7082  -5.3343  -5.1834  -4.9724  -4.7224
    -4.5193  -4.4590  -4.4256  -4.3975  -4.3915  -4.1832  -4.1286  -3.9398
    -3.6122  -3.4747  -3.2374  -3.1529  -2.9488  -2.9472  -2.7615  -2.6154
    -2.3550  -2.2570  -2.1791  -2.1380  -1.9410  -1.8617  -1.5041  -1.4721
    -1.3457  -1.1699  -0.9942  -0.9454  -0.7335  -0.6057  -0.1281   1.4983
     1.5176   1.5288   1.6106   1.6115   1.6787   1.7758   1.7853   1.9407
     2.1285   2.1672   2.2217   2.2615   2.2836   2.6966   2.8089   3.0545
     3.2313   3.3997   3.4648   4.0983   4.6821   4.9120

          k = 0.0000 0.1166 0.0000 ( 37130 PWs)   bands (ev):

   -71.0572 -70.9211 -70.6983 -70.5959 -70.5410 -70.2848 -42.5029 -42.4532
   -42.3703 -42.2656 -42.2262 -42.2019 -42.1760 -42.1326 -42.0504 -42.0351
   -41.8471 -41.8431 -41.8148 -41.7790 -41.7144 -41.6707 -41.5866 -41.4703
   -23.9019 -18.9728 -18.6264 -18.3651 -18.2816 -17.8693 -17.6985 -17.4378
   -17.3233 -17.2864 -17.1976 -16.8189 -16.4346 -14.8346  -7.8505  -6.2428
    -6.0776  -6.0131  -5.8869  -5.6537  -5.3329  -5.1327  -4.8409  -4.7291
    -4.4773  -4.3963  -4.3905  -4.3564  -4.2749  -4.1839  -4.1256  -3.9390
    -3.8542  -3.6026  -3.5320  -3.4020  -3.2250  -2.8712  -2.7937  -2.7213
    -2.4103  -2.3951  -2.2503  -2.0760  -2.0260  -1.8332  -1.7826  -1.6080
    -1.4468  -1.2986  -1.2605  -1.0140  -0.9632  -0.6984  -0.1500   1.5258
     1.7534   1.8553   1.8605   1.9086   1.9257   1.9476   1.9642   2.0624
     2.1346   2.2044   2.2548   2.2909   2.3445   2.7051   2.9030   2.9668
     3.0731   3.3223   3.6387   4.2659   4.7371   4.9243

          k = 0.0000-0.2332 0.0000 ( 37126 PWs)   bands (ev):

   -71.0572 -70.9210 -70.6983 -70.5959 -70.5410 -70.2848 -42.5022 -42.4527
   -42.3703 -42.2644 -42.2262 -42.2019 -42.1760 -42.1326 -42.0504 -42.0351
   -41.8471 -41.8444 -41.8156 -41.7789 -41.7146 -41.6707 -41.5873 -41.4704
   -23.9018 -18.7489 -18.5517 -18.3964 -18.1625 -18.1220 -17.9542 -17.4336
   -17.3189 -17.2904 -17.1672 -16.8171 -16.4262 -14.8339  -7.8481  -6.0830
    -5.7221  -5.6993  -5.5932  -5.5782  -5.3415  -5.1295  -4.7424  -4.4733
    -4.4327  -4.3935  -4.3391  -4.3213  -4.2488  -4.1843  -4.1209  -4.1053
    -3.8246  -3.8112  -3.7927  -3.7132  -3.4731  -3.4659  -2.7298  -2.7091
    -2.6164  -2.4574  -2.4271  -2.1363  -2.1352  -1.9353  -1.7262  -1.6642
    -1.5030  -1.4039  -1.3511  -1.0720  -0.9509  -0.8568  -0.1695   1.5260
     1.8861   1.9988   2.0762   2.0991   2.1149   2.1192   2.1568   2.2099
     2.2583   2.3080   2.3794   2.3801   2.4082   2.5308   2.7984   2.9552
     3.0744   3.2862   4.0332   4.1543   4.8179   4.9499

          k = 0.1111 0.0000 0.0000 ( 37175 PWs)   bands (ev):

   -71.0555 -70.9194 -70.6966 -70.5942 -70.5393 -70.2830 -42.5018 -42.4521
   -42.3690 -42.2649 -42.2457 -42.1987 -42.1738 -42.1307 -42.0721 -42.0314
   -41.8459 -41.8380 -41.8101 -41.8003 -41.7364 -41.6932 -41.5817 -41.4938
   -23.8176 -18.9771 -18.6468 -18.3906 -18.0545 -17.6084 -17.5213 -17.4359
   -17.3902 -17.3119 -17.2440 -16.8496 -16.4600 -14.9965  -8.0545  -6.3545
    -6.2391  -6.1868  -5.8355  -5.6329  -5.2705  -5.1926  -5.1429  -4.9465
    -4.8733  -4.6553  -4.6538  -4.5729  -4.1577  -4.1246  -4.0750  -3.4072
    -3.2975  -3.2403  -3.0993  -2.9768  -2.9171  -2.8198  -2.7745  -2.7348
    -2.6200  -2.5381  -2.2664  -2.1982  -2.0502  -1.8633  -1.7681  -1.6993
    -1.6268  -1.3805  -1.2038  -0.9503  -0.9260  -0.6541  -0.1953   1.5208
     1.6691   1.6997   1.7433   1.8024   1.8494   1.8712   1.8924   2.0058
     2.1537   2.2475   2.2926   2.3482   2.4417   2.6013   2.9303   2.9602
     3.1444   3.3794   3.4703   4.1497   4.6479   4.7313

          k = 0.1111 0.1166 0.0000 ( 37124 PWs)   bands (ev):

   -71.0555 -70.9194 -70.6966 -70.5943 -70.5393 -70.2830 -42.5013 -42.4517
   -42.3690 -42.2639 -42.2457 -42.1987 -42.1738 -42.1307 -42.0721 -42.0314
   -41.8459 -41.8393 -41.8107 -41.8001 -41.7364 -41.6932 -41.5823 -41.4937
   -23.8176 -18.8668 -18.5321 -18.2797 -18.2029 -17.8091 -17.6501 -17.4552
   -17.3433 -17.3127 -17.2131 -16.8462 -16.4514 -14.9958  -8.0519  -6.1129
    -5.9565  -5.8984  -5.7847  -5.5837  -5.2750  -5.1958  -5.0816  -4.9186
    -4.7512  -4.6875  -4.5754  -4.4279  -4.1530  -4.1196  -4.0310  -3.5485
    -3.4548  -3.4073  -3.3006  -3.2777  -3.0387  -2.9576  -2.8296  -2.7813
    -2.7303  -2.7093  -2.4339  -2.3117  -2.0885  -1.9543  -1.8335  -1.7510
    -1.6509  -1.4491  -1.2685  -0.9863  -0.9489  -0.7561  -0.2039   1.6534
     1.6643   1.8720   1.9292   1.9502   1.9859   2.0802   2.1209   2.1767
     2.2285   2.2761   2.3866   2.4470   2.4616   2.6537   2.8250   2.9771
     3.0655   3.2595   3.6658   4.2733   4.6357   4.6957

          k = 0.1111-0.2332 0.0000 ( 37144 PWs)   bands (ev):

   -71.0555 -70.9194 -70.6966 -70.5943 -70.5393 -70.2830 -42.5007 -42.4512
   -42.3689 -42.2630 -42.2457 -42.1987 -42.1738 -42.1307 -42.0721 -42.0314
   -41.8460 -41.8406 -41.8114 -41.7998 -41.7365 -41.6931 -41.5829 -41.4937
   -23.8175 -18.6536 -18.4584 -18.3103 -18.0928 -18.0478 -17.8948 -17.4534
   -17.3446 -17.3106 -17.1798 -16.8443 -16.4438 -14.9951  -8.0501  -5.9725
    -5.6120  -5.5564  -5.4960  -5.4633  -5.2837  -5.1965  -5.1177  -4.8123
    -4.6411  -4.5594  -4.5581  -4.2235  -4.1232  -4.1036  -3.9923  -3.9492
    -3.6292  -3.5968  -3.5174  -3.4476  -3.4322  -3.2598  -3.1068  -2.9264
    -2.8345  -2.6844  -2.6149  -2.4619  -2.1614  -1.9911  -1.9185  -1.6829
    -1.4632  -1.3648  -1.2521  -1.0487  -0.9890  -0.8954  -0.2130   1.6473
     1.8162   1.9259   2.0036   2.0518   2.0831   2.2093   2.2716   2.3133
     2.3759   2.4861   2.5136   2.5528   2.5848   2.6334   2.7566   2.8952
     2.9936   3.3169   3.9848   4.1757   4.5227   4.5830

          k = 0.2222 0.0000 0.0000 ( 37192 PWs)   bands (ev):

   -71.0513 -70.9152 -70.6924 -70.5900 -70.5349 -70.2786 -42.4975 -42.4479
   -42.3721 -42.2878 -42.2603 -42.1915 -42.1678 -42.1265 -42.1260 -42.0218
   -41.8581 -41.8386 -41.8284 -41.7999 -41.7920 -41.7499 -41.5710 -41.5527
   -23.5894 -18.6749 -18.3837 -18.1573 -17.8686 -17.5486 -17.4724 -17.4566
   -17.3758 -17.3395 -17.3127 -16.9179 -16.4853 -15.4417  -8.3846  -5.9996
    -5.9567  -5.9313  -5.7501  -5.4748  -5.4633  -5.2652  -5.1398  -5.0989
    -5.0715  -4.7985  -4.7264  -4.4485  -4.2471  -4.0343  -3.8858  -3.6821
    -3.5480  -3.4796  -3.2583  -3.2036  -3.0582  -2.8819  -2.7373  -2.5934
    -2.5754  -2.4434  -2.3875  -2.2657  -2.1349  -2.0005  -1.9100  -1.8065
    -1.7698  -1.6138  -1.5733  -1.1395  -1.0150  -0.8189  -0.3697   1.4476
     1.6787   1.9813   1.9937   2.1034   2.1137   2.1463   2.2061   2.2833
     2.3426   2.3633   2.4322   2.4390   2.5288   2.6425   2.7367   2.9401
     3.1055   3.1385   3.6327   4.0923   4.4182   4.5009

          k = 0.2222 0.1166 0.0000 ( 37137 PWs)   bands (ev):

   -71.0513 -70.9152 -70.6924 -70.5900 -70.5349 -70.2786 -42.4972 -42.4477
   -42.3721 -42.2878 -42.2598 -42.1915 -42.1678 -42.1265 -42.1260 -42.0219
   -41.8588 -41.8389 -41.8281 -41.8003 -41.7918 -41.7497 -41.5713 -41.5526
   -23.5893 -18.5798 -18.2855 -18.0618 -18.0006 -17.6872 -17.5645 -17.4846
   -17.3892 -17.3732 -17.2283 -16.9149 -16.4801 -15.4410  -8.3831  -5.8533
    -5.7161  -5.6529  -5.5829  -5.4520  -5.4158  -5.1408  -5.1180  -5.0568
    -4.9938  -4.8965  -4.7418  -4.2544  -4.1882  -4.0462  -3.9663  -3.8229
    -3.6827  -3.6269  -3.4284  -3.3259  -3.1300  -3.0649  -2.9039  -2.8458
    -2.8201  -2.6715  -2.5313  -2.4801  -2.2369  -1.8968  -1.8213  -1.6903
    -1.5971  -1.5595  -1.4475  -1.1446  -1.0555  -0.8923  -0.3522   1.4667
     1.7453   1.9282   1.9709   2.1000   2.1082   2.2079   2.3337   2.3874
     2.4390   2.4790   2.5612   2.6262   2.6378   2.6540   2.7525   2.8801
     3.0076   3.2265   3.7494   4.1074   4.2770   4.3626

          k = 0.2222-0.2332 0.0000 ( 37166 PWs)   bands (ev):

   -71.0513 -70.9152 -70.6924 -70.5900 -70.5349 -70.2786 -42.4970 -42.4475
   -42.3721 -42.2879 -42.2594 -42.1915 -42.1678 -42.1266 -42.1260 -42.0219
   -41.8594 -41.8392 -41.8279 -41.8007 -41.7917 -41.7496 -41.5717 -41.5525
   -23.5892 -18.4001 -18.2149 -18.0893 -17.9317 -17.8604 -17.7622 -17.5020
   -17.4111 -17.3516 -17.1940 -16.9130 -16.4753 -15.4404  -8.3819  -5.8284
    -5.5735  -5.3814  -5.3169  -5.2127  -5.1115  -5.0985  -5.0708  -4.9842
    -4.8406  -4.7456  -4.7295  -4.2792  -4.1850  -4.1652  -4.0962  -4.0528
    -3.9343  -3.7533  -3.6766  -3.4435  -3.4386  -3.2821  -3.1240  -2.9736
    -2.8820  -2.8419  -2.6815  -2.6491  -2.2777  -1.8250  -1.7954  -1.6069
    -1.4547  -1.3376  -1.3140  -1.1058  -1.0951  -1.0773  -0.3364   1.5768
     1.6985   1.8276   1.9711   2.0340   2.1169   2.2683   2.3493   2.4857
     2.5886   2.6386   2.6579   2.6640   2.7473   2.8409   2.9053   2.9086
     2.9529   3.3142   3.8725   3.9515   4.0484   4.0492

          k = 0.3333 0.0000 0.0000 ( 37184 PWs)   bands (ev):

   -71.0464 -70.9103 -70.6876 -70.5851 -70.5300 -70.2735 -42.4925 -42.4431
   -42.4002 -42.3106 -42.2550 -42.1945 -42.1780 -42.1596 -42.1209 -42.0109
   -41.9170 -41.8547 -41.8364 -41.8174 -41.8138 -41.7884 -41.6192 -41.5587
   -23.2979 -18.2676 -18.0545 -17.8779 -17.6806 -17.5943 -17.5345 -17.4486
   -17.4205 -17.3916 -17.1920 -16.9857 -16.4781 -16.0064  -8.5217  -6.2002
    -5.6890  -5.5857  -5.5020  -5.4104  -5.3127  -5.3121  -5.2731  -5.0197
    -5.0165  -4.8146  -4.7244  -4.6745  -4.3811  -4.2569  -4.0046  -3.9183
    -3.9012  -3.7255  -3.5718  -3.3162  -3.1928  -3.0775  -2.8374  -2.8075
    -2.6932  -2.5021  -2.4657  -2.4354  -2.1366  -2.0350  -1.9467  -1.7338
    -1.6242  -1.4948  -1.3361  -1.2533  -1.0122  -0.9639  -0.5507   1.5189
     1.5493   1.9037   2.1858   2.1987   2.2509   2.3254   2.3282   2.4652
     2.4736   2.5051   2.5322   2.5928   2.7047   2.7531   2.7772   2.8467
     2.9319   3.1124   3.6542   3.8502   4.3683   4.4759

          k = 0.3333 0.1166 0.0000 ( 37206 PWs)   bands (ev):

   -71.0464 -70.9103 -70.6876 -70.5851 -70.5300 -70.2735 -42.4926 -42.4432
   -42.4002 -42.3106 -42.2552 -42.1946 -42.1780 -42.1596 -42.1209 -42.0109
   -41.9174 -41.8542 -41.8365 -41.8172 -41.8135 -41.7885 -41.6189 -41.5588
   -23.2979 -18.2014 -17.9897 -17.8341 -17.7583 -17.6446 -17.5576 -17.4774
   -17.4727 -17.3858 -17.1748 -16.9845 -16.4772 -16.0056  -8.5216  -6.1953
    -5.4580  -5.3969  -5.3709  -5.3435  -5.2694  -5.2444  -5.1882  -5.0539
    -4.9897  -4.8840  -4.7871  -4.6808  -4.4393  -4.2523  -4.0948  -3.9852
    -3.8500  -3.8401  -3.4939  -3.4313  -3.2016  -3.1641  -2.9421  -2.9142
    -2.7998  -2.6511  -2.5032  -2.2802  -2.2419  -1.9900  -1.9549  -1.6913
    -1.6063  -1.5416  -1.2629  -1.2287  -1.0851  -0.9637  -0.5294   1.4070
     1.4926   1.7236   1.9494   1.9987   2.2548   2.2745   2.4286   2.4532
     2.5292   2.6078   2.6745   2.7252   2.7879   2.8262   2.8313   2.9259
     2.9731   3.2126   3.7118   3.8506   3.9672   4.0412

          k = 0.3333-0.2332 0.0000 ( 37216 PWs)   bands (ev):

   -71.0464 -70.9103 -70.6876 -70.5852 -70.5300 -70.2735 -42.4928 -42.4433
   -42.4003 -42.3106 -42.2554 -42.1946 -42.1780 -42.1596 -42.1209 -42.0109
   -41.9178 -41.8537 -41.8365 -41.8171 -41.8132 -41.7886 -41.6186 -41.5589
   -23.2978 -18.0801 -17.9390 -17.8441 -17.7929 -17.6575 -17.6492 -17.5475
   -17.4831 -17.3739 -17.1629 -16.9835 -16.4764 -16.0048  -8.5216  -6.1941
    -5.3224  -5.2944  -5.2437  -5.1826  -5.1363  -5.1224  -5.1084  -5.0266
    -4.9456  -4.8642  -4.7116  -4.6287  -4.4606  -4.4477  -4.3150  -4.0510
    -3.8273  -3.8214  -3.7312  -3.5734  -3.4035  -3.1030  -3.0159  -2.8987
    -2.8280  -2.7693  -2.5776  -2.4899  -2.1758  -1.9697  -1.7376  -1.7168
    -1.6450  -1.4517  -1.3046  -1.1508  -1.1389  -0.9637  -0.5048   1.2964
     1.4478   1.4817   1.7788   2.0346   2.2563   2.2622   2.3367   2.4686
     2.5339   2.7016   2.7451   2.8221   2.8599   2.8912   3.0317   3.0379
     3.0515   3.3127   3.5815   3.6520   3.7527   3.8253

          k = 0.4444 0.0000 0.0000 ( 37180 PWs)   bands (ev):

   -71.0433 -70.9072 -70.6845 -70.5820 -70.5268 -70.2702 -42.4893 -42.4399
   -42.4318 -42.3119 -42.2515 -42.2307 -42.1773 -42.1539 -42.1177 -42.0039
   -41.9560 -41.8953 -41.8552 -41.8339 -41.8101 -41.7808 -41.6622 -41.5507
   -23.0835 -17.8884 -17.7868 -17.7163 -17.6631 -17.5911 -17.5866 -17.4963
   -17.4539 -17.4434 -17.1330 -16.9934 -16.4477 -16.4050  -8.4924  -6.4992
    -5.6841  -5.4425  -5.4013  -5.3975  -5.3257  -5.2593  -5.2047  -5.0859
    -4.9773  -4.9394  -4.8380  -4.5182  -4.4834  -4.4044  -4.1758  -4.1339
    -4.0562  -3.5882  -3.3190  -3.3037  -3.2936  -3.2809  -3.1345  -3.0786
    -2.6062  -2.5468  -2.3277  -2.2252  -2.1566  -2.1383  -1.9885  -1.8546
    -1.7570  -1.4293  -1.4083  -1.3909  -1.0465  -0.6503  -0.6353   1.5945
     1.6892   1.8096   1.9755   2.0023   2.1561   2.3253   2.3717   2.5012
     2.5271   2.6301   2.6408   2.6797   2.7445   2.7830   2.9359   2.9598
     3.0784   3.1570   3.5170   3.7693   4.2832   4.4570

          k = 0.4444 0.1166 0.0000 ( 37248 PWs)   bands (ev):

   -71.0433 -70.9072 -70.6845 -70.5820 -70.5268 -70.2702 -42.4897 -42.4402
   -42.4318 -42.3119 -42.2522 -42.2308 -42.1773 -42.1539 -42.1177 -42.0039
   -41.9564 -41.8945 -41.8547 -41.8339 -41.8098 -41.7808 -41.6618 -41.5506
   -23.0834 -17.8697 -17.7789 -17.7475 -17.6868 -17.6023 -17.5626 -17.5084
   -17.4648 -17.4147 -17.1363 -16.9928 -16.4476 -16.4037  -8.4947  -6.4931
    -5.6981  -5.5766  -5.5008  -5.3871  -5.3633  -5.1351  -5.1019  -5.0483
    -4.9745  -4.9095  -4.7336  -4.5774  -4.3636  -4.2830  -4.1647  -3.9320
    -3.8621  -3.7412  -3.5640  -3.5243  -3.3676  -3.1883  -3.1176  -2.8374
    -2.7235  -2.5139  -2.2747  -2.2112  -2.1587  -2.0435  -1.9574  -1.9136
    -1.7354  -1.6034  -1.4286  -1.3460  -1.1701  -0.6611  -0.6228   1.4142
     1.4524   1.6176   1.6808   1.7501   2.1436   2.1739   2.3812   2.5103
     2.6062   2.6742   2.7519   2.7581   2.8897   2.9376   2.9560   2.9965
     3.1279   3.2229   3.5760   3.7764   3.8660   3.9367

          k = 0.4444-0.2332 0.0000 ( 37264 PWs)   bands (ev):

   -71.0433 -70.9072 -70.6845 -70.5820 -70.5268 -70.2702 -42.4900 -42.4405
   -42.4319 -42.3119 -42.2529 -42.2308 -42.1773 -42.1539 -42.1177 -42.0039
   -41.9568 -41.8938 -41.8543 -41.8339 -41.8094 -41.7807 -41.6614 -41.5505
   -23.0834 -17.8257 -17.8178 -17.7342 -17.7260 -17.6130 -17.5411 -17.5238
   -17.4650 -17.3988 -17.1395 -16.9923 -16.4474 -16.4025  -8.4970  -6.4886
    -5.7184  -5.7173  -5.5928  -5.4643  -5.3211  -5.0030  -4.9775  -4.8725
    -4.8450  -4.7575  -4.6772  -4.6261  -4.5226  -4.1942  -4.0277  -4.0135
    -3.9133  -3.8433  -3.6594  -3.4529  -3.3538  -3.1194  -3.0375  -2.9629
    -2.5770  -2.4047  -2.3534  -2.3519  -2.1861  -2.0788  -1.9667  -1.8183
    -1.7556  -1.4997  -1.4604  -1.4465  -1.2515  -0.6517  -0.6345   1.1577
     1.2233   1.3456   1.5303   1.7635   2.0368   2.1708   2.3869   2.5002
     2.6128   2.7094   2.7739   2.7817   2.8492   2.8653   3.1273   3.1727
     3.1997   3.3183   3.4971   3.5836   3.6552   3.6753

     the Fermi energy is     0.6034 ev

!    total energy              =   -1637.89546449 Ry
     estimated scf accuracy    <       0.00000040 Ry
     smearing contrib. (-TS)   =      -0.00087899 Ry
     internal energy E=F+TS    =   -1637.89458551 Ry

     The total energy is F=E-TS. E is the sum of the following terms:
     one-electron contribution =  -15565.41955018 Ry
     hartree contribution      =    7810.30541163 Ry
     xc contribution           =    -238.52429021 Ry
     ewald contribution        =    6489.03319546 Ry
     one-center paw contrib.   =    -133.28935221 Ry

     total magnetization       =    11.00 Bohr mag/cell
     absolute magnetization    =    14.58 Bohr mag/cell

     convergence has been achieved in  50 iterations

     negative rho (up, down):  2.006E-03 1.961E-02

     Forces acting on atoms (cartesian axes, Ry/au):

     atom    1 type  1   force =    -0.00001214    0.00000000    0.10036736
     atom    2 type  1   force =    -0.00008597    0.00000000   -0.09821159
     atom    3 type  1   force =    -0.00038386    0.00000000    0.01424451
     atom    4 type  1   force =     0.00068979    0.00000000   -0.00104228
     atom    5 type  1   force =    -0.00336068    0.00000000    0.00596274
     atom    6 type  1   force =     0.00090959    0.00000000    0.03652775
     atom    7 type  3   force =     0.00042963    0.00000000    0.04272105
     atom    8 type  3   force =     0.00011268    0.00000000    0.06456750
     atom    9 type  3   force =     0.00000799    0.01700640   -0.03639237
     atom   10 type  3   force =     0.00000799   -0.01700640   -0.03639237
     atom   11 type  3   force =     0.00046061    0.00000000    0.00110907
     atom   12 type  3   force =    -0.00065236    0.00000000   -0.01027164
     atom   13 type  3   force =    -0.00047082    0.00395645   -0.00208656
     atom   14 type  3   force =    -0.00047082   -0.00395645   -0.00208656
     atom   15 type  3   force =     0.00038062    0.00000000   -0.04598988
     atom   16 type  3   force =    -0.00122386    0.00000000   -0.01159556
     atom   17 type  3   force =     0.00385994    0.00743321   -0.00148879
     atom   18 type  3   force =     0.00385994   -0.00743321   -0.00148879
     atom   19 type  3   force =    -0.01196326    0.00000000   -0.02430866
     atom   20 type  3   force =     0.00604699    0.00000000    0.00463329
     atom   21 type  2   force =     0.00185796    0.00000000    0.00122177

     Total force =     0.069436     Total SCF correction =     0.001373

     Writing all to output data dir ./tmp_s0_OOH__u000/s0_OOH__u000.save/ :
     XML data file, charge density, pseudopotentials, collected wavefunctions

     init_run     :      2.55s CPU      2.74s WALL (       1 calls)
     electrons    :    185.71s CPU    188.26s WALL (       1 calls)
     forces       :      0.71s CPU      0.72s WALL (       1 calls)

     Called by init_run:
     wfcinit      :      1.00s CPU      1.12s WALL (       1 calls)
     potinit      :      0.48s CPU      0.50s WALL (       1 calls)
     hinit0       :      0.64s CPU      0.66s WALL (       1 calls)

     Called by electrons:
     c_bands      :    141.33s CPU    143.09s WALL (      50 calls)
     sum_band     :     27.49s CPU     27.96s WALL (      50 calls)
     v_of_rho     :      5.51s CPU      5.60s WALL (      51 calls)
     newd         :      2.75s CPU      2.79s WALL (      51 calls)
     PAW_pot      :      2.51s CPU      2.52s WALL (      51 calls)
     mix_rho      :      5.06s CPU      5.14s WALL (      50 calls)

     Called by c_bands:
     init_us_2    :      3.21s CPU      3.26s WALL (     816 calls)
     cegterg      :    117.22s CPU    118.74s WALL (     400 calls)

     Called by *egterg:
     cdiaghg      :     13.61s CPU     13.68s WALL (    1251 calls)
     h_psi        :     76.10s CPU     77.41s WALL (    1259 calls)
     s_psi        :      5.70s CPU      5.74s WALL (    1259 calls)
     g_psi        :      0.38s CPU      0.39s WALL (     851 calls)

     Called by h_psi:
     h_psi:calbec :      8.18s CPU      8.26s WALL (    1259 calls)
     vloc_psi     :     61.56s CPU     62.72s WALL (    1259 calls)
                                        0.00s GPU  (    1259 calls)
     add_vuspsi   :      5.55s CPU      5.59s WALL (    1259 calls)

     General routines
     calbec       :     12.05s CPU     12.16s WALL (    1691 calls)
     fft          :      3.45s CPU      3.51s WALL (    1288 calls)
     ffts         :      3.31s CPU      3.35s WALL (    6229 calls)
     fftw         :     70.98s CPU     72.28s WALL (  210012 calls)
     interpolate  :      0.70s CPU      0.70s WALL (     102 calls)

     Parallel routines

     PWSCF        :   3m 9.64s CPU   3m12.63s WALL


   This run was terminated on:   6:24:33  28Aug2026            

=------------------------------------------------------------------------------=
   JOB DONE.
=------------------------------------------------------------------------------=
Note: The following floating-point exceptions are signalling: IEEE_DENORMAL
Note: The following floating-point exceptions are signalling: IEEE_DENORMAL
Note: The following floating-point exceptions are signalling: IEEE_DENORMAL
Note: The following floating-point exceptions are signalling: IEEE_DENORMAL
Note: The following floating-point exceptions are signalling: IEEE_DENORMAL
Note: The following floating-point exceptions are signalling: IEEE_DENORMAL
Note: The following floating-point exceptions are signalling: IEEE_DENORMAL
Note: The following floating-point exceptions are signalling: IEEE_DENORMAL
Note: The following floating-point exceptions are signalling: IEEE_DENORMAL
Note: The following floating-point exceptions are signalling: IEEE_DENORMAL
Note: The following floating-point exceptions are signalling: IEEE_DENORMAL
Note: The following floating-point exceptions are signalling: IEEE_DENORMAL
