
     Program PWSCF v.7.5 starts on 28Aug2026 at  4:53:59 

     This program is part of the open-source Quantum ESPRESSO suite
     for quantum simulation of materials; please cite
         "P. Giannozzi et al., J. Phys.:Condens. Matter 21 395502 (2009);
         "P. Giannozzi et al., J. Phys.:Condens. Matter 29 465901 (2017);
         "P. Giannozzi et al., J. Chem. Phys. 152 154105 (2020);
          URL http://www.quantum-espresso.org", 
     in publications or presentations arising from this work. More details at
     http://www.quantum-espresso.org/quote

     Parallel version (MPI & OpenMP), running on     128 processor cores
     Number of MPI processes:               128
     Threads/MPI process:                     1

     MPI processes distributed on     1 nodes
     203100 MiB available memory on the printing compute node when the environment starts

     Reading input from s0_O__u600.run.in

     Current dimensions of program PWSCF are:
     Max number of different atomic species (ntypx) = 10
     Max number of k-points (npk) =  40000
     Max angular momentum in pseudopotentials (lmaxx) =  4
     file O.pbe-n-kjpaw_psl.0.1.UPF: wavefunction(s)  2P renormalized
     Message from routine setup:
     using ibrav=0 with symmetry is DISCOURAGED, use correct ibrav instead

     K-points division:     npool     =       4
     R & G space division:  proc/nbgrp/npool/nimage =      32
     Subspace diagonalization in iterative solution of the eigenvalue problem:
     a serial algorithm will be used


     Parallelization info
     --------------------
     sticks:   dense  smooth     PW     G-vecs:    dense   smooth      PW
     Min         103      51     14                26275     9281    1388
     Max         104      52     15                26300     9316    1415
     Sum        3323    1653    471               841263   297421   44917

     Using Slab Decomposition



     bravais-lattice index     =            0
     lattice parameter (alat)  =       5.5104  a.u.
     unit-cell volume          =    3076.9124 (a.u.)^3
     number of atoms/cell      =           19
     number of atomic types    =            2
     number of electrons       =       162.00
     number of Kohn-Sham states=           97
     kinetic-energy cutoff     =      80.0000  Ry
     charge density cutoff     =     640.0000  Ry
     scf convergence threshold =      1.0E-06
     mixing beta               =       0.3000
     number of iterations used =            8  local-TF  mixing
     Exchange-correlation= SLA  PW   PBX  PBC
                           (   1   4   3   4   0   0   0)
     Hubbard projectors: atomic
     Hubbard parameters of DFT+U (Dudarev formulation) in eV:
     U(Cr-3d) =  6.0000

     Internal variables: lda_plus_u =T, lda_plus_u_kind = 0

     Internal variables: orbital_resolved =F, hub_pot_fix =F, apply_U = F

     celldm(1)=   5.510441  celldm(2)=   0.000000  celldm(3)=   0.000000
     celldm(4)=   0.000000  celldm(5)=   0.000000  celldm(6)=   0.000000

     crystal axes: (cart. coord. in units of alat)
               a(1) = (   1.000000   0.000000   0.000000 )  
               a(2) = (   0.000000   2.144115   0.000000 )  
               a(3) = (   0.000000   0.000000   8.576458 )  

     reciprocal axes: (cart. coord. in units 2 pi/alat)
               b(1) = (  1.000000  0.000000  0.000000 )  
               b(2) = (  0.000000  0.466393  0.000000 )  
               b(3) = (  0.000000  0.000000  0.116598 )  


     PseudoPot. # 1 for Cr read from file:
     /anvil/projects/x-che260157/pseudo/cr_pbe_v1.5.uspp.F.UPF
     MD5 check sum: 0d52af634a40206e4dee301ad30da4bf
     Pseudo is Ultrasoft + core correction, Zval = 14.0
     Generated by new atomic code, or converted to UPF format
     Using radial grid of  857 points,  6 beta functions with: 
                l(1) =   0
                l(2) =   0
                l(3) =   1
                l(4) =   1
                l(5) =   2
                l(6) =   2
     Q(r) pseudized with  8 coefficients,  rinner =    0.950   0.950   0.950
                                                       0.950   0.950

     PseudoPot. # 2 for O  read from file:
     /anvil/projects/x-che260157/pseudo/O.pbe-n-kjpaw_psl.0.1.UPF
     MD5 check sum: 0234752ac141de4415c5fc33072bef88
     Pseudo is Projector augmented-wave + core cor, Zval =  6.0
     Generated using "atomic" code by A. Dal Corso  v.5.0.99 svn rev. 10869
     Shape of augmentation charge: BESSEL
     Using radial grid of 1095 points,  4 beta functions with: 
                l(1) =   0
                l(2) =   0
                l(3) =   1
                l(4) =   1
     Q(r) pseudized with 0 coefficients 


     atomic species   valence    mass     pseudopotential
     Cr               14.00    51.99600     Cr( 1.00)
     O                 6.00    15.99900     O ( 1.00)

     Starting magnetic structure 
     atomic species   magnetization
     Cr              0.600
     O               0.000

      4 Sym. Ops. (no inversion) found ( 2 have fractional translation)



   Cartesian axes

     site n.     atom                  positions (alat units)
         1        Cr     tau(   1) = (   0.0000000   0.5360286   3.2161719  )
         2        Cr     tau(   2) = (   0.5000000   1.6080859   3.2161719  )
         3        Cr     tau(   3) = (   0.0000000   1.6080859   4.3022421  )
         4        Cr     tau(   4) = (   0.5000000   0.5360286   4.3080043  )
         5        Cr     tau(   5) = (   0.0000000   0.5360286   5.5110498  )
         6        Cr     tau(   6) = (   0.5000000   1.6080859   5.4126362  )
         7        O      tau(   7) = (   0.0000000   1.6080859   3.6342742  )
         8        O      tau(   8) = (   0.0000000   1.6080859   2.7980695  )
         9        O      tau(   9) = (   0.5000000   0.1179263   3.2161719  )
        10        O      tau(  10) = (   0.5000000   0.9541310   3.2161719  )
        11        O      tau(  11) = (   0.0000000   0.5360286   4.7174134  )
        12        O      tau(  12) = (   0.0000000   0.5360286   3.8701268  )
        13        O      tau(  13) = (   0.5000000   1.1863983   4.2957045  )
        14        O      tau(  14) = (   0.5000000   2.0297736   4.2957045  )
        15        O      tau(  15) = (   0.0000000   1.6080859   5.7884957  )
        16        O      tau(  16) = (   0.0000000   1.6080859   4.9568390  )
        17        O      tau(  17) = (   0.5000000   0.1288223   5.3923177  )
        18        O      tau(  18) = (   0.5000000   0.9432350   5.3923177  )
        19        O      tau(  19) = (   0.0000000   0.5360286   6.0500055  )

     number of k points=    15  Marzari-Vanderbilt smearing, width (Ry)=  0.0100
                       cart. coord. in units 2pi/alat
        k(    1) = (   0.0000000   0.0000000   0.0000000), wk =   0.0277778
        k(    2) = (   0.0000000   0.1165982   0.0000000), wk =   0.0555556
        k(    3) = (   0.0000000  -0.2331965   0.0000000), wk =   0.0277778
        k(    4) = (   0.1111111   0.0000000   0.0000000), wk =   0.0555556
        k(    5) = (   0.1111111   0.1165982   0.0000000), wk =   0.1111111
        k(    6) = (   0.1111111  -0.2331965   0.0000000), wk =   0.0555556
        k(    7) = (   0.2222222   0.0000000   0.0000000), wk =   0.0555556
        k(    8) = (   0.2222222   0.1165982   0.0000000), wk =   0.1111111
        k(    9) = (   0.2222222  -0.2331965   0.0000000), wk =   0.0555556
        k(   10) = (   0.3333333   0.0000000   0.0000000), wk =   0.0555556
        k(   11) = (   0.3333333   0.1165982   0.0000000), wk =   0.1111111
        k(   12) = (   0.3333333  -0.2331965   0.0000000), wk =   0.0555556
        k(   13) = (   0.4444444   0.0000000   0.0000000), wk =   0.0555556
        k(   14) = (   0.4444444   0.1165982   0.0000000), wk =   0.1111111
        k(   15) = (   0.4444444  -0.2331965   0.0000000), wk =   0.0555556

     Dense  grid:   841263 G-vectors     FFT dimensions: (  45,  96, 384)

     Smooth grid:   297421 G-vectors     FFT dimensions: (  32,  72, 270)

     Estimated max dynamical RAM per process >      76.11 MB

     Estimated total dynamical RAM >       8.31 GB

     Check: negative core charge=   -0.000001
     Generating pointlists ...
     new r_m :   0.2223 (alat units)  1.2251 (a.u.) for type    1
     new r_m :   0.2223 (alat units)  1.2251 (a.u.) for type    2

     Initial potential from superposition of free atoms

     starting charge     155.9999, renormalised to     162.0000

     negative rho (up, down):  4.305E-03 1.055E-03

     STARTING HUBBARD OCCUPATIONS:

     =================== HUBBARD OCCUPATIONS ===================
     ------------------------ ATOM    1 ------------------------
     Tr[ns(  1)] (up, down, total) =   3.40000  0.00000  3.40000
     Atomic magnetic moment for atom   1 =   3.40000
     SPIN  1
     eigenvalues:
       0.680  0.680  0.680  0.680  0.680
     eigenvectors (columns):
       1.000  0.000  0.000  0.000  0.000
       0.000  1.000  0.000  0.000  0.000
       0.000  0.000  1.000  0.000  0.000
       0.000  0.000  0.000  1.000  0.000
       0.000  0.000  0.000  0.000  1.000
     occupation matrix ns (before diag.):
       0.680  0.000  0.000  0.000  0.000
       0.000  0.680  0.000  0.000  0.000
       0.000  0.000  0.680  0.000  0.000
       0.000  0.000  0.000  0.680  0.000
       0.000  0.000  0.000  0.000  0.680
     SPIN  2
     eigenvalues:
       0.000  0.000  0.000  0.000  0.000
     eigenvectors (columns):
       1.000  0.000  0.000  0.000  0.000
       0.000  1.000  0.000  0.000  0.000
       0.000  0.000  1.000  0.000  0.000
       0.000  0.000  0.000  1.000  0.000
       0.000  0.000  0.000  0.000  1.000
     occupation matrix ns (before diag.):
       0.000  0.000  0.000  0.000  0.000
       0.000  0.000  0.000  0.000  0.000
       0.000  0.000  0.000  0.000  0.000
       0.000  0.000  0.000  0.000  0.000
       0.000  0.000  0.000  0.000  0.000
     ------------------------ ATOM    2 ------------------------
     Tr[ns(  2)] (up, down, total) =   3.40000  0.00000  3.40000
     Atomic magnetic moment for atom   2 =   3.40000
     SPIN  1
     eigenvalues:
       0.680  0.680  0.680  0.680  0.680
     eigenvectors (columns):
       1.000  0.000  0.000  0.000  0.000
       0.000  1.000  0.000  0.000  0.000
       0.000  0.000  1.000  0.000  0.000
       0.000  0.000  0.000  1.000  0.000
       0.000  0.000  0.000  0.000  1.000
     occupation matrix ns (before diag.):
       0.680  0.000  0.000  0.000  0.000
       0.000  0.680  0.000  0.000  0.000
       0.000  0.000  0.680  0.000  0.000
       0.000  0.000  0.000  0.680  0.000
       0.000  0.000  0.000  0.000  0.680
     SPIN  2
     eigenvalues:
       0.000  0.000  0.000  0.000  0.000
     eigenvectors (columns):
       1.000  0.000  0.000  0.000  0.000
       0.000  1.000  0.000  0.000  0.000
       0.000  0.000  1.000  0.000  0.000
       0.000  0.000  0.000  1.000  0.000
       0.000  0.000  0.000  0.000  1.000
     occupation matrix ns (before diag.):
       0.000  0.000  0.000  0.000  0.000
       0.000  0.000  0.000  0.000  0.000
       0.000  0.000  0.000  0.000  0.000
       0.000  0.000  0.000  0.000  0.000
       0.000  0.000  0.000  0.000  0.000
     ------------------------ ATOM    3 ------------------------
     Tr[ns(  3)] (up, down, total) =   3.40000  0.00000  3.40000
     Atomic magnetic moment for atom   3 =   3.40000
     SPIN  1
     eigenvalues:
       0.680  0.680  0.680  0.680  0.680
     eigenvectors (columns):
       1.000  0.000  0.000  0.000  0.000
       0.000  1.000  0.000  0.000  0.000
       0.000  0.000  1.000  0.000  0.000
       0.000  0.000  0.000  1.000  0.000
       0.000  0.000  0.000  0.000  1.000
     occupation matrix ns (before diag.):
       0.680  0.000  0.000  0.000  0.000
       0.000  0.680  0.000  0.000  0.000
       0.000  0.000  0.680  0.000  0.000
       0.000  0.000  0.000  0.680  0.000
       0.000  0.000  0.000  0.000  0.680
     SPIN  2
     eigenvalues:
       0.000  0.000  0.000  0.000  0.000
     eigenvectors (columns):
       1.000  0.000  0.000  0.000  0.000
       0.000  1.000  0.000  0.000  0.000
       0.000  0.000  1.000  0.000  0.000
       0.000  0.000  0.000  1.000  0.000
       0.000  0.000  0.000  0.000  1.000
     occupation matrix ns (before diag.):
       0.000  0.000  0.000  0.000  0.000
       0.000  0.000  0.000  0.000  0.000
       0.000  0.000  0.000  0.000  0.000
       0.000  0.000  0.000  0.000  0.000
       0.000  0.000  0.000  0.000  0.000
     ------------------------ ATOM    4 ------------------------
     Tr[ns(  4)] (up, down, total) =   3.40000  0.00000  3.40000
     Atomic magnetic moment for atom   4 =   3.40000
     SPIN  1
     eigenvalues:
       0.680  0.680  0.680  0.680  0.680
     eigenvectors (columns):
       1.000  0.000  0.000  0.000  0.000
       0.000  1.000  0.000  0.000  0.000
       0.000  0.000  1.000  0.000  0.000
       0.000  0.000  0.000  1.000  0.000
       0.000  0.000  0.000  0.000  1.000
     occupation matrix ns (before diag.):
       0.680  0.000  0.000  0.000  0.000
       0.000  0.680  0.000  0.000  0.000
       0.000  0.000  0.680  0.000  0.000
       0.000  0.000  0.000  0.680  0.000
       0.000  0.000  0.000  0.000  0.680
     SPIN  2
     eigenvalues:
       0.000  0.000  0.000  0.000  0.000
     eigenvectors (columns):
       1.000  0.000  0.000  0.000  0.000
       0.000  1.000  0.000  0.000  0.000
       0.000  0.000  1.000  0.000  0.000
       0.000  0.000  0.000  1.000  0.000
       0.000  0.000  0.000  0.000  1.000
     occupation matrix ns (before diag.):
       0.000  0.000  0.000  0.000  0.000
       0.000  0.000  0.000  0.000  0.000
       0.000  0.000  0.000  0.000  0.000
       0.000  0.000  0.000  0.000  0.000
       0.000  0.000  0.000  0.000  0.000
     ------------------------ ATOM    5 ------------------------
     Tr[ns(  5)] (up, down, total) =   3.40000  0.00000  3.40000
     Atomic magnetic moment for atom   5 =   3.40000
     SPIN  1
     eigenvalues:
       0.680  0.680  0.680  0.680  0.680
     eigenvectors (columns):
       1.000  0.000  0.000  0.000  0.000
       0.000  1.000  0.000  0.000  0.000
       0.000  0.000  1.000  0.000  0.000
       0.000  0.000  0.000  1.000  0.000
       0.000  0.000  0.000  0.000  1.000
     occupation matrix ns (before diag.):
       0.680  0.000  0.000  0.000  0.000
       0.000  0.680  0.000  0.000  0.000
       0.000  0.000  0.680  0.000  0.000
       0.000  0.000  0.000  0.680  0.000
       0.000  0.000  0.000  0.000  0.680
     SPIN  2
     eigenvalues:
       0.000  0.000  0.000  0.000  0.000
     eigenvectors (columns):
       1.000  0.000  0.000  0.000  0.000
       0.000  1.000  0.000  0.000  0.000
       0.000  0.000  1.000  0.000  0.000
       0.000  0.000  0.000  1.000  0.000
       0.000  0.000  0.000  0.000  1.000
     occupation matrix ns (before diag.):
       0.000  0.000  0.000  0.000  0.000
       0.000  0.000  0.000  0.000  0.000
       0.000  0.000  0.000  0.000  0.000
       0.000  0.000  0.000  0.000  0.000
       0.000  0.000  0.000  0.000  0.000
     ------------------------ ATOM    6 ------------------------
     Tr[ns(  6)] (up, down, total) =   3.40000  0.00000  3.40000
     Atomic magnetic moment for atom   6 =   3.40000
     SPIN  1
     eigenvalues:
       0.680  0.680  0.680  0.680  0.680
     eigenvectors (columns):
       1.000  0.000  0.000  0.000  0.000
       0.000  1.000  0.000  0.000  0.000
       0.000  0.000  1.000  0.000  0.000
       0.000  0.000  0.000  1.000  0.000
       0.000  0.000  0.000  0.000  1.000
     occupation matrix ns (before diag.):
       0.680  0.000  0.000  0.000  0.000
       0.000  0.680  0.000  0.000  0.000
       0.000  0.000  0.680  0.000  0.000
       0.000  0.000  0.000  0.680  0.000
       0.000  0.000  0.000  0.000  0.680
     SPIN  2
     eigenvalues:
       0.000  0.000  0.000  0.000  0.000
     eigenvectors (columns):
       1.000  0.000  0.000  0.000  0.000
       0.000  1.000  0.000  0.000  0.000
       0.000  0.000  1.000  0.000  0.000
       0.000  0.000  0.000  1.000  0.000
       0.000  0.000  0.000  0.000  1.000
     occupation matrix ns (before diag.):
       0.000  0.000  0.000  0.000  0.000
       0.000  0.000  0.000  0.000  0.000
       0.000  0.000  0.000  0.000  0.000
       0.000  0.000  0.000  0.000  0.000
       0.000  0.000  0.000  0.000  0.000

     Number of occupied Hubbard levels =   20.4000

     Atomic wfc used for Hubbard projectors are NOT orthogonalized

     Starting wfcs are  112 randomized atomic wfcs
     Checking if some PAW data can be deallocated... 

     total cpu time spent up to now is        3.0 secs

     per-process dynamical memory:   104.2 Mb

     Self-consistent Calculation

     iteration #  1     ecut=    80.00 Ry     beta= 0.30
     Davidson diagonalization with overlap
     ethr =  1.00E-02,  avg # of iterations =  5.6

     =================== HUBBARD OCCUPATIONS ===================
     ------------------------ ATOM    1 ------------------------
     Tr[ns(  1)] (up, down, total) =   4.40253  0.43563  4.83816
     Atomic magnetic moment for atom   1 =   3.96690
     SPIN  1
     eigenvalues:
       0.482  0.954  0.983  0.991  0.992
     eigenvectors (columns):
      -0.000 -0.874  0.485 -0.000 -0.000
      -0.000 -0.000 -0.000 -1.000 -0.000
      -0.000 -0.000 -0.000 -0.000  1.000
       0.000  0.485  0.874 -0.000  0.000
       1.000 -0.000 -0.000 -0.000  0.000
     occupation matrix ns (before diag.):
       0.961 -0.000 -0.000  0.013  0.000
      -0.000  0.991 -0.000  0.000  0.000
      -0.000 -0.000  0.992  0.000  0.000
       0.013  0.000  0.000  0.977 -0.000
       0.000  0.000  0.000 -0.000  0.482
     SPIN  2
     eigenvalues:
       0.042  0.051  0.054  0.117  0.172
     eigenvectors (columns):
      -0.000 -0.000  0.221 -0.975  0.000
      -0.000  1.000  0.000  0.000  0.000
      -1.000 -0.000  0.000  0.000  0.000
       0.000 -0.000  0.975  0.221 -0.000
       0.000 -0.000  0.000  0.000  1.000
     occupation matrix ns (before diag.):
       0.114 -0.000 -0.000 -0.014  0.000
      -0.000  0.051 -0.000  0.000  0.000
      -0.000 -0.000  0.042  0.000  0.000
      -0.014  0.000  0.000  0.057 -0.000
       0.000  0.000  0.000 -0.000  0.172
     ------------------------ ATOM    2 ------------------------
     Tr[ns(  2)] (up, down, total) =   3.88923  0.52624  4.41548
     Atomic magnetic moment for atom   2 =   3.36299
     SPIN  1
     eigenvalues:
       0.465  0.487  0.969  0.976  0.992
     eigenvectors (columns):
      -0.000  0.443  0.000 -0.897  0.000
       1.000  0.000 -0.000  0.000  0.000
       0.000 -0.000  0.000 -0.000 -1.000
      -0.000  0.897 -0.000  0.443 -0.000
      -0.000  0.000 -1.000 -0.000 -0.000
     occupation matrix ns (before diag.):
       0.880 -0.000 -0.000 -0.194  0.000
      -0.000  0.465 -0.000  0.000  0.000
      -0.000 -0.000  0.992  0.000  0.000
      -0.194  0.000  0.000  0.583 -0.000
       0.000  0.000  0.000 -0.000  0.969
     SPIN  2
     eigenvalues:
       0.053  0.060  0.063  0.173  0.177
     eigenvectors (columns):
       0.000  0.928  0.000  0.373 -0.000
       0.000  0.000 -0.000 -0.000 -1.000
       1.000 -0.000  0.000  0.000  0.000
      -0.000 -0.373 -0.000  0.928 -0.000
      -0.000 -0.000  1.000 -0.000 -0.000
     occupation matrix ns (before diag.):
       0.076 -0.000 -0.000  0.039  0.000
      -0.000  0.177 -0.000  0.000  0.000
      -0.000 -0.000  0.053  0.000  0.000
       0.039  0.000  0.000  0.157 -0.000
       0.000  0.000  0.000 -0.000  0.063
     ------------------------ ATOM    3 ------------------------
     Tr[ns(  3)] (up, down, total) =   3.64482  0.50058  4.14539
     Atomic magnetic moment for atom   3 =   3.14424
     SPIN  1
     eigenvalues:
       0.430  0.459  0.884  0.902  0.969
     eigenvectors (columns):
      -0.000  0.999  0.000  0.000  0.037
      -0.000  0.000 -1.000  0.000  0.000
      -0.000  0.000 -0.000 -1.000  0.000
       0.000 -0.037  0.000  0.000  0.999
       1.000  0.000 -0.000 -0.000 -0.000
     occupation matrix ns (before diag.):
       0.460 -0.000 -0.000  0.019  0.000
      -0.000  0.884 -0.000  0.000  0.000
      -0.000 -0.000  0.902  0.000  0.000
       0.019  0.000  0.000  0.968 -0.000
       0.000  0.000  0.000 -0.000  0.430
     SPIN  2
     eigenvalues:
       0.052  0.053  0.059  0.167  0.168
     eigenvectors (columns):
      -0.000 -0.122 -0.000  0.000 -0.993
       0.000  0.000 -1.000 -0.000  0.000
       1.000 -0.000  0.000 -0.000  0.000
      -0.000 -0.993 -0.000 -0.000  0.122
      -0.000 -0.000  0.000 -1.000 -0.000
     occupation matrix ns (before diag.):
       0.167 -0.000 -0.000 -0.014  0.000
      -0.000  0.059 -0.000  0.000  0.000
      -0.000 -0.000  0.052  0.000  0.000
      -0.014  0.000  0.000  0.055 -0.000
       0.000  0.000  0.000 -0.000  0.167
     ------------------------ ATOM    4 ------------------------
     Tr[ns(  4)] (up, down, total) =   3.56329  0.51687  4.08016
     Atomic magnetic moment for atom   4 =   3.04642
     SPIN  1
     eigenvalues:
       0.468  0.470  0.725  0.911  0.989
     eigenvectors (columns):
       0.429  0.000 -0.000  0.000 -0.903
      -0.000  1.000  0.000 -0.000  0.000
      -0.000  0.000 -1.000 -0.000  0.000
       0.903  0.000 -0.000 -0.000  0.429
       0.000 -0.000  0.000 -1.000 -0.000
     occupation matrix ns (before diag.):
       0.893 -0.000 -0.000 -0.202  0.000
      -0.000  0.470 -0.000  0.000  0.000
      -0.000 -0.000  0.725  0.000  0.000
      -0.202  0.000  0.000  0.564 -0.000
       0.000  0.000  0.000 -0.000  0.911
     SPIN  2
     eigenvalues:
       0.054  0.057  0.063  0.170  0.173
     eigenvectors (columns):
       0.000  0.922  0.000 -0.000  0.387
       0.000  0.000 -0.000  1.000  0.000
       1.000 -0.000  0.000 -0.000  0.000
      -0.000 -0.387 -0.000 -0.000  0.922
      -0.000 -0.000  1.000  0.000 -0.000
     occupation matrix ns (before diag.):
       0.074 -0.000 -0.000  0.041  0.000
      -0.000  0.170 -0.000  0.000  0.000
      -0.000 -0.000  0.054  0.000  0.000
       0.041  0.000  0.000  0.156 -0.000
       0.000  0.000  0.000 -0.000  0.063
     ------------------------ ATOM    5 ------------------------
     Tr[ns(  5)] (up, down, total) =   2.01811  0.47669  2.49480
     Atomic magnetic moment for atom   5 =   1.54141
     SPIN  1
     eigenvalues:
       0.170  0.384  0.465  0.477  0.522
     eigenvectors (columns):
       0.034 -0.000 -0.000  0.000 -0.999
      -0.000 -0.000 -0.000  1.000  0.000
      -0.000 -0.000 -1.000 -0.000  0.000
       0.999 -0.000 -0.000  0.000  0.034
       0.000  1.000 -0.000  0.000 -0.000
     occupation matrix ns (before diag.):
       0.521 -0.000 -0.000 -0.012  0.000
      -0.000  0.477 -0.000  0.000  0.000
      -0.000 -0.000  0.465  0.000  0.000
      -0.012  0.000  0.000  0.171 -0.000
       0.000  0.000  0.000 -0.000  0.384
     SPIN  2
     eigenvalues:
       0.048  0.049  0.077  0.149  0.153
     eigenvectors (columns):
      -0.141  0.000 -0.000 -0.990  0.000
       0.000  0.000 -1.000  0.000  0.000
       0.000  1.000  0.000  0.000  0.000
      -0.990  0.000 -0.000  0.141 -0.000
      -0.000 -0.000  0.000  0.000  1.000
     occupation matrix ns (before diag.):
       0.147 -0.000 -0.000 -0.014  0.000
      -0.000  0.077 -0.000  0.000  0.000
      -0.000 -0.000  0.049  0.000  0.000
      -0.014  0.000  0.000  0.050 -0.000
       0.000  0.000  0.000 -0.000  0.153
     ------------------------ ATOM    6 ------------------------
     Tr[ns(  6)] (up, down, total) =   1.70029  0.50976  2.21005
     Atomic magnetic moment for atom   6 =   1.19054
     SPIN  1
     eigenvalues:
       0.278  0.286  0.291  0.409  0.436
     eigenvectors (columns):
       0.000  0.970  0.000  0.244 -0.000
       0.000  0.000 -0.000 -0.000 -1.000
       1.000 -0.000  0.000  0.000  0.000
      -0.000 -0.244 -0.000  0.970 -0.000
      -0.000 -0.000  1.000 -0.000 -0.000
     occupation matrix ns (before diag.):
       0.293 -0.000 -0.000  0.029  0.000
      -0.000  0.436 -0.000  0.000  0.000
      -0.000 -0.000  0.278  0.000  0.000
       0.029  0.000  0.000  0.401 -0.000
       0.000  0.000  0.000 -0.000  0.291
     SPIN  2
     eigenvalues:
       0.048  0.060  0.063  0.165  0.174
     eigenvectors (columns):
       0.000 -0.000  0.944  0.329 -0.000
       0.000 -0.000  0.000 -0.000 -1.000
       1.000  0.000 -0.000  0.000  0.000
      -0.000  0.000 -0.329  0.944 -0.000
      -0.000  1.000  0.000 -0.000 -0.000
     occupation matrix ns (before diag.):
       0.074 -0.000 -0.000  0.032  0.000
      -0.000  0.174 -0.000  0.000  0.000
      -0.000 -0.000  0.048  0.000  0.000
       0.032  0.000  0.000  0.154 -0.000
       0.000  0.000  0.000 -0.000  0.060

     Number of occupied Hubbard levels =   22.1840

     negative rho (up, down):  3.614E-03 5.859E-03

     total cpu time spent up to now is       12.1 secs

     total energy              =   -1591.34337066 Ry
     estimated scf accuracy    <      44.73671118 Ry

     total magnetization       =    14.63 Bohr mag/cell
     absolute magnetization    =    20.00 Bohr mag/cell

     iteration #  2     ecut=    80.00 Ry     beta= 0.30
     Davidson diagonalization with overlap
     ethr =  1.00E-02,  avg # of iterations =  1.0

     negative rho (up, down):  5.892E-03 1.799E-02

     total cpu time spent up to now is       15.9 secs

     total energy              =   -1590.97766280 Ry
     estimated scf accuracy    <      30.07704720 Ry

     total magnetization       =    12.23 Bohr mag/cell
     absolute magnetization    =    18.71 Bohr mag/cell

     iteration #  3     ecut=    80.00 Ry     beta= 0.30
     Davidson diagonalization with overlap
     ethr =  1.00E-02,  avg # of iterations =  2.8

     negative rho (up, down):  8.112E-03 2.739E-02

     total cpu time spent up to now is       22.2 secs

     total energy              =   -1592.39803849 Ry
     estimated scf accuracy    <       4.49412594 Ry

     total magnetization       =    10.89 Bohr mag/cell
     absolute magnetization    =    21.87 Bohr mag/cell

     iteration #  4     ecut=    80.00 Ry     beta= 0.30
     Davidson diagonalization with overlap
     ethr =  2.77E-03,  avg # of iterations =  7.0

     negative rho (up, down):  6.573E-03 2.592E-02

     total cpu time spent up to now is       28.6 secs

     total energy              =   -1592.46041183 Ry
     estimated scf accuracy    <       4.20069655 Ry

     total magnetization       =    10.05 Bohr mag/cell
     absolute magnetization    =    24.44 Bohr mag/cell

     iteration #  5     ecut=    80.00 Ry     beta= 0.30
     Davidson diagonalization with overlap
     ethr =  2.59E-03,  avg # of iterations =  1.4

     negative rho (up, down):  7.683E-03 3.221E-02

     total cpu time spent up to now is       33.4 secs

     total energy              =   -1592.76133221 Ry
     estimated scf accuracy    <       1.06682639 Ry

     total magnetization       =     9.99 Bohr mag/cell
     absolute magnetization    =    23.55 Bohr mag/cell

     iteration #  6     ecut=    80.00 Ry     beta= 0.30
     Davidson diagonalization with overlap
     ethr =  6.59E-04,  avg # of iterations =  6.1

     negative rho (up, down):  7.703E-03 3.325E-02

     total cpu time spent up to now is       40.2 secs

     total energy              =   -1592.84491418 Ry
     estimated scf accuracy    <       0.68786932 Ry

     total magnetization       =    10.00 Bohr mag/cell
     absolute magnetization    =    22.46 Bohr mag/cell

     iteration #  7     ecut=    80.00 Ry     beta= 0.30
     Davidson diagonalization with overlap
     ethr =  4.25E-04,  avg # of iterations =  1.4

     negative rho (up, down):  7.334E-03 3.420E-02

     total cpu time spent up to now is       47.0 secs

     total energy              =   -1592.85816268 Ry
     estimated scf accuracy    <       0.19150496 Ry

     total magnetization       =    10.00 Bohr mag/cell
     absolute magnetization    =    22.84 Bohr mag/cell

     iteration #  8     ecut=    80.00 Ry     beta= 0.30
     Davidson diagonalization with overlap
     ethr =  1.18E-04,  avg # of iterations =  7.2

     negative rho (up, down):  7.050E-03 3.422E-02

     total cpu time spent up to now is       54.5 secs

     total energy              =   -1592.88013245 Ry
     estimated scf accuracy    <       0.09880375 Ry

     total magnetization       =    10.00 Bohr mag/cell
     absolute magnetization    =    22.89 Bohr mag/cell

     iteration #  9     ecut=    80.00 Ry     beta= 0.30
     Davidson diagonalization with overlap
     ethr =  6.10E-05,  avg # of iterations =  2.4

     negative rho (up, down):  5.108E-03 3.135E-02

     total cpu time spent up to now is       58.7 secs

     total energy              =   -1592.87801080 Ry
     estimated scf accuracy    <       0.05241013 Ry

     total magnetization       =    10.00 Bohr mag/cell
     absolute magnetization    =    22.79 Bohr mag/cell

     iteration # 10     ecut=    80.00 Ry     beta= 0.30
     Davidson diagonalization with overlap
     ethr =  3.24E-05,  avg # of iterations =  4.6

     negative rho (up, down):  4.214E-03 3.033E-02

     total cpu time spent up to now is       65.3 secs

     total energy              =   -1592.88382269 Ry
     estimated scf accuracy    <       0.02479575 Ry

     total magnetization       =    10.00 Bohr mag/cell
     absolute magnetization    =    22.32 Bohr mag/cell

     iteration # 11     ecut=    80.00 Ry     beta= 0.30
     Davidson diagonalization with overlap
     ethr =  1.53E-05,  avg # of iterations =  6.0

     negative rho (up, down):  2.976E-03 2.849E-02

     total cpu time spent up to now is       74.8 secs

     total energy              =   -1592.88374030 Ry
     estimated scf accuracy    <       0.01199283 Ry

     total magnetization       =    10.00 Bohr mag/cell
     absolute magnetization    =    22.19 Bohr mag/cell

     iteration # 12     ecut=    80.00 Ry     beta= 0.30
     Davidson diagonalization with overlap
     ethr =  7.40E-06,  avg # of iterations =  6.2

     negative rho (up, down):  1.861E-03 2.679E-02

     total cpu time spent up to now is       80.3 secs

     total energy              =   -1592.88423362 Ry
     estimated scf accuracy    <       0.00414759 Ry

     total magnetization       =    10.00 Bohr mag/cell
     absolute magnetization    =    22.15 Bohr mag/cell

     iteration # 13     ecut=    80.00 Ry     beta= 0.30
     Davidson diagonalization with overlap
     ethr =  2.56E-06,  avg # of iterations =  7.4

     negative rho (up, down):  1.112E-03 2.578E-02

     total cpu time spent up to now is       85.3 secs

     total energy              =   -1592.88459146 Ry
     estimated scf accuracy    <       0.00225087 Ry

     total magnetization       =    10.00 Bohr mag/cell
     absolute magnetization    =    22.00 Bohr mag/cell

     iteration # 14     ecut=    80.00 Ry     beta= 0.30
     Davidson diagonalization with overlap
     ethr =  1.39E-06,  avg # of iterations =  2.0

     negative rho (up, down):  7.133E-04 2.563E-02

     total cpu time spent up to now is       90.5 secs

     total energy              =   -1592.88460111 Ry
     estimated scf accuracy    <       0.00120284 Ry

     total magnetization       =    10.00 Bohr mag/cell
     absolute magnetization    =    21.98 Bohr mag/cell

     iteration # 15     ecut=    80.00 Ry     beta= 0.30
     Davidson diagonalization with overlap
     ethr =  7.42E-07,  avg # of iterations =  2.3

     negative rho (up, down):  5.871E-04 2.565E-02

     total cpu time spent up to now is      105.8 secs

     total energy              =   -1592.88465555 Ry
     estimated scf accuracy    <       0.00087041 Ry

     total magnetization       =    10.00 Bohr mag/cell
     absolute magnetization    =    21.94 Bohr mag/cell

     iteration # 16     ecut=    80.00 Ry     beta= 0.30
     Davidson diagonalization with overlap
     ethr =  5.37E-07,  avg # of iterations =  1.4

     negative rho (up, down):  8.350E-04 2.580E-02

     total cpu time spent up to now is      109.3 secs

     total energy              =   -1592.88471096 Ry
     estimated scf accuracy    <       0.00043461 Ry

     total magnetization       =    10.00 Bohr mag/cell
     absolute magnetization    =    21.90 Bohr mag/cell

     iteration # 17     ecut=    80.00 Ry     beta= 0.30
     Davidson diagonalization with overlap
     ethr =  2.68E-07,  avg # of iterations =  1.8

     negative rho (up, down):  1.536E-03 2.633E-02

     total cpu time spent up to now is      114.1 secs

     total energy              =   -1592.88475168 Ry
     estimated scf accuracy    <       0.00027946 Ry

     total magnetization       =    10.00 Bohr mag/cell
     absolute magnetization    =    21.90 Bohr mag/cell

     iteration # 18     ecut=    80.00 Ry     beta= 0.30
     Davidson diagonalization with overlap
     ethr =  1.73E-07,  avg # of iterations =  1.9

     negative rho (up, down):  1.845E-03 2.654E-02

     total cpu time spent up to now is      119.1 secs

     total energy              =   -1592.88478308 Ry
     estimated scf accuracy    <       0.00014415 Ry

     total magnetization       =    10.00 Bohr mag/cell
     absolute magnetization    =    21.89 Bohr mag/cell

     iteration # 19     ecut=    80.00 Ry     beta= 0.30
     Davidson diagonalization with overlap
     ethr =  8.90E-08,  avg # of iterations =  1.2

     negative rho (up, down):  2.060E-03 2.651E-02

     total cpu time spent up to now is      123.4 secs

     total energy              =   -1592.88481046 Ry
     estimated scf accuracy    <       0.00011389 Ry

     total magnetization       =    10.00 Bohr mag/cell
     absolute magnetization    =    21.89 Bohr mag/cell

     iteration # 20     ecut=    80.00 Ry     beta= 0.30
     Davidson diagonalization with overlap
     ethr =  7.03E-08,  avg # of iterations =  1.1

     negative rho (up, down):  2.336E-03 2.646E-02

     total cpu time spent up to now is      127.9 secs

     total energy              =   -1592.88484328 Ry
     estimated scf accuracy    <       0.00007076 Ry

     total magnetization       =    10.00 Bohr mag/cell
     absolute magnetization    =    21.89 Bohr mag/cell

     iteration # 21     ecut=    80.00 Ry     beta= 0.30
     Davidson diagonalization with overlap
     ethr =  4.37E-08,  avg # of iterations =  1.8

     negative rho (up, down):  2.507E-03 2.636E-02

     total cpu time spent up to now is      132.4 secs

     total energy              =   -1592.88486498 Ry
     estimated scf accuracy    <       0.00003383 Ry

     total magnetization       =    10.00 Bohr mag/cell
     absolute magnetization    =    21.91 Bohr mag/cell

     iteration # 22     ecut=    80.00 Ry     beta= 0.30
     Davidson diagonalization with overlap
     ethr =  2.09E-08,  avg # of iterations =  2.0

     negative rho (up, down):  2.650E-03 2.634E-02

     total cpu time spent up to now is      137.1 secs

     total energy              =   -1592.88487145 Ry
     estimated scf accuracy    <       0.00001204 Ry

     total magnetization       =    10.00 Bohr mag/cell
     absolute magnetization    =    21.91 Bohr mag/cell

     iteration # 23     ecut=    80.00 Ry     beta= 0.30
     Davidson diagonalization with overlap
     ethr =  7.43E-09,  avg # of iterations =  3.3

     negative rho (up, down):  2.656E-03 2.629E-02

     total cpu time spent up to now is      142.4 secs

     total energy              =   -1592.88487455 Ry
     estimated scf accuracy    <       0.00000287 Ry

     total magnetization       =    10.00 Bohr mag/cell
     absolute magnetization    =    21.91 Bohr mag/cell

     iteration # 24     ecut=    80.00 Ry     beta= 0.30
     Davidson diagonalization with overlap
     ethr =  1.77E-09,  avg # of iterations =  3.2

     negative rho (up, down):  2.671E-03 2.627E-02

     total cpu time spent up to now is      147.6 secs

     total energy              =   -1592.88487598 Ry
     estimated scf accuracy    <       0.00000131 Ry

     total magnetization       =    10.00 Bohr mag/cell
     absolute magnetization    =    21.91 Bohr mag/cell

     iteration # 25     ecut=    80.00 Ry     beta= 0.30
     Davidson diagonalization with overlap
     ethr =  8.11E-10,  avg # of iterations =  2.4

     negative rho (up, down):  2.657E-03 2.623E-02

     Magnetic moment per site  (integrated on atomic sphere of radius R)
     atom   1 (R=0.222)  charge=  9.4314  magn=  2.0478
     atom   2 (R=0.222)  charge=  9.3867  magn=  1.8564
     atom   3 (R=0.222)  charge=  9.3900  magn=  1.9046
     atom   4 (R=0.222)  charge=  9.3861  magn=  1.8651
     atom   5 (R=0.222)  charge=  9.3675  magn=  1.3455
     atom   6 (R=0.222)  charge=  9.3872  magn=  1.8537
     atom   7 (R=0.222)  charge=  4.3139  magn= -0.3142
     atom   8 (R=0.222)  charge=  4.2220  magn= -0.5225
     atom   9 (R=0.222)  charge=  4.3223  magn= -0.2892
     atom  10 (R=0.222)  charge=  4.3223  magn= -0.2892
     atom  11 (R=0.222)  charge=  4.2617  magn= -0.4379
     atom  12 (R=0.222)  charge=  4.3034  magn= -0.3213
     atom  13 (R=0.222)  charge=  4.3156  magn= -0.3355
     atom  14 (R=0.222)  charge=  4.3156  magn= -0.3355
     atom  15 (R=0.222)  charge=  4.2479  magn= -0.5427
     atom  16 (R=0.222)  charge=  4.2873  magn= -0.3651
     atom  17 (R=0.222)  charge=  4.3117  magn= -0.2081
     atom  18 (R=0.222)  charge=  4.3117  magn= -0.2081
     atom  19 (R=0.222)  charge=  4.2372  magn= -0.4697

     total cpu time spent up to now is      152.5 secs

     End of self-consistent calculation

     =================== HUBBARD OCCUPATIONS ===================
     ------------------------ ATOM    1 ------------------------
     Tr[ns(  1)] (up, down, total) =   3.83432  0.81606  4.65039
     Atomic magnetic moment for atom   1 =   3.01826
     SPIN  1
     eigenvalues:
       0.491  0.498  0.923  0.933  0.989
     eigenvectors (columns):
       0.999  0.000  0.000  0.000  0.043
       0.000 -0.000 -0.000 -1.000  0.000
       0.000 -0.000 -1.000  0.000  0.000
      -0.043 -0.000  0.000  0.000  0.999
      -0.000  1.000 -0.000 -0.000 -0.000
     occupation matrix ns (before diag.):
       0.492 -0.000 -0.000  0.021  0.000
      -0.000  0.933 -0.000  0.000  0.000
      -0.000 -0.000  0.923  0.000  0.000
       0.021  0.000  0.000  0.988 -0.000
       0.000  0.000  0.000 -0.000  0.498
     SPIN  2
     eigenvalues:
       0.075  0.082  0.089  0.226  0.344
     eigenvectors (columns):
       0.000  0.141  0.000 -0.990  0.000
      -0.000 -0.000  1.000  0.000  0.000
      -1.000  0.000 -0.000  0.000  0.000
       0.000  0.990  0.000  0.141 -0.000
       0.000  0.000 -0.000  0.000  1.000
     occupation matrix ns (before diag.):
       0.223 -0.000 -0.000 -0.020  0.000
      -0.000  0.089 -0.000  0.000  0.000
      -0.000 -0.000  0.075  0.000  0.000
      -0.020  0.000  0.000  0.085 -0.000
       0.000  0.000  0.000 -0.000  0.344
     ------------------------ ATOM    2 ------------------------
     Tr[ns(  2)] (up, down, total) =   3.74327  0.99872  4.74199
     Atomic magnetic moment for atom   2 =   2.74455
     SPIN  1
     eigenvalues:
       0.541  0.542  0.779  0.889  0.993
     eigenvectors (columns):
       0.413  0.000 -0.000  0.000 -0.911
      -0.000  1.000  0.000 -0.000  0.000
      -0.000  0.000 -1.000 -0.000  0.000
       0.911  0.000  0.000 -0.000  0.413
       0.000 -0.000  0.000 -1.000 -0.000
     occupation matrix ns (before diag.):
       0.916 -0.000 -0.000 -0.170  0.000
      -0.000  0.542 -0.000  0.000  0.000
      -0.000 -0.000  0.779  0.000  0.000
      -0.170  0.000  0.000  0.618 -0.000
       0.000  0.000  0.000 -0.000  0.889
     SPIN  2
     eigenvalues:
       0.092  0.095  0.102  0.345  0.365
     eigenvectors (columns):
      -0.000 -0.917 -0.000  0.398 -0.000
      -0.000 -0.000  0.000 -0.000 -1.000
      -1.000  0.000 -0.000 -0.000  0.000
       0.000  0.398  0.000  0.917 -0.000
       0.000  0.000 -1.000 -0.000 -0.000
     occupation matrix ns (before diag.):
       0.135 -0.000 -0.000  0.091  0.000
      -0.000  0.365 -0.000  0.000  0.000
      -0.000 -0.000  0.092  0.000  0.000
       0.091  0.000  0.000  0.305 -0.000
       0.000  0.000  0.000 -0.000  0.102
     ------------------------ ATOM    3 ------------------------
     Tr[ns(  3)] (up, down, total) =   3.76162  0.94906  4.71068
     Atomic magnetic moment for atom   3 =   2.81255
     SPIN  1
     eigenvalues:
       0.499  0.531  0.845  0.897  0.989
     eigenvectors (columns):
      -0.000  0.999 -0.000  0.000 -0.048
      -0.000  0.000  0.000 -1.000 -0.000
      -0.000  0.000  1.000  0.000 -0.000
       0.000 -0.048 -0.000  0.000 -0.999
       1.000  0.000  0.000 -0.000  0.000
     occupation matrix ns (before diag.):
       0.532 -0.000 -0.000  0.022  0.000
      -0.000  0.897 -0.000  0.000  0.000
      -0.000 -0.000  0.845  0.000  0.000
       0.022  0.000  0.000  0.988 -0.000
       0.000  0.000  0.000 -0.000  0.499
     SPIN  2
     eigenvalues:
       0.080  0.092  0.098  0.336  0.342
     eigenvectors (columns):
       0.085 -0.000 -0.000 -0.996  0.000
      -0.000 -0.000 -1.000  0.000  0.000
      -0.000 -1.000  0.000  0.000  0.000
       0.996 -0.000 -0.000  0.085 -0.000
       0.000  0.000  0.000  0.000  1.000
     occupation matrix ns (before diag.):
       0.335 -0.000 -0.000 -0.022  0.000
      -0.000  0.098 -0.000  0.000  0.000
      -0.000 -0.000  0.092  0.000  0.000
      -0.022  0.000  0.000  0.082 -0.000
       0.000  0.000  0.000 -0.000  0.342
     ------------------------ ATOM    4 ------------------------
     Tr[ns(  4)] (up, down, total) =   3.74622  0.98886  4.73508
     Atomic magnetic moment for atom   4 =   2.75736
     SPIN  1
     eigenvalues:
       0.520  0.541  0.807  0.899  0.980
     eigenvectors (columns):
      -0.000  0.446 -0.000  0.000 -0.895
       1.000  0.000  0.000 -0.000  0.000
       0.000 -0.000 -1.000 -0.000  0.000
      -0.000  0.895  0.000 -0.000  0.446
      -0.000  0.000  0.000 -1.000 -0.000
     occupation matrix ns (before diag.):
       0.893 -0.000 -0.000 -0.175  0.000
      -0.000  0.520 -0.000  0.000  0.000
      -0.000 -0.000  0.807  0.000  0.000
      -0.175  0.000  0.000  0.628 -0.000
       0.000  0.000  0.000 -0.000  0.899
     SPIN  2
     eigenvalues:
       0.088  0.097  0.104  0.348  0.352
     eigenvectors (columns):
       0.909 -0.000  0.000 -0.417 -0.000
       0.000  0.000 -0.000  0.000 -1.000
       0.000  1.000  0.000 -0.000  0.000
      -0.417  0.000 -0.000 -0.909 -0.000
      -0.000 -0.000  1.000  0.000 -0.000
     occupation matrix ns (before diag.):
       0.133 -0.000 -0.000  0.099  0.000
      -0.000  0.352 -0.000  0.000  0.000
      -0.000 -0.000  0.097  0.000  0.000
       0.099  0.000  0.000  0.303 -0.000
       0.000  0.000  0.000 -0.000  0.104
     ------------------------ ATOM    5 ------------------------
     Tr[ns(  5)] (up, down, total) =   3.44136  1.46630  4.90766
     Atomic magnetic moment for atom   5 =   1.97506
     SPIN  1
     eigenvalues:
       0.538  0.629  0.638  0.646  0.989
     eigenvectors (columns):
      -0.000  0.998 -0.000 -0.000 -0.064
      -0.000  0.000  0.000  1.000 -0.000
      -0.000  0.000  1.000 -0.000 -0.000
       0.000 -0.064  0.000 -0.000 -0.998
       1.000  0.000  0.000  0.000  0.000
     occupation matrix ns (before diag.):
       0.631 -0.000 -0.000  0.023  0.000
      -0.000  0.646 -0.000  0.000  0.000
      -0.000 -0.000  0.638  0.000  0.000
       0.023  0.000  0.000  0.988 -0.000
       0.000  0.000  0.000 -0.000  0.538
     SPIN  2
     eigenvalues:
       0.086  0.242  0.270  0.390  0.479
     eigenvectors (columns):
      -0.068 -0.000  0.000  0.000 -0.998
       0.000 -0.000  1.000 -0.000  0.000
       0.000 -1.000 -0.000 -0.000  0.000
      -0.998 -0.000  0.000  0.000  0.068
      -0.000  0.000 -0.000 -1.000 -0.000
     occupation matrix ns (before diag.):
       0.477 -0.000 -0.000 -0.027  0.000
      -0.000  0.270 -0.000  0.000  0.000
      -0.000 -0.000  0.242  0.000  0.000
      -0.027  0.000  0.000  0.088 -0.000
       0.000  0.000  0.000 -0.000  0.390
     ------------------------ ATOM    6 ------------------------
     Tr[ns(  6)] (up, down, total) =   3.74749  1.00004  4.74753
     Atomic magnetic moment for atom   6 =   2.74745
     SPIN  1
     eigenvalues:
       0.538  0.548  0.871  0.877  0.914
     eigenvectors (columns):
      -0.000 -0.441  0.000  0.000 -0.897
       1.000 -0.000 -0.000 -0.000  0.000
       0.000  0.000  1.000 -0.000  0.000
      -0.000 -0.897 -0.000 -0.000  0.441
      -0.000 -0.000 -0.000 -1.000 -0.000
     occupation matrix ns (before diag.):
       0.842 -0.000 -0.000 -0.145  0.000
      -0.000  0.538 -0.000  0.000  0.000
      -0.000 -0.000  0.871  0.000  0.000
      -0.145  0.000  0.000  0.619 -0.000
       0.000  0.000  0.000 -0.000  0.877
     SPIN  2
     eigenvalues:
       0.094  0.103  0.104  0.342  0.357
     eigenvectors (columns):
       0.000  0.931  0.000  0.366 -0.000
       0.000  0.000 -0.000 -0.000 -1.000
       1.000 -0.000  0.000  0.000  0.000
      -0.000 -0.366 -0.000  0.931 -0.000
      -0.000 -0.000  1.000 -0.000 -0.000
     occupation matrix ns (before diag.):
       0.135 -0.000 -0.000  0.081  0.000
      -0.000  0.357 -0.000  0.000  0.000
      -0.000 -0.000  0.094  0.000  0.000
       0.081  0.000  0.000  0.310 -0.000
       0.000  0.000  0.000 -0.000  0.104

     Number of occupied Hubbard levels =   28.4933

 ------ SPIN UP ------------


          k = 0.0000 0.0000 0.0000 ( 37133 PWs)   bands (ev):

   -73.6286 -73.3827 -73.2777 -73.2731 -73.2351 -73.0914 -45.2107 -44.8586
   -44.8556 -44.7756 -44.6403 -44.6332 -44.6246 -44.5922 -44.5872 -44.5638
   -44.5620 -44.5484 -44.5371 -44.5205 -44.4989 -44.4314 -44.3531 -44.2600
   -19.1275 -18.8141 -18.5576 -18.0243 -17.7797 -17.5774 -17.4251 -17.3228
   -17.2741 -17.0058 -16.9393 -16.8379 -16.4233  -8.2750  -8.0917  -7.8966
    -7.3067  -7.0470  -6.8222  -6.8134  -6.0410  -5.5260  -5.4157  -5.3643
    -5.2335  -5.1997  -4.9981  -4.8815  -4.7636  -4.3425  -4.1359  -3.9555
    -3.7380  -3.6803  -3.5787  -3.5597  -3.5532  -3.2311  -3.2032  -3.1887
    -3.1592  -3.1200  -2.9347  -2.8713  -2.8684  -2.8537  -2.7844  -2.7827
    -2.6932  -2.6217  -2.3291  -2.0663  -1.5697  -1.5472  -1.3905  -1.1023
    -1.1019  -1.0127  -0.9016  -0.8286  -0.5325  -0.5061  -0.3437   0.0793
     0.1584   0.4379   0.5994   0.7033   1.1180   1.1649   1.3750   2.1889
     2.6879

          k = 0.0000 0.1166 0.0000 ( 37130 PWs)   bands (ev):

   -73.6285 -73.3826 -73.2776 -73.2730 -73.2350 -73.0913 -45.2107 -44.8586
   -44.8547 -44.7756 -44.6358 -44.6295 -44.6247 -44.5934 -44.5872 -44.5668
   -44.5638 -44.5484 -44.5411 -44.5205 -44.4988 -44.4315 -44.3532 -44.2601
   -19.0013 -18.6967 -18.4501 -18.1987 -17.9582 -17.7301 -17.3653 -17.3210
   -17.2762 -17.0249 -16.9191 -16.8397 -16.4178  -8.0383  -7.8804  -7.7166
    -7.3299  -7.0704  -6.8535  -6.5587  -5.8747  -5.3802  -5.2563  -5.2400
    -5.2329  -5.0638  -5.0006  -4.9937  -4.8835  -4.7266  -4.5051  -4.1050
    -4.0295  -3.9367  -3.9029  -3.7274  -3.6788  -3.6553  -3.6029  -3.5594
    -3.5233  -3.3564  -3.2729  -2.7063  -2.6428  -2.5875  -2.4212  -2.3269
    -2.2629  -2.0465  -1.6686  -1.5930  -1.5802  -1.5251  -1.4149  -1.1385
    -1.0604  -1.0348  -1.0270  -0.8512  -0.7360  -0.5958  -0.4868  -0.1469
     0.0625   0.2761   0.4643   0.6383   0.9700   1.3865   1.4039   2.5195
     3.1122

          k = 0.0000-0.2332 0.0000 ( 37126 PWs)   bands (ev):

   -73.6285 -73.3826 -73.2774 -73.2730 -73.2349 -73.0911 -45.2107 -44.8586
   -44.8537 -44.7756 -44.6306 -44.6254 -44.6246 -44.5946 -44.5872 -44.5724
   -44.5638 -44.5484 -44.5454 -44.5206 -44.4988 -44.4315 -44.3532 -44.2601
   -18.6986 -18.6714 -18.3847 -18.2660 -18.0789 -18.0696 -17.3336 -17.3181
   -17.2682 -17.0378 -16.8923 -16.8559 -16.4129  -7.7428  -7.6166  -7.5181
    -7.3704  -7.1191  -6.8907  -5.9603  -5.9556  -5.3783  -5.2367  -5.1574
    -5.1448  -5.0162  -4.9621  -4.9101  -4.8341  -4.8234  -4.7379  -4.4636
    -4.3895  -4.3515  -4.2161  -4.1879  -4.1035  -3.8625  -3.7510  -3.6600
    -3.5573  -3.4727  -3.3745  -2.4571  -2.3937  -2.2962  -2.2679  -2.1016
    -1.7809  -1.7275  -1.6471  -1.6052  -1.5020  -1.2175  -1.2152  -1.1512
    -1.1228  -1.0590  -0.9859  -0.9674  -0.8148  -0.6781  -0.5620  -0.3168
    -0.2518   0.1900   0.3222   0.5980   0.8537   1.4387   1.5432   2.7796
     3.3742

          k = 0.1111 0.0000 0.0000 ( 37175 PWs)   bands (ev):

   -73.6264 -73.3805 -73.2756 -73.2709 -73.2330 -73.0892 -45.2092 -44.8572
   -44.8525 -44.7950 -44.6378 -44.6292 -44.6231 -44.6079 -44.5911 -44.5714
   -44.5600 -44.5589 -44.5364 -44.5191 -44.5174 -44.4514 -44.3499 -44.2805
   -19.0090 -18.7044 -18.4563 -17.9320 -17.6996 -17.5251 -17.4529 -17.3012
   -17.2987 -17.0298 -16.9692 -16.8670 -16.4483  -8.0599  -7.8879  -7.6957
    -7.1220  -6.8716  -6.6966  -6.6656  -6.0334  -5.7578  -5.5736  -5.4651
    -5.4221  -5.2118  -5.1935  -4.9586  -4.7221  -4.3144  -4.2694  -4.0725
    -4.0198  -3.9397  -3.7266  -3.6578  -3.5662  -3.4853  -3.4611  -3.2842
    -3.1330  -3.0601  -2.9816  -2.9589  -2.8588  -2.8000  -2.7040  -2.4803
    -2.4616  -2.3900  -2.2297  -2.1665  -1.9175  -1.5886  -1.5319  -1.2803
    -1.0815  -0.8199  -0.6849  -0.6178  -0.4249  -0.2897  -0.2697  -0.0290
     0.0615   0.3507   0.5208   0.6034   1.0893   1.1885   1.2556   2.3067
     2.7909

          k = 0.1111 0.1166 0.0000 ( 37124 PWs)   bands (ev):

   -73.6264 -73.3805 -73.2754 -73.2709 -73.2329 -73.0891 -45.2092 -44.8572
   -44.8517 -44.7950 -44.6339 -44.6258 -44.6231 -44.6081 -44.5920 -44.5713
   -44.5644 -44.5589 -44.5398 -44.5189 -44.5174 -44.4514 -44.3500 -44.2805
   -18.8871 -18.5909 -18.3520 -18.1110 -17.8793 -17.6723 -17.3810 -17.3079
   -17.2865 -17.0478 -16.9509 -16.8680 -16.4428  -7.8297  -7.6823  -7.5213
    -7.1446  -6.8980  -6.7036  -6.4546  -5.8652  -5.6214  -5.5373  -5.4393
    -5.3334  -5.2072  -5.0774  -4.9563  -4.7566  -4.6759  -4.4463  -4.2445
    -4.1437  -4.0266  -3.9772  -3.9226  -3.8008  -3.7580  -3.6958  -3.6199
    -3.5949  -3.3895  -3.2235  -2.8036  -2.7463  -2.6424  -2.5787  -2.3239
    -2.1663  -2.0301  -1.8711  -1.7389  -1.5370  -1.4042  -1.3852  -1.2484
    -1.0415  -0.8944  -0.7994  -0.6235  -0.5657  -0.4287  -0.2834  -0.2366
    -0.0305   0.1981   0.3825   0.5333   0.9217   1.3012   1.4249   2.5811
     3.0313

          k = 0.1111-0.2332 0.0000 ( 37144 PWs)   bands (ev):

   -73.6264 -73.3804 -73.2753 -73.2709 -73.2328 -73.0890 -45.2092 -44.8573
   -44.8508 -44.7951 -44.6294 -44.6231 -44.6220 -44.6084 -44.5930 -44.5713
   -44.5692 -44.5589 -44.5435 -44.5186 -44.5175 -44.4514 -44.3500 -44.2805
   -18.5939 -18.5660 -18.2885 -18.1777 -18.0042 -17.9968 -17.3473 -17.3035
   -17.2758 -17.0598 -16.9288 -16.8801 -16.4378  -7.5438  -7.4288  -7.3327
    -7.1850  -6.9531  -6.7436  -5.9737  -5.8941  -5.4286  -5.3552  -5.3303
    -5.2169  -5.1928  -5.0491  -4.9971  -4.8880  -4.6707  -4.6419  -4.6060
    -4.5666  -4.4225  -4.3767  -4.1087  -4.0540  -4.0247  -3.7895  -3.7757
    -3.6626  -3.6005  -3.2224  -2.6700  -2.6469  -2.5298  -2.4986  -2.1916
    -2.0922  -1.6871  -1.5659  -1.4532  -1.4400  -1.2211  -1.1750  -1.0766
    -0.9971  -0.8932  -0.8642  -0.8007  -0.6369  -0.5291  -0.4290  -0.2913
    -0.2052   0.1004   0.2100   0.4890   0.8208   1.3656   1.5540   2.8348
     3.0347

          k = 0.2222 0.0000 0.0000 ( 37192 PWs)   bands (ev):

   -73.6218 -73.3756 -73.2707 -73.2661 -73.2282 -73.0844 -45.2054 -44.8537
   -44.8447 -44.8427 -44.6590 -44.6312 -44.6245 -44.6190 -44.6173 -44.5880
   -44.5691 -44.5550 -44.5520 -44.5349 -44.5099 -44.5004 -44.3418 -44.3309
   -18.6909 -18.4158 -18.1919 -17.7010 -17.5234 -17.5038 -17.4211 -17.3695
   -17.2427 -17.0904 -17.0485 -16.9267 -16.4941  -7.4724  -7.3301  -7.1500
    -6.6738  -6.5160  -6.4952  -6.3600  -6.2947  -6.0419  -5.8060  -5.8047
    -5.4482  -5.2974  -5.2654  -4.9493  -4.9088  -4.6087  -4.5428  -4.4613
    -4.4178  -4.2724  -4.1004  -3.9761  -3.9280  -3.9152  -3.5152  -3.5087
    -3.4049  -3.3505  -3.1702  -3.0725  -2.7602  -2.6172  -2.5023  -2.2893
    -2.1952  -2.1525  -2.0889  -1.9350  -1.8803  -1.7424  -1.5111  -1.0559
    -0.9839  -0.7334  -0.5885  -0.5099  -0.4987  -0.2766  -0.2165  -0.1023
     0.0491   0.1369   0.3217   0.3408   0.9182   1.0906   1.2928   2.4502
     2.8513

          k = 0.2222 0.1166 0.0000 ( 37137 PWs)   bands (ev):

   -73.6218 -73.3756 -73.2706 -73.2661 -73.2282 -73.0844 -45.2054 -44.8537
   -44.8441 -44.8428 -44.6596 -44.6295 -44.6244 -44.6173 -44.6163 -44.5886
   -44.5683 -44.5579 -44.5519 -44.5370 -44.5099 -44.5001 -44.3418 -44.3308
   -18.5831 -18.3146 -18.0970 -17.9060 -17.7002 -17.5466 -17.3978 -17.3477
   -17.2357 -17.1044 -17.0353 -16.9271 -16.4897  -7.2797  -7.1707  -7.0267
    -6.6918  -6.5455  -6.3913  -6.3131  -6.1189  -6.0169  -5.9095  -5.6614
    -5.4820  -5.2735  -5.0643  -4.9344  -4.8098  -4.6152  -4.5489  -4.5182
    -4.4566  -4.3351  -4.1970  -4.1393  -4.0181  -4.0003  -3.9179  -3.8070
    -3.6938  -3.6017  -3.2898  -2.9815  -2.8314  -2.7123  -2.5951  -2.5295
    -2.3896  -1.8536  -1.7279  -1.6160  -1.5330  -1.4652  -1.3214  -1.0996
    -0.9255  -0.7801  -0.5896  -0.5529  -0.4173  -0.3163  -0.2896  -0.1559
    -0.1210   0.0462   0.1931   0.2554   0.8522   1.1658   1.4048   2.5428
     2.6597

          k = 0.2222-0.2332 0.0000 ( 37166 PWs)   bands (ev):

   -73.6219 -73.3757 -73.2705 -73.2662 -73.2281 -73.0843 -45.2054 -44.8537
   -44.8435 -44.8430 -44.6601 -44.6277 -44.6243 -44.6173 -44.6136 -44.5891
   -44.5669 -44.5614 -44.5519 -44.5393 -44.5099 -44.4998 -44.3418 -44.3307
   -18.3195 -18.2927 -18.0428 -17.9788 -17.8260 -17.8125 -17.3665 -17.3298
   -17.2264 -17.1142 -17.0221 -16.9328 -16.4856  -7.0802  -7.0083  -6.9288
    -6.7416  -6.6191  -6.4422  -6.1087  -5.7500  -5.6873  -5.5108  -5.4643
    -5.4175  -5.4088  -5.2076  -5.1205  -5.0850  -4.8908  -4.8787  -4.6963
    -4.4943  -4.4003  -4.3976  -4.2586  -4.1370  -4.0347  -3.9437  -3.7318
    -3.7093  -3.3147  -3.3041  -3.2152  -3.1839  -2.8861  -2.8092  -2.5789
    -2.4619  -1.7335  -1.5033  -1.3705  -1.2862  -1.1243  -1.0921  -0.9852
    -0.8841  -0.8357  -0.6139  -0.5757  -0.4801  -0.3291  -0.3140  -0.2810
    -0.1920  -0.0558   0.0484   0.1984   0.8103   1.2348   1.4899   2.4584
     2.5500

          k = 0.3333 0.0000 0.0000 ( 37184 PWs)   bands (ev):

   -73.6178 -73.3712 -73.2661 -73.2618 -73.2240 -73.0801 -45.2009 -44.8946
   -44.8495 -44.8356 -44.7148 -44.6804 -44.6237 -44.6233 -44.6140 -44.6067
   -44.5845 -44.5550 -44.5492 -44.5434 -44.5335 -44.5003 -44.3860 -44.3325
   -18.2773 -18.0590 -17.8646 -17.6036 -17.4661 -17.4464 -17.3894 -17.2914
   -17.2047 -17.1592 -17.1440 -16.9470 -16.4988  -6.8938  -6.7770  -6.6680
    -6.6079  -6.5430  -6.5422  -6.4473  -6.2854  -5.9600  -5.7776  -5.5171
    -5.4698  -5.4382  -5.2003  -5.0638  -5.0221  -4.9906  -4.7172  -4.7057
    -4.5243  -4.5045  -4.3614  -3.9928  -3.9246  -3.7984  -3.7075  -3.6981
    -3.5175  -3.4800  -3.2726  -3.1350  -2.9252  -2.7852  -2.4570  -2.4165
    -2.3466  -2.2437  -2.1437  -2.0246  -2.0022  -1.6061  -1.1939  -1.0509
    -0.9480  -0.8280  -0.8119  -0.7269  -0.6435  -0.4162  -0.2162  -0.1373
    -0.1156   0.0298   0.3613   0.4124   0.7863   1.1567   1.1674   2.2170
     2.7767

          k = 0.3333 0.1166 0.0000 ( 37206 PWs)   bands (ev):

   -73.6179 -73.3713 -73.2661 -73.2619 -73.2239 -73.0801 -45.2009 -44.8949
   -44.8495 -44.8354 -44.7154 -44.6802 -44.6337 -44.6140 -44.6119 -44.6054
   -44.5845 -44.5587 -44.5464 -44.5434 -44.5341 -44.5003 -44.3858 -44.3325
   -18.1995 -17.9859 -17.7904 -17.7459 -17.5872 -17.3974 -17.3791 -17.3647
   -17.2023 -17.1528 -17.1356 -16.9511 -16.4973  -6.9991  -6.9342  -6.8300
    -6.7528  -6.6187  -6.2493  -6.2189  -6.0704  -5.9092  -5.7657  -5.4711
    -5.3653  -5.1200  -5.0522  -4.9042  -4.7547  -4.7216  -4.6916  -4.6385
    -4.5281  -4.4780  -4.3590  -4.1845  -4.1625  -4.0910  -3.9418  -3.8830
    -3.8002  -3.5656  -3.3381  -3.0661  -2.8847  -2.7879  -2.7102  -2.5410
    -2.4002  -2.1382  -2.0764  -1.9883  -1.8995  -1.5719  -1.2848  -1.1757
    -0.9606  -0.9086  -0.7953  -0.7610  -0.6447  -0.4985  -0.2408  -0.1131
    -0.0251   0.1606   0.2614   0.3729   0.8945   1.1360   1.2425   2.2053
     2.3122

          k = 0.3333-0.2332 0.0000 ( 37216 PWs)   bands (ev):

   -73.6180 -73.3714 -73.2660 -73.2620 -73.2239 -73.0801 -45.2009 -44.8952
   -44.8495 -44.8351 -44.7161 -44.6799 -44.6377 -44.6140 -44.6066 -44.6040
   -44.5845 -44.5613 -44.5449 -44.5434 -44.5348 -44.5003 -44.3855 -44.3325
   -18.0012 -17.9887 -17.8007 -17.7949 -17.6137 -17.5824 -17.3657 -17.3539
   -17.1783 -17.1673 -17.1275 -16.9565 -16.4957  -7.0815  -7.0802  -6.9784
    -6.7860  -6.7449  -5.9956  -5.9829  -5.6266  -5.5480  -5.3866  -5.3599
    -5.2762  -5.2698  -5.2263  -4.9860  -4.9403  -4.7340  -4.7295  -4.6097
    -4.5782  -4.5396  -4.4799  -4.1265  -3.9670  -3.9586  -3.8998  -3.7154
    -3.6373  -3.5733  -3.5083  -3.3911  -3.2120  -3.0383  -2.9394  -2.8484
    -2.7339  -2.1398  -1.8772  -1.7372  -1.5983  -1.5122  -1.4902  -1.2668
    -1.0211  -0.9415  -0.7798  -0.7190  -0.5952  -0.5606  -0.2703  -0.0357
    -0.0114   0.1209   0.3059   0.3491   0.9457   1.1468   1.3137   2.0074
     2.0584

          k = 0.4444 0.0000 0.0000 ( 37180 PWs)   bands (ev):

   -73.6159 -73.3690 -73.2637 -73.2597 -73.2219 -73.0780 -45.1979 -44.9272
   -44.8467 -44.8296 -44.7499 -44.7166 -44.6573 -44.6187 -44.6109 -44.5982
   -44.5889 -44.5821 -44.5453 -44.5377 -44.5329 -44.4944 -44.4207 -44.3264
   -17.9380 -17.7837 -17.6560 -17.5961 -17.4962 -17.4815 -17.3665 -17.2451
   -17.2040 -17.2013 -17.1385 -16.9180 -16.4647  -7.1534  -6.9775  -6.8761
    -6.7081  -6.4540  -6.2380  -6.1882  -6.1740  -5.9970  -5.8552  -5.7936
    -5.3288  -5.2614  -5.1310  -4.9432  -4.7804  -4.7201  -4.6890  -4.5356
    -4.5315  -4.2164  -4.0824  -3.9189  -3.9039  -3.8539  -3.7809  -3.6815
    -3.4115  -3.2919  -3.2257  -3.0922  -2.9110  -2.7692  -2.7250  -2.6534
    -2.5788  -2.4153  -2.4116  -2.2659  -2.1239  -2.0664  -1.9268  -1.7545
    -1.0167  -1.0017  -0.9142  -0.6539  -0.5711  -0.4325  -0.4056  -0.3072
     0.0517   0.2100   0.5790   0.6833   0.8078   0.9907   1.2330   1.9925
     2.8123

          k = 0.4444 0.1166 0.0000 ( 37248 PWs)   bands (ev):

   -73.6160 -73.3692 -73.2637 -73.2599 -73.2219 -73.0780 -45.1979 -44.9275
   -44.8467 -44.8297 -44.7506 -44.7162 -44.6611 -44.6147 -44.6109 -44.5980
   -44.5897 -44.5818 -44.5443 -44.5377 -44.5323 -44.4944 -44.4203 -44.3264
   -17.9288 -17.7922 -17.6539 -17.5642 -17.5229 -17.4394 -17.3724 -17.2736
   -17.2299 -17.1952 -17.1433 -16.9242 -16.4636  -7.3095  -7.1744  -7.1172
    -7.0250  -6.9288  -6.0889  -5.8993  -5.7348  -5.6176  -5.4073  -5.3288
    -5.2522  -5.1929  -4.9868  -4.9311  -4.8293  -4.6321  -4.5499  -4.4460
    -4.3993  -4.1869  -4.1684  -4.0999  -4.0116  -3.9112  -3.6893  -3.6681
    -3.5681  -3.3279  -3.1753  -3.1183  -2.9756  -2.8754  -2.7971  -2.7186
    -2.6586  -2.5223  -2.4460  -2.3854  -2.3145  -2.0714  -1.9183  -1.8056
    -1.1381  -1.0855  -0.9986  -0.9899  -0.8053  -0.7135  -0.5333   0.1707
     0.2316   0.3688   0.5180   0.6607   0.9852   1.0811   1.1910   2.0192
     2.1405

          k = 0.4444-0.2332 0.0000 ( 37264 PWs)   bands (ev):

   -73.6161 -73.3693 -73.2637 -73.2600 -73.2218 -73.0779 -45.1979 -44.9279
   -44.8467 -44.8298 -44.7513 -44.7158 -44.6643 -44.6113 -44.6109 -44.5978
   -44.5904 -44.5814 -44.5433 -44.5377 -44.5317 -44.4944 -44.4199 -44.3264
   -17.9181 -17.8031 -17.6492 -17.5688 -17.4462 -17.4063 -17.3950 -17.3790
   -17.2088 -17.1893 -17.1603 -16.9308 -16.4625  -7.4539  -7.4495  -7.2760
    -7.0847  -7.0419  -6.0412  -5.6676  -5.4449  -5.4005  -5.3524  -5.1144
    -5.0614  -5.0010  -4.7960  -4.7075  -4.5626  -4.5151  -4.5109  -4.4136
    -4.3452  -4.2770  -4.1828  -4.0966  -3.8711  -3.8426  -3.6591  -3.6332
    -3.5471  -3.5320  -3.3792  -3.3131  -3.2310  -3.1105  -2.9852  -2.9013
    -2.7246  -2.5496  -2.4994  -2.3558  -2.3309  -2.0568  -1.9840  -1.8788
    -1.3815  -1.2402  -1.2001  -1.0415  -0.9159  -0.6395  -0.5855   0.2935
     0.3671   0.4245   0.5516   0.6443   1.1309   1.1356   1.1818   1.8017
     1.8482

 ------ SPIN DOWN ----------


          k = 0.0000 0.0000 0.0000 ( 37133 PWs)   bands (ev):

   -71.5066 -70.3383 -70.2835 -70.2619 -70.1557 -70.1508 -43.5683 -42.5302
   -42.5114 -41.8498 -41.8034 -41.7665 -41.7229 -41.7171 -41.6762 -41.6176
   -41.5832 -41.5685 -41.4935 -41.4643 -41.4509 -41.4381 -41.3971 -41.3102
   -19.5710 -19.2236 -18.9424 -18.4982 -18.2803 -18.0015 -17.9566 -17.9366
   -17.8673 -17.6601 -17.5688 -17.3595 -17.3512  -6.3615  -6.1991  -5.9507
    -5.5699  -5.2625  -5.1093  -5.0708  -4.7293  -4.4467  -4.4460  -4.3521
    -4.3383  -4.3246  -4.1903  -4.1103  -4.0402  -4.0085  -3.7243  -3.6255
    -3.3826  -3.3328  -3.1907  -3.1309  -2.8514  -2.8303  -2.7558  -2.5464
    -2.5447  -2.3221  -2.2186  -2.0337  -1.9508  -1.9218  -1.6693  -1.6531
    -1.5974  -1.5842  -1.3666  -1.1071   3.3708   3.3989   3.4367   3.4893
     3.7323   3.7512   3.8155   4.1059   4.1427   4.2043   4.2238   4.4518
     4.4989   4.5047   4.5130   4.7013   4.8919   4.9966   5.1652   5.3598
     5.4540

          k = 0.0000 0.1166 0.0000 ( 37130 PWs)   bands (ev):

   -71.5067 -70.3384 -70.2836 -70.2621 -70.1554 -70.1515 -43.5683 -42.5302
   -42.5108 -41.8475 -41.8015 -41.7664 -41.7234 -41.7171 -41.6761 -41.6176
   -41.5832 -41.5706 -41.4931 -41.4646 -41.4508 -41.4397 -41.3970 -41.3103
   -19.4530 -19.1237 -18.8487 -18.7067 -18.4549 -18.2076 -17.9635 -17.8281
   -17.7625 -17.6708 -17.5577 -17.3587 -17.3353  -6.1197  -5.9901  -5.7794
    -5.5854  -5.2936  -5.1681  -4.8967  -4.5554  -4.4548  -4.4432  -4.4080
    -4.3242  -4.1823  -4.1595  -4.1061  -4.0082  -3.9778  -3.9077  -3.7257
    -3.6039  -3.3456  -3.1691  -3.0449  -2.7933  -2.7478  -2.7476  -2.6678
    -2.5330  -2.4540  -2.2687  -2.2407  -2.0426  -2.0291  -1.9598  -1.7876
    -1.7570  -1.6012  -1.5174  -1.2321   3.3807   3.3991   3.4441   3.6600
     4.0459   4.0459   4.1198   4.1894   4.2930   4.3635   4.4495   4.4546
     4.5026   4.5088   4.6180   4.6820   4.9869   4.9944   5.2231   5.2235
     5.2945

          k = 0.0000-0.2332 0.0000 ( 37126 PWs)   bands (ev):

   -71.5068 -70.3385 -70.2836 -70.2623 -70.1548 -70.1522 -43.5683 -42.5302
   -42.5102 -41.8452 -41.7996 -41.7664 -41.7239 -41.7171 -41.6761 -41.6176
   -41.5832 -41.5728 -41.4927 -41.4650 -41.4508 -41.4414 -41.3970 -41.3103
   -19.1682 -19.1180 -18.8709 -18.7718 -18.5786 -18.4704 -17.9631 -17.7400
   -17.7363 -17.6802 -17.5488 -17.3557 -17.3233  -5.8184  -5.7390  -5.6101
    -5.5390  -5.3724  -5.2352  -4.7318  -4.4630  -4.4399  -4.3859  -4.3240
    -4.2276  -4.1746  -4.1020  -4.0371  -4.0082  -4.0051  -3.9430  -3.9246
    -3.5639  -3.4027  -3.3839  -3.0535  -2.8796  -2.8104  -2.7991  -2.7826
    -2.7660  -2.5393  -2.5021  -2.2832  -2.1042  -2.0991  -1.9642  -1.9591
    -1.8256  -1.5236  -1.5156  -1.4858   3.3544   3.3963   3.4417   3.8136
     4.1912   4.2891   4.4234   4.4685   4.4963   4.4983   4.5436   4.5615
     4.6198   4.7155   4.7769   4.8423   4.8583   4.9154   5.0894   5.2328
     5.2371

          k = 0.1111 0.0000 0.0000 ( 37175 PWs)   bands (ev):

   -71.5055 -70.3369 -70.2823 -70.2608 -70.1543 -70.1498 -43.5666 -42.5505
   -42.5075 -41.8475 -41.8012 -41.7649 -41.7412 -41.7212 -41.6741 -41.6128
   -41.5792 -41.5645 -41.5157 -41.4866 -41.4741 -41.4337 -41.3925 -41.3331
   -19.4632 -19.1271 -18.8613 -18.4289 -18.2238 -17.9657 -17.9628 -17.9109
   -17.8763 -17.6649 -17.5817 -17.3742 -17.3588  -6.2716  -6.1352  -5.8786
    -5.5016  -5.2239  -5.0944  -5.0524  -4.9189  -4.7136  -4.6889  -4.6424
    -4.4303  -4.2991  -4.1183  -3.9900  -3.8464  -3.5559  -3.5010  -3.4657
    -3.3987  -3.3655  -3.2248  -3.2000  -3.0829  -2.8639  -2.8028  -2.7845
    -2.5242  -2.4742  -2.2897  -2.2180  -2.1466  -2.0438  -1.7961  -1.7730
    -1.6444  -1.5333  -1.5001  -1.1856   3.2601   3.4295   3.4339   3.5964
     3.7579   3.8716   3.9473   4.1245   4.2225   4.2480   4.3305   4.4772
     4.4929   4.5015   4.6591   4.8336   4.8676   5.1034   5.1189   5.2835
     5.3848

          k = 0.1111 0.1166 0.0000 ( 37124 PWs)   bands (ev):

   -71.5056 -70.3370 -70.2823 -70.2609 -70.1540 -70.1503 -43.5666 -42.5506
   -42.5070 -41.8456 -41.7997 -41.7648 -41.7412 -41.7216 -41.6741 -41.6128
   -41.5792 -41.5665 -41.5153 -41.4868 -41.4739 -41.4353 -41.3925 -41.3331
   -19.3492 -19.0313 -18.7724 -18.6307 -18.3932 -18.1671 -17.9376 -17.8320
   -17.7683 -17.6794 -17.5695 -17.3732 -17.3482  -6.0270  -5.9105  -5.6921
    -5.5156  -5.2514  -5.1334  -4.9494  -4.7928  -4.7230  -4.5971  -4.5005
    -4.4082  -4.2366  -4.1234  -3.9988  -3.8815  -3.7476  -3.6490  -3.5850
    -3.5387  -3.3711  -3.2652  -3.1822  -3.0778  -2.9429  -2.7978  -2.7371
    -2.6075  -2.4911  -2.4317  -2.3603  -2.2212  -2.1316  -1.9484  -1.8697
    -1.7295  -1.6022  -1.5265  -1.2745   3.2642   3.3764   3.4579   3.8681
     3.9783   4.1853   4.2105   4.2579   4.2810   4.4184   4.4203   4.4293
     4.5068   4.6495   4.6731   4.8358   4.9537   5.0244   5.1451   5.2124
     5.2818

          k = 0.1111-0.2332 0.0000 ( 37144 PWs)   bands (ev):

   -71.5056 -70.3371 -70.2824 -70.2610 -70.1536 -70.1509 -43.5665 -42.5506
   -42.5065 -41.8437 -41.7982 -41.7648 -41.7412 -41.7220 -41.6741 -41.6128
   -41.5792 -41.5685 -41.5149 -41.4870 -41.4737 -41.4368 -41.3925 -41.3331
   -19.0736 -19.0272 -18.7915 -18.6946 -18.5177 -18.4090 -17.9339 -17.7489
   -17.7443 -17.6930 -17.5599 -17.3700 -17.3406  -5.7184  -5.6532  -5.5168
    -5.4303  -5.3281  -5.2124  -4.8549  -4.6729  -4.5673  -4.5539  -4.2882
    -4.2444  -4.2299  -4.0736  -4.0492  -3.9422  -3.8719  -3.8025  -3.7422
    -3.6798  -3.5181  -3.3531  -3.2784  -3.2574  -3.0667  -2.9732  -2.7471
    -2.7309  -2.5599  -2.4632  -2.4546  -2.2281  -2.1188  -2.0600  -1.8499
    -1.8025  -1.5284  -1.4976  -1.4974   3.2661   3.3656   3.4562   3.9955
     4.2603   4.3413   4.3479   4.3776   4.4909   4.5990   4.6572   4.6662
     4.7029   4.7528   4.7783   4.8262   4.9074   4.9380   5.1133   5.1562
     5.1865

          k = 0.2222 0.0000 0.0000 ( 37192 PWs)   bands (ev):

   -71.5022 -70.3331 -70.2785 -70.2572 -70.1503 -70.1464 -43.5622 -42.6026
   -42.4975 -41.8418 -41.8040 -41.7957 -41.7592 -41.7170 -41.6693 -41.6014
   -41.5728 -41.5694 -41.5543 -41.5432 -41.5336 -41.4227 -41.3916 -41.3811
   -19.1657 -18.8665 -18.6472 -18.2536 -18.0819 -17.9805 -17.9000 -17.8925
   -17.8503 -17.6773 -17.6131 -17.4081 -17.3794  -6.0286  -5.9861  -5.7025
    -5.3741  -5.3104  -5.1841  -5.1510  -5.0736  -4.8672  -4.7549  -4.5559
    -4.4053  -4.3131  -4.1164  -4.0705  -3.9632  -3.8363  -3.7592  -3.5521
    -3.4756  -3.4572  -3.2897  -3.0431  -2.9814  -2.9708  -2.8347  -2.7998
    -2.7824  -2.6607  -2.5089  -2.4579  -2.2626  -2.1865  -2.1221  -1.9364
    -1.7354  -1.7176  -1.6097  -1.3820   3.2014   3.3572   3.5484   3.7823
     3.7973   4.0850   4.1782   4.2104   4.3062   4.3665   4.4530   4.5039
     4.5577   4.5906   4.6996   4.9651   4.9972   5.0800   5.1206   5.2337
     5.2548

          k = 0.2222 0.1166 0.0000 ( 37137 PWs)   bands (ev):

   -71.5022 -70.3331 -70.2785 -70.2572 -70.1500 -70.1467 -43.5622 -42.6027
   -42.4973 -41.8411 -41.8040 -41.7953 -41.7592 -41.7172 -41.6693 -41.6014
   -41.5721 -41.5695 -41.5575 -41.5415 -41.5330 -41.4246 -41.3909 -41.3811
   -19.0645 -18.7832 -18.5735 -18.4338 -18.2416 -18.0785 -17.8787 -17.8370
   -17.7810 -17.6982 -17.5998 -17.4075 -17.3845  -5.7891  -5.7225  -5.4847
    -5.3789  -5.1734  -5.1618  -5.0815  -5.0276  -4.9050  -4.7995  -4.4711
    -4.3590  -4.3162  -4.1448  -4.0345  -3.9987  -3.8681  -3.8434  -3.7050
    -3.5899  -3.4958  -3.3437  -3.2767  -3.1770  -3.0985  -3.0572  -2.9633
    -2.7142  -2.6931  -2.5336  -2.4278  -2.2836  -2.1626  -2.0311  -2.0024
    -1.7563  -1.7188  -1.5965  -1.4291   3.2120   3.2856   3.5771   3.8740
     4.1146   4.1176   4.2219   4.3206   4.3246   4.3622   4.4760   4.6173
     4.6271   4.7264   4.8218   4.9584   5.0070   5.0461   5.0602   5.2113
     5.2722

          k = 0.2222-0.2332 0.0000 ( 37166 PWs)   bands (ev):

   -71.5021 -70.3332 -70.2786 -70.2572 -70.1497 -70.1471 -43.5622 -42.6029
   -42.4970 -41.8404 -41.8040 -41.7948 -41.7592 -41.7174 -41.6692 -41.6013
   -41.5714 -41.5696 -41.5600 -41.5403 -41.5324 -41.4264 -41.3902 -41.3811
   -18.8176 -18.7830 -18.5848 -18.4942 -18.3678 -18.2554 -17.8597 -17.7700
   -17.7647 -17.7256 -17.5894 -17.4050 -17.3903  -5.4866  -5.4741  -5.2819
    -5.2050  -5.1531  -5.1448  -4.9891  -4.8814  -4.7620  -4.6739  -4.5415
    -4.3690  -4.3426  -4.1897  -4.1447  -4.0154  -4.0003  -3.9068  -3.8136
    -3.7753  -3.6700  -3.6014  -3.4807  -3.3863  -3.1168  -3.0742  -3.0113
    -2.9988  -2.6382  -2.6013  -2.3420  -2.2170  -2.1925  -2.0980  -1.8443
    -1.8247  -1.6943  -1.5265  -1.5145   3.2227   3.2453   3.5878   4.1034
     4.1493   4.2330   4.2370   4.3498   4.3889   4.5616   4.6300   4.6686
     4.7534   4.7621   4.9210   4.9449   4.9832   5.0290   5.0494   5.0628
     5.1017

          k = 0.3333 0.0000 0.0000 ( 37184 PWs)   bands (ev):

   -71.4974 -70.3277 -70.2732 -70.2520 -70.1445 -70.1414 -43.5573 -42.6629
   -42.4862 -41.8748 -41.8356 -41.7898 -41.7543 -41.7125 -41.6649 -41.6395
   -41.6092 -41.6032 -41.5881 -41.5563 -41.5427 -41.4593 -41.4102 -41.3682
   -18.7582 -18.5302 -18.3835 -18.0659 -18.0041 -17.9285 -17.9203 -17.8500
   -17.8166 -17.6890 -17.6498 -17.4330 -17.4052  -5.8706  -5.7242  -5.5301
    -5.4300  -5.4134  -5.2913  -5.1731  -5.0361  -4.8490  -4.8409  -4.6948
    -4.5673  -4.3923  -4.3084  -4.1277  -4.0869  -4.0500  -3.8670  -3.7733
    -3.7599  -3.5715  -3.4927  -3.2014  -3.1091  -3.0101  -2.8563  -2.8559
    -2.7570  -2.6658  -2.6618  -2.4078  -2.3041  -2.2554  -2.1933  -2.0672
    -1.9794  -1.8724  -1.6610  -1.6328   3.2474   3.3536   3.6795   3.8789
     3.9669   4.1822   4.2240   4.3488   4.3685   4.5370   4.6042   4.6053
     4.6506   4.6614   4.7525   4.8641   4.8836   4.9925   5.0112   5.1634
     5.2144

          k = 0.3333 0.1166 0.0000 ( 37206 PWs)   bands (ev):

   -71.4974 -70.3277 -70.2732 -70.2519 -70.1443 -70.1415 -43.5573 -42.6631
   -42.4863 -41.8748 -41.8364 -41.7908 -41.7543 -41.7124 -41.6649 -41.6382
   -41.6100 -41.6019 -41.5881 -41.5563 -41.5427 -41.4604 -41.4097 -41.3682
   -18.6797 -18.4674 -18.3378 -18.2075 -18.0865 -18.0102 -17.8353 -17.8264
   -17.8047 -17.7033 -17.6388 -17.4412 -17.4286  -5.6103  -5.5213  -5.4693
    -5.3028  -5.2918  -5.2388  -5.1170  -5.0812  -4.9243  -4.8081  -4.6658
    -4.5658  -4.5086  -4.3662  -4.2042  -4.1001  -3.9807  -3.9048  -3.8401
    -3.7156  -3.6431  -3.4680  -3.3867  -3.2648  -3.0471  -3.0047  -2.9871
    -2.8189  -2.6767  -2.6042  -2.4120  -2.3697  -2.2998  -2.1463  -2.0930
    -1.9946  -1.8237  -1.6862  -1.6128   3.2347   3.3255   3.7112   3.8356
     4.0505   4.1113   4.2321   4.2501   4.3527   4.3820   4.4292   4.6037
     4.6940   4.7990   4.8899   4.9153   4.9706   5.0184   5.0640   5.1485
     5.2195

          k = 0.3333-0.2332 0.0000 ( 37216 PWs)   bands (ev):

   -71.4973 -70.3277 -70.2732 -70.2518 -70.1441 -70.1417 -43.5573 -42.6633
   -42.4864 -41.8748 -41.8373 -41.7919 -41.7543 -41.7124 -41.6649 -41.6369
   -41.6108 -41.6006 -41.5881 -41.5563 -41.5426 -41.4615 -41.4093 -41.3681
   -18.4836 -18.4684 -18.3420 -18.2615 -18.2102 -18.0839 -17.8032 -17.7991
   -17.7655 -17.7554 -17.6238 -17.4739 -17.4296  -5.4179  -5.3902  -5.1899
    -5.1863  -5.1426  -5.0984  -5.0665  -4.9716  -4.8937  -4.8785  -4.6885
    -4.6586  -4.5065  -4.3754  -4.3517  -4.0844  -4.0551  -4.0124  -3.9656
    -3.9467  -3.6331  -3.5577  -3.4326  -3.2928  -3.2650  -3.0945  -2.9631
    -2.8980  -2.7568  -2.5492  -2.4625  -2.3391  -2.2724  -2.2315  -2.0604
    -1.9888  -1.7998  -1.6593  -1.6208   3.2542   3.2683   3.7325   3.9322
     4.0409   4.0426   4.1137   4.2154   4.3764   4.4422   4.4636   4.5056
     4.5392   4.7138   4.8783   4.9924   5.0447   5.0495   5.0784   5.1733
     5.1948

          k = 0.4444 0.0000 0.0000 ( 37180 PWs)   bands (ev):

   -71.4938 -70.3236 -70.2692 -70.2480 -70.1401 -70.1376 -43.5542 -42.7027
   -42.4789 -41.9216 -41.8317 -41.7860 -41.7512 -41.7096 -41.6835 -41.6680
   -41.6492 -41.6462 -41.5799 -41.5488 -41.5352 -41.5039 -41.4020 -41.3597
   -18.3848 -18.2688 -18.1922 -18.0216 -17.9590 -17.9479 -17.9137 -17.8309
   -17.7979 -17.7379 -17.6539 -17.4339 -17.4235  -5.8623  -5.6555  -5.5961
    -5.3992  -5.3860  -5.2788  -5.1760  -5.1401  -5.0658  -4.9395  -4.7565
    -4.6662  -4.5892  -4.3086  -4.2219  -4.1480  -3.9697  -3.7759  -3.6798
    -3.6750  -3.5302  -3.5086  -3.4198  -3.3259  -3.2373  -2.9528  -2.8144
    -2.7908  -2.7596  -2.7160  -2.4909  -2.3559  -2.3393  -2.2450  -2.1288
    -2.0484  -1.9116  -1.8254  -1.5654   3.3084   3.3739   3.7848   4.0293
     4.0628   4.2791   4.3154   4.3257   4.4394   4.4692   4.5841   4.6378
     4.6416   4.6966   4.8275   4.8293   4.8956   4.9590   5.0384   5.1487
     5.1949

          k = 0.4444 0.1166 0.0000 ( 37248 PWs)   bands (ev):

   -71.4937 -70.3235 -70.2692 -70.2478 -70.1400 -70.1376 -43.5542 -42.7030
   -42.4792 -41.9216 -41.8339 -41.7885 -41.7512 -41.7094 -41.6814 -41.6682
   -41.6470 -41.6464 -41.5799 -41.5488 -41.5349 -41.5047 -41.4017 -41.3598
   -18.3383 -18.2312 -18.1802 -18.0776 -17.9998 -17.9611 -17.8973 -17.8268
   -17.7809 -17.7112 -17.6720 -17.4769 -17.4338  -5.7619  -5.6537  -5.5302
    -5.4247  -5.3440  -5.2182  -5.1661  -5.0927  -5.0169  -4.8186  -4.7167
    -4.6897  -4.3906  -4.2138  -4.1955  -4.1371  -4.0141  -3.8578  -3.8457
    -3.7564  -3.6527  -3.5494  -3.5328  -3.3869  -3.0673  -3.0103  -2.9104
    -2.8616  -2.6287  -2.5796  -2.5069  -2.4184  -2.3874  -2.3222  -2.1960
    -2.0356  -2.0015  -1.8990  -1.6097   3.2657   3.3798   3.8012   3.9220
     4.0488   4.1133   4.1493   4.2009   4.3206   4.4046   4.4743   4.5387
     4.5793   4.6227   4.8124   4.9330   5.0041   5.0640   5.1031   5.1567
     5.1955

          k = 0.4444-0.2332 0.0000 ( 37264 PWs)   bands (ev):

   -71.4936 -70.3235 -70.2691 -70.2477 -70.1398 -70.1375 -43.5542 -42.7033
   -42.4795 -41.9216 -41.8360 -41.7908 -41.7512 -41.7093 -41.6793 -41.6685
   -41.6471 -41.6445 -41.5799 -41.5488 -41.5347 -41.5054 -41.4013 -41.3598
   -18.2298 -18.2184 -18.1782 -18.1159 -18.0910 -17.9662 -17.8710 -17.8448
   -17.7363 -17.7119 -17.6456 -17.5655 -17.4337  -5.7194  -5.6889  -5.5423
    -5.3570  -5.3386  -5.1140  -4.9745  -4.9583  -4.9515  -4.6793  -4.5356
    -4.4614  -4.4262  -4.3788  -4.3625  -4.1982  -4.1215  -3.9945  -3.9405
    -3.7123  -3.6904  -3.6149  -3.5151  -3.4261  -3.2226  -3.0275  -2.9219
    -2.7347  -2.6025  -2.5976  -2.5279  -2.4990  -2.4184  -2.2299  -2.2127
    -2.1991  -2.0660  -1.8224  -1.7580   3.2947   3.3765   3.7892   3.8120
     3.9435   3.9623   4.0144   4.1185   4.3148   4.3313   4.3806   4.4396
     4.5063   4.6956   4.7747   4.9653   4.9716   5.0893   5.1822   5.2140
     5.2458

     the Fermi energy is    -0.3967 ev

!    total energy              =   -1592.88487690 Ry
     estimated scf accuracy    <       0.00000036 Ry
     smearing contrib. (-TS)   =       0.00098069 Ry
     internal energy E=F+TS    =   -1592.88585758 Ry

     The total energy is F=E-TS. E is the sum of the following terms:
     one-electron contribution =  -15388.81176289 Ry
     hartree contribution      =    7718.58537723 Ry
     xc contribution           =    -231.12057511 Ry
     ewald contribution        =    6430.23021552 Ry
     Hubbard energy            =       2.00474710 Ry
     one-center paw contrib.   =    -123.77385943 Ry

     total magnetization       =    10.00 Bohr mag/cell
     absolute magnetization    =    21.92 Bohr mag/cell

     convergence has been achieved in  25 iterations

     negative rho (up, down):  2.657E-03 2.623E-02
     force_hub    :      0.90s CPU      0.91s WALL (       1 calls)
     dndtau       :      0.73s CPU      0.74s WALL (     456 calls)
     dprojdtau    :      0.07s CPU      0.07s WALL (    2736 calls)
     matel_dSdtau :      0.63s CPU      0.64s WALL (     456 calls)

     Forces acting on atoms (cartesian axes, Ry/au):

     atom    1 type  1   force =     0.00000000    0.00000000    0.06137152
     atom    2 type  1   force =     0.00000000    0.00000000   -0.03254257
     atom    3 type  1   force =     0.00000000    0.00000000   -0.00704467
     atom    4 type  1   force =     0.00000000    0.00000000   -0.01434276
     atom    5 type  1   force =     0.00000000    0.00000000   -0.04941322
     atom    6 type  1   force =     0.00000000    0.00000000   -0.02592785
     atom    7 type  2   force =     0.00000000    0.00000000    0.04040758
     atom    8 type  2   force =     0.00000000    0.00000000   -0.01674905
     atom    9 type  2   force =     0.00000000   -0.00441972   -0.03859544
     atom   10 type  2   force =     0.00000000    0.00441972   -0.03859544
     atom   11 type  2   force =     0.00000000    0.00000000    0.02946093
     atom   12 type  2   force =     0.00000000    0.00000000   -0.00853503
     atom   13 type  2   force =     0.00000000   -0.00478420    0.00236347
     atom   14 type  2   force =     0.00000000    0.00478420    0.00236347
     atom   15 type  2   force =     0.00000000    0.00000000    0.03703634
     atom   16 type  2   force =     0.00000000    0.00000000    0.00603001
     atom   17 type  2   force =     0.00000000    0.00177168    0.00227402
     atom   18 type  2   force =     0.00000000   -0.00177168    0.00227402
     atom   19 type  2   force =     0.00000000    0.00000000    0.04816467

     Total force =     0.089659     Total SCF correction =     0.000990

     Writing all to output data dir ./tmp_s0_O__u600/s0_O__u600.save/ :
     XML data file, charge density, pseudopotentials, collected wavefunctions

     init_run     :      2.65s CPU      2.80s WALL (       1 calls)
     electrons    :    147.95s CPU    149.55s WALL (       1 calls)
     forces       :      1.70s CPU      1.73s WALL (       1 calls)

     Called by init_run:
     wfcinit      :      1.30s CPU      1.36s WALL (       1 calls)
     potinit      :      0.49s CPU      0.52s WALL (       1 calls)
     hinit0       :      0.49s CPU      0.53s WALL (       1 calls)

     Called by electrons:
     c_bands      :    110.89s CPU    112.02s WALL (      25 calls)
     sum_band     :     20.91s CPU     21.16s WALL (      25 calls)
     v_of_rho     :      3.43s CPU      3.47s WALL (      26 calls)
     newd         :      2.22s CPU      2.27s WALL (      26 calls)
     PAW_pot      :      5.15s CPU      5.17s WALL (      26 calls)
     mix_rho      :      3.49s CPU      3.54s WALL (      25 calls)

     Called by c_bands:
     init_us_2    :      1.22s CPU      1.24s WALL (     432 calls)
     cegterg      :     64.85s CPU     65.68s WALL (     200 calls)

     Called by *egterg:
     cdiaghg      :      7.96s CPU      8.01s WALL (     828 calls)
     h_psi        :     40.63s CPU     41.32s WALL (     836 calls)
     s_psi        :      2.58s CPU      2.60s WALL (     852 calls)
     g_psi        :      0.19s CPU      0.19s WALL (     628 calls)

     Called by h_psi:
     h_psi:calbec :      4.69s CPU      4.73s WALL (     836 calls)
     vloc_psi     :     30.74s CPU     31.35s WALL (     836 calls)
                                        0.00s GPU  (     836 calls)
     add_vuspsi   :      2.43s CPU      2.45s WALL (     836 calls)
     vhpsi        :      2.53s CPU      2.54s WALL (     836 calls)

     General routines
     calbec       :     10.44s CPU     10.53s WALL (    3952 calls)
     fft          :      2.98s CPU      3.04s WALL (     663 calls)
     ffts         :      2.27s CPU      2.29s WALL (    3054 calls)
     fftw         :     36.59s CPU     37.26s WALL (  103352 calls)
     interpolate  :      0.51s CPU      0.51s WALL (      52 calls)

     Parallel routines

     Hubbard U routines
     new_ns       :      1.02s CPU      1.03s WALL (      25 calls)
     vhpsi        :      2.53s CPU      2.54s WALL (     836 calls)
     force_hub    :      0.90s CPU      0.91s WALL (       1 calls)

     PWSCF        :   2m33.08s CPU   2m35.12s WALL


   This run was terminated on:   4:56:35  28Aug2026            

=------------------------------------------------------------------------------=
   JOB DONE.
=------------------------------------------------------------------------------=
Note: The following floating-point exceptions are signalling: IEEE_DENORMAL
Note: The following floating-point exceptions are signalling: IEEE_DENORMAL
Note: The following floating-point exceptions are signalling: IEEE_DENORMAL
Note: The following floating-point exceptions are signalling: IEEE_DENORMAL
Note: The following floating-point exceptions are signalling: IEEE_DENORMAL
Note: The following floating-point exceptions are signalling: IEEE_DENORMAL
Note: The following floating-point exceptions are signalling: IEEE_DENORMAL
Note: The following floating-point exceptions are signalling: IEEE_DENORMAL
Note: The following floating-point exceptions are signalling: IEEE_DENORMAL
Note: The following floating-point exceptions are signalling: IEEE_DENORMAL
Note: The following floating-point exceptions are signalling: IEEE_DENORMAL
Note: The following floating-point exceptions are signalling: IEEE_DENORMAL
Note: The following floating-point exceptions are signalling: IEEE_DENORMAL
Note: The following floating-point exceptions are signalling: IEEE_DENORMAL
Note: The following floating-point exceptions are signalling: IEEE_DENORMAL
Note: The following floating-point exceptions are signalling: IEEE_DENORMAL
Note: The following floating-point exceptions are signalling: IEEE_DENORMAL
Note: The following floating-point exceptions are signalling: IEEE_DENORMAL
Note: The following floating-point exceptions are signalling: IEEE_DENORMAL
Note: The following floating-point exceptions are signalling: IEEE_DENORMAL
Note: The following floating-point exceptions are signalling: IEEE_DENORMAL
Note: The following floating-point exceptions are signalling: IEEE_DENORMAL
