
     Program PWSCF v.7.5 starts on 28Aug2026 at  4:40:59 

     This program is part of the open-source Quantum ESPRESSO suite
     for quantum simulation of materials; please cite
         "P. Giannozzi et al., J. Phys.:Condens. Matter 21 395502 (2009);
         "P. Giannozzi et al., J. Phys.:Condens. Matter 29 465901 (2017);
         "P. Giannozzi et al., J. Chem. Phys. 152 154105 (2020);
          URL http://www.quantum-espresso.org", 
     in publications or presentations arising from this work. More details at
     http://www.quantum-espresso.org/quote

     Parallel version (MPI & OpenMP), running on     128 processor cores
     Number of MPI processes:               128
     Threads/MPI process:                     1

     MPI processes distributed on     1 nodes
     213330 MiB available memory on the printing compute node when the environment starts

     Reading input from s0_O__u200.run.in

     Current dimensions of program PWSCF are:
     Max number of different atomic species (ntypx) = 10
     Max number of k-points (npk) =  40000
     Max angular momentum in pseudopotentials (lmaxx) =  4
     file O.pbe-n-kjpaw_psl.0.1.UPF: wavefunction(s)  2P renormalized
     Message from routine setup:
     using ibrav=0 with symmetry is DISCOURAGED, use correct ibrav instead

     K-points division:     npool     =       4
     R & G space division:  proc/nbgrp/npool/nimage =      32
     Subspace diagonalization in iterative solution of the eigenvalue problem:
     a serial algorithm will be used


     Parallelization info
     --------------------
     sticks:   dense  smooth     PW     G-vecs:    dense   smooth      PW
     Min         103      51     14                26275     9281    1388
     Max         104      52     15                26300     9316    1415
     Sum        3323    1653    471               841263   297421   44917

     Using Slab Decomposition



     bravais-lattice index     =            0
     lattice parameter (alat)  =       5.5104  a.u.
     unit-cell volume          =    3076.9124 (a.u.)^3
     number of atoms/cell      =           19
     number of atomic types    =            2
     number of electrons       =       162.00
     number of Kohn-Sham states=           97
     kinetic-energy cutoff     =      80.0000  Ry
     charge density cutoff     =     640.0000  Ry
     scf convergence threshold =      1.0E-06
     mixing beta               =       0.3000
     number of iterations used =            8  local-TF  mixing
     Exchange-correlation= SLA  PW   PBX  PBC
                           (   1   4   3   4   0   0   0)
     Hubbard projectors: atomic
     Hubbard parameters of DFT+U (Dudarev formulation) in eV:
     U(Cr-3d) =  2.0000

     Internal variables: lda_plus_u =T, lda_plus_u_kind = 0

     Internal variables: orbital_resolved =F, hub_pot_fix =F, apply_U = F

     celldm(1)=   5.510441  celldm(2)=   0.000000  celldm(3)=   0.000000
     celldm(4)=   0.000000  celldm(5)=   0.000000  celldm(6)=   0.000000

     crystal axes: (cart. coord. in units of alat)
               a(1) = (   1.000000   0.000000   0.000000 )  
               a(2) = (   0.000000   2.144115   0.000000 )  
               a(3) = (   0.000000   0.000000   8.576458 )  

     reciprocal axes: (cart. coord. in units 2 pi/alat)
               b(1) = (  1.000000  0.000000  0.000000 )  
               b(2) = (  0.000000  0.466393  0.000000 )  
               b(3) = (  0.000000  0.000000  0.116598 )  


     PseudoPot. # 1 for Cr read from file:
     /anvil/projects/x-che260157/pseudo/cr_pbe_v1.5.uspp.F.UPF
     MD5 check sum: 0d52af634a40206e4dee301ad30da4bf
     Pseudo is Ultrasoft + core correction, Zval = 14.0
     Generated by new atomic code, or converted to UPF format
     Using radial grid of  857 points,  6 beta functions with: 
                l(1) =   0
                l(2) =   0
                l(3) =   1
                l(4) =   1
                l(5) =   2
                l(6) =   2
     Q(r) pseudized with  8 coefficients,  rinner =    0.950   0.950   0.950
                                                       0.950   0.950

     PseudoPot. # 2 for O  read from file:
     /anvil/projects/x-che260157/pseudo/O.pbe-n-kjpaw_psl.0.1.UPF
     MD5 check sum: 0234752ac141de4415c5fc33072bef88
     Pseudo is Projector augmented-wave + core cor, Zval =  6.0
     Generated using "atomic" code by A. Dal Corso  v.5.0.99 svn rev. 10869
     Shape of augmentation charge: BESSEL
     Using radial grid of 1095 points,  4 beta functions with: 
                l(1) =   0
                l(2) =   0
                l(3) =   1
                l(4) =   1
     Q(r) pseudized with 0 coefficients 


     atomic species   valence    mass     pseudopotential
     Cr               14.00    51.99600     Cr( 1.00)
     O                 6.00    15.99900     O ( 1.00)

     Starting magnetic structure 
     atomic species   magnetization
     Cr              0.600
     O               0.000

      4 Sym. Ops. (no inversion) found ( 2 have fractional translation)



   Cartesian axes

     site n.     atom                  positions (alat units)
         1        Cr     tau(   1) = (   0.0000000   0.5360286   3.2161719  )
         2        Cr     tau(   2) = (   0.5000000   1.6080859   3.2161719  )
         3        Cr     tau(   3) = (   0.0000000   1.6080859   4.3022421  )
         4        Cr     tau(   4) = (   0.5000000   0.5360286   4.3080043  )
         5        Cr     tau(   5) = (   0.0000000   0.5360286   5.5110498  )
         6        Cr     tau(   6) = (   0.5000000   1.6080859   5.4126362  )
         7        O      tau(   7) = (   0.0000000   1.6080859   3.6342742  )
         8        O      tau(   8) = (   0.0000000   1.6080859   2.7980695  )
         9        O      tau(   9) = (   0.5000000   0.1179263   3.2161719  )
        10        O      tau(  10) = (   0.5000000   0.9541310   3.2161719  )
        11        O      tau(  11) = (   0.0000000   0.5360286   4.7174134  )
        12        O      tau(  12) = (   0.0000000   0.5360286   3.8701268  )
        13        O      tau(  13) = (   0.5000000   1.1863983   4.2957045  )
        14        O      tau(  14) = (   0.5000000   2.0297736   4.2957045  )
        15        O      tau(  15) = (   0.0000000   1.6080859   5.7884957  )
        16        O      tau(  16) = (   0.0000000   1.6080859   4.9568390  )
        17        O      tau(  17) = (   0.5000000   0.1288223   5.3923177  )
        18        O      tau(  18) = (   0.5000000   0.9432350   5.3923177  )
        19        O      tau(  19) = (   0.0000000   0.5360286   6.0500055  )

     number of k points=    15  Marzari-Vanderbilt smearing, width (Ry)=  0.0100
                       cart. coord. in units 2pi/alat
        k(    1) = (   0.0000000   0.0000000   0.0000000), wk =   0.0277778
        k(    2) = (   0.0000000   0.1165982   0.0000000), wk =   0.0555556
        k(    3) = (   0.0000000  -0.2331965   0.0000000), wk =   0.0277778
        k(    4) = (   0.1111111   0.0000000   0.0000000), wk =   0.0555556
        k(    5) = (   0.1111111   0.1165982   0.0000000), wk =   0.1111111
        k(    6) = (   0.1111111  -0.2331965   0.0000000), wk =   0.0555556
        k(    7) = (   0.2222222   0.0000000   0.0000000), wk =   0.0555556
        k(    8) = (   0.2222222   0.1165982   0.0000000), wk =   0.1111111
        k(    9) = (   0.2222222  -0.2331965   0.0000000), wk =   0.0555556
        k(   10) = (   0.3333333   0.0000000   0.0000000), wk =   0.0555556
        k(   11) = (   0.3333333   0.1165982   0.0000000), wk =   0.1111111
        k(   12) = (   0.3333333  -0.2331965   0.0000000), wk =   0.0555556
        k(   13) = (   0.4444444   0.0000000   0.0000000), wk =   0.0555556
        k(   14) = (   0.4444444   0.1165982   0.0000000), wk =   0.1111111
        k(   15) = (   0.4444444  -0.2331965   0.0000000), wk =   0.0555556

     Dense  grid:   841263 G-vectors     FFT dimensions: (  45,  96, 384)

     Smooth grid:   297421 G-vectors     FFT dimensions: (  32,  72, 270)

     Estimated max dynamical RAM per process >      76.11 MB

     Estimated total dynamical RAM >       8.31 GB

     Check: negative core charge=   -0.000001
     Generating pointlists ...
     new r_m :   0.2223 (alat units)  1.2251 (a.u.) for type    1
     new r_m :   0.2223 (alat units)  1.2251 (a.u.) for type    2

     Initial potential from superposition of free atoms

     starting charge     155.9999, renormalised to     162.0000

     negative rho (up, down):  4.305E-03 1.055E-03

     STARTING HUBBARD OCCUPATIONS:

     =================== HUBBARD OCCUPATIONS ===================
     ------------------------ ATOM    1 ------------------------
     Tr[ns(  1)] (up, down, total) =   3.40000  0.00000  3.40000
     Atomic magnetic moment for atom   1 =   3.40000
     SPIN  1
     eigenvalues:
       0.680  0.680  0.680  0.680  0.680
     eigenvectors (columns):
       1.000  0.000  0.000  0.000  0.000
       0.000  1.000  0.000  0.000  0.000
       0.000  0.000  1.000  0.000  0.000
       0.000  0.000  0.000  1.000  0.000
       0.000  0.000  0.000  0.000  1.000
     occupation matrix ns (before diag.):
       0.680  0.000  0.000  0.000  0.000
       0.000  0.680  0.000  0.000  0.000
       0.000  0.000  0.680  0.000  0.000
       0.000  0.000  0.000  0.680  0.000
       0.000  0.000  0.000  0.000  0.680
     SPIN  2
     eigenvalues:
       0.000  0.000  0.000  0.000  0.000
     eigenvectors (columns):
       1.000  0.000  0.000  0.000  0.000
       0.000  1.000  0.000  0.000  0.000
       0.000  0.000  1.000  0.000  0.000
       0.000  0.000  0.000  1.000  0.000
       0.000  0.000  0.000  0.000  1.000
     occupation matrix ns (before diag.):
       0.000  0.000  0.000  0.000  0.000
       0.000  0.000  0.000  0.000  0.000
       0.000  0.000  0.000  0.000  0.000
       0.000  0.000  0.000  0.000  0.000
       0.000  0.000  0.000  0.000  0.000
     ------------------------ ATOM    2 ------------------------
     Tr[ns(  2)] (up, down, total) =   3.40000  0.00000  3.40000
     Atomic magnetic moment for atom   2 =   3.40000
     SPIN  1
     eigenvalues:
       0.680  0.680  0.680  0.680  0.680
     eigenvectors (columns):
       1.000  0.000  0.000  0.000  0.000
       0.000  1.000  0.000  0.000  0.000
       0.000  0.000  1.000  0.000  0.000
       0.000  0.000  0.000  1.000  0.000
       0.000  0.000  0.000  0.000  1.000
     occupation matrix ns (before diag.):
       0.680  0.000  0.000  0.000  0.000
       0.000  0.680  0.000  0.000  0.000
       0.000  0.000  0.680  0.000  0.000
       0.000  0.000  0.000  0.680  0.000
       0.000  0.000  0.000  0.000  0.680
     SPIN  2
     eigenvalues:
       0.000  0.000  0.000  0.000  0.000
     eigenvectors (columns):
       1.000  0.000  0.000  0.000  0.000
       0.000  1.000  0.000  0.000  0.000
       0.000  0.000  1.000  0.000  0.000
       0.000  0.000  0.000  1.000  0.000
       0.000  0.000  0.000  0.000  1.000
     occupation matrix ns (before diag.):
       0.000  0.000  0.000  0.000  0.000
       0.000  0.000  0.000  0.000  0.000
       0.000  0.000  0.000  0.000  0.000
       0.000  0.000  0.000  0.000  0.000
       0.000  0.000  0.000  0.000  0.000
     ------------------------ ATOM    3 ------------------------
     Tr[ns(  3)] (up, down, total) =   3.40000  0.00000  3.40000
     Atomic magnetic moment for atom   3 =   3.40000
     SPIN  1
     eigenvalues:
       0.680  0.680  0.680  0.680  0.680
     eigenvectors (columns):
       1.000  0.000  0.000  0.000  0.000
       0.000  1.000  0.000  0.000  0.000
       0.000  0.000  1.000  0.000  0.000
       0.000  0.000  0.000  1.000  0.000
       0.000  0.000  0.000  0.000  1.000
     occupation matrix ns (before diag.):
       0.680  0.000  0.000  0.000  0.000
       0.000  0.680  0.000  0.000  0.000
       0.000  0.000  0.680  0.000  0.000
       0.000  0.000  0.000  0.680  0.000
       0.000  0.000  0.000  0.000  0.680
     SPIN  2
     eigenvalues:
       0.000  0.000  0.000  0.000  0.000
     eigenvectors (columns):
       1.000  0.000  0.000  0.000  0.000
       0.000  1.000  0.000  0.000  0.000
       0.000  0.000  1.000  0.000  0.000
       0.000  0.000  0.000  1.000  0.000
       0.000  0.000  0.000  0.000  1.000
     occupation matrix ns (before diag.):
       0.000  0.000  0.000  0.000  0.000
       0.000  0.000  0.000  0.000  0.000
       0.000  0.000  0.000  0.000  0.000
       0.000  0.000  0.000  0.000  0.000
       0.000  0.000  0.000  0.000  0.000
     ------------------------ ATOM    4 ------------------------
     Tr[ns(  4)] (up, down, total) =   3.40000  0.00000  3.40000
     Atomic magnetic moment for atom   4 =   3.40000
     SPIN  1
     eigenvalues:
       0.680  0.680  0.680  0.680  0.680
     eigenvectors (columns):
       1.000  0.000  0.000  0.000  0.000
       0.000  1.000  0.000  0.000  0.000
       0.000  0.000  1.000  0.000  0.000
       0.000  0.000  0.000  1.000  0.000
       0.000  0.000  0.000  0.000  1.000
     occupation matrix ns (before diag.):
       0.680  0.000  0.000  0.000  0.000
       0.000  0.680  0.000  0.000  0.000
       0.000  0.000  0.680  0.000  0.000
       0.000  0.000  0.000  0.680  0.000
       0.000  0.000  0.000  0.000  0.680
     SPIN  2
     eigenvalues:
       0.000  0.000  0.000  0.000  0.000
     eigenvectors (columns):
       1.000  0.000  0.000  0.000  0.000
       0.000  1.000  0.000  0.000  0.000
       0.000  0.000  1.000  0.000  0.000
       0.000  0.000  0.000  1.000  0.000
       0.000  0.000  0.000  0.000  1.000
     occupation matrix ns (before diag.):
       0.000  0.000  0.000  0.000  0.000
       0.000  0.000  0.000  0.000  0.000
       0.000  0.000  0.000  0.000  0.000
       0.000  0.000  0.000  0.000  0.000
       0.000  0.000  0.000  0.000  0.000
     ------------------------ ATOM    5 ------------------------
     Tr[ns(  5)] (up, down, total) =   3.40000  0.00000  3.40000
     Atomic magnetic moment for atom   5 =   3.40000
     SPIN  1
     eigenvalues:
       0.680  0.680  0.680  0.680  0.680
     eigenvectors (columns):
       1.000  0.000  0.000  0.000  0.000
       0.000  1.000  0.000  0.000  0.000
       0.000  0.000  1.000  0.000  0.000
       0.000  0.000  0.000  1.000  0.000
       0.000  0.000  0.000  0.000  1.000
     occupation matrix ns (before diag.):
       0.680  0.000  0.000  0.000  0.000
       0.000  0.680  0.000  0.000  0.000
       0.000  0.000  0.680  0.000  0.000
       0.000  0.000  0.000  0.680  0.000
       0.000  0.000  0.000  0.000  0.680
     SPIN  2
     eigenvalues:
       0.000  0.000  0.000  0.000  0.000
     eigenvectors (columns):
       1.000  0.000  0.000  0.000  0.000
       0.000  1.000  0.000  0.000  0.000
       0.000  0.000  1.000  0.000  0.000
       0.000  0.000  0.000  1.000  0.000
       0.000  0.000  0.000  0.000  1.000
     occupation matrix ns (before diag.):
       0.000  0.000  0.000  0.000  0.000
       0.000  0.000  0.000  0.000  0.000
       0.000  0.000  0.000  0.000  0.000
       0.000  0.000  0.000  0.000  0.000
       0.000  0.000  0.000  0.000  0.000
     ------------------------ ATOM    6 ------------------------
     Tr[ns(  6)] (up, down, total) =   3.40000  0.00000  3.40000
     Atomic magnetic moment for atom   6 =   3.40000
     SPIN  1
     eigenvalues:
       0.680  0.680  0.680  0.680  0.680
     eigenvectors (columns):
       1.000  0.000  0.000  0.000  0.000
       0.000  1.000  0.000  0.000  0.000
       0.000  0.000  1.000  0.000  0.000
       0.000  0.000  0.000  1.000  0.000
       0.000  0.000  0.000  0.000  1.000
     occupation matrix ns (before diag.):
       0.680  0.000  0.000  0.000  0.000
       0.000  0.680  0.000  0.000  0.000
       0.000  0.000  0.680  0.000  0.000
       0.000  0.000  0.000  0.680  0.000
       0.000  0.000  0.000  0.000  0.680
     SPIN  2
     eigenvalues:
       0.000  0.000  0.000  0.000  0.000
     eigenvectors (columns):
       1.000  0.000  0.000  0.000  0.000
       0.000  1.000  0.000  0.000  0.000
       0.000  0.000  1.000  0.000  0.000
       0.000  0.000  0.000  1.000  0.000
       0.000  0.000  0.000  0.000  1.000
     occupation matrix ns (before diag.):
       0.000  0.000  0.000  0.000  0.000
       0.000  0.000  0.000  0.000  0.000
       0.000  0.000  0.000  0.000  0.000
       0.000  0.000  0.000  0.000  0.000
       0.000  0.000  0.000  0.000  0.000

     Number of occupied Hubbard levels =   20.4000

     Atomic wfc used for Hubbard projectors are NOT orthogonalized

     Starting wfcs are  112 randomized atomic wfcs
     Checking if some PAW data can be deallocated... 

     total cpu time spent up to now is        3.1 secs

     per-process dynamical memory:   104.6 Mb

     Self-consistent Calculation

     iteration #  1     ecut=    80.00 Ry     beta= 0.30
     Davidson diagonalization with overlap
     ethr =  1.00E-02,  avg # of iterations =  4.5

     =================== HUBBARD OCCUPATIONS ===================
     ------------------------ ATOM    1 ------------------------
     Tr[ns(  1)] (up, down, total) =   4.17273  0.52998  4.70271
     Atomic magnetic moment for atom   1 =   3.64275
     SPIN  1
     eigenvalues:
       0.416  0.807  0.975  0.985  0.990
     eigenvectors (columns):
      -0.000 -0.992  0.123  0.000 -0.000
      -0.000 -0.000 -0.000  0.000 -1.000
      -0.000 -0.000 -0.000  1.000  0.000
       0.000  0.123  0.992  0.000 -0.000
       1.000 -0.000 -0.000  0.000 -0.000
     occupation matrix ns (before diag.):
       0.810 -0.000 -0.000  0.020  0.000
      -0.000  0.990 -0.000  0.000  0.000
      -0.000 -0.000  0.985  0.000  0.000
       0.020  0.000  0.000  0.972 -0.000
       0.000  0.000  0.000 -0.000  0.416
     SPIN  2
     eigenvalues:
       0.054  0.066  0.068  0.141  0.202
     eigenvectors (columns):
      -0.000 -0.000  0.216 -0.976  0.000
      -0.000  1.000  0.000  0.000  0.000
      -1.000 -0.000  0.000  0.000  0.000
       0.000 -0.000  0.976  0.216 -0.000
       0.000 -0.000  0.000  0.000  1.000
     occupation matrix ns (before diag.):
       0.137 -0.000 -0.000 -0.015  0.000
      -0.000  0.066 -0.000  0.000  0.000
      -0.000 -0.000  0.054  0.000  0.000
      -0.015  0.000  0.000  0.071 -0.000
       0.000  0.000  0.000 -0.000  0.202
     ------------------------ ATOM    2 ------------------------
     Tr[ns(  2)] (up, down, total) =   3.76315  0.63558  4.39874
     Atomic magnetic moment for atom   2 =   3.12757
     SPIN  1
     eigenvalues:
       0.431  0.436  0.958  0.965  0.973
     eigenvectors (columns):
      -0.000 -0.450  0.000  0.000 -0.893
       1.000 -0.000 -0.000 -0.000  0.000
       0.000  0.000  0.000  1.000  0.000
      -0.000 -0.893 -0.000 -0.000  0.450
      -0.000 -0.000 -1.000  0.000 -0.000
     occupation matrix ns (before diag.):
       0.865 -0.000 -0.000 -0.216  0.000
      -0.000  0.431 -0.000  0.000  0.000
      -0.000 -0.000  0.965  0.000  0.000
      -0.216  0.000  0.000  0.545 -0.000
       0.000  0.000  0.000 -0.000  0.958
     SPIN  2
     eigenvalues:
       0.068  0.076  0.080  0.201  0.209
     eigenvectors (columns):
       0.000  0.928  0.000  0.373 -0.000
       0.000  0.000 -0.000 -0.000 -1.000
       1.000 -0.000  0.000  0.000  0.000
      -0.000 -0.373 -0.000  0.928 -0.000
      -0.000 -0.000  1.000 -0.000 -0.000
     occupation matrix ns (before diag.):
       0.094 -0.000 -0.000  0.043  0.000
      -0.000  0.209 -0.000  0.000  0.000
      -0.000 -0.000  0.068  0.000  0.000
       0.043  0.000  0.000  0.184 -0.000
       0.000  0.000  0.000 -0.000  0.080
     ------------------------ ATOM    3 ------------------------
     Tr[ns(  3)] (up, down, total) =   3.31530  0.60384  3.91914
     Atomic magnetic moment for atom   3 =   2.71146
     SPIN  1
     eigenvalues:
       0.399  0.417  0.724  0.808  0.968
     eigenvectors (columns):
      -0.000  0.999 -0.000  0.000 -0.038
      -0.000  0.000  0.000 -1.000 -0.000
      -0.000  0.000  1.000  0.000 -0.000
       0.000 -0.038 -0.000  0.000 -0.999
       1.000  0.000  0.000 -0.000  0.000
     occupation matrix ns (before diag.):
       0.418 -0.000 -0.000  0.021  0.000
      -0.000  0.808 -0.000  0.000  0.000
      -0.000 -0.000  0.724  0.000  0.000
       0.021  0.000  0.000  0.967 -0.000
       0.000  0.000  0.000 -0.000  0.399
     SPIN  2
     eigenvalues:
       0.067  0.068  0.076  0.196  0.197
     eigenvectors (columns):
      -0.119  0.000 -0.000  0.000 -0.993
       0.000  0.000 -1.000 -0.000  0.000
       0.000  1.000  0.000 -0.000  0.000
      -0.993  0.000 -0.000 -0.000  0.119
      -0.000 -0.000  0.000 -1.000 -0.000
     occupation matrix ns (before diag.):
       0.196 -0.000 -0.000 -0.015  0.000
      -0.000  0.076 -0.000  0.000  0.000
      -0.000 -0.000  0.068  0.000  0.000
      -0.015  0.000  0.000  0.069 -0.000
       0.000  0.000  0.000 -0.000  0.196
     ------------------------ ATOM    4 ------------------------
     Tr[ns(  4)] (up, down, total) =   2.79763  0.62455  3.42218
     Atomic magnetic moment for atom   4 =   2.17307
     SPIN  1
     eigenvalues:
       0.426  0.433  0.566  0.677  0.697
     eigenvectors (columns):
       0.482  0.000 -0.000 -0.876  0.000
      -0.000  1.000  0.000  0.000  0.000
      -0.000  0.000 -1.000  0.000  0.000
       0.876  0.000  0.000  0.482 -0.000
       0.000 -0.000  0.000  0.000  1.000
     occupation matrix ns (before diag.):
       0.618 -0.000 -0.000 -0.106  0.000
      -0.000  0.433 -0.000  0.000  0.000
      -0.000 -0.000  0.566  0.000  0.000
      -0.106  0.000  0.000  0.484 -0.000
       0.000  0.000  0.000 -0.000  0.697
     SPIN  2
     eigenvalues:
       0.070  0.073  0.080  0.201  0.201
     eigenvectors (columns):
       0.000  0.923  0.000  0.000 -0.384
       0.000  0.000 -0.000 -1.000 -0.000
       1.000 -0.000  0.000  0.000 -0.000
      -0.000 -0.384 -0.000  0.000 -0.923
      -0.000 -0.000  1.000 -0.000  0.000
     occupation matrix ns (before diag.):
       0.092 -0.000 -0.000  0.045  0.000
      -0.000  0.201 -0.000  0.000  0.000
      -0.000 -0.000  0.070  0.000  0.000
       0.045  0.000  0.000  0.182 -0.000
       0.000  0.000  0.000 -0.000  0.080
     ------------------------ ATOM    5 ------------------------
     Tr[ns(  5)] (up, down, total) =   1.81101  0.70490  2.51591
     Atomic magnetic moment for atom   5 =   1.10611
     SPIN  1
     eigenvalues:
       0.143  0.353  0.407  0.419  0.489
     eigenvectors (columns):
      -0.044 -0.000 -0.000  0.000  0.999
       0.000 -0.000 -0.000  1.000 -0.000
       0.000 -0.000 -1.000 -0.000 -0.000
      -0.999 -0.000 -0.000  0.000 -0.044
      -0.000  1.000 -0.000  0.000  0.000
     occupation matrix ns (before diag.):
       0.488 -0.000 -0.000 -0.015  0.000
      -0.000  0.419 -0.000  0.000  0.000
      -0.000 -0.000  0.407  0.000  0.000
      -0.015  0.000  0.000  0.144 -0.000
       0.000  0.000  0.000 -0.000  0.353
     SPIN  2
     eigenvalues:
       0.061  0.102  0.115  0.179  0.246
     eigenvectors (columns):
      -0.091  0.000 -0.000  0.000 -0.996
       0.000  1.000  0.000 -0.000  0.000
       0.000  0.000 -1.000 -0.000  0.000
      -0.996  0.000 -0.000  0.000  0.091
      -0.000 -0.000  0.000 -1.000 -0.000
     occupation matrix ns (before diag.):
       0.245 -0.000 -0.000 -0.017  0.000
      -0.000  0.102 -0.000  0.000  0.000
      -0.000 -0.000  0.115  0.000  0.000
      -0.017  0.000  0.000  0.063 -0.000
       0.000  0.000  0.000 -0.000  0.179
     ------------------------ ATOM    6 ------------------------
     Tr[ns(  6)] (up, down, total) =   1.48559  0.62061  2.10620
     Atomic magnetic moment for atom   6 =   0.86499
     SPIN  1
     eigenvalues:
       0.222  0.241  0.242  0.378  0.404
     eigenvectors (columns):
       0.000  0.965  0.000  0.263 -0.000
       0.000  0.000 -0.000 -0.000 -1.000
       1.000 -0.000  0.000  0.000  0.000
      -0.000 -0.263 -0.000  0.965 -0.000
      -0.000 -0.000  1.000 -0.000 -0.000
     occupation matrix ns (before diag.):
       0.250 -0.000 -0.000  0.035  0.000
      -0.000  0.404 -0.000  0.000  0.000
      -0.000 -0.000  0.222  0.000  0.000
       0.035  0.000  0.000  0.368 -0.000
       0.000  0.000  0.000 -0.000  0.242
     SPIN  2
     eigenvalues:
       0.063  0.080  0.081  0.193  0.203
     eigenvectors (columns):
       0.000 -0.000  0.947  0.320 -0.000
       0.000 -0.000  0.000 -0.000 -1.000
       1.000  0.000 -0.000  0.000  0.000
      -0.000  0.000 -0.320  0.947 -0.000
      -0.000  1.000  0.000 -0.000 -0.000
     occupation matrix ns (before diag.):
       0.092 -0.000 -0.000  0.034  0.000
      -0.000  0.203 -0.000  0.000  0.000
      -0.000 -0.000  0.063  0.000  0.000
       0.034  0.000  0.000  0.182 -0.000
       0.000  0.000  0.000 -0.000  0.080

     Number of occupied Hubbard levels =   21.0649

     negative rho (up, down):  4.280E-03 5.785E-03

     total cpu time spent up to now is       10.0 secs

     total energy              =   -1592.73093487 Ry
     estimated scf accuracy    <      32.27062243 Ry

     total magnetization       =    11.31 Bohr mag/cell
     absolute magnetization    =    16.20 Bohr mag/cell

     iteration #  2     ecut=    80.00 Ry     beta= 0.30
     Davidson diagonalization with overlap
     ethr =  1.00E-02,  avg # of iterations =  1.0

     negative rho (up, down):  5.631E-03 1.674E-02

     total cpu time spent up to now is       14.3 secs

     total energy              =   -1592.68936971 Ry
     estimated scf accuracy    <      23.24951130 Ry

     total magnetization       =    12.14 Bohr mag/cell
     absolute magnetization    =    16.93 Bohr mag/cell

     iteration #  3     ecut=    80.00 Ry     beta= 0.30
     Davidson diagonalization with overlap
     ethr =  1.00E-02,  avg # of iterations =  3.0

     negative rho (up, down):  5.044E-03 1.787E-02

     total cpu time spent up to now is       21.8 secs

     total energy              =   -1593.68955798 Ry
     estimated scf accuracy    <       5.02182925 Ry

     total magnetization       =    10.72 Bohr mag/cell
     absolute magnetization    =    19.50 Bohr mag/cell

     iteration #  4     ecut=    80.00 Ry     beta= 0.30
     Davidson diagonalization with overlap
     ethr =  3.10E-03,  avg # of iterations =  1.7

     negative rho (up, down):  7.841E-03 2.871E-02

     total cpu time spent up to now is       26.9 secs

     total energy              =   -1594.20285596 Ry
     estimated scf accuracy    <       2.79381703 Ry

     total magnetization       =    10.00 Bohr mag/cell
     absolute magnetization    =    18.90 Bohr mag/cell

     iteration #  5     ecut=    80.00 Ry     beta= 0.30
     Davidson diagonalization with overlap
     ethr =  1.72E-03,  avg # of iterations =  1.9

     negative rho (up, down):  8.081E-03 2.963E-02

     total cpu time spent up to now is       31.3 secs

     total energy              =   -1594.31693773 Ry
     estimated scf accuracy    <       0.34441089 Ry

     total magnetization       =    10.00 Bohr mag/cell
     absolute magnetization    =    18.35 Bohr mag/cell

     iteration #  6     ecut=    80.00 Ry     beta= 0.30
     Davidson diagonalization with overlap
     ethr =  2.13E-04,  avg # of iterations =  9.1

     negative rho (up, down):  7.915E-03 2.954E-02

     total cpu time spent up to now is       37.5 secs

     total energy              =   -1594.33662329 Ry
     estimated scf accuracy    <       0.21317590 Ry

     total magnetization       =    10.00 Bohr mag/cell
     absolute magnetization    =    17.52 Bohr mag/cell

     iteration #  7     ecut=    80.00 Ry     beta= 0.30
     Davidson diagonalization with overlap
     ethr =  1.32E-04,  avg # of iterations =  1.9

     negative rho (up, down):  7.584E-03 2.949E-02

     total cpu time spent up to now is       42.7 secs

     total energy              =   -1594.34731978 Ry
     estimated scf accuracy    <       0.06341673 Ry

     total magnetization       =    10.00 Bohr mag/cell
     absolute magnetization    =    17.23 Bohr mag/cell

     iteration #  8     ecut=    80.00 Ry     beta= 0.30
     Davidson diagonalization with overlap
     ethr =  3.91E-05,  avg # of iterations =  3.5

     negative rho (up, down):  7.020E-03 2.857E-02

     total cpu time spent up to now is       48.3 secs

     total energy              =   -1594.35138748 Ry
     estimated scf accuracy    <       0.04544118 Ry

     total magnetization       =    10.00 Bohr mag/cell
     absolute magnetization    =    16.76 Bohr mag/cell

     iteration #  9     ecut=    80.00 Ry     beta= 0.30
     Davidson diagonalization with overlap
     ethr =  2.81E-05,  avg # of iterations =  3.0

     negative rho (up, down):  5.302E-03 2.573E-02

     total cpu time spent up to now is       53.8 secs

     total energy              =   -1594.35331231 Ry
     estimated scf accuracy    <       0.02746584 Ry

     total magnetization       =    10.00 Bohr mag/cell
     absolute magnetization    =    16.57 Bohr mag/cell

     iteration # 10     ecut=    80.00 Ry     beta= 0.30
     Davidson diagonalization with overlap
     ethr =  1.70E-05,  avg # of iterations =  5.0

     negative rho (up, down):  3.955E-03 2.348E-02

     total cpu time spent up to now is       60.2 secs

     total energy              =   -1594.35365654 Ry
     estimated scf accuracy    <       0.01532231 Ry

     total magnetization       =    10.00 Bohr mag/cell
     absolute magnetization    =    16.23 Bohr mag/cell

     iteration # 11     ecut=    80.00 Ry     beta= 0.30
     Davidson diagonalization with overlap
     ethr =  9.46E-06,  avg # of iterations =  4.8

     negative rho (up, down):  2.697E-03 2.178E-02

     total cpu time spent up to now is       64.6 secs

     total energy              =   -1594.35408983 Ry
     estimated scf accuracy    <       0.00517152 Ry

     total magnetization       =    10.00 Bohr mag/cell
     absolute magnetization    =    16.01 Bohr mag/cell

     iteration # 12     ecut=    80.00 Ry     beta= 0.30
     Davidson diagonalization with overlap
     ethr =  3.19E-06,  avg # of iterations =  6.8

     negative rho (up, down):  2.003E-03 2.090E-02

     total cpu time spent up to now is       69.1 secs

     total energy              =   -1594.35446720 Ry
     estimated scf accuracy    <       0.00278280 Ry

     total magnetization       =    10.00 Bohr mag/cell
     absolute magnetization    =    15.86 Bohr mag/cell

     iteration # 13     ecut=    80.00 Ry     beta= 0.30
     Davidson diagonalization with overlap
     ethr =  1.72E-06,  avg # of iterations =  2.1

     negative rho (up, down):  8.064E-04 1.962E-02

     total cpu time spent up to now is       73.1 secs

     total energy              =   -1594.35405099 Ry
     estimated scf accuracy    <       0.00158435 Ry

     total magnetization       =    10.00 Bohr mag/cell
     absolute magnetization    =    15.82 Bohr mag/cell

     iteration # 14     ecut=    80.00 Ry     beta= 0.30
     Davidson diagonalization with overlap
     ethr =  9.78E-07,  avg # of iterations =  3.8

     negative rho (up, down):  6.764E-04 1.962E-02

     total cpu time spent up to now is       78.6 secs

     total energy              =   -1594.35422297 Ry
     estimated scf accuracy    <       0.00181291 Ry

     total magnetization       =    10.00 Bohr mag/cell
     absolute magnetization    =    15.72 Bohr mag/cell

     iteration # 15     ecut=    80.00 Ry     beta= 0.30
     Davidson diagonalization with overlap
     ethr =  9.78E-07,  avg # of iterations =  2.0

     negative rho (up, down):  5.793E-04 1.966E-02

     total cpu time spent up to now is       83.0 secs

     total energy              =   -1594.35430536 Ry
     estimated scf accuracy    <       0.00055829 Ry

     total magnetization       =    10.00 Bohr mag/cell
     absolute magnetization    =    15.72 Bohr mag/cell

     iteration # 16     ecut=    80.00 Ry     beta= 0.30
     Davidson diagonalization with overlap
     ethr =  3.45E-07,  avg # of iterations =  3.7

     negative rho (up, down):  7.836E-04 1.983E-02

     total cpu time spent up to now is       87.8 secs

     total energy              =   -1594.35432937 Ry
     estimated scf accuracy    <       0.00043480 Ry

     total magnetization       =    10.00 Bohr mag/cell
     absolute magnetization    =    15.72 Bohr mag/cell

     iteration # 17     ecut=    80.00 Ry     beta= 0.30
     Davidson diagonalization with overlap
     ethr =  2.68E-07,  avg # of iterations =  2.1

     negative rho (up, down):  1.362E-03 2.032E-02

     total cpu time spent up to now is      107.7 secs

     total energy              =   -1594.35438992 Ry
     estimated scf accuracy    <       0.00029100 Ry

     total magnetization       =    10.00 Bohr mag/cell
     absolute magnetization    =    15.72 Bohr mag/cell

     iteration # 18     ecut=    80.00 Ry     beta= 0.30
     Davidson diagonalization with overlap
     ethr =  1.80E-07,  avg # of iterations =  1.4

     negative rho (up, down):  1.706E-03 2.053E-02

     total cpu time spent up to now is      133.9 secs

     total energy              =   -1594.35442823 Ry
     estimated scf accuracy    <       0.00016635 Ry

     total magnetization       =    10.00 Bohr mag/cell
     absolute magnetization    =    15.74 Bohr mag/cell

     iteration # 19     ecut=    80.00 Ry     beta= 0.30
     Davidson diagonalization with overlap
     ethr =  1.03E-07,  avg # of iterations =  2.7

     negative rho (up, down):  2.048E-03 2.077E-02

     total cpu time spent up to now is      138.8 secs

     total energy              =   -1594.35445655 Ry
     estimated scf accuracy    <       0.00011224 Ry

     total magnetization       =    10.00 Bohr mag/cell
     absolute magnetization    =    15.77 Bohr mag/cell

     iteration # 20     ecut=    80.00 Ry     beta= 0.30
     Davidson diagonalization with overlap
     ethr =  6.93E-08,  avg # of iterations =  2.1

     negative rho (up, down):  2.163E-03 2.064E-02

     total cpu time spent up to now is      143.6 secs

     total energy              =   -1594.35447738 Ry
     estimated scf accuracy    <       0.00008430 Ry

     total magnetization       =    10.00 Bohr mag/cell
     absolute magnetization    =    15.79 Bohr mag/cell

     iteration # 21     ecut=    80.00 Ry     beta= 0.30
     Davidson diagonalization with overlap
     ethr =  5.20E-08,  avg # of iterations =  2.0

     negative rho (up, down):  2.365E-03 2.053E-02

     total cpu time spent up to now is      148.4 secs

     total energy              =   -1594.35450090 Ry
     estimated scf accuracy    <       0.00003356 Ry

     total magnetization       =    10.00 Bohr mag/cell
     absolute magnetization    =    15.80 Bohr mag/cell

     iteration # 22     ecut=    80.00 Ry     beta= 0.30
     Davidson diagonalization with overlap
     ethr =  2.07E-08,  avg # of iterations =  2.5

     negative rho (up, down):  2.401E-03 2.047E-02

     total cpu time spent up to now is      153.7 secs

     total energy              =   -1594.35450835 Ry
     estimated scf accuracy    <       0.00000928 Ry

     total magnetization       =    10.00 Bohr mag/cell
     absolute magnetization    =    15.79 Bohr mag/cell

     iteration # 23     ecut=    80.00 Ry     beta= 0.30
     Davidson diagonalization with overlap
     ethr =  5.73E-09,  avg # of iterations =  3.2

     negative rho (up, down):  2.410E-03 2.039E-02

     total cpu time spent up to now is      158.6 secs

     total energy              =   -1594.35451193 Ry
     estimated scf accuracy    <       0.00000539 Ry

     total magnetization       =    10.00 Bohr mag/cell
     absolute magnetization    =    15.79 Bohr mag/cell

     iteration # 24     ecut=    80.00 Ry     beta= 0.30
     Davidson diagonalization with overlap
     ethr =  3.33E-09,  avg # of iterations =  2.1

     negative rho (up, down):  2.419E-03 2.036E-02

     total cpu time spent up to now is      163.5 secs

     total energy              =   -1594.35451320 Ry
     estimated scf accuracy    <       0.00000188 Ry

     total magnetization       =    10.00 Bohr mag/cell
     absolute magnetization    =    15.79 Bohr mag/cell

     iteration # 25     ecut=    80.00 Ry     beta= 0.30
     Davidson diagonalization with overlap
     c_bands:  1 eigenvalues not converged
     ethr =  1.16E-09,  avg # of iterations =  3.6

     negative rho (up, down):  2.416E-03 2.033E-02

     Magnetic moment per site  (integrated on atomic sphere of radius R)
     atom   1 (R=0.222)  charge=  9.4169  magn=  1.8129
     atom   2 (R=0.222)  charge=  9.3546  magn=  1.5143
     atom   3 (R=0.222)  charge=  9.3657  magn=  1.6119
     atom   4 (R=0.222)  charge=  9.3569  magn=  1.5318
     atom   5 (R=0.222)  charge=  9.3561  magn=  0.9197
     atom   6 (R=0.222)  charge=  9.3516  magn=  1.4629
     atom   7 (R=0.222)  charge=  4.3083  magn= -0.1532
     atom   8 (R=0.222)  charge=  4.2215  magn= -0.3127
     atom   9 (R=0.222)  charge=  4.3145  magn= -0.1444
     atom  10 (R=0.222)  charge=  4.3145  magn= -0.1444
     atom  11 (R=0.222)  charge=  4.2621  magn= -0.2273
     atom  12 (R=0.222)  charge=  4.2937  magn= -0.1637
     atom  13 (R=0.222)  charge=  4.3118  magn= -0.1579
     atom  14 (R=0.222)  charge=  4.3118  magn= -0.1579
     atom  15 (R=0.222)  charge=  4.2461  magn= -0.3181
     atom  16 (R=0.222)  charge=  4.2840  magn= -0.1777
     atom  17 (R=0.222)  charge=  4.3047  magn= -0.0598
     atom  18 (R=0.222)  charge=  4.3047  magn= -0.0598
     atom  19 (R=0.222)  charge=  4.2367  magn= -0.1677

     total cpu time spent up to now is      168.1 secs

     End of self-consistent calculation

     =================== HUBBARD OCCUPATIONS ===================
     ------------------------ ATOM    1 ------------------------
     Tr[ns(  1)] (up, down, total) =   3.67214  1.05830  4.73044
     Atomic magnetic moment for atom   1 =   2.61384
     SPIN  1
     eigenvalues:
       0.493  0.500  0.821  0.878  0.979
     eigenvectors (columns):
      -0.000  0.999 -0.000  0.000 -0.044
      -0.000  0.000  0.000 -1.000 -0.000
      -0.000  0.000  1.000  0.000 -0.000
       0.000 -0.044 -0.000  0.000 -0.999
       1.000  0.000  0.000 -0.000  0.000
     occupation matrix ns (before diag.):
       0.501 -0.000 -0.000  0.021  0.000
      -0.000  0.878 -0.000  0.000  0.000
      -0.000 -0.000  0.821  0.000  0.000
       0.021  0.000  0.000  0.978 -0.000
       0.000  0.000  0.000 -0.000  0.493
     SPIN  2
     eigenvalues:
       0.117  0.130  0.141  0.286  0.385
     eigenvectors (columns):
       0.103 -0.000 -0.000 -0.995  0.000
      -0.000 -0.000 -1.000  0.000  0.000
      -0.000 -1.000  0.000  0.000  0.000
       0.995 -0.000 -0.000  0.103 -0.000
       0.000  0.000  0.000  0.000  1.000
     occupation matrix ns (before diag.):
       0.284 -0.000 -0.000 -0.017  0.000
      -0.000  0.141 -0.000  0.000  0.000
      -0.000 -0.000  0.130  0.000  0.000
      -0.017  0.000  0.000  0.119 -0.000
       0.000  0.000  0.000 -0.000  0.385
     ------------------------ ATOM    2 ------------------------
     Tr[ns(  2)] (up, down, total) =   3.48808  1.31810  4.80618
     Atomic magnetic moment for atom   2 =   2.16998
     SPIN  1
     eigenvalues:
       0.540  0.547  0.665  0.792  0.944
     eigenvectors (columns):
      -0.000  0.416 -0.000  0.000 -0.909
       1.000  0.000  0.000 -0.000  0.000
       0.000 -0.000 -1.000 -0.000  0.000
      -0.000  0.909 -0.000 -0.000  0.416
      -0.000  0.000  0.000 -1.000 -0.000
     occupation matrix ns (before diag.):
       0.875 -0.000 -0.000 -0.151  0.000
      -0.000  0.540 -0.000  0.000  0.000
      -0.000 -0.000  0.665  0.000  0.000
      -0.151  0.000  0.000  0.616 -0.000
       0.000  0.000  0.000 -0.000  0.792
     SPIN  2
     eigenvalues:
       0.152  0.167  0.173  0.399  0.427
     eigenvectors (columns):
       0.913 -0.000  0.000  0.408  0.000
       0.000  0.000 -0.000 -0.000  1.000
       0.000  1.000  0.000  0.000 -0.000
      -0.408  0.000 -0.000  0.913  0.000
      -0.000 -0.000  1.000 -0.000  0.000
     occupation matrix ns (before diag.):
       0.193 -0.000 -0.000  0.092  0.000
      -0.000  0.427 -0.000  0.000  0.000
      -0.000 -0.000  0.167  0.000  0.000
       0.092  0.000  0.000  0.358 -0.000
       0.000  0.000  0.000 -0.000  0.173
     ------------------------ ATOM    3 ------------------------
     Tr[ns(  3)] (up, down, total) =   3.54214  1.23077  4.77291
     Atomic magnetic moment for atom   3 =   2.31138
     SPIN  1
     eigenvalues:
       0.500  0.529  0.709  0.821  0.982
     eigenvectors (columns):
      -0.000  0.999 -0.000  0.000 -0.049
      -0.000  0.000  0.000 -1.000 -0.000
      -0.000  0.000  1.000  0.000 -0.000
       0.000 -0.049 -0.000  0.000 -0.999
       1.000  0.000  0.000 -0.000  0.000
     occupation matrix ns (before diag.):
       0.530 -0.000 -0.000  0.022  0.000
      -0.000  0.821 -0.000  0.000  0.000
      -0.000 -0.000  0.709  0.000  0.000
       0.022  0.000  0.000  0.981 -0.000
       0.000  0.000  0.000 -0.000  0.500
     SPIN  2
     eigenvalues:
       0.119  0.161  0.166  0.391  0.393
     eigenvectors (columns):
       0.063 -0.000 -0.000 -0.998  0.000
      -0.000 -1.000  0.000  0.000  0.000
      -0.000 -0.000 -1.000  0.000  0.000
       0.998 -0.000 -0.000  0.063 -0.000
       0.000  0.000  0.000  0.000  1.000
     occupation matrix ns (before diag.):
       0.390 -0.000 -0.000 -0.017  0.000
      -0.000  0.161 -0.000  0.000  0.000
      -0.000 -0.000  0.166  0.000  0.000
      -0.017  0.000  0.000  0.121 -0.000
       0.000  0.000  0.000 -0.000  0.393
     ------------------------ ATOM    4 ------------------------
     Tr[ns(  4)] (up, down, total) =   3.49683  1.30295  4.79978
     Atomic magnetic moment for atom   4 =   2.19389
     SPIN  1
     eigenvalues:
       0.518  0.544  0.675  0.798  0.962
     eigenvectors (columns):
      -0.000  0.443 -0.000  0.000 -0.897
       1.000  0.000  0.000 -0.000  0.000
       0.000 -0.000 -1.000 -0.000  0.000
      -0.000  0.897 -0.000 -0.000  0.443
      -0.000  0.000  0.000 -1.000 -0.000
     occupation matrix ns (before diag.):
       0.880 -0.000 -0.000 -0.166  0.000
      -0.000  0.518 -0.000  0.000  0.000
      -0.000 -0.000  0.675  0.000  0.000
      -0.166  0.000  0.000  0.626 -0.000
       0.000  0.000  0.000 -0.000  0.798
     SPIN  2
     eigenvalues:
       0.139  0.175  0.179  0.402  0.409
     eigenvectors (columns):
       0.904  0.000 -0.000 -0.427 -0.000
       0.000 -0.000  0.000  0.000 -1.000
       0.000 -0.000  1.000 -0.000  0.000
      -0.427 -0.000  0.000 -0.904 -0.000
      -0.000  1.000  0.000  0.000 -0.000
     occupation matrix ns (before diag.):
       0.187 -0.000 -0.000  0.102  0.000
      -0.000  0.409 -0.000  0.000  0.000
      -0.000 -0.000  0.179  0.000  0.000
       0.102  0.000  0.000  0.354 -0.000
       0.000  0.000  0.000 -0.000  0.175
     ------------------------ ATOM    5 ------------------------
     Tr[ns(  5)] (up, down, total) =   3.13226  1.83934  4.97160
     Atomic magnetic moment for atom   5 =   1.29292
     SPIN  1
     eigenvalues:
       0.505  0.519  0.543  0.587  0.979
     eigenvectors (columns):
      -0.000  0.000  0.000 -0.998 -0.060
      -0.000  0.000  1.000  0.000 -0.000
      -0.000  1.000 -0.000  0.000 -0.000
       0.000 -0.000 -0.000  0.060 -0.998
       1.000  0.000  0.000 -0.000  0.000
     occupation matrix ns (before diag.):
       0.588 -0.000 -0.000  0.023  0.000
      -0.000  0.543 -0.000  0.000  0.000
      -0.000 -0.000  0.519  0.000  0.000
       0.023  0.000  0.000  0.978 -0.000
       0.000  0.000  0.000 -0.000  0.505
     SPIN  2
     eigenvalues:
       0.129  0.373  0.392  0.433  0.512
     eigenvectors (columns):
       0.055 -0.000  0.000 -0.000 -0.998
      -0.000 -0.000  1.000  0.000  0.000
      -0.000 -1.000 -0.000  0.000  0.000
       0.998 -0.000  0.000 -0.000  0.055
       0.000  0.000 -0.000  1.000 -0.000
     occupation matrix ns (before diag.):
       0.511 -0.000 -0.000 -0.021  0.000
      -0.000  0.392 -0.000  0.000  0.000
      -0.000 -0.000  0.373  0.000  0.000
      -0.021  0.000  0.000  0.130 -0.000
       0.000  0.000  0.000 -0.000  0.433
     ------------------------ ATOM    6 ------------------------
     Tr[ns(  6)] (up, down, total) =   3.45353  1.35924  4.81277
     Atomic magnetic moment for atom   6 =   2.09430
     SPIN  1
     eigenvalues:
       0.538  0.543  0.767  0.790  0.814
     eigenvectors (columns):
      -0.000 -0.492  0.000  0.000 -0.871
       1.000 -0.000 -0.000 -0.000  0.000
       0.000  0.000  1.000 -0.000  0.000
      -0.000 -0.871 -0.000 -0.000  0.492
      -0.000 -0.000 -0.000 -1.000 -0.000
     occupation matrix ns (before diag.):
       0.749 -0.000 -0.000 -0.116  0.000
      -0.000  0.538 -0.000  0.000  0.000
      -0.000 -0.000  0.767  0.000  0.000
      -0.116  0.000  0.000  0.609 -0.000
       0.000  0.000  0.000 -0.000  0.790
     SPIN  2
     eigenvalues:
       0.172  0.179  0.183  0.403  0.422
     eigenvectors (columns):
       0.924  0.000 -0.000  0.383  0.000
       0.000 -0.000  0.000 -0.000  1.000
       0.000 -0.000  1.000  0.000 -0.000
      -0.383 -0.000  0.000  0.924  0.000
      -0.000  1.000  0.000 -0.000  0.000
     occupation matrix ns (before diag.):
       0.206 -0.000 -0.000  0.082  0.000
      -0.000  0.422 -0.000  0.000  0.000
      -0.000 -0.000  0.183  0.000  0.000
       0.082  0.000  0.000  0.369 -0.000
       0.000  0.000  0.000 -0.000  0.179

     Number of occupied Hubbard levels =   28.8937

 ------ SPIN UP ------------


          k = 0.0000 0.0000 0.0000 ( 37133 PWs)   bands (ev):

   -73.6171 -73.5101 -73.5080 -73.5050 -73.4574 -73.4464 -44.9898 -44.9711
   -44.9163 -44.9070 -44.9012 -44.8961 -44.8544 -44.8524 -44.7826 -44.7619
   -44.7540 -44.7014 -44.6926 -44.6900 -44.6843 -44.6758 -44.6413 -44.5839
   -19.3576 -19.0179 -18.7442 -18.2484 -17.9842 -17.8187 -17.7059 -17.5204
   -17.4486 -17.2480 -17.1470 -17.0459 -16.6179  -7.6232  -7.4763  -7.1661
    -6.6452  -6.4403  -6.0688  -6.0508  -5.4987  -5.3384  -5.3373  -5.2869
    -5.0105  -4.9718  -4.9398  -4.6569  -4.5637  -3.7220  -3.6176  -3.5192
    -3.4561  -3.4549  -3.4342  -3.1967  -3.1359  -2.9885  -2.9850  -2.8813
    -2.8618  -2.5694  -2.4808  -2.3243  -2.1643  -2.1528  -2.1154  -2.0444
    -1.8833  -1.6359  -1.6224  -1.6096  -1.6001  -1.5601  -1.4341  -1.1373
    -1.1282  -0.8240  -0.7755  -0.7712  -0.5883  -0.5657  -0.1688  -0.0134
     0.3289   0.6983   0.8838   0.9666   0.9691   1.4376   1.5918   2.0399
     2.6419

          k = 0.0000 0.1166 0.0000 ( 37130 PWs)   bands (ev):

   -73.6171 -73.5100 -73.5080 -73.5052 -73.4574 -73.4463 -44.9898 -44.9711
   -44.9139 -44.9058 -44.9012 -44.8937 -44.8544 -44.8524 -44.7852 -44.7619
   -44.7565 -44.7012 -44.6926 -44.6913 -44.6843 -44.6760 -44.6413 -44.5840
   -19.2329 -18.9037 -18.6412 -18.4276 -18.1664 -17.9578 -17.6446 -17.5339
   -17.4429 -17.2560 -17.1291 -17.0420 -16.6108  -7.3283  -7.1942  -6.9189
    -6.6589  -6.4478  -6.1120  -5.7973  -5.4231  -5.2889  -5.2554  -5.1586
    -5.0039  -4.9472  -4.8907  -4.6621  -4.5319  -4.3647  -4.0700  -3.9967
    -3.7375  -3.5712  -3.5235  -3.4687  -3.2707  -3.1999  -3.0936  -3.0508
    -2.7690  -2.5696  -2.5231  -2.4682  -2.3893  -2.1519  -2.0704  -1.8140
    -1.7339  -1.6916  -1.3720  -1.3608  -1.2675  -1.2152  -1.1569  -1.0453
    -1.0403  -0.8476  -0.7759  -0.7663  -0.6405  -0.5736  -0.1871  -0.1041
     0.2442   0.5611   0.7344   0.8328   1.2143   1.3349   1.6227   2.3480
     3.0264

          k = 0.0000-0.2332 0.0000 ( 37126 PWs)   bands (ev):

   -73.6170 -73.5098 -73.5079 -73.5053 -73.4574 -73.4463 -44.9899 -44.9711
   -44.9113 -44.9045 -44.9012 -44.8912 -44.8544 -44.8524 -44.7879 -44.7620
   -44.7591 -44.7009 -44.6926 -44.6925 -44.6843 -44.6763 -44.6413 -44.5840
   -18.9448 -18.8891 -18.5818 -18.4764 -18.3033 -18.2709 -17.6129 -17.5347
   -17.4370 -17.2599 -17.1115 -17.0454 -16.6043  -6.9489  -6.8108  -6.6990
    -6.5922  -6.4645  -6.1385  -5.3360  -5.3058  -5.2888  -5.1612  -5.1337
    -4.9920  -4.9546  -4.8063  -4.7983  -4.6278  -4.5868  -4.5332  -4.4264
    -4.0697  -3.9492  -3.9133  -3.6107  -3.4265  -3.3791  -3.2868  -3.1524
    -2.8146  -2.7044  -2.6185  -2.2701  -2.2485  -2.0099  -1.8468  -1.7775
    -1.6572  -1.4933  -1.3322  -1.2877  -1.2398  -1.1862  -1.0608  -1.0102
    -0.8483  -0.8428  -0.6363  -0.5820  -0.5594  -0.5564  -0.2108  -0.0435
     0.0296   0.4064   0.5799   0.7444   1.2457   1.3953   1.6607   2.5851
     3.3392

          k = 0.1111 0.0000 0.0000 ( 37175 PWs)   bands (ev):

   -73.6154 -73.5084 -73.5063 -73.5033 -73.4557 -73.4447 -44.9882 -44.9696
   -44.9143 -44.9053 -44.8983 -44.8941 -44.8725 -44.8527 -44.7800 -44.7589
   -44.7513 -44.7207 -44.7126 -44.6950 -44.6873 -44.6811 -44.6602 -44.6033
   -19.2449 -18.9141 -18.6498 -18.1672 -17.9110 -17.7758 -17.7330 -17.5465
   -17.4254 -17.2673 -17.1751 -17.0681 -16.6356  -7.4576  -7.3212  -7.0142
    -6.5012  -6.3362  -5.9998  -5.9781  -5.6375  -5.5871  -5.2975  -5.1971
    -5.1637  -5.1012  -4.9399  -4.4932  -4.4131  -3.9115  -3.6581  -3.5673
    -3.5155  -3.4763  -3.4547  -3.3480  -3.2431  -3.1700  -3.1612  -2.9769
    -2.8145  -2.7180  -2.6916  -2.5126  -2.3424  -2.3295  -2.1355  -2.1120
    -2.0645  -1.8842  -1.7350  -1.6859  -1.5305  -1.3020  -1.2104  -1.0845
    -1.0026  -0.8932  -0.5670  -0.4834  -0.3527  -0.3066  -0.0806   0.0431
     0.2473   0.6104   0.7856   0.8874   1.0344   1.3981   1.4503   2.1542
     2.7422

          k = 0.1111 0.1166 0.0000 ( 37124 PWs)   bands (ev):

   -73.6154 -73.5082 -73.5062 -73.5034 -73.4557 -73.4446 -44.9883 -44.9696
   -44.9122 -44.9043 -44.8983 -44.8921 -44.8725 -44.8527 -44.7824 -44.7589
   -44.7535 -44.7204 -44.7124 -44.6951 -44.6884 -44.6811 -44.6601 -44.6033
   -19.1245 -18.8035 -18.5494 -18.3500 -18.0942 -17.9059 -17.6604 -17.5582
   -17.4193 -17.2751 -17.1596 -17.0634 -16.6290  -7.1617  -7.0363  -6.7622
    -6.5143  -6.3422  -6.0294  -5.7974  -5.5400  -5.4962  -5.3138  -5.1774
    -5.0911  -4.9736  -4.9229  -4.4455  -4.3829  -4.2980  -4.0226  -3.9326
    -3.8057  -3.6303  -3.6218  -3.5506  -3.5063  -3.3155  -3.2546  -3.2452
    -3.0791  -3.0010  -2.6840  -2.4567  -2.3528  -2.2543  -2.1861  -2.0657
    -1.9175  -1.8105  -1.4327  -1.3294  -1.1267  -1.0391  -0.9829  -0.9205
    -0.8904  -0.8314  -0.7151  -0.5602  -0.3727  -0.2911  -0.1906   0.0334
     0.1708   0.4776   0.6421   0.7524   1.2410   1.2650   1.5653   2.4073
     2.9678

          k = 0.1111-0.2332 0.0000 ( 37144 PWs)   bands (ev):

   -73.6153 -73.5081 -73.5062 -73.5036 -73.4557 -73.4446 -44.9884 -44.9696
   -44.9101 -44.9032 -44.8983 -44.8900 -44.8725 -44.8527 -44.7848 -44.7590
   -44.7558 -44.7201 -44.7123 -44.6953 -44.6895 -44.6812 -44.6601 -44.6033
   -18.8456 -18.7905 -18.4917 -18.3971 -18.2344 -18.2018 -17.6276 -17.5572
   -17.4126 -17.2788 -17.1457 -17.0644 -16.6229  -6.7709  -6.6498  -6.5530
    -6.4264  -6.3589  -6.0648  -5.5259  -5.4958  -5.3880  -5.3000  -5.0803
    -4.9693  -4.9275  -4.7953  -4.7381  -4.5530  -4.3624  -4.2975  -4.2490
    -4.0775  -4.0639  -3.9663  -3.8412  -3.7436  -3.6990  -3.4029  -3.2546
    -3.1747  -3.1225  -2.6782  -2.4406  -2.2742  -2.1941  -1.8739  -1.8594
    -1.8035  -1.5257  -1.3339  -1.3016  -1.1717  -1.0114  -0.9419  -0.8872
    -0.7170  -0.7003  -0.5415  -0.4776  -0.3375  -0.2815  -0.1233  -0.0274
     0.0688   0.3122   0.4887   0.6487   1.1944   1.3901   1.6341   2.6347
     2.9895

          k = 0.2222 0.0000 0.0000 ( 37192 PWs)   bands (ev):

   -73.6112 -73.5042 -73.5020 -73.4992 -73.4516 -73.4405 -44.9843 -44.9660
   -44.9243 -44.9093 -44.9010 -44.8891 -44.8885 -44.8495 -44.7735 -44.7690
   -44.7632 -44.7509 -44.7443 -44.7425 -44.7076 -44.6805 -44.6732 -44.6519
   -18.9399 -18.6383 -18.4004 -17.9680 -17.8023 -17.7378 -17.6844 -17.6128
   -17.3726 -17.3165 -17.2510 -17.1074 -16.6638  -7.0127  -6.9065  -6.6132
    -6.1631  -6.1063  -6.0884  -5.9092  -5.8631  -5.6326  -5.3950  -5.2324
    -4.9759  -4.8997  -4.8003  -4.7371  -4.3709  -4.3292  -4.1919  -4.1636
    -4.0791  -4.0714  -3.6698  -3.5676  -3.3607  -3.2721  -3.2235  -3.0133
    -2.8947  -2.8843  -2.8103  -2.6463  -2.5707  -2.4630  -2.4014  -2.2177
    -1.8841  -1.8128  -1.7546  -1.4126  -1.3288  -1.2973  -1.0772  -0.9459
    -0.7680  -0.6874  -0.6522  -0.2822  -0.2127  -0.1101   0.0973   0.1557
     0.2300   0.4022   0.5224   0.6552   1.0846   1.2513   1.3740   2.2862
     2.7703

          k = 0.2222 0.1166 0.0000 ( 37137 PWs)   bands (ev):

   -73.6112 -73.5041 -73.5020 -73.4993 -73.4516 -73.4405 -44.9844 -44.9660
   -44.9244 -44.9083 -44.9005 -44.8885 -44.8882 -44.8495 -44.7756 -44.7683
   -44.7627 -44.7509 -44.7459 -44.7421 -44.7073 -44.6811 -44.6732 -44.6517
   -18.8339 -18.5395 -18.3083 -18.1693 -17.9356 -17.7825 -17.6789 -17.6184
   -17.3656 -17.3222 -17.2401 -17.1041 -16.6594  -6.7219  -6.6232  -6.3568
    -6.1731  -6.0750  -5.9934  -5.9283  -5.7780  -5.6068  -5.5223  -5.0870
    -5.0245  -4.9069  -4.7891  -4.6280  -4.4909  -4.4405  -4.3463  -4.2079
    -4.1048  -3.9792  -3.8182  -3.6838  -3.6314  -3.5107  -3.4698  -3.4026
    -3.2258  -3.0131  -2.8382  -2.6996  -2.5651  -2.4155  -2.3195  -2.2866
    -1.9056  -1.7459  -1.6594  -1.0761  -1.0399  -0.9651  -0.9329  -0.8748
    -0.7830  -0.7312  -0.4853  -0.2297  -0.1921  -0.1170  -0.0393   0.0840
     0.1417   0.2898   0.4204   0.5445   1.1531   1.2552   1.4776   2.3717
     2.6166

          k = 0.2222-0.2332 0.0000 ( 37166 PWs)   bands (ev):

   -73.6111 -73.5039 -73.5020 -73.4995 -73.4516 -73.4405 -44.9844 -44.9660
   -44.9244 -44.9073 -44.9001 -44.8885 -44.8874 -44.8495 -44.7775 -44.7677
   -44.7621 -44.7509 -44.7476 -44.7418 -44.7070 -44.6818 -44.6732 -44.6515
   -18.5838 -18.5348 -18.2618 -18.2180 -18.0631 -18.0226 -17.6503 -17.6124
   -17.3539 -17.3267 -17.2335 -17.1033 -16.6553  -6.3302  -6.2777  -6.1947
    -6.0926  -6.0416  -5.9625  -5.6983  -5.6668  -5.5704  -5.3097  -5.1851
    -5.1053  -5.0054  -4.9324  -4.8211  -4.7308  -4.4280  -4.4052  -4.2144
    -4.1585  -4.0201  -3.9982  -3.9357  -3.8804  -3.7138  -3.6672  -3.4955
    -3.4434  -3.3647  -2.7840  -2.7404  -2.3830  -2.3778  -2.2609  -2.1513
    -2.0564  -1.6929  -1.3519  -1.2900  -0.9279  -0.8531  -0.8094  -0.7056
    -0.5598  -0.5518  -0.2982  -0.2592  -0.1996  -0.1216  -0.0996   0.0070
     0.1067   0.1331   0.3903   0.3999   1.1314   1.3443   1.5624   2.3450
     2.3678

          k = 0.3333 0.0000 0.0000 ( 37184 PWs)   bands (ev):

   -73.6066 -73.4997 -73.4976 -73.4950 -73.4473 -73.4362 -44.9810 -44.9792
   -44.9619 -44.9035 -44.8961 -44.8834 -44.8792 -44.8461 -44.8227 -44.8187
   -44.7965 -44.7660 -44.7606 -44.7419 -44.7364 -44.7061 -44.6727 -44.6642
   -18.5392 -18.2926 -18.0848 -17.8822 -17.7719 -17.6916 -17.6888 -17.5095
   -17.3733 -17.3604 -17.3209 -17.1094 -16.6556  -6.4844  -6.4005  -6.2405
    -6.1883  -6.1399  -5.9662  -5.9213  -5.8344  -5.6806  -5.4445  -5.3271
    -5.2926  -4.9888  -4.8897  -4.7428  -4.7223  -4.4812  -4.4075  -4.3620
    -4.1204  -4.0085  -3.8013  -3.7679  -3.6494  -3.5158  -3.4473  -3.4122
    -2.9951  -2.9535  -2.8281  -2.7269  -2.5057  -2.4187  -2.2308  -1.9692
    -1.9316  -1.8637  -1.5771  -1.3921  -1.3786  -1.3090  -1.1885  -0.9414
    -0.8784  -0.6125  -0.5623  -0.4628  -0.3534  -0.2171   0.0751   0.0964
     0.2067   0.3232   0.5697   0.6027   1.0037   1.1374   1.4452   2.0472
     2.6437

          k = 0.3333 0.1166 0.0000 ( 37206 PWs)   bands (ev):

   -73.6066 -73.4996 -73.4976 -73.4951 -73.4474 -73.4362 -44.9808 -44.9795
   -44.9619 -44.9044 -44.8965 -44.8847 -44.8792 -44.8461 -44.8212 -44.8168
   -44.7975 -44.7656 -44.7599 -44.7419 -44.7379 -44.7051 -44.6728 -44.6642
   -18.4633 -18.2212 -18.0266 -18.0079 -17.8422 -17.6856 -17.6620 -17.6042
   -17.3827 -17.3499 -17.3053 -17.1122 -16.6546  -6.3193  -6.2758  -6.1931
    -6.1314  -6.0433  -6.0403  -5.8986  -5.7924  -5.7577  -5.4561  -5.3513
    -5.1790  -4.9857  -4.8547  -4.7609  -4.5906  -4.4604  -4.3606  -4.1994
    -4.1262  -4.0505  -3.8509  -3.7784  -3.7246  -3.6468  -3.5578  -3.3660
    -3.2599  -2.9910  -2.9084  -2.7175  -2.5947  -2.4701  -2.3859  -2.1736
    -1.9764  -1.8892  -1.5422  -1.3106  -1.2027  -1.1636  -1.1130  -1.0648
    -0.8720  -0.7197  -0.5857  -0.5226  -0.3554  -0.2736  -0.0252   0.1817
     0.2269   0.4576   0.4977   0.5553   1.1106   1.2039   1.4501   2.0597
     2.1567

          k = 0.3333-0.2332 0.0000 ( 37216 PWs)   bands (ev):

   -73.6066 -73.4996 -73.4976 -73.4951 -73.4474 -73.4362 -44.9805 -44.9799
   -44.9619 -44.9052 -44.8969 -44.8859 -44.8792 -44.8461 -44.8196 -44.8149
   -44.7985 -44.7652 -44.7592 -44.7419 -44.7394 -44.7042 -44.6730 -44.6642
   -18.2678 -18.2609 -18.0426 -18.0361 -17.8390 -17.7966 -17.6712 -17.6504
   -17.3781 -17.3360 -17.3071 -17.1154 -16.6537  -6.3382  -6.2777  -6.1684
    -6.0828  -6.0233  -5.8877  -5.7129  -5.6679  -5.4548  -5.3019  -5.2529
    -5.2300  -5.2197  -4.9993  -4.8440  -4.5498  -4.4668  -4.3979  -4.2698
    -4.2054  -3.9097  -3.8092  -3.7816  -3.7309  -3.6822  -3.6684  -3.4039
    -3.2516  -3.1961  -2.8872  -2.7783  -2.6257  -2.5981  -2.5203  -2.3633
    -2.0912  -1.8305  -1.4428  -1.2863  -1.2815  -1.2184  -1.0455  -0.9091
    -0.8633  -0.8071  -0.5817  -0.4600  -0.3556  -0.2895  -0.0933   0.2169
     0.2948   0.3230   0.5316   0.6271   1.1851   1.2187   1.5116   1.8606
     1.8833

          k = 0.4444 0.0000 0.0000 ( 37180 PWs)   bands (ev):

   -73.6038 -73.4970 -73.4949 -73.4924 -73.4448 -73.4335 -45.0167 -44.9768
   -44.9592 -44.8998 -44.8929 -44.8797 -44.8732 -44.8569 -44.8547 -44.8442
   -44.8308 -44.7947 -44.7610 -44.7409 -44.7362 -44.7311 -44.6675 -44.6582
   -18.2062 -18.0203 -17.9348 -17.8194 -17.7816 -17.7387 -17.6868 -17.4312
   -17.4179 -17.4109 -17.3016 -17.0784 -16.6212  -6.4546  -6.2909  -6.2699
    -6.0481  -6.0283  -5.9666  -5.9533  -5.8626  -5.7727  -5.6345  -5.6268
    -5.2527  -5.1682  -5.0115  -4.8548  -4.4919  -4.4469  -4.3027  -4.1292
    -4.0731  -4.0016  -3.8587  -3.8103  -3.7403  -3.4295  -3.2067  -3.1887
    -2.9324  -2.8546  -2.7904  -2.7468  -2.7335  -2.5478  -2.3427  -2.1707
    -2.0467  -1.8232  -1.4903  -1.4714  -1.4430  -1.2948  -1.2334  -1.2269
    -1.0866  -1.0176  -0.9137  -0.5596  -0.4108  -0.2346  -0.0736  -0.0623
     0.3192   0.3823   0.7909   0.8414   0.8421   1.1552   1.5155   1.8122
     2.6486

          k = 0.4444 0.1166 0.0000 ( 37248 PWs)   bands (ev):

   -73.6038 -73.4969 -73.4949 -73.4925 -73.4448 -73.4335 -45.0167 -44.9768
   -44.9592 -44.9032 -44.8941 -44.8850 -44.8730 -44.8536 -44.8492 -44.8442
   -44.8313 -44.7934 -44.7605 -44.7439 -44.7362 -44.7280 -44.6674 -44.6582
   -18.1973 -18.0310 -17.9294 -17.8071 -17.7700 -17.7256 -17.6816 -17.4822
   -17.4184 -17.4107 -17.3070 -17.0840 -16.6207  -6.6439  -6.4850  -6.3933
    -6.3011  -6.2086  -5.8791  -5.7842  -5.7216  -5.6131  -5.3817  -5.2220
    -5.1410  -5.0768  -4.7824  -4.6420  -4.5332  -4.4566  -4.3918  -4.1876
    -4.0629  -3.9873  -3.8449  -3.8080  -3.6554  -3.3792  -3.3244  -3.0518
    -3.0086  -2.9405  -2.7833  -2.7363  -2.7079  -2.5189  -2.4930  -2.1989
    -2.1519  -2.0576  -1.5012  -1.4571  -1.4083  -1.3786  -1.3211  -1.2394
    -1.0928  -1.0611  -0.9743  -0.9219  -0.6705  -0.5716  -0.3585   0.4132
     0.4562   0.6530   0.7151   0.8274   0.9317   1.3256   1.4758   1.8500
     1.9713

          k = 0.4444-0.2332 0.0000 ( 37264 PWs)   bands (ev):

   -73.6038 -73.4969 -73.4949 -73.4925 -73.4448 -73.4335 -45.0168 -44.9768
   -44.9592 -44.9061 -44.8953 -44.8890 -44.8729 -44.8506 -44.8451 -44.8442
   -44.8318 -44.7921 -44.7599 -44.7461 -44.7362 -44.7258 -44.6673 -44.6582
   -18.1875 -18.0430 -17.9228 -17.8245 -17.7297 -17.6818 -17.6433 -17.6121
   -17.4108 -17.3962 -17.3195 -17.0898 -16.6202  -6.7883  -6.7071  -6.4983
    -6.3490  -6.2628  -5.6300  -5.5776  -5.5522  -5.5238  -5.4216  -5.2166
    -5.0674  -4.7429  -4.6457  -4.5393  -4.5236  -4.4600  -4.2922  -4.2514
    -4.1312  -3.9692  -3.7395  -3.5555  -3.5164  -3.4377  -3.3620  -3.2657
    -3.1075  -3.0389  -2.8000  -2.7217  -2.6601  -2.6456  -2.5186  -2.3672
    -2.0582  -2.0552  -1.7040  -1.5264  -1.4373  -1.4270  -1.4058  -1.3598
    -1.2677  -1.1737  -1.0951  -0.9723  -0.8329  -0.5411  -0.4380   0.5012
     0.5903   0.6618   0.8196   0.8400   1.0046   1.4013   1.5308   1.6552
     1.6784

 ------ SPIN DOWN ----------


          k = 0.0000 0.0000 0.0000 ( 37133 PWs)   bands (ev):

   -72.0274 -71.2957 -71.0892 -71.0494 -70.9620 -70.6546 -44.1494 -42.9873
   -42.9785 -42.7340 -42.7127 -42.6485 -42.6037 -42.5796 -42.5513 -42.3308
   -42.2630 -42.2419 -42.2166 -42.1677 -42.1332 -42.0614 -41.9430 -41.8592
   -19.5424 -19.1928 -18.9104 -18.4840 -18.2382 -18.0301 -17.9400 -17.7816
   -17.7063 -17.5415 -17.4345 -17.3298 -17.1625  -6.7752  -6.6474  -6.3723
    -5.9304  -5.7140  -5.4662  -5.4030  -4.9342  -4.9022  -4.8660  -4.7678
    -4.5621  -4.5372  -4.4694  -4.3827  -4.3269  -3.8664  -3.6502  -3.6050
    -3.3310  -3.3016  -3.2132  -3.1666  -2.9551  -2.9496  -2.7709  -2.6385
    -2.5158  -2.3317  -2.1779  -1.9656  -1.9469  -1.9301  -1.6550  -1.5365
    -1.5347  -1.4769  -1.2244  -0.8814   1.4844   1.7441   1.8192   1.9195
     1.9444   1.9927   2.0667   2.1217   2.2479   2.2930   2.3077   2.4005
     2.5036   2.5792   2.7146   2.7215   2.9722   3.2659   3.5397   3.5627
     4.0112

          k = 0.0000 0.1166 0.0000 ( 37130 PWs)   bands (ev):

   -72.0274 -71.2957 -71.0893 -71.0494 -70.9620 -70.6546 -44.1494 -42.9872
   -42.9773 -42.7329 -42.7120 -42.6497 -42.6037 -42.5796 -42.5513 -42.3308
   -42.2629 -42.2430 -42.2166 -42.1676 -42.1332 -42.0615 -41.9438 -41.8592
   -19.4218 -19.0870 -18.8117 -18.6723 -18.3953 -18.1807 -17.8615 -17.7762
   -17.6951 -17.5425 -17.4176 -17.3439 -17.1575  -6.4888  -6.3820  -6.1405
    -5.9436  -5.7246  -5.4893  -5.2094  -4.8726  -4.8699  -4.7542  -4.7383
    -4.5334  -4.5292  -4.4737  -4.4559  -4.2147  -4.0425  -3.9455  -3.8117
    -3.5724  -3.3148  -3.2559  -3.1832  -2.9609  -2.8029  -2.7574  -2.7408
    -2.5102  -2.4038  -2.2553  -2.2097  -2.0765  -1.9324  -1.8707  -1.8002
    -1.6782  -1.5071  -1.3911  -1.0119   1.7845   1.8327   2.0395   2.0920
     2.1397   2.2009   2.2244   2.2499   2.2765   2.3783   2.3821   2.4582
     2.5166   2.5741   2.6943   2.8148   2.9339   3.1359   3.4279   3.7553
     4.2466

          k = 0.0000-0.2332 0.0000 ( 37126 PWs)   bands (ev):

   -72.0274 -71.2957 -71.0893 -71.0494 -70.9621 -70.6547 -44.1494 -42.9872
   -42.9762 -42.7319 -42.7113 -42.6508 -42.6037 -42.5797 -42.5512 -42.3308
   -42.2629 -42.2441 -42.2166 -42.1675 -42.1331 -42.0616 -41.9445 -41.8593
   -19.1242 -19.1052 -18.7788 -18.7330 -18.5263 -18.4333 -17.8205 -17.7662
   -17.6820 -17.5468 -17.4059 -17.3565 -17.1529  -6.1289  -6.0257  -5.9633
    -5.8256  -5.7515  -5.5309  -4.8930  -4.8740  -4.8410  -4.7080  -4.6272
    -4.5187  -4.5047  -4.4795  -4.3693  -4.2616  -4.2292  -4.2118  -4.0905
    -3.6748  -3.5813  -3.4779  -3.1275  -2.9557  -2.9163  -2.8949  -2.8203
    -2.5680  -2.4869  -2.3946  -2.3220  -2.1616  -1.9908  -1.9615  -1.8757
    -1.6953  -1.4202  -1.3843  -1.2850   1.8902   2.0121   2.0192   2.1295
     2.2894   2.3790   2.3816   2.4590   2.4695   2.4993   2.5024   2.5049
     2.5272   2.6842   2.6867   2.6885   3.0735   3.1890   3.2439   3.9733
     4.0373

          k = 0.1111 0.0000 0.0000 ( 37175 PWs)   bands (ev):

   -72.0260 -71.2941 -71.0877 -71.0478 -70.9605 -70.6530 -44.1478 -43.0075
   -42.9746 -42.7322 -42.7110 -42.6471 -42.6061 -42.5963 -42.5495 -42.3266
   -42.2589 -42.2380 -42.2156 -42.1889 -42.1554 -42.0836 -41.9387 -41.8825
   -19.4332 -19.0932 -18.8212 -18.4069 -18.1747 -17.9916 -17.9618 -17.8031
   -17.6876 -17.5602 -17.4512 -17.3466 -17.1827  -6.6621  -6.5506  -6.2714
    -5.8409  -5.6573  -5.4494  -5.3765  -5.1906  -5.0536  -4.9060  -4.8303
    -4.7722  -4.6562  -4.4979  -4.1133  -4.0127  -3.6927  -3.5166  -3.4885
    -3.3781  -3.3343  -3.3270  -3.0967  -3.0955  -3.0099  -2.9045  -2.7841
    -2.5660  -2.4734  -2.2780  -2.2725  -2.0984  -2.0739  -1.8117  -1.7117
    -1.5615  -1.4752  -1.3846  -0.9649   1.5848   1.7648   1.9776   2.0066
     2.0800   2.0982   2.1300   2.1578   2.1864   2.2548   2.3978   2.5173
     2.5865   2.6490   2.7454   2.8666   2.8888   3.1805   3.4787   3.6342
     4.0689

          k = 0.1111 0.1166 0.0000 ( 37124 PWs)   bands (ev):

   -72.0260 -71.2941 -71.0877 -71.0478 -70.9605 -70.6530 -44.1478 -43.0075
   -42.9736 -42.7313 -42.7104 -42.6481 -42.6061 -42.5963 -42.5495 -42.3266
   -42.2589 -42.2391 -42.2156 -42.1887 -42.1554 -42.0836 -41.9393 -41.8825
   -19.3170 -18.9910 -18.7266 -18.5956 -18.3282 -18.1351 -17.8746 -17.7968
   -17.6746 -17.5641 -17.4349 -17.3633 -17.1777  -6.3746  -6.2777  -6.0302
    -5.8542  -5.6625  -5.4533  -5.2775  -5.0893  -5.0139  -4.9071  -4.7677
    -4.6898  -4.5502  -4.4903  -4.1280  -4.0098  -3.9418  -3.7452  -3.6728
    -3.6136  -3.3618  -3.3513  -3.2586  -3.2063  -3.1137  -2.8171  -2.7702
    -2.6421  -2.5747  -2.4098  -2.3392  -2.2283  -2.1250  -1.8521  -1.8405
    -1.6526  -1.5003  -1.4207  -1.0612   1.7739   1.8769   2.0734   2.0872
     2.1628   2.2231   2.2634   2.2980   2.3692   2.4358   2.4943   2.5390
     2.6248   2.6695   2.7633   2.8401   2.9642   3.0662   3.3585   3.8056
     4.0818

          k = 0.1111-0.2332 0.0000 ( 37144 PWs)   bands (ev):

   -72.0260 -71.2941 -71.0878 -71.0479 -70.9605 -70.6530 -44.1478 -43.0076
   -42.9726 -42.7304 -42.7098 -42.6491 -42.6061 -42.5963 -42.5495 -42.3266
   -42.2588 -42.2402 -42.2157 -42.1885 -42.1554 -42.0836 -41.9400 -41.8825
   -19.0307 -19.0093 -18.6971 -18.6517 -18.4642 -18.3651 -17.8344 -17.7863
   -17.6571 -17.5739 -17.4228 -17.3786 -17.1730  -6.0070  -5.9301  -5.8571
    -5.6960  -5.6779  -5.5093  -5.0884  -5.0468  -4.9368  -4.9079  -4.6297
    -4.5682  -4.4775  -4.3789  -4.2239  -4.1563  -4.0683  -3.9876  -3.9872
    -3.7503  -3.6129  -3.5300  -3.4678  -3.3040  -3.2481  -3.0395  -2.7503
    -2.7009  -2.6497  -2.4811  -2.4272  -2.2254  -2.1141  -1.8460  -1.8241
    -1.6701  -1.4188  -1.3808  -1.2967   1.8713   1.9845   2.0449   2.1570
     2.2450   2.3146   2.3246   2.4491   2.4580   2.5135   2.6731   2.7194
     2.7288   2.7902   2.8042   2.8045   3.0579   3.1102   3.2483   3.8088
     4.0067

          k = 0.2222 0.0000 0.0000 ( 37192 PWs)   bands (ev):

   -72.0222 -71.2898 -71.0837 -71.0437 -70.9564 -70.6488 -44.1436 -43.0587
   -42.9649 -42.7276 -42.7065 -42.6623 -42.6437 -42.5876 -42.5459 -42.3159
   -42.2487 -42.2459 -42.2280 -42.2114 -42.2101 -42.1396 -41.9416 -41.9278
   -19.1358 -18.8273 -18.5842 -18.2124 -18.0227 -18.0184 -17.9203 -17.8582
   -17.6711 -17.5808 -17.4819 -17.3901 -17.2225  -6.3696  -6.3006  -6.0168
    -5.6601  -5.6271  -5.5066  -5.4324  -5.4212  -5.1508  -4.9882  -4.7592
    -4.6404  -4.5483  -4.3792  -4.3236  -4.0647  -4.0311  -3.8419  -3.7157
    -3.6675  -3.6300  -3.3331  -3.1127  -3.0636  -2.8932  -2.8458  -2.8178
    -2.7684  -2.6469  -2.5630  -2.4920  -2.2978  -2.2493  -2.0085  -1.9704
    -1.7357  -1.5618  -1.5088  -1.1958   1.7099   1.7630   1.9360   2.1762
     2.2152   2.2176   2.3122   2.3319   2.4329   2.4507   2.5363   2.5662
     2.6658   2.7130   2.7786   2.9599   2.9733   3.1263   3.2476   3.8034
     3.9986

          k = 0.2222 0.1166 0.0000 ( 37137 PWs)   bands (ev):

   -72.0222 -71.2898 -71.0837 -71.0437 -70.9564 -70.6488 -44.1436 -43.0589
   -42.9643 -42.7272 -42.7063 -42.6623 -42.6442 -42.5876 -42.5459 -42.3159
   -42.2486 -42.2472 -42.2275 -42.2115 -42.2101 -42.1395 -41.9415 -41.9281
   -19.0338 -18.7367 -18.5037 -18.4078 -18.1717 -18.0369 -17.8914 -17.8490
   -17.6601 -17.5835 -17.4719 -17.4142 -17.2182  -6.0864  -6.0209  -5.7605
    -5.6690  -5.5006  -5.4805  -5.4319  -5.3070  -5.1648  -5.0775  -4.6766
    -4.6048  -4.5577  -4.3794  -4.2646  -4.1414  -4.0887  -3.9344  -3.8848
    -3.7741  -3.5741  -3.4336  -3.4044  -3.2956  -3.1953  -3.0989  -2.9662
    -2.8749  -2.6956  -2.5591  -2.3904  -2.3123  -2.0925  -1.9764  -1.9094
    -1.7129  -1.6067  -1.5053  -1.2473   1.7623   1.8443   1.9788   2.0970
     2.2244   2.2416   2.3538   2.4280   2.4935   2.5169   2.6479   2.6831
     2.7545   2.8274   2.8580   2.9422   2.9895   3.1272   3.2357   3.7599
     3.8784

          k = 0.2222-0.2332 0.0000 ( 37166 PWs)   bands (ev):

   -72.0222 -71.2898 -71.0837 -71.0438 -70.9564 -70.6488 -44.1436 -43.0591
   -42.9637 -42.7267 -42.7060 -42.6623 -42.6447 -42.5876 -42.5459 -42.3159
   -42.2485 -42.2484 -42.2269 -42.2116 -42.2101 -42.1393 -41.9413 -41.9285
   -18.7825 -18.7572 -18.4929 -18.4475 -18.3144 -18.1891 -17.8593 -17.8373
   -17.6423 -17.5950 -17.4605 -17.4395 -17.2144  -5.7449  -5.7421  -5.5630
    -5.4593  -5.4471  -5.3911  -5.2440  -5.2363  -5.1083  -4.9852  -4.7567
    -4.6144  -4.5736  -4.4787  -4.4561  -4.2694  -4.1027  -4.0334  -3.9502
    -3.8358  -3.8194  -3.7288  -3.6264  -3.4737  -3.2679  -3.1961  -3.1299
    -3.1150  -2.7868  -2.6118  -2.3207  -2.1853  -2.0265  -1.9231  -1.7684
    -1.7093  -1.6828  -1.3815  -1.3641   1.8137   1.8904   1.9849   2.0586
     2.2200   2.2618   2.3827   2.4542   2.5112   2.5182   2.8305   2.8471
     2.8941   2.9272   3.0288   3.0535   3.0549   3.1590   3.2885   3.4058
     3.7271

          k = 0.3333 0.0000 0.0000 ( 37184 PWs)   bands (ev):

   -72.0176 -71.2847 -71.0788 -71.0388 -70.9514 -70.6436 -44.1389 -43.1170
   -42.9537 -42.7283 -42.7224 -42.7016 -42.6399 -42.5752 -42.5423 -42.3086
   -42.3031 -42.2751 -42.2372 -42.2167 -42.2067 -42.2030 -42.0087 -41.9153
   -18.7397 -18.4930 -18.2806 -18.0847 -18.0071 -17.9219 -17.9117 -17.8881
   -17.6950 -17.5776 -17.4755 -17.4412 -17.2333  -6.0981  -5.9622  -5.7576
    -5.7299  -5.6245  -5.5624  -5.4518  -5.3420  -5.1232  -5.0870  -4.9076
    -4.8223  -4.6139  -4.5303  -4.4057  -4.2759  -4.1470  -4.0951  -3.9548
    -3.8830  -3.6537  -3.5689  -3.3229  -3.2909  -3.1034  -3.0020  -2.9962
    -2.7469  -2.6799  -2.5068  -2.4657  -2.2682  -2.2280  -2.1021  -1.8658
    -1.8563  -1.8063  -1.5480  -1.5350   1.7242   1.9072   1.9499   2.1403
     2.2603   2.2759   2.3251   2.4104   2.4726   2.6464   2.6622   2.7364
     2.7381   2.8528   2.9638   2.9702   3.0017   3.0926   3.1848   3.6007
     3.9019

          k = 0.3333 0.1166 0.0000 ( 37206 PWs)   bands (ev):

   -72.0176 -71.2847 -71.0788 -71.0388 -70.9514 -70.6436 -44.1389 -43.1173
   -42.9536 -42.7282 -42.7226 -42.7017 -42.6399 -42.5752 -42.5423 -42.3090
   -42.3031 -42.2752 -42.2372 -42.2165 -42.2067 -42.2026 -42.0084 -41.9154
   -18.6659 -18.4266 -18.2463 -18.2177 -18.0610 -17.9176 -17.9076 -17.8825
   -17.7032 -17.5689 -17.4863 -17.4680 -17.2322  -5.8484  -5.7558  -5.7048
    -5.5951  -5.5537  -5.4746  -5.4020  -5.3737  -5.2496  -5.0037  -4.9192
    -4.8728  -4.7207  -4.5749  -4.4742  -4.2739  -4.1708  -3.9983  -3.9662
    -3.8115  -3.7701  -3.5587  -3.4666  -3.4057  -3.2081  -3.1771  -2.9513
    -2.8433  -2.6940  -2.6067  -2.4267  -2.3292  -2.1773  -2.1407  -1.9448
    -1.8396  -1.7669  -1.5726  -1.5007   1.7049   1.8057   1.9357   2.0286
     2.1206   2.3029   2.3845   2.4503   2.4675   2.6089   2.6395   2.8333
     2.8783   2.9080   2.9511   2.9958   3.1361   3.1529   3.2446   3.4604
     3.6672

          k = 0.3333-0.2332 0.0000 ( 37216 PWs)   bands (ev):

   -72.0176 -71.2847 -71.0788 -71.0388 -70.9514 -70.6435 -44.1389 -43.1176
   -42.9535 -42.7280 -42.7227 -42.7019 -42.6398 -42.5752 -42.5423 -42.3094
   -42.3032 -42.2753 -42.2372 -42.2164 -42.2067 -42.2022 -42.0081 -41.9155
   -18.4730 -18.4719 -18.2751 -18.2435 -18.1338 -17.9596 -17.8978 -17.8688
   -17.7145 -17.5423 -17.5273 -17.4790 -17.2313  -5.6439  -5.6324  -5.5129
    -5.4890  -5.4832  -5.4268  -5.3251  -5.2500  -5.0844  -5.0250  -4.9203
    -4.8363  -4.7999  -4.7385  -4.6201  -4.2691  -4.1776  -4.1411  -4.0930
    -3.9850  -3.6800  -3.6344  -3.5077  -3.4459  -3.4233  -3.0933  -3.0706
    -2.9858  -2.7974  -2.6018  -2.3539  -2.2568  -2.1599  -2.1299  -2.1175
    -1.8024  -1.7488  -1.5274  -1.5141   1.6893   1.7398   1.7768   2.0043
     2.1443   2.3088   2.3856   2.4372   2.4529   2.6226   2.7992   2.8158
     2.9146   2.9703   3.0634   3.0944   3.1447   3.1806   3.2523   3.3792
     3.4549

          k = 0.4444 0.0000 0.0000 ( 37180 PWs)   bands (ev):

   -72.0145 -71.2812 -71.0754 -71.0354 -70.9480 -70.6400 -44.1359 -43.1550
   -42.9465 -42.7713 -42.7191 -42.6984 -42.6374 -42.5667 -42.5404 -42.3489
   -42.3165 -42.2954 -42.2463 -42.2278 -42.2092 -42.2043 -42.0526 -41.9071
   -18.3995 -18.2335 -18.1291 -18.0208 -18.0066 -17.9642 -17.9194 -17.8405
   -17.6960 -17.6134 -17.4755 -17.4374 -17.2121  -6.0152  -5.8193  -5.7668
    -5.7088  -5.6930  -5.5770  -5.4023  -5.3467  -5.3186  -5.2130  -4.9662
    -4.9412  -4.8243  -4.6062  -4.4675  -4.2552  -4.2097  -3.9076  -3.8014
    -3.7774  -3.7507  -3.7166  -3.4867  -3.4401  -3.4039  -3.0208  -2.8172
    -2.8005  -2.7601  -2.5353  -2.4341  -2.3872  -2.2934  -2.1192  -2.0230
    -1.9371  -1.8093  -1.7466  -1.4326   1.8387   2.0336   2.0577   2.0663
     2.1399   2.1940   2.3300   2.4042   2.4529   2.4915   2.7486   2.8496
     2.8649   2.9070   2.9932   3.0435   3.0780   3.1361   3.3502   3.4151
     3.8092

          k = 0.4444 0.1166 0.0000 ( 37248 PWs)   bands (ev):

   -72.0145 -71.2812 -71.0754 -71.0354 -70.9480 -70.6399 -44.1359 -43.1554
   -42.9467 -42.7711 -42.7196 -42.6988 -42.6371 -42.5667 -42.5404 -42.3494
   -42.3167 -42.2954 -42.2457 -42.2278 -42.2090 -42.2042 -42.0521 -41.9071
   -18.3821 -18.2368 -18.1352 -18.0285 -18.0022 -17.9687 -17.9101 -17.8099
   -17.6863 -17.6306 -17.5208 -17.4426 -17.2121  -6.0339  -5.8338  -5.8239
    -5.7188  -5.6180  -5.5138  -5.4102  -5.3792  -5.2228  -5.0996  -4.9209
    -4.8380  -4.7141  -4.4061  -4.3600  -4.2821  -4.2228  -4.0539  -3.9446
    -3.8595  -3.7260  -3.6942  -3.6101  -3.5663  -3.1801  -2.9686  -2.9232
    -2.8568  -2.6286  -2.5524  -2.4610  -2.3943  -2.3473  -2.1525  -2.0154
    -1.9726  -1.9192  -1.8609  -1.4952   1.6945   1.7828   1.8384   1.9389
     2.1291   2.2078   2.3466   2.4033   2.5089   2.5803   2.7746   2.8349
     2.9106   2.9567   3.0308   3.0734   3.0842   3.2188   3.3140   3.3734
     3.4725

          k = 0.4444-0.2332 0.0000 ( 37264 PWs)   bands (ev):

   -72.0144 -71.2812 -71.0754 -71.0354 -70.9480 -70.6399 -44.1359 -43.1557
   -42.9470 -42.7708 -42.7202 -42.6992 -42.6367 -42.5667 -42.5404 -42.3498
   -42.3168 -42.2954 -42.2452 -42.2277 -42.2087 -42.2042 -42.0516 -41.9070
   -18.3596 -18.2489 -18.1328 -18.0536 -17.9877 -17.9652 -17.9080 -17.7287
   -17.7244 -17.6326 -17.5819 -17.4481 -17.2120  -6.0813  -6.0007  -5.8352
    -5.6872  -5.6117  -5.3043  -5.2330  -5.2177  -5.1782  -5.0232  -4.8997
    -4.6517  -4.5380  -4.5349  -4.4577  -4.3617  -4.2772  -4.1184  -4.0088
    -3.9217  -3.8279  -3.6294  -3.5787  -3.4058  -3.2362  -3.0738  -2.9707
    -2.7468  -2.7141  -2.5831  -2.4472  -2.3576  -2.3392  -2.2032  -2.0846
    -1.9977  -1.9812  -1.7871  -1.7238   1.5928   1.6149   1.6625   1.9411
     2.0179   2.1803   2.3588   2.4419   2.5131   2.7250   2.7521   2.7904
     2.8928   2.8995   2.9615   3.0456   3.0586   3.2798   3.2982   3.4183
     3.5007

     the Fermi energy is    -0.1744 ev

!    total energy              =   -1594.35451396 Ry
     estimated scf accuracy    <       0.00000048 Ry
     smearing contrib. (-TS)   =      -0.00012678 Ry
     internal energy E=F+TS    =   -1594.35438717 Ry

     The total energy is F=E-TS. E is the sum of the following terms:
     one-electron contribution =  -15387.27769061 Ry
     hartree contribution      =    7716.09438591 Ry
     xc contribution           =    -230.42686374 Ry
     ewald contribution        =    6430.23021552 Ry
     Hubbard energy            =       0.80285242 Ry
     one-center paw contrib.   =    -123.77728667 Ry

     total magnetization       =    10.00 Bohr mag/cell
     absolute magnetization    =    15.79 Bohr mag/cell

     convergence has been achieved in  25 iterations

     negative rho (up, down):  2.416E-03 2.033E-02
     force_hub    :      0.91s CPU      1.03s WALL (       1 calls)
     dndtau       :      0.76s CPU      0.87s WALL (     456 calls)
     dprojdtau    :      0.08s CPU      0.10s WALL (    2736 calls)
     matel_dSdtau :      0.63s CPU      0.69s WALL (     456 calls)

     Forces acting on atoms (cartesian axes, Ry/au):

     atom    1 type  1   force =     0.00000000    0.00000000    0.10063876
     atom    2 type  1   force =     0.00000000    0.00000000   -0.07404210
     atom    3 type  1   force =     0.00000000    0.00000000    0.00537357
     atom    4 type  1   force =     0.00000000    0.00000000    0.01245350
     atom    5 type  1   force =     0.00000000    0.00000000    0.01207622
     atom    6 type  1   force =     0.00000000    0.00000000    0.01882791
     atom    7 type  2   force =     0.00000000    0.00000000    0.03825615
     atom    8 type  2   force =     0.00000000    0.00000000    0.03814574
     atom    9 type  2   force =     0.00000000    0.00955580   -0.03814681
     atom   10 type  2   force =     0.00000000   -0.00955580   -0.03814681
     atom   11 type  2   force =     0.00000000    0.00000000   -0.01857914
     atom   12 type  2   force =     0.00000000    0.00000000   -0.01866815
     atom   13 type  2   force =     0.00000000    0.00290629   -0.00077556
     atom   14 type  2   force =     0.00000000   -0.00290629   -0.00077556
     atom   15 type  2   force =     0.00000000    0.00000000   -0.02292698
     atom   16 type  2   force =     0.00000000    0.00000000   -0.00519857
     atom   17 type  2   force =     0.00000000   -0.00646364    0.00231353
     atom   18 type  2   force =     0.00000000    0.00646364    0.00231353
     atom   19 type  2   force =     0.00000000    0.00000000   -0.01313924

     Total force =     0.043210     Total SCF correction =     0.002863

     Writing all to output data dir ./tmp_s0_O__u200/s0_O__u200.save/ :
     XML data file, charge density, pseudopotentials, collected wavefunctions

     init_run     :      2.68s CPU      2.85s WALL (       1 calls)
     electrons    :    160.77s CPU    165.09s WALL (       1 calls)
     forces       :      1.67s CPU      1.79s WALL (       1 calls)

     Called by init_run:
     wfcinit      :      1.22s CPU      1.27s WALL (       1 calls)
     potinit      :      0.43s CPU      0.45s WALL (       1 calls)
     hinit0       :      0.66s CPU      0.72s WALL (       1 calls)

     Called by electrons:
     c_bands      :    118.13s CPU    121.85s WALL (      25 calls)
     sum_band     :     28.56s CPU     28.91s WALL (      25 calls)
     v_of_rho     :      2.77s CPU      2.83s WALL (      26 calls)
     newd         :      2.09s CPU      2.13s WALL (      26 calls)
     PAW_pot      :      4.69s CPU      4.71s WALL (      26 calls)
     mix_rho      :      2.77s CPU      2.84s WALL (      25 calls)

     Called by c_bands:
     init_us_2    :      1.36s CPU      1.39s WALL (     432 calls)
     cegterg      :     57.69s CPU     60.77s WALL (     200 calls)

     Called by *egterg:
     cdiaghg      :      7.63s CPU      7.95s WALL (     842 calls)
     h_psi        :     35.83s CPU     38.01s WALL (     850 calls)
     s_psi        :      2.73s CPU      2.84s WALL (     866 calls)
     g_psi        :      0.18s CPU      0.18s WALL (     642 calls)

     Called by h_psi:
     h_psi:calbec :      3.98s CPU      4.09s WALL (     850 calls)
     vloc_psi     :     27.29s CPU     29.21s WALL (     850 calls)
                                        0.00s GPU  (     850 calls)
     add_vuspsi   :      2.59s CPU      2.70s WALL (     850 calls)
     vhpsi        :      1.74s CPU      1.77s WALL (     850 calls)

     General routines
     calbec       :      8.61s CPU      8.83s WALL (    3980 calls)
     fft          :      2.30s CPU      2.39s WALL (     663 calls)
     ffts         :      2.14s CPU      2.17s WALL (    3054 calls)
     fftw         :     31.75s CPU     33.67s WALL (  102866 calls)
     interpolate  :      0.45s CPU      0.46s WALL (      52 calls)

     Parallel routines

     Hubbard U routines
     new_ns       :      1.63s CPU      1.67s WALL (      25 calls)
     vhpsi        :      1.74s CPU      1.77s WALL (     850 calls)
     force_hub    :      0.91s CPU      1.03s WALL (       1 calls)

     PWSCF        :   2m46.60s CPU   2m51.52s WALL


   This run was terminated on:   4:43:51  28Aug2026            

=------------------------------------------------------------------------------=
   JOB DONE.
=------------------------------------------------------------------------------=
Note: The following floating-point exceptions are signalling: IEEE_DENORMAL
Note: The following floating-point exceptions are signalling: IEEE_DENORMAL
Note: The following floating-point exceptions are signalling: IEEE_DENORMAL
Note: The following floating-point exceptions are signalling: IEEE_DENORMAL
Note: The following floating-point exceptions are signalling: IEEE_DENORMAL
Note: The following floating-point exceptions are signalling: IEEE_DENORMAL
Note: The following floating-point exceptions are signalling: IEEE_DENORMAL
Note: The following floating-point exceptions are signalling: IEEE_DENORMAL
Note: The following floating-point exceptions are signalling: IEEE_DENORMAL
Note: The following floating-point exceptions are signalling: IEEE_DENORMAL
Note: The following floating-point exceptions are signalling: IEEE_DENORMAL
Note: The following floating-point exceptions are signalling: IEEE_DENORMAL
Note: The following floating-point exceptions are signalling: IEEE_DENORMAL
Note: The following floating-point exceptions are signalling: IEEE_DENORMAL
Note: The following floating-point exceptions are signalling: IEEE_DENORMAL
Note: The following floating-point exceptions are signalling: IEEE_DENORMAL
Note: The following floating-point exceptions are signalling: IEEE_DENORMAL
