
     Program PWSCF v.7.5 starts on 28Aug2026 at  3:19:50 

     This program is part of the open-source Quantum ESPRESSO suite
     for quantum simulation of materials; please cite
         "P. Giannozzi et al., J. Phys.:Condens. Matter 21 395502 (2009);
         "P. Giannozzi et al., J. Phys.:Condens. Matter 29 465901 (2017);
         "P. Giannozzi et al., J. Chem. Phys. 152 154105 (2020);
          URL http://www.quantum-espresso.org", 
     in publications or presentations arising from this work. More details at
     http://www.quantum-espresso.org/quote

     Parallel version (MPI & OpenMP), running on     128 processor cores
     Number of MPI processes:               128
     Threads/MPI process:                     1

     MPI processes distributed on     1 nodes
     213620 MiB available memory on the printing compute node when the environment starts

     Reading input from slab__u000.run.in

     Current dimensions of program PWSCF are:
     Max number of different atomic species (ntypx) = 10
     Max number of k-points (npk) =  40000
     Max angular momentum in pseudopotentials (lmaxx) =  4
     file O.pbe-n-kjpaw_psl.0.1.UPF: wavefunction(s)  2P renormalized

     K-points division:     npool     =       4
     R & G space division:  proc/nbgrp/npool/nimage =      32
     Subspace diagonalization in iterative solution of the eigenvalue problem:
     a serial algorithm will be used


     Parallelization info
     --------------------
     sticks:   dense  smooth     PW     G-vecs:    dense   smooth      PW
     Min         103      51     14                26275     9281    1388
     Max         104      52     15                26300     9316    1415
     Sum        3323    1653    471               841263   297421   44917

     Using Slab Decomposition



     bravais-lattice index     =            0
     lattice parameter (alat)  =       5.5104  a.u.
     unit-cell volume          =    3076.9124 (a.u.)^3
     number of atoms/cell      =           18
     number of atomic types    =            2
     number of electrons       =       156.00
     number of Kohn-Sham states=           94
     kinetic-energy cutoff     =      80.0000  Ry
     charge density cutoff     =     640.0000  Ry
     scf convergence threshold =      1.0E-06
     mixing beta               =       0.3000
     number of iterations used =            8  local-TF  mixing
     Exchange-correlation= SLA  PW   PBX  PBC
                           (   1   4   3   4   0   0   0)

     celldm(1)=   5.510441  celldm(2)=   0.000000  celldm(3)=   0.000000
     celldm(4)=   0.000000  celldm(5)=   0.000000  celldm(6)=   0.000000

     crystal axes: (cart. coord. in units of alat)
               a(1) = (   1.000000   0.000000   0.000000 )  
               a(2) = (   0.000000   2.144115   0.000000 )  
               a(3) = (   0.000000   0.000000   8.576458 )  

     reciprocal axes: (cart. coord. in units 2 pi/alat)
               b(1) = (  1.000000  0.000000  0.000000 )  
               b(2) = (  0.000000  0.466393  0.000000 )  
               b(3) = (  0.000000  0.000000  0.116598 )  


     PseudoPot. # 1 for Cr read from file:
     /anvil/projects/x-che260157/pseudo/cr_pbe_v1.5.uspp.F.UPF
     MD5 check sum: 0d52af634a40206e4dee301ad30da4bf
     Pseudo is Ultrasoft + core correction, Zval = 14.0
     Generated by new atomic code, or converted to UPF format
     Using radial grid of  857 points,  6 beta functions with: 
                l(1) =   0
                l(2) =   0
                l(3) =   1
                l(4) =   1
                l(5) =   2
                l(6) =   2
     Q(r) pseudized with  8 coefficients,  rinner =    0.950   0.950   0.950
                                                       0.950   0.950

     PseudoPot. # 2 for O  read from file:
     /anvil/projects/x-che260157/pseudo/O.pbe-n-kjpaw_psl.0.1.UPF
     MD5 check sum: 0234752ac141de4415c5fc33072bef88
     Pseudo is Projector augmented-wave + core cor, Zval =  6.0
     Generated using "atomic" code by A. Dal Corso  v.5.0.99 svn rev. 10869
     Shape of augmentation charge: BESSEL
     Using radial grid of 1095 points,  4 beta functions with: 
                l(1) =   0
                l(2) =   0
                l(3) =   1
                l(4) =   1
     Q(r) pseudized with 0 coefficients 


     atomic species   valence    mass     pseudopotential
     Cr               14.00    51.99600     Cr( 1.00)
     O                 6.00    15.99900     O ( 1.00)

     Starting magnetic structure 
     atomic species   magnetization
     Cr              0.600
     O               0.000

     No symmetry found



   Cartesian axes

     site n.     atom                  positions (alat units)
         1        Cr     tau(   1) = (   0.0000000   0.5360286   3.2161719  )
         2        Cr     tau(   2) = (   0.5000000   1.6080859   3.2161719  )
         3        Cr     tau(   3) = (  -0.0000000   1.6080860   4.3164302  )
         4        Cr     tau(   4) = (   0.5000000   0.5360287   4.2912559  )
         5        Cr     tau(   5) = (  -0.0000000   0.5360286   5.3515872  )
         6        Cr     tau(   6) = (   0.5000000   1.6080859   5.4465244  )
         7        O      tau(   7) = (   0.0000000   1.6080859   3.6342742  )
         8        O      tau(   8) = (   0.0000000   1.6080859   2.7980695  )
         9        O      tau(   9) = (   0.5000000   0.1179263   3.2161719  )
        10        O      tau(  10) = (   0.5000000   0.9541310   3.2161719  )
        11        O      tau(  11) = (  -0.0000000   0.5360286   4.7268135  )
        12        O      tau(  12) = (   0.0000000   0.5360286   3.8701268  )
        13        O      tau(  13) = (   0.5000000   1.1845330   4.3067243  )
        14        O      tau(  14) = (   0.5000000   2.0316389   4.3067243  )
        15        O      tau(  15) = (  -0.0000000   1.6080860   5.8305080  )
        16        O      tau(  16) = (   0.0000000   1.6080859   4.9821698  )
        17        O      tau(  17) = (   0.5000000   0.1237541   5.4360147  )
        18        O      tau(  18) = (   0.5000000   0.9483032   5.4360146  )

     number of k points=    36  Marzari-Vanderbilt smearing, width (Ry)=  0.0100
                       cart. coord. in units 2pi/alat
        k(    1) = (   0.0000000   0.0000000   0.0000000), wk =   0.0277778
        k(    2) = (   0.0000000   0.1165982   0.0000000), wk =   0.0277778
        k(    3) = (   0.0000000  -0.2331965   0.0000000), wk =   0.0277778
        k(    4) = (   0.0000000  -0.1165982   0.0000000), wk =   0.0277778
        k(    5) = (   0.1111111   0.0000000   0.0000000), wk =   0.0277778
        k(    6) = (   0.1111111   0.1165982   0.0000000), wk =   0.0277778
        k(    7) = (   0.1111111  -0.2331965   0.0000000), wk =   0.0277778
        k(    8) = (   0.1111111  -0.1165982   0.0000000), wk =   0.0277778
        k(    9) = (   0.2222222   0.0000000   0.0000000), wk =   0.0277778
        k(   10) = (   0.2222222   0.1165982   0.0000000), wk =   0.0277778
        k(   11) = (   0.2222222  -0.2331965   0.0000000), wk =   0.0277778
        k(   12) = (   0.2222222  -0.1165982   0.0000000), wk =   0.0277778
        k(   13) = (   0.3333333   0.0000000   0.0000000), wk =   0.0277778
        k(   14) = (   0.3333333   0.1165982   0.0000000), wk =   0.0277778
        k(   15) = (   0.3333333  -0.2331965   0.0000000), wk =   0.0277778
        k(   16) = (   0.3333333  -0.1165982   0.0000000), wk =   0.0277778
        k(   17) = (   0.4444444   0.0000000   0.0000000), wk =   0.0277778
        k(   18) = (   0.4444444   0.1165982   0.0000000), wk =   0.0277778
        k(   19) = (   0.4444444  -0.2331965   0.0000000), wk =   0.0277778
        k(   20) = (   0.4444444  -0.1165982   0.0000000), wk =   0.0277778
        k(   21) = (  -0.4444444   0.0000000   0.0000000), wk =   0.0277778
        k(   22) = (  -0.4444444   0.1165982   0.0000000), wk =   0.0277778
        k(   23) = (  -0.4444444  -0.2331965   0.0000000), wk =   0.0277778
        k(   24) = (  -0.4444444  -0.1165982   0.0000000), wk =   0.0277778
        k(   25) = (  -0.3333333   0.0000000   0.0000000), wk =   0.0277778
        k(   26) = (  -0.3333333   0.1165982   0.0000000), wk =   0.0277778
        k(   27) = (  -0.3333333  -0.2331965   0.0000000), wk =   0.0277778
        k(   28) = (  -0.3333333  -0.1165982   0.0000000), wk =   0.0277778
        k(   29) = (  -0.2222222   0.0000000   0.0000000), wk =   0.0277778
        k(   30) = (  -0.2222222   0.1165982   0.0000000), wk =   0.0277778
        k(   31) = (  -0.2222222  -0.2331965   0.0000000), wk =   0.0277778
        k(   32) = (  -0.2222222  -0.1165982   0.0000000), wk =   0.0277778
        k(   33) = (  -0.1111111   0.0000000   0.0000000), wk =   0.0277778
        k(   34) = (  -0.1111111   0.1165982   0.0000000), wk =   0.0277778
        k(   35) = (  -0.1111111  -0.2331965   0.0000000), wk =   0.0277778
        k(   36) = (  -0.1111111  -0.1165982   0.0000000), wk =   0.0277778

     Dense  grid:   841263 G-vectors     FFT dimensions: (  45,  96, 384)

     Smooth grid:   297421 G-vectors     FFT dimensions: (  32,  72, 270)

     Estimated max dynamical RAM per process >      87.05 MB

     Estimated total dynamical RAM >       9.68 GB

     Check: negative core charge=   -0.000001
     Generating pointlists ...
     new r_m :   0.2577 (alat units)  1.4201 (a.u.) for type    1
     new r_m :   0.2577 (alat units)  1.4201 (a.u.) for type    2

     Initial potential from superposition of free atoms

     starting charge     149.9999, renormalised to     156.0000

     negative rho (up, down):  4.216E-03 1.040E-03
     Starting wfcs are  108 randomized atomic wfcs
     Checking if some PAW data can be deallocated... 

     total cpu time spent up to now is        8.2 secs

     per-process dynamical memory:   115.8 Mb

     Self-consistent Calculation

     iteration #  1     ecut=    80.00 Ry     beta= 0.30
     Davidson diagonalization with overlap
     ethr =  1.00E-02,  avg # of iterations =  4.6

     negative rho (up, down):  3.871E-03 5.455E-03

     total cpu time spent up to now is       19.6 secs

     total energy              =   -1551.81169350 Ry
     estimated scf accuracy    <      16.30530789 Ry

     total magnetization       =    12.00 Bohr mag/cell
     absolute magnetization    =    15.87 Bohr mag/cell

     iteration #  2     ecut=    80.00 Ry     beta= 0.30
     Davidson diagonalization with overlap
     ethr =  1.00E-02,  avg # of iterations =  1.0

     negative rho (up, down):  4.109E-03 1.334E-02

     total cpu time spent up to now is       31.4 secs

     total energy              =   -1552.38209332 Ry
     estimated scf accuracy    <       6.65824126 Ry

     total magnetization       =    12.00 Bohr mag/cell
     absolute magnetization    =    16.81 Bohr mag/cell

     iteration #  3     ecut=    80.00 Ry     beta= 0.30
     Davidson diagonalization with overlap
     ethr =  4.27E-03,  avg # of iterations =  2.5

     negative rho (up, down):  3.451E-03 1.802E-02

     total cpu time spent up to now is       65.6 secs

     total energy              =   -1553.33119808 Ry
     estimated scf accuracy    <       1.35283095 Ry

     total magnetization       =    12.00 Bohr mag/cell
     absolute magnetization    =    18.46 Bohr mag/cell

     iteration #  4     ecut=    80.00 Ry     beta= 0.30
     Davidson diagonalization with overlap
     ethr =  8.67E-04,  avg # of iterations =  4.5

     negative rho (up, down):  2.318E-03 1.980E-02

     total cpu time spent up to now is       84.3 secs

     total energy              =   -1553.45294374 Ry
     estimated scf accuracy    <       0.56602457 Ry

     total magnetization       =    12.00 Bohr mag/cell
     absolute magnetization    =    18.06 Bohr mag/cell

     iteration #  5     ecut=    80.00 Ry     beta= 0.30
     Davidson diagonalization with overlap
     ethr =  3.63E-04,  avg # of iterations =  2.4

     negative rho (up, down):  2.415E-03 2.278E-02

     total cpu time spent up to now is       97.2 secs

     total energy              =   -1553.55907185 Ry
     estimated scf accuracy    <       0.26771871 Ry

     total magnetization       =    12.00 Bohr mag/cell
     absolute magnetization    =    16.53 Bohr mag/cell

     iteration #  6     ecut=    80.00 Ry     beta= 0.30
     Davidson diagonalization with overlap
     ethr =  1.72E-04,  avg # of iterations =  3.9

     negative rho (up, down):  2.115E-03 2.247E-02

     total cpu time spent up to now is      106.2 secs

     total energy              =   -1553.59208924 Ry
     estimated scf accuracy    <       0.07706397 Ry

     total magnetization       =    12.00 Bohr mag/cell
     absolute magnetization    =    15.97 Bohr mag/cell

     iteration #  7     ecut=    80.00 Ry     beta= 0.30
     Davidson diagonalization with overlap
     ethr =  4.94E-05,  avg # of iterations =  3.8

     negative rho (up, down):  1.949E-03 2.206E-02

     total cpu time spent up to now is      115.3 secs

     total energy              =   -1553.60409583 Ry
     estimated scf accuracy    <       0.00955866 Ry

     total magnetization       =    12.00 Bohr mag/cell
     absolute magnetization    =    15.37 Bohr mag/cell

     iteration #  8     ecut=    80.00 Ry     beta= 0.30
     Davidson diagonalization with overlap
     ethr =  6.13E-06,  avg # of iterations = 13.6

     negative rho (up, down):  1.682E-03 2.107E-02

     total cpu time spent up to now is      128.9 secs

     total energy              =   -1553.60748173 Ry
     estimated scf accuracy    <       0.00597284 Ry

     total magnetization       =    12.00 Bohr mag/cell
     absolute magnetization    =    15.02 Bohr mag/cell

     iteration #  9     ecut=    80.00 Ry     beta= 0.30
     Davidson diagonalization with overlap
     ethr =  3.83E-06,  avg # of iterations =  3.1

     negative rho (up, down):  1.463E-03 2.011E-02

     total cpu time spent up to now is      135.9 secs

     total energy              =   -1553.60855416 Ry
     estimated scf accuracy    <       0.00463506 Ry

     total magnetization       =    12.00 Bohr mag/cell
     absolute magnetization    =    14.72 Bohr mag/cell

     iteration # 10     ecut=    80.00 Ry     beta= 0.30
     Davidson diagonalization with overlap
     ethr =  2.97E-06,  avg # of iterations =  2.7

     negative rho (up, down):  1.380E-03 1.969E-02

     total cpu time spent up to now is      142.8 secs

     total energy              =   -1553.60887192 Ry
     estimated scf accuracy    <       0.00186132 Ry

     total magnetization       =    12.00 Bohr mag/cell
     absolute magnetization    =    14.47 Bohr mag/cell

     iteration # 11     ecut=    80.00 Ry     beta= 0.30
     Davidson diagonalization with overlap
     ethr =  1.19E-06,  avg # of iterations =  2.9

     negative rho (up, down):  1.386E-03 1.965E-02

     total cpu time spent up to now is      150.3 secs

     total energy              =   -1553.60918409 Ry
     estimated scf accuracy    <       0.00032140 Ry

     total magnetization       =    12.00 Bohr mag/cell
     absolute magnetization    =    14.30 Bohr mag/cell

     iteration # 12     ecut=    80.00 Ry     beta= 0.30
     Davidson diagonalization with overlap
     ethr =  2.06E-07,  avg # of iterations =  3.5

     negative rho (up, down):  1.371E-03 1.950E-02

     total cpu time spent up to now is      159.4 secs

     total energy              =   -1553.60918637 Ry
     estimated scf accuracy    <       0.00026085 Ry

     total magnetization       =    12.00 Bohr mag/cell
     absolute magnetization    =    14.28 Bohr mag/cell

     iteration # 13     ecut=    80.00 Ry     beta= 0.30
     Davidson diagonalization with overlap
     ethr =  1.67E-07,  avg # of iterations =  2.7

     negative rho (up, down):  1.418E-03 1.948E-02

     total cpu time spent up to now is      169.4 secs

     total energy              =   -1553.60922101 Ry
     estimated scf accuracy    <       0.00008008 Ry

     total magnetization       =    12.00 Bohr mag/cell
     absolute magnetization    =    14.23 Bohr mag/cell

     iteration # 14     ecut=    80.00 Ry     beta= 0.30
     Davidson diagonalization with overlap
     ethr =  5.13E-08,  avg # of iterations =  3.2

     negative rho (up, down):  1.469E-03 1.950E-02

     total cpu time spent up to now is      176.3 secs

     total energy              =   -1553.60923084 Ry
     estimated scf accuracy    <       0.00004996 Ry

     total magnetization       =    12.00 Bohr mag/cell
     absolute magnetization    =    14.21 Bohr mag/cell

     iteration # 15     ecut=    80.00 Ry     beta= 0.30
     Davidson diagonalization with overlap
     ethr =  3.20E-08,  avg # of iterations =  1.7

     negative rho (up, down):  1.642E-03 1.957E-02

     total cpu time spent up to now is      182.3 secs

     total energy              =   -1553.60923153 Ry
     estimated scf accuracy    <       0.00003418 Ry

     total magnetization       =    12.00 Bohr mag/cell
     absolute magnetization    =    14.20 Bohr mag/cell

     iteration # 16     ecut=    80.00 Ry     beta= 0.30
     Davidson diagonalization with overlap
     ethr =  2.19E-08,  avg # of iterations =  3.2

     negative rho (up, down):  1.768E-03 1.964E-02

     total cpu time spent up to now is      189.2 secs

     total energy              =   -1553.60923867 Ry
     estimated scf accuracy    <       0.00002150 Ry

     total magnetization       =    12.00 Bohr mag/cell
     absolute magnetization    =    14.20 Bohr mag/cell

     iteration # 17     ecut=    80.00 Ry     beta= 0.30
     Davidson diagonalization with overlap
     ethr =  1.38E-08,  avg # of iterations =  1.7

     negative rho (up, down):  1.964E-03 1.977E-02

     total cpu time spent up to now is      196.0 secs

     total energy              =   -1553.60924394 Ry
     estimated scf accuracy    <       0.00001345 Ry

     total magnetization       =    12.00 Bohr mag/cell
     absolute magnetization    =    14.20 Bohr mag/cell

     iteration # 18     ecut=    80.00 Ry     beta= 0.30
     Davidson diagonalization with overlap
     ethr =  8.62E-09,  avg # of iterations =  2.1

     negative rho (up, down):  2.107E-03 1.986E-02

     total cpu time spent up to now is      202.3 secs

     total energy              =   -1553.60924626 Ry
     estimated scf accuracy    <       0.00000769 Ry

     total magnetization       =    12.00 Bohr mag/cell
     absolute magnetization    =    14.21 Bohr mag/cell

     iteration # 19     ecut=    80.00 Ry     beta= 0.30
     Davidson diagonalization with overlap
     ethr =  4.93E-09,  avg # of iterations =  2.9

     negative rho (up, down):  2.222E-03 1.994E-02

     total cpu time spent up to now is      209.5 secs

     total energy              =   -1553.60924832 Ry
     estimated scf accuracy    <       0.00000386 Ry

     total magnetization       =    12.00 Bohr mag/cell
     absolute magnetization    =    14.23 Bohr mag/cell

     iteration # 20     ecut=    80.00 Ry     beta= 0.30
     Davidson diagonalization with overlap
     ethr =  2.47E-09,  avg # of iterations =  2.2

     negative rho (up, down):  2.339E-03 2.001E-02

     total cpu time spent up to now is      216.2 secs

     total energy              =   -1553.60924917 Ry
     estimated scf accuracy    <       0.00000253 Ry

     total magnetization       =    12.00 Bohr mag/cell
     absolute magnetization    =    14.23 Bohr mag/cell

     iteration # 21     ecut=    80.00 Ry     beta= 0.30
     Davidson diagonalization with overlap
     ethr =  1.62E-09,  avg # of iterations =  2.1

     negative rho (up, down):  2.423E-03 2.009E-02

     Magnetic moment per site  (integrated on atomic sphere of radius R)
     atom   1 (R=0.258)  charge= 10.4054  magn=  1.9459
     atom   2 (R=0.258)  charge= 10.3241  magn=  1.4569
     atom   3 (R=0.258)  charge= 10.3479  magn=  1.7413
     atom   4 (R=0.258)  charge= 10.3609  magn=  1.7764
     atom   5 (R=0.258)  charge= 10.3926  magn=  1.8326
     atom   6 (R=0.258)  charge= 10.3320  magn=  1.5049
     atom   7 (R=0.258)  charge=  5.0451  magn= -0.0899
     atom   8 (R=0.258)  charge=  4.9403  magn= -0.1526
     atom   9 (R=0.258)  charge=  5.0678  magn= -0.0574
     atom  10 (R=0.258)  charge=  5.0678  magn= -0.0574
     atom  11 (R=0.258)  charge=  5.0653  magn= -0.0837
     atom  12 (R=0.258)  charge=  5.0533  magn= -0.0743
     atom  13 (R=0.258)  charge=  5.0663  magn= -0.0593
     atom  14 (R=0.258)  charge=  5.0663  magn= -0.0593
     atom  15 (R=0.258)  charge=  4.9755  magn= -0.1461
     atom  16 (R=0.258)  charge=  5.0120  magn= -0.0869
     atom  17 (R=0.258)  charge=  5.0606  magn= -0.0427
     atom  18 (R=0.258)  charge=  5.0606  magn= -0.0427

     total cpu time spent up to now is      222.3 secs

     End of self-consistent calculation

 ------ SPIN UP ------------


          k = 0.0000 0.0000 0.0000 ( 37133 PWs)   bands (ev):

   -73.4293 -73.3147 -73.3120 -73.2168 -73.2062 -73.1965 -44.7751 -44.7362
   -44.7323 -44.6787 -44.6634 -44.6581 -44.6006 -44.5789 -44.5542 -44.5448
   -44.5143 -44.5066 -44.4861 -44.4549 -44.4438 -44.4388 -44.3850 -44.3669
   -19.4000 -19.0197 -18.7869 -18.4447 -17.9140 -17.7610 -17.7317 -17.5809
   -17.5502 -17.4577 -16.9291 -16.4635  -7.2279  -7.0911  -7.0662  -6.8305
    -5.9220  -5.8767  -5.5316  -5.3079  -5.2374  -5.1863  -5.1534  -5.1265
    -4.7968  -4.6970  -4.2496  -4.1107  -3.6452  -3.6021  -3.5067  -3.4223
    -3.3014  -3.2749  -2.9555  -2.9255  -2.9020  -2.6157  -2.5577  -2.2117
    -2.1014  -1.9938  -1.6761  -1.4067  -1.3865  -1.3472  -1.2564  -1.1590
    -1.0713  -0.9997  -0.9991  -0.9797  -0.9040  -0.8657  -0.8565  -0.7478
    -0.2972  -0.1867  -0.1419   0.0539   0.2090   0.4753   0.8414   1.0097
     1.0739   1.1942   1.3397   1.6934   2.3363   3.0294

          k = 0.0000 0.1166 0.0000 ( 37130 PWs)   bands (ev):

   -73.4293 -73.3143 -73.3124 -73.2168 -73.2061 -73.1966 -44.7751 -44.7349
   -44.7323 -44.6787 -44.6605 -44.6580 -44.5984 -44.5790 -44.5571 -44.5448
   -44.5135 -44.5074 -44.4875 -44.4549 -44.4461 -44.4388 -44.3846 -44.3673
   -19.2994 -18.9050 -18.6757 -18.5591 -18.0712 -17.9447 -17.8287 -17.5382
   -17.4784 -17.4420 -16.9256 -16.4548  -7.0420  -6.7965  -6.7798  -6.7007
    -5.9279  -5.7545  -5.4539  -5.3085  -5.1794  -5.1290  -5.0628  -4.9754
    -4.7958  -4.6952  -4.4027  -4.2900  -4.1054  -3.9552  -3.8216  -3.5640
    -3.4449  -3.2915  -3.0875  -3.0790  -2.7944  -2.7637  -2.6103  -2.4602
    -2.2389  -2.0957  -1.9610  -1.6932  -1.5441  -1.4032  -1.3166  -1.2130
    -1.0280  -0.9584  -0.7076  -0.6711  -0.6327  -0.5795  -0.5038  -0.3709
    -0.2382  -0.1272  -0.0116   0.0526   0.2153   0.4559   0.8189   0.8456
     0.9813   1.1497   1.2939   1.9175   2.5565   3.2111

          k = 0.0000-0.2332 0.0000 ( 37126 PWs)   bands (ev):

   -73.4293 -73.3136 -73.3131 -73.2168 -73.2060 -73.1967 -44.7751 -44.7335
   -44.7323 -44.6787 -44.6581 -44.6574 -44.5961 -44.5791 -44.5601 -44.5448
   -44.5124 -44.5085 -44.4889 -44.4549 -44.4485 -44.4389 -44.3843 -44.3676
   -19.1454 -18.7371 -18.7096 -18.4826 -18.3323 -18.1666 -17.8466 -17.5748
   -17.4495 -17.3900 -16.9231 -16.4469  -6.9720  -6.4018  -6.3775  -6.3692
    -5.9344  -5.6908  -5.3085  -5.1150  -5.0657  -5.0199  -5.0187  -4.9920
    -4.7940  -4.6926  -4.6632  -4.4348  -4.3520  -4.3257  -4.2103  -4.2086
    -3.6047  -3.3720  -3.2883  -3.1433  -3.1051  -2.8580  -2.8062  -2.1491
    -2.1197  -2.0811  -1.9895  -1.9306  -1.6030  -1.4253  -1.4039  -1.1404
    -1.1112  -0.9726  -0.6025  -0.5021  -0.4659  -0.4254  -0.2946  -0.1102
    -0.0221   0.0409   0.1364   0.1691   0.3105   0.4040   0.4726   0.7538
     0.8172   1.0358   1.4529   2.1103   2.6736   3.4736

          k = 0.0000-0.1166 0.0000 ( 37130 PWs)   bands (ev):

   -73.4293 -73.3143 -73.3124 -73.2168 -73.2061 -73.1966 -44.7751 -44.7349
   -44.7323 -44.6787 -44.6605 -44.6580 -44.5984 -44.5790 -44.5571 -44.5448
   -44.5135 -44.5074 -44.4875 -44.4549 -44.4461 -44.4388 -44.3846 -44.3673
   -19.2994 -18.9050 -18.6757 -18.5591 -18.0712 -17.9447 -17.8287 -17.5382
   -17.4784 -17.4420 -16.9256 -16.4548  -7.0420  -6.7965  -6.7798  -6.7007
    -5.9279  -5.7545  -5.4539  -5.3085  -5.1794  -5.1290  -5.0628  -4.9754
    -4.7958  -4.6952  -4.4027  -4.2900  -4.1054  -3.9552  -3.8216  -3.5640
    -3.4449  -3.2915  -3.0875  -3.0790  -2.7944  -2.7637  -2.6103  -2.4602
    -2.2389  -2.0957  -1.9610  -1.6932  -1.5441  -1.4032  -1.3166  -1.2130
    -1.0280  -0.9584  -0.7076  -0.6711  -0.6327  -0.5795  -0.5038  -0.3709
    -0.2382  -0.1272  -0.0116   0.0526   0.2153   0.4559   0.8189   0.8456
     0.9813   1.1497   1.2939   1.9175   2.5565   3.2111

          k = 0.1111 0.0000 0.0000 ( 37175 PWs)   bands (ev):

   -73.4278 -73.3131 -73.3106 -73.2153 -73.2046 -73.1950 -44.7728 -44.7345
   -44.7300 -44.6975 -44.6612 -44.6566 -44.5986 -44.5759 -44.5517 -44.5440
   -44.5328 -44.5261 -44.4832 -44.4580 -44.4516 -44.4410 -44.4047 -44.3861
   -19.2898 -18.9228 -18.6980 -18.3731 -17.9157 -17.7156 -17.6717 -17.6042
   -17.5760 -17.4839 -16.9566 -16.4790  -7.0730  -6.9574  -6.9377  -6.7087
    -5.8426  -5.7782  -5.5495  -5.5461  -5.4347  -5.3776  -5.3223  -4.7878
    -4.7715  -4.6733  -4.1900  -3.9296  -3.8699  -3.5459  -3.4058  -3.3167
    -3.3126  -3.1974  -3.1786  -3.0462  -2.9508  -2.7474  -2.7272  -2.6233
    -2.2861  -2.1796  -2.0198  -1.9286  -1.7787  -1.5587  -1.2655  -1.1681
    -1.1611  -1.0044  -0.8602  -0.7566  -0.7197  -0.6252  -0.5381  -0.3627
    -0.2369  -0.0844   0.0085   0.2851   0.3779   0.4674   0.7352   0.9895
     1.1107   1.1274   1.2602   1.7104   2.4203   3.0649

          k = 0.1111 0.1166 0.0000 ( 37124 PWs)   bands (ev):

   -73.4278 -73.3127 -73.3109 -73.2153 -73.2045 -73.1951 -44.7728 -44.7334
   -44.7300 -44.6975 -44.6588 -44.6566 -44.5968 -44.5759 -44.5544 -44.5440
   -44.5319 -44.5266 -44.4844 -44.4579 -44.4516 -44.4431 -44.4043 -44.3863
   -19.1944 -18.8130 -18.5926 -18.4761 -18.0272 -17.9057 -17.8282 -17.5610
   -17.4971 -17.4443 -16.9532 -16.4712  -6.8954  -6.6570  -6.6441  -6.5712
    -5.8504  -5.6957  -5.5688  -5.4431  -5.3887  -5.2936  -5.1848  -4.7798
    -4.7468  -4.6705  -4.2734  -4.1043  -3.9848  -3.8242  -3.7812  -3.6341
    -3.5024  -3.4119  -3.3038  -3.2782  -3.1024  -2.9895  -2.7474  -2.6639
    -2.3285  -2.2406  -2.0348  -1.9952  -1.7920  -1.4789  -1.3441  -1.2219
    -1.1157  -0.7936  -0.6692  -0.5109  -0.4619  -0.4002  -0.3168  -0.2985
    -0.1971  -0.0227   0.1019   0.2970   0.3575   0.4778   0.7203   0.7837
     0.9178   1.0943   1.3531   1.8872   2.5985   3.1304

          k = 0.1111-0.2332 0.0000 ( 37144 PWs)   bands (ev):

   -73.4278 -73.3121 -73.3115 -73.2153 -73.2044 -73.1952 -44.7729 -44.7322
   -44.7300 -44.6975 -44.6566 -44.6563 -44.5949 -44.5760 -44.5572 -44.5439
   -44.5306 -44.5277 -44.4856 -44.4579 -44.4516 -44.4453 -44.4039 -44.3865
   -19.0508 -18.6426 -18.6250 -18.4057 -18.2679 -18.1119 -17.8623 -17.6025
   -17.4652 -17.3918 -16.9509 -16.4642  -6.8365  -6.2439  -6.2227  -6.2170
    -5.8646  -5.6687  -5.5823  -5.3058  -5.2415  -5.2334  -4.9105  -4.8519
    -4.7152  -4.6515  -4.6228  -4.3090  -4.1643  -4.0780  -4.0387  -4.0322
    -3.8073  -3.7506  -3.5032  -3.5032  -3.3535  -3.3114  -2.7661  -2.6091
    -2.2273  -2.0349  -1.9169  -1.8342  -1.7264  -1.6046  -1.3824  -1.2069
    -1.1502  -0.7049  -0.5871  -0.4535  -0.4349  -0.3947  -0.2834   0.0594
     0.1630   0.2114   0.3051   0.3093   0.3525   0.3928   0.5355   0.6779
     0.7356   0.9464   1.5137   2.0382   2.7195   3.1315

          k = 0.1111-0.1166 0.0000 ( 37124 PWs)   bands (ev):

   -73.4278 -73.3127 -73.3109 -73.2153 -73.2045 -73.1951 -44.7728 -44.7334
   -44.7300 -44.6975 -44.6588 -44.6566 -44.5968 -44.5759 -44.5544 -44.5440
   -44.5319 -44.5266 -44.4844 -44.4579 -44.4516 -44.4431 -44.4043 -44.3863
   -19.1944 -18.8130 -18.5926 -18.4761 -18.0272 -17.9057 -17.8282 -17.5610
   -17.4971 -17.4443 -16.9532 -16.4712  -6.8954  -6.6570  -6.6441  -6.5712
    -5.8504  -5.6957  -5.5688  -5.4431  -5.3887  -5.2936  -5.1848  -4.7798
    -4.7468  -4.6705  -4.2734  -4.1043  -3.9848  -3.8242  -3.7812  -3.6341
    -3.5024  -3.4119  -3.3038  -3.2782  -3.1024  -2.9895  -2.7474  -2.6639
    -2.3285  -2.2406  -2.0348  -1.9952  -1.7920  -1.4789  -1.3441  -1.2219
    -1.1157  -0.7936  -0.6692  -0.5109  -0.4619  -0.4002  -0.3168  -0.2985
    -0.1971  -0.0227   0.1019   0.2970   0.3575   0.4778   0.7203   0.7837
     0.9178   1.0943   1.3531   1.8872   2.5985   3.1304

          k = 0.2222 0.0000 0.0000 ( 37192 PWs)   bands (ev):

   -73.4239 -73.3089 -73.3068 -73.2114 -73.2007 -73.1910 -44.7686 -44.7442
   -44.7301 -44.7227 -44.6558 -44.6535 -44.5937 -44.5835 -44.5760 -44.5657
   -44.5453 -44.5396 -44.5057 -44.4758 -44.4544 -44.4439 -44.4343 -44.4338
   -18.9900 -18.6683 -18.4670 -18.1984 -17.9386 -17.6651 -17.6414 -17.6118
   -17.5502 -17.5039 -17.0265 -16.5030  -6.6576  -6.6070  -6.5979  -6.3970
    -5.8834  -5.8112  -5.6836  -5.6518  -5.5763  -5.3426  -5.2063  -5.0430
    -4.6216  -4.4639  -4.3665  -4.1366  -4.0046  -3.9954  -3.8252  -3.6608
    -3.5815  -3.3216  -3.1355  -3.0227  -2.9768  -2.9712  -2.7875  -2.7021
    -2.6033  -2.5314  -2.4378  -2.2595  -2.2030  -1.5032  -1.4448  -1.0928
    -1.0245  -0.9192  -0.7438  -0.5748  -0.5371  -0.4601  -0.2790  -0.0627
     0.0774   0.1844   0.2608   0.3806   0.3921   0.5966   0.6100   0.7840
     0.9175   1.0340   1.2940   1.6243   2.4909   2.8710

          k = 0.2222 0.1166 0.0000 ( 37137 PWs)   bands (ev):

   -73.4239 -73.3086 -73.3071 -73.2114 -73.2006 -73.1911 -44.7686 -44.7443
   -44.7296 -44.7227 -44.6550 -44.6535 -44.5929 -44.5832 -44.5758 -44.5659
   -44.5464 -44.5396 -44.5054 -44.4765 -44.4537 -44.4439 -44.4390 -44.4306
   -18.9113 -18.5749 -18.3823 -18.2595 -17.9847 -17.8375 -17.7937 -17.6241
   -17.5234 -17.4116 -17.0238 -16.4983  -6.5146  -6.3010  -6.2940  -6.2372
    -5.8106  -5.7642  -5.6758  -5.5976  -5.5628  -5.4300  -5.0894  -4.9140
    -4.6459  -4.5225  -4.4016  -4.2740  -4.2144  -4.1704  -4.0138  -3.7662
    -3.6625  -3.4357  -3.3508  -3.2916  -3.2492  -3.1445  -3.0918  -2.9548
    -2.5660  -2.3090  -2.2339  -2.1519  -2.0416  -1.6187  -1.4554  -1.2029
    -0.9678  -0.9232  -0.5663  -0.4940  -0.2151  -0.2075  -0.1075  -0.0446
     0.0662   0.2491   0.2774   0.3118   0.4017   0.5531   0.5701   0.7157
     0.7765   0.8939   1.4432   1.7441   2.5530   2.7277

          k = 0.2222-0.2332 0.0000 ( 37166 PWs)   bands (ev):

   -73.4239 -73.3082 -73.3076 -73.2114 -73.2006 -73.1912 -44.7686 -44.7443
   -44.7291 -44.7227 -44.6541 -44.6535 -44.5922 -44.5831 -44.5753 -44.5662
   -44.5476 -44.5396 -44.5051 -44.4773 -44.4530 -44.4439 -44.4415 -44.4296
   -18.8000 -18.4119 -18.3959 -18.2095 -18.1264 -17.9938 -17.8920 -17.6769
   -17.4927 -17.3703 -17.0218 -16.4940  -6.4834  -5.8908  -5.8881  -5.8240
    -5.7560  -5.7297  -5.6331  -5.4622  -5.4480  -5.3459  -5.1316  -4.8552
    -4.7773  -4.7584  -4.5993  -4.4945  -4.4797  -4.3216  -4.0045  -3.9005
    -3.8009  -3.6993  -3.6516  -3.5990  -3.4809  -3.4373  -3.2260  -2.9001
    -2.4287  -2.1870  -1.9482  -1.9295  -1.8176  -1.7405  -1.6487  -1.3839
    -0.9196  -0.7136  -0.5000  -0.4511  -0.3152  -0.1769   0.0986   0.1280
     0.2665   0.3025   0.3165   0.4183   0.4333   0.4738   0.5819   0.5961
     0.7046   0.7249   1.5480   1.8478   2.5107   2.5160

          k = 0.2222-0.1166 0.0000 ( 37137 PWs)   bands (ev):

   -73.4239 -73.3086 -73.3071 -73.2114 -73.2006 -73.1911 -44.7686 -44.7443
   -44.7296 -44.7227 -44.6550 -44.6535 -44.5929 -44.5832 -44.5758 -44.5659
   -44.5464 -44.5396 -44.5054 -44.4765 -44.4537 -44.4439 -44.4390 -44.4306
   -18.9113 -18.5749 -18.3823 -18.2595 -17.9847 -17.8375 -17.7937 -17.6241
   -17.5234 -17.4116 -17.0238 -16.4983  -6.5146  -6.3010  -6.2940  -6.2372
    -5.8106  -5.7642  -5.6758  -5.5976  -5.5628  -5.4300  -5.0894  -4.9140
    -4.6459  -4.5225  -4.4016  -4.2740  -4.2144  -4.1704  -4.0138  -3.7662
    -3.6625  -3.4357  -3.3508  -3.2916  -3.2492  -3.1445  -3.0918  -2.9548
    -2.5660  -2.3090  -2.2339  -2.1519  -2.0416  -1.6187  -1.4554  -1.2029
    -0.9678  -0.9232  -0.5663  -0.4940  -0.2151  -0.2075  -0.1075  -0.0446
     0.0662   0.2491   0.2774   0.3118   0.4017   0.5531   0.5701   0.7157
     0.7765   0.8939   1.4432   1.7441   2.5530   2.7277

          k = 0.3333 0.0000 0.0000 ( 37184 PWs)   bands (ev):

   -73.4195 -73.3041 -73.3027 -73.2069 -73.1962 -73.1865 -44.8012 -44.7584
   -44.7251 -44.7155 -44.6501 -44.6499 -44.6365 -44.6316 -44.5882 -44.5610
   -44.5562 -44.5379 -44.5366 -44.5106 -44.4883 -44.4674 -44.4349 -44.4256
   -18.5928 -18.3621 -18.2021 -18.0429 -17.9259 -17.7385 -17.7148 -17.6255
   -17.5477 -17.3103 -17.1029 -16.4933  -6.2535  -6.1741  -6.1427  -6.1003
    -6.0218  -5.8952  -5.7416  -5.7039  -5.5392  -5.5166  -5.3732  -5.0072
    -4.8970  -4.6593  -4.6255  -4.4592  -4.3866  -4.1816  -3.8521  -3.7931
    -3.5649  -3.4152  -3.3351  -3.2906  -3.2106  -3.1354  -3.0634  -2.6688
    -2.6106  -2.5765  -2.3822  -2.2324  -1.9406  -1.6854  -1.6354  -1.1320
    -0.9474  -0.7411  -0.5878  -0.5256  -0.4305  -0.3787  -0.0936   0.0339
     0.1118   0.2054   0.2542   0.2732   0.4347   0.4689   0.5054   0.6952
     0.9505   0.9856   1.2257   1.4203   2.2415   2.8340

          k = 0.3333 0.1166 0.0000 ( 37206 PWs)   bands (ev):

   -73.4195 -73.3039 -73.3028 -73.2069 -73.1962 -73.1866 -44.8013 -44.7584
   -44.7255 -44.7155 -44.6543 -44.6501 -44.6362 -44.6271 -44.5893 -44.5604
   -44.5561 -44.5383 -44.5365 -44.5089 -44.4889 -44.4676 -44.4349 -44.4256
   -18.5460 -18.3028 -18.1542 -18.0139 -17.9801 -17.8066 -17.7798 -17.7012
   -17.5193 -17.2958 -17.1018 -16.4926  -6.1182  -6.0635  -5.9953  -5.9756
    -5.8770  -5.8340  -5.7969  -5.7472  -5.5668  -5.4883  -5.4484  -4.9753
    -4.8660  -4.7207  -4.6219  -4.4874  -4.3284  -4.1455  -3.9469  -3.8517
    -3.7093  -3.4735  -3.4318  -3.3810  -3.2505  -3.1325  -2.9910  -2.8468
    -2.7126  -2.4796  -2.3803  -2.1194  -2.0217  -1.6319  -1.6002  -1.3599
    -0.9180  -0.8014  -0.7038  -0.4773  -0.3197  -0.2610  -0.2186  -0.0730
    -0.0400   0.1468   0.2215   0.3344   0.4631   0.4939   0.6817   0.8181
     0.8564   0.9278   1.3268   1.5446   2.2552   2.3224

          k = 0.3333-0.2332 0.0000 ( 37216 PWs)   bands (ev):

   -73.4195 -73.3037 -73.3031 -73.2069 -73.1962 -73.1866 -44.8014 -44.7584
   -44.7259 -44.7155 -44.6574 -44.6501 -44.6364 -44.6232 -44.5903 -44.5599
   -44.5559 -44.5387 -44.5365 -44.5072 -44.4894 -44.4679 -44.4349 -44.4257
   -18.4891 -18.1985 -18.1227 -18.0222 -17.9888 -17.8793 -17.8723 -17.7752
   -17.5037 -17.2845 -17.1008 -16.4918  -6.0741  -6.0284  -5.9360  -5.8943
    -5.8049  -5.7516  -5.6369  -5.6047  -5.4731  -5.4261  -5.2461  -5.0016
    -4.9735  -4.9494  -4.6932  -4.5302  -4.3083  -4.1627  -3.9992  -3.9368
    -3.7131  -3.5920  -3.5880  -3.3985  -3.3808  -3.2794  -3.1487  -2.8514
    -2.5272  -2.3850  -2.2369  -2.2151  -1.8641  -1.8516  -1.4532  -1.4055
    -1.0550  -0.9437  -0.6868  -0.6716  -0.4388  -0.2161  -0.0905  -0.0514
     0.0424   0.1761   0.2207   0.2939   0.4791   0.5321   0.6856   0.8078
     0.8911   0.9823   1.4049   1.6492   2.0371   2.0489

          k = 0.3333-0.1166 0.0000 ( 37206 PWs)   bands (ev):

   -73.4195 -73.3039 -73.3028 -73.2069 -73.1962 -73.1866 -44.8013 -44.7584
   -44.7255 -44.7155 -44.6543 -44.6501 -44.6362 -44.6271 -44.5893 -44.5604
   -44.5561 -44.5383 -44.5365 -44.5089 -44.4889 -44.4676 -44.4349 -44.4256
   -18.5460 -18.3028 -18.1542 -18.0139 -17.9801 -17.8066 -17.7798 -17.7012
   -17.5193 -17.2958 -17.1018 -16.4926  -6.1182  -6.0635  -5.9954  -5.9756
    -5.8770  -5.8340  -5.7969  -5.7472  -5.5668  -5.4883  -5.4484  -4.9753
    -4.8660  -4.7207  -4.6219  -4.4874  -4.3284  -4.1455  -3.9469  -3.8517
    -3.7093  -3.4735  -3.4318  -3.3810  -3.2505  -3.1325  -2.9910  -2.8468
    -2.7126  -2.4796  -2.3803  -2.1194  -2.0217  -1.6319  -1.6002  -1.3599
    -0.9180  -0.8014  -0.7038  -0.4773  -0.3197  -0.2610  -0.2186  -0.0730
    -0.0400   0.1468   0.2215   0.3344   0.4631   0.4939   0.6817   0.8181
     0.8564   0.9278   1.3268   1.5446   2.2552   2.3224

          k = 0.4444 0.0000 0.0000 ( 37180 PWs)   bands (ev):

   -73.4166 -73.3009 -73.3001 -73.2040 -73.1933 -73.1836 -44.8353 -44.7549
   -44.7218 -44.7105 -44.6713 -44.6679 -44.6480 -44.6460 -44.5951 -44.5846
   -44.5508 -44.5471 -44.5372 -44.5330 -44.5209 -44.4618 -44.4291 -44.4201
   -18.2941 -18.1224 -18.0530 -17.9590 -17.8933 -17.7889 -17.7620 -17.6747
   -17.5522 -17.2162 -17.1237 -16.4604  -6.3650  -6.0373  -6.0262  -6.0007
    -5.9061  -5.8260  -5.7385  -5.6854  -5.6109  -5.5373  -5.3746  -5.3049
    -5.0255  -4.9156  -4.7500  -4.7097  -4.0844  -3.9617  -3.8883  -3.8524
    -3.7730  -3.7366  -3.5303  -3.1606  -3.1272  -2.9167  -2.8567  -2.7998
    -2.5569  -2.5331  -2.2802  -2.2402  -2.1670  -1.8493  -1.7244  -1.3307
    -0.7634  -0.6384  -0.5107  -0.4254  -0.4071  -0.3943  -0.2399  -0.1558
    -0.1400   0.0099   0.1247   0.3023   0.3251   0.5125   0.6493   0.7354
     0.9870   1.1004   1.2100   1.2432   2.0054   2.7647

          k = 0.4444 0.1166 0.0000 ( 37248 PWs)   bands (ev):

   -73.4166 -73.3008 -73.3001 -73.2040 -73.1933 -73.1836 -44.8354 -44.7549
   -44.7230 -44.7106 -44.6733 -44.6714 -44.6480 -44.6406 -44.5938 -44.5886
   -44.5508 -44.5430 -44.5373 -44.5328 -44.5212 -44.4618 -44.4291 -44.4198
   -18.2874 -18.1038 -18.0269 -17.9866 -17.9030 -17.7970 -17.7739 -17.6873
   -17.5460 -17.2178 -17.1235 -16.4602  -6.3756  -6.3243  -6.1264  -6.0800
    -5.9472  -5.7781  -5.6827  -5.6442  -5.5867  -5.3869  -5.2719  -5.0270
    -4.8821  -4.8564  -4.5493  -4.4424  -4.2445  -4.1261  -4.0466  -3.9147
    -3.6815  -3.5729  -3.4311  -3.3328  -3.1360  -2.8469  -2.8192  -2.6816
    -2.6126  -2.4869  -2.4172  -2.2699  -2.1307  -1.8393  -1.6786  -1.4079
    -0.9770  -0.7079  -0.6293  -0.5292  -0.4581  -0.4018  -0.3874  -0.3725
    -0.3292  -0.2251  -0.1550   0.0812   0.6749   0.6811   0.9135   0.9536
     1.0222   1.1215   1.1857   1.3554   2.0311   2.1303

          k = 0.4444-0.2332 0.0000 ( 37264 PWs)   bands (ev):

   -73.4166 -73.3008 -73.3001 -73.2040 -73.1933 -73.1836 -44.8355 -44.7549
   -44.7242 -44.7106 -44.6771 -44.6717 -44.6480 -44.6365 -44.5925 -44.5919
   -44.5508 -44.5396 -44.5374 -44.5326 -44.5215 -44.4617 -44.4291 -44.4195
   -18.2809 -18.0690 -18.0291 -17.9879 -17.9145 -17.8396 -17.7615 -17.7011
   -17.5405 -17.2193 -17.1232 -16.4599  -6.4648  -6.3531  -6.3068  -6.2880
    -5.8311  -5.7526  -5.6366  -5.3855  -5.3753  -5.3076  -5.1675  -5.0721
    -5.0316  -4.6368  -4.4391  -4.4270  -4.2782  -4.1149  -3.9322  -3.7723
    -3.7008  -3.5314  -3.3850  -3.2522  -3.1906  -3.0072  -2.9923  -2.8240
    -2.6617  -2.5001  -2.2854  -2.1600  -1.8524  -1.7361  -1.7320  -1.5060
    -1.1333  -1.0000  -0.9946  -0.9635  -0.6184  -0.4450  -0.3619  -0.3553
    -0.2572  -0.1724  -0.1539  -0.1442   0.7332   0.7850   0.9364   1.0664
     1.1600   1.1822   1.2196   1.4423   1.8479   1.8604

          k = 0.4444-0.1166 0.0000 ( 37248 PWs)   bands (ev):

   -73.4166 -73.3008 -73.3001 -73.2040 -73.1933 -73.1836 -44.8354 -44.7549
   -44.7230 -44.7106 -44.6733 -44.6714 -44.6480 -44.6406 -44.5938 -44.5886
   -44.5508 -44.5430 -44.5373 -44.5328 -44.5212 -44.4618 -44.4291 -44.4198
   -18.2874 -18.1038 -18.0269 -17.9866 -17.9030 -17.7970 -17.7739 -17.6873
   -17.5460 -17.2178 -17.1235 -16.4602  -6.3756  -6.3243  -6.1264  -6.0800
    -5.9472  -5.7781  -5.6827  -5.6442  -5.5867  -5.3869  -5.2719  -5.0270
    -4.8821  -4.8564  -4.5493  -4.4424  -4.2445  -4.1261  -4.0466  -3.9147
    -3.6815  -3.5729  -3.4311  -3.3328  -3.1360  -2.8469  -2.8192  -2.6816
    -2.6126  -2.4869  -2.4172  -2.2699  -2.1307  -1.8393  -1.6786  -1.4079
    -0.9770  -0.7079  -0.6293  -0.5292  -0.4581  -0.4018  -0.3874  -0.3725
    -0.3292  -0.2251  -0.1550   0.0812   0.6749   0.6811   0.9135   0.9536
     1.0222   1.1215   1.1857   1.3554   2.0311   2.1303

          k =-0.4444 0.0000 0.0000 ( 37180 PWs)   bands (ev):

   -73.4166 -73.3009 -73.3001 -73.2040 -73.1933 -73.1836 -44.8353 -44.7549
   -44.7218 -44.7105 -44.6713 -44.6679 -44.6480 -44.6460 -44.5951 -44.5846
   -44.5508 -44.5471 -44.5372 -44.5330 -44.5209 -44.4618 -44.4291 -44.4201
   -18.2941 -18.1224 -18.0530 -17.9590 -17.8933 -17.7889 -17.7620 -17.6747
   -17.5522 -17.2162 -17.1237 -16.4604  -6.3650  -6.0373  -6.0262  -6.0007
    -5.9061  -5.8260  -5.7385  -5.6854  -5.6109  -5.5373  -5.3746  -5.3049
    -5.0255  -4.9156  -4.7500  -4.7097  -4.0844  -3.9617  -3.8883  -3.8524
    -3.7730  -3.7366  -3.5303  -3.1606  -3.1272  -2.9167  -2.8567  -2.7998
    -2.5569  -2.5331  -2.2802  -2.2402  -2.1670  -1.8493  -1.7244  -1.3307
    -0.7634  -0.6384  -0.5107  -0.4254  -0.4071  -0.3943  -0.2399  -0.1558
    -0.1400   0.0099   0.1247   0.3023   0.3251   0.5125   0.6493   0.7354
     0.9870   1.1004   1.2100   1.2432   2.0054   2.7647

          k =-0.4444 0.1166 0.0000 ( 37248 PWs)   bands (ev):

   -73.4166 -73.3008 -73.3001 -73.2040 -73.1933 -73.1836 -44.8354 -44.7549
   -44.7230 -44.7106 -44.6733 -44.6714 -44.6480 -44.6406 -44.5938 -44.5886
   -44.5508 -44.5430 -44.5373 -44.5328 -44.5212 -44.4618 -44.4291 -44.4198
   -18.2874 -18.1038 -18.0269 -17.9866 -17.9030 -17.7970 -17.7739 -17.6873
   -17.5460 -17.2178 -17.1235 -16.4602  -6.3756  -6.3243  -6.1264  -6.0800
    -5.9472  -5.7781  -5.6827  -5.6442  -5.5867  -5.3869  -5.2719  -5.0270
    -4.8821  -4.8564  -4.5493  -4.4424  -4.2445  -4.1261  -4.0466  -3.9147
    -3.6815  -3.5729  -3.4311  -3.3328  -3.1360  -2.8469  -2.8192  -2.6816
    -2.6126  -2.4869  -2.4172  -2.2699  -2.1307  -1.8393  -1.6786  -1.4079
    -0.9770  -0.7079  -0.6293  -0.5292  -0.4581  -0.4018  -0.3874  -0.3725
    -0.3292  -0.2251  -0.1550   0.0812   0.6749   0.6811   0.9135   0.9536
     1.0222   1.1215   1.1857   1.3554   2.0311   2.1303

          k =-0.4444-0.2332 0.0000 ( 37264 PWs)   bands (ev):

   -73.4166 -73.3008 -73.3001 -73.2040 -73.1933 -73.1836 -44.8355 -44.7549
   -44.7242 -44.7106 -44.6771 -44.6717 -44.6480 -44.6365 -44.5925 -44.5919
   -44.5508 -44.5396 -44.5374 -44.5326 -44.5215 -44.4617 -44.4291 -44.4195
   -18.2809 -18.0690 -18.0291 -17.9879 -17.9145 -17.8396 -17.7615 -17.7011
   -17.5405 -17.2193 -17.1232 -16.4599  -6.4648  -6.3531  -6.3068  -6.2880
    -5.8311  -5.7526  -5.6366  -5.3855  -5.3753  -5.3076  -5.1675  -5.0721
    -5.0316  -4.6368  -4.4391  -4.4270  -4.2782  -4.1149  -3.9322  -3.7723
    -3.7008  -3.5314  -3.3850  -3.2522  -3.1906  -3.0072  -2.9923  -2.8240
    -2.6617  -2.5001  -2.2854  -2.1600  -1.8524  -1.7361  -1.7320  -1.5060
    -1.1333  -1.0000  -0.9946  -0.9635  -0.6184  -0.4450  -0.3619  -0.3553
    -0.2572  -0.1724  -0.1539  -0.1442   0.7332   0.7850   0.9364   1.0664
     1.1600   1.1822   1.2196   1.4423   1.8479   1.8604

          k =-0.4444-0.1166 0.0000 ( 37248 PWs)   bands (ev):

   -73.4166 -73.3008 -73.3001 -73.2040 -73.1933 -73.1836 -44.8354 -44.7549
   -44.7230 -44.7106 -44.6733 -44.6714 -44.6480 -44.6406 -44.5938 -44.5886
   -44.5508 -44.5430 -44.5373 -44.5328 -44.5212 -44.4618 -44.4291 -44.4198
   -18.2874 -18.1038 -18.0269 -17.9866 -17.9030 -17.7970 -17.7739 -17.6873
   -17.5460 -17.2178 -17.1235 -16.4602  -6.3756  -6.3243  -6.1264  -6.0800
    -5.9472  -5.7781  -5.6827  -5.6442  -5.5867  -5.3869  -5.2719  -5.0270
    -4.8821  -4.8564  -4.5493  -4.4424  -4.2445  -4.1261  -4.0466  -3.9147
    -3.6815  -3.5729  -3.4311  -3.3328  -3.1360  -2.8469  -2.8192  -2.6816
    -2.6126  -2.4869  -2.4172  -2.2699  -2.1307  -1.8393  -1.6786  -1.4079
    -0.9770  -0.7079  -0.6293  -0.5292  -0.4581  -0.4018  -0.3874  -0.3725
    -0.3292  -0.2251  -0.1550   0.0812   0.6749   0.6811   0.9135   0.9536
     1.0222   1.1215   1.1857   1.3554   2.0311   2.1303

          k =-0.3333 0.0000 0.0000 ( 37184 PWs)   bands (ev):

   -73.4195 -73.3041 -73.3027 -73.2069 -73.1962 -73.1865 -44.8012 -44.7584
   -44.7251 -44.7155 -44.6501 -44.6499 -44.6365 -44.6316 -44.5882 -44.5610
   -44.5562 -44.5379 -44.5366 -44.5106 -44.4883 -44.4674 -44.4349 -44.4256
   -18.5928 -18.3621 -18.2021 -18.0429 -17.9259 -17.7385 -17.7148 -17.6255
   -17.5477 -17.3103 -17.1029 -16.4933  -6.2535  -6.1741  -6.1427  -6.1003
    -6.0218  -5.8952  -5.7416  -5.7039  -5.5392  -5.5166  -5.3732  -5.0072
    -4.8970  -4.6593  -4.6255  -4.4592  -4.3866  -4.1816  -3.8521  -3.7931
    -3.5649  -3.4152  -3.3351  -3.2906  -3.2106  -3.1354  -3.0634  -2.6688
    -2.6106  -2.5765  -2.3822  -2.2324  -1.9406  -1.6854  -1.6354  -1.1320
    -0.9474  -0.7411  -0.5878  -0.5256  -0.4305  -0.3787  -0.0936   0.0339
     0.1118   0.2054   0.2542   0.2732   0.4347   0.4689   0.5054   0.6952
     0.9505   0.9856   1.2257   1.4203   2.2415   2.8340

          k =-0.3333 0.1166 0.0000 ( 37206 PWs)   bands (ev):

   -73.4195 -73.3039 -73.3028 -73.2069 -73.1962 -73.1866 -44.8013 -44.7584
   -44.7255 -44.7155 -44.6543 -44.6501 -44.6362 -44.6271 -44.5893 -44.5604
   -44.5561 -44.5383 -44.5365 -44.5089 -44.4889 -44.4676 -44.4349 -44.4256
   -18.5460 -18.3028 -18.1542 -18.0139 -17.9801 -17.8066 -17.7798 -17.7012
   -17.5193 -17.2958 -17.1018 -16.4926  -6.1182  -6.0635  -5.9954  -5.9756
    -5.8770  -5.8340  -5.7969  -5.7472  -5.5668  -5.4883  -5.4484  -4.9753
    -4.8660  -4.7207  -4.6219  -4.4874  -4.3284  -4.1455  -3.9469  -3.8517
    -3.7093  -3.4735  -3.4318  -3.3810  -3.2505  -3.1325  -2.9910  -2.8468
    -2.7126  -2.4796  -2.3803  -2.1194  -2.0217  -1.6319  -1.6002  -1.3599
    -0.9180  -0.8014  -0.7038  -0.4773  -0.3197  -0.2610  -0.2186  -0.0730
    -0.0400   0.1468   0.2215   0.3344   0.4631   0.4939   0.6817   0.8181
     0.8564   0.9278   1.3268   1.5446   2.2552   2.3224

          k =-0.3333-0.2332 0.0000 ( 37216 PWs)   bands (ev):

   -73.4195 -73.3037 -73.3031 -73.2069 -73.1962 -73.1866 -44.8014 -44.7584
   -44.7259 -44.7155 -44.6574 -44.6501 -44.6364 -44.6232 -44.5903 -44.5599
   -44.5559 -44.5387 -44.5365 -44.5072 -44.4894 -44.4679 -44.4349 -44.4257
   -18.4891 -18.1985 -18.1227 -18.0222 -17.9888 -17.8793 -17.8723 -17.7752
   -17.5037 -17.2845 -17.1008 -16.4918  -6.0741  -6.0284  -5.9360  -5.8943
    -5.8049  -5.7516  -5.6369  -5.6047  -5.4731  -5.4261  -5.2461  -5.0016
    -4.9735  -4.9494  -4.6932  -4.5302  -4.3083  -4.1627  -3.9992  -3.9368
    -3.7131  -3.5920  -3.5880  -3.3985  -3.3808  -3.2794  -3.1487  -2.8514
    -2.5272  -2.3850  -2.2369  -2.2151  -1.8641  -1.8516  -1.4532  -1.4055
    -1.0550  -0.9437  -0.6868  -0.6716  -0.4388  -0.2161  -0.0905  -0.0514
     0.0424   0.1761   0.2207   0.2939   0.4791   0.5321   0.6856   0.8078
     0.8911   0.9823   1.4049   1.6492   2.0371   2.0489

          k =-0.3333-0.1166 0.0000 ( 37206 PWs)   bands (ev):

   -73.4195 -73.3039 -73.3028 -73.2069 -73.1962 -73.1866 -44.8013 -44.7584
   -44.7255 -44.7155 -44.6543 -44.6501 -44.6362 -44.6271 -44.5893 -44.5604
   -44.5561 -44.5383 -44.5365 -44.5089 -44.4889 -44.4676 -44.4349 -44.4256
   -18.5460 -18.3028 -18.1542 -18.0139 -17.9801 -17.8066 -17.7798 -17.7012
   -17.5193 -17.2958 -17.1018 -16.4926  -6.1182  -6.0635  -5.9953  -5.9756
    -5.8770  -5.8340  -5.7969  -5.7472  -5.5668  -5.4883  -5.4484  -4.9753
    -4.8660  -4.7207  -4.6219  -4.4874  -4.3284  -4.1455  -3.9469  -3.8517
    -3.7093  -3.4735  -3.4318  -3.3810  -3.2505  -3.1325  -2.9910  -2.8468
    -2.7126  -2.4796  -2.3803  -2.1194  -2.0217  -1.6319  -1.6002  -1.3599
    -0.9180  -0.8014  -0.7038  -0.4773  -0.3197  -0.2610  -0.2186  -0.0730
    -0.0400   0.1468   0.2215   0.3344   0.4631   0.4939   0.6817   0.8181
     0.8564   0.9278   1.3268   1.5446   2.2552   2.3224

          k =-0.2222 0.0000 0.0000 ( 37192 PWs)   bands (ev):

   -73.4239 -73.3089 -73.3068 -73.2114 -73.2007 -73.1910 -44.7686 -44.7442
   -44.7301 -44.7227 -44.6558 -44.6535 -44.5937 -44.5835 -44.5760 -44.5657
   -44.5453 -44.5396 -44.5057 -44.4758 -44.4544 -44.4439 -44.4343 -44.4338
   -18.9900 -18.6683 -18.4670 -18.1984 -17.9386 -17.6651 -17.6414 -17.6118
   -17.5502 -17.5039 -17.0265 -16.5030  -6.6576  -6.6070  -6.5979  -6.3970
    -5.8834  -5.8112  -5.6836  -5.6518  -5.5763  -5.3426  -5.2063  -5.0430
    -4.6216  -4.4639  -4.3665  -4.1366  -4.0046  -3.9954  -3.8252  -3.6608
    -3.5815  -3.3216  -3.1355  -3.0227  -2.9768  -2.9712  -2.7875  -2.7021
    -2.6033  -2.5314  -2.4378  -2.2595  -2.2030  -1.5032  -1.4448  -1.0928
    -1.0245  -0.9192  -0.7438  -0.5748  -0.5371  -0.4601  -0.2790  -0.0627
     0.0774   0.1844   0.2608   0.3806   0.3921   0.5966   0.6100   0.7840
     0.9175   1.0340   1.2940   1.6243   2.4909   2.8710

          k =-0.2222 0.1166 0.0000 ( 37137 PWs)   bands (ev):

   -73.4239 -73.3086 -73.3071 -73.2114 -73.2006 -73.1911 -44.7686 -44.7443
   -44.7296 -44.7227 -44.6550 -44.6535 -44.5929 -44.5832 -44.5758 -44.5659
   -44.5464 -44.5396 -44.5054 -44.4765 -44.4537 -44.4439 -44.4390 -44.4306
   -18.9113 -18.5749 -18.3823 -18.2595 -17.9847 -17.8375 -17.7937 -17.6241
   -17.5234 -17.4116 -17.0238 -16.4983  -6.5146  -6.3010  -6.2940  -6.2372
    -5.8106  -5.7642  -5.6758  -5.5976  -5.5628  -5.4300  -5.0894  -4.9140
    -4.6459  -4.5225  -4.4016  -4.2740  -4.2144  -4.1704  -4.0138  -3.7662
    -3.6625  -3.4357  -3.3508  -3.2916  -3.2492  -3.1445  -3.0918  -2.9548
    -2.5660  -2.3090  -2.2339  -2.1519  -2.0416  -1.6187  -1.4554  -1.2029
    -0.9678  -0.9232  -0.5663  -0.4940  -0.2151  -0.2075  -0.1075  -0.0446
     0.0662   0.2491   0.2774   0.3118   0.4017   0.5531   0.5701   0.7157
     0.7765   0.8939   1.4432   1.7441   2.5530   2.7277

          k =-0.2222-0.2332 0.0000 ( 37166 PWs)   bands (ev):

   -73.4239 -73.3082 -73.3076 -73.2114 -73.2006 -73.1912 -44.7686 -44.7443
   -44.7291 -44.7227 -44.6541 -44.6535 -44.5922 -44.5831 -44.5753 -44.5662
   -44.5476 -44.5396 -44.5051 -44.4773 -44.4530 -44.4439 -44.4415 -44.4296
   -18.8000 -18.4119 -18.3959 -18.2095 -18.1264 -17.9938 -17.8920 -17.6769
   -17.4927 -17.3703 -17.0218 -16.4940  -6.4834  -5.8908  -5.8881  -5.8240
    -5.7560  -5.7297  -5.6331  -5.4622  -5.4480  -5.3459  -5.1316  -4.8552
    -4.7773  -4.7584  -4.5993  -4.4945  -4.4797  -4.3216  -4.0045  -3.9005
    -3.8009  -3.6993  -3.6516  -3.5990  -3.4809  -3.4373  -3.2260  -2.9001
    -2.4287  -2.1870  -1.9482  -1.9295  -1.8176  -1.7405  -1.6487  -1.3839
    -0.9196  -0.7136  -0.5000  -0.4511  -0.3152  -0.1769   0.0986   0.1280
     0.2665   0.3025   0.3165   0.4183   0.4333   0.4738   0.5819   0.5961
     0.7046   0.7249   1.5480   1.8478   2.5107   2.5160

          k =-0.2222-0.1166 0.0000 ( 37137 PWs)   bands (ev):

   -73.4239 -73.3086 -73.3071 -73.2114 -73.2006 -73.1911 -44.7686 -44.7443
   -44.7296 -44.7227 -44.6550 -44.6535 -44.5929 -44.5832 -44.5758 -44.5659
   -44.5464 -44.5396 -44.5054 -44.4765 -44.4537 -44.4439 -44.4390 -44.4306
   -18.9113 -18.5749 -18.3823 -18.2595 -17.9847 -17.8375 -17.7937 -17.6241
   -17.5234 -17.4116 -17.0238 -16.4983  -6.5146  -6.3010  -6.2940  -6.2372
    -5.8106  -5.7642  -5.6758  -5.5976  -5.5628  -5.4300  -5.0894  -4.9140
    -4.6459  -4.5225  -4.4016  -4.2740  -4.2144  -4.1704  -4.0138  -3.7662
    -3.6625  -3.4357  -3.3508  -3.2916  -3.2492  -3.1445  -3.0918  -2.9548
    -2.5660  -2.3090  -2.2339  -2.1519  -2.0416  -1.6187  -1.4554  -1.2029
    -0.9678  -0.9232  -0.5663  -0.4940  -0.2151  -0.2075  -0.1075  -0.0446
     0.0662   0.2491   0.2774   0.3118   0.4017   0.5531   0.5701   0.7157
     0.7765   0.8939   1.4432   1.7441   2.5530   2.7277

          k =-0.1111 0.0000 0.0000 ( 37175 PWs)   bands (ev):

   -73.4278 -73.3131 -73.3106 -73.2153 -73.2046 -73.1950 -44.7728 -44.7345
   -44.7300 -44.6975 -44.6612 -44.6566 -44.5986 -44.5759 -44.5517 -44.5440
   -44.5328 -44.5261 -44.4832 -44.4580 -44.4516 -44.4410 -44.4047 -44.3861
   -19.2898 -18.9228 -18.6980 -18.3731 -17.9157 -17.7156 -17.6717 -17.6042
   -17.5760 -17.4839 -16.9566 -16.4790  -7.0730  -6.9574  -6.9377  -6.7087
    -5.8426  -5.7782  -5.5495  -5.5461  -5.4347  -5.3776  -5.3223  -4.7878
    -4.7715  -4.6733  -4.1900  -3.9296  -3.8699  -3.5459  -3.4058  -3.3167
    -3.3126  -3.1974  -3.1786  -3.0462  -2.9508  -2.7474  -2.7272  -2.6233
    -2.2861  -2.1796  -2.0198  -1.9286  -1.7787  -1.5587  -1.2655  -1.1681
    -1.1611  -1.0044  -0.8602  -0.7566  -0.7197  -0.6252  -0.5381  -0.3627
    -0.2369  -0.0844   0.0085   0.2851   0.3779   0.4674   0.7352   0.9895
     1.1107   1.1274   1.2602   1.7104   2.4203   3.0649

          k =-0.1111 0.1166 0.0000 ( 37124 PWs)   bands (ev):

   -73.4278 -73.3127 -73.3109 -73.2153 -73.2045 -73.1951 -44.7728 -44.7334
   -44.7300 -44.6975 -44.6588 -44.6566 -44.5968 -44.5759 -44.5544 -44.5440
   -44.5319 -44.5266 -44.4844 -44.4579 -44.4516 -44.4431 -44.4043 -44.3863
   -19.1944 -18.8130 -18.5926 -18.4761 -18.0272 -17.9057 -17.8282 -17.5610
   -17.4971 -17.4443 -16.9532 -16.4712  -6.8954  -6.6570  -6.6441  -6.5712
    -5.8504  -5.6957  -5.5688  -5.4431  -5.3887  -5.2936  -5.1848  -4.7798
    -4.7468  -4.6705  -4.2734  -4.1043  -3.9848  -3.8242  -3.7812  -3.6341
    -3.5024  -3.4119  -3.3038  -3.2782  -3.1024  -2.9895  -2.7474  -2.6639
    -2.3285  -2.2406  -2.0348  -1.9952  -1.7920  -1.4789  -1.3441  -1.2219
    -1.1157  -0.7936  -0.6692  -0.5109  -0.4619  -0.4002  -0.3168  -0.2985
    -0.1971  -0.0227   0.1019   0.2970   0.3575   0.4778   0.7203   0.7837
     0.9178   1.0943   1.3531   1.8872   2.5985   3.1304

          k =-0.1111-0.2332 0.0000 ( 37144 PWs)   bands (ev):

   -73.4278 -73.3121 -73.3115 -73.2153 -73.2044 -73.1952 -44.7729 -44.7322
   -44.7300 -44.6975 -44.6566 -44.6563 -44.5949 -44.5760 -44.5572 -44.5439
   -44.5306 -44.5277 -44.4856 -44.4579 -44.4516 -44.4453 -44.4039 -44.3865
   -19.0508 -18.6426 -18.6250 -18.4057 -18.2679 -18.1119 -17.8623 -17.6025
   -17.4652 -17.3918 -16.9509 -16.4642  -6.8365  -6.2439  -6.2227  -6.2170
    -5.8646  -5.6687  -5.5823  -5.3058  -5.2415  -5.2334  -4.9105  -4.8519
    -4.7152  -4.6515  -4.6228  -4.3090  -4.1643  -4.0780  -4.0387  -4.0322
    -3.8073  -3.7506  -3.5032  -3.5032  -3.3535  -3.3114  -2.7661  -2.6091
    -2.2273  -2.0349  -1.9169  -1.8342  -1.7264  -1.6046  -1.3824  -1.2069
    -1.1502  -0.7049  -0.5871  -0.4535  -0.4349  -0.3947  -0.2834   0.0594
     0.1630   0.2114   0.3051   0.3093   0.3525   0.3928   0.5355   0.6779
     0.7356   0.9464   1.5137   2.0382   2.7195   3.1713

          k =-0.1111-0.1166 0.0000 ( 37124 PWs)   bands (ev):

   -73.4278 -73.3127 -73.3109 -73.2153 -73.2045 -73.1951 -44.7728 -44.7334
   -44.7300 -44.6975 -44.6588 -44.6566 -44.5968 -44.5759 -44.5544 -44.5440
   -44.5319 -44.5266 -44.4844 -44.4579 -44.4516 -44.4431 -44.4043 -44.3863
   -19.1944 -18.8130 -18.5926 -18.4761 -18.0272 -17.9057 -17.8282 -17.5610
   -17.4971 -17.4443 -16.9532 -16.4712  -6.8954  -6.6570  -6.6441  -6.5712
    -5.8504  -5.6957  -5.5688  -5.4431  -5.3887  -5.2936  -5.1848  -4.7798
    -4.7468  -4.6705  -4.2734  -4.1043  -3.9848  -3.8242  -3.7812  -3.6341
    -3.5024  -3.4119  -3.3038  -3.2782  -3.1024  -2.9895  -2.7474  -2.6639
    -2.3285  -2.2406  -2.0348  -1.9952  -1.7920  -1.4789  -1.3441  -1.2219
    -1.1157  -0.7936  -0.6692  -0.5109  -0.4619  -0.4002  -0.3168  -0.2985
    -0.1971  -0.0227   0.1019   0.2970   0.3575   0.4778   0.7203   0.7837
     0.9178   1.0943   1.3531   1.8872   2.5985   3.1304

 ------ SPIN DOWN ----------


          k = 0.0000 0.0000 0.0000 ( 37133 PWs)   bands (ev):

   -71.2201 -71.1798 -70.9756 -70.8117 -70.7861 -70.5160 -42.7238 -42.6336
   -42.5036 -42.5022 -42.4609 -42.4352 -42.4034 -42.3766 -42.3133 -42.3091
   -42.1161 -42.0762 -42.0590 -42.0481 -41.9597 -41.9547 -41.8207 -41.7050
   -19.4314 -19.0457 -18.8147 -18.5049 -18.0132 -17.8675 -17.8347 -17.6292
   -17.5914 -17.5146 -17.1103 -16.6960  -6.8301  -6.6394  -6.6042  -6.3629
    -5.5368  -5.5317  -5.2190  -4.8819  -4.8425  -4.7727  -4.7236  -4.6640
    -4.4478  -4.3639  -4.0804  -3.8332  -3.5297  -3.4983  -3.4894  -3.2296
    -3.2056  -3.1656  -2.8099  -2.7719  -2.5321  -2.4732  -2.3426  -2.1854
    -1.8088  -1.7885  -1.5845  -1.4440  -1.2743  -1.2529  -1.0505  -0.8704
     1.1459   1.2882   1.3147   1.3447   1.3518   1.4033   1.4901   1.5077
     1.7433   1.8909   1.9334   1.9970   2.0132   2.1207   2.4477   2.5269
     2.7817   2.9380   2.9807   3.2317   3.6898   4.3454

          k = 0.0000 0.1166 0.0000 ( 37130 PWs)   bands (ev):

   -71.2201 -71.1798 -70.9756 -70.8117 -70.7861 -70.5160 -42.7232 -42.6329
   -42.5036 -42.5010 -42.4608 -42.4352 -42.4033 -42.3765 -42.3134 -42.3091
   -42.1161 -42.0762 -42.0603 -42.0489 -41.9597 -41.9548 -41.8214 -41.7050
   -19.3336 -18.9315 -18.7097 -18.6073 -18.1621 -18.0219 -17.9063 -17.6001
   -17.5512 -17.5109 -17.1072 -16.6869  -6.6584  -6.3581  -6.3313  -6.2443
    -5.5445  -5.4317  -5.1245  -4.8824  -4.7299  -4.6839  -4.6642  -4.6270
    -4.4445  -4.3602  -4.2087  -4.0452  -3.8710  -3.7632  -3.6783  -3.2243
    -3.1415  -3.1060  -2.8684  -2.8206  -2.5949  -2.4558  -2.3927  -2.2782
    -2.0682  -1.8794  -1.8262  -1.6269  -1.5560  -1.2819  -1.2659  -1.0109
     1.1568   1.4354   1.5935   1.6220   1.6312   1.6740   1.6940   1.7690
     1.7986   1.8949   1.9849   2.0076   2.0796   2.1639   2.4284   2.6146
     2.6825   2.8223   3.0246   3.1879   3.8341   4.4186

          k = 0.0000-0.2332 0.0000 ( 37126 PWs)   bands (ev):

   -71.2201 -71.1798 -70.9756 -70.8117 -70.7861 -70.5160 -42.7227 -42.6322
   -42.5036 -42.4999 -42.4608 -42.4352 -42.4033 -42.3765 -42.3134 -42.3091
   -42.1160 -42.0762 -42.0616 -42.0498 -41.9597 -41.9548 -41.8220 -41.7051
   -19.1855 -18.7858 -18.7276 -18.5027 -18.4208 -18.2333 -17.9267 -17.6356
   -17.5305 -17.4704 -17.1054 -16.6789  -6.5728  -5.9845  -5.9810  -5.9426
    -5.5582  -5.4010  -4.8825  -4.7619  -4.6840  -4.6423  -4.6218  -4.5899
    -4.4395  -4.4008  -4.3550  -4.1095  -4.0693  -4.0034  -3.9702  -3.8284
    -3.2808  -2.9758  -2.9738  -2.8758  -2.7376  -2.5958  -2.4420  -2.2237
    -2.0927  -1.9560  -1.8911  -1.8075  -1.6469  -1.4024  -1.3195  -1.1623
     1.1516   1.5105   1.7603   1.8444   1.8717   1.8718   1.8762   1.9073
     1.9482   1.9987   2.0881   2.1085   2.1192   2.2455   2.2559   2.5268
     2.7045   2.8354   2.9875   3.3555   3.8353   4.5121

          k = 0.0000-0.1166 0.0000 ( 37130 PWs)   bands (ev):

   -71.2201 -71.1798 -70.9756 -70.8117 -70.7861 -70.5160 -42.7232 -42.6329
   -42.5036 -42.5010 -42.4608 -42.4352 -42.4033 -42.3765 -42.3134 -42.3091
   -42.1161 -42.0762 -42.0603 -42.0489 -41.9597 -41.9548 -41.8214 -41.7050
   -19.3336 -18.9315 -18.7097 -18.6073 -18.1621 -18.0219 -17.9063 -17.6001
   -17.5512 -17.5109 -17.1072 -16.6869  -6.6584  -6.3581  -6.3313  -6.2443
    -5.5445  -5.4317  -5.1245  -4.8824  -4.7299  -4.6839  -4.6642  -4.6270
    -4.4445  -4.3602  -4.2087  -4.0452  -3.8710  -3.7632  -3.6783  -3.2243
    -3.1415  -3.1060  -2.8684  -2.8206  -2.5949  -2.4558  -2.3927  -2.2782
    -2.0682  -1.8794  -1.8262  -1.6269  -1.5560  -1.2819  -1.2659  -1.0109
     1.1568   1.4354   1.5935   1.6220   1.6312   1.6740   1.6940   1.7690
     1.7986   1.8949   1.9849   2.0076   2.0796   2.1639   2.4284   2.6146
     2.6825   2.8223   3.0246   3.1879   3.8341   4.4186

          k = 0.1111 0.0000 0.0000 ( 37175 PWs)   bands (ev):

   -71.2184 -71.1781 -70.9740 -70.8100 -70.7844 -70.5143 -42.7221 -42.6318
   -42.5008 -42.5003 -42.4818 -42.4311 -42.4012 -42.3754 -42.3307 -42.3098
   -42.1382 -42.0745 -42.0552 -42.0441 -41.9825 -41.9768 -41.8165 -41.7285
   -19.3226 -18.9495 -18.7264 -18.4337 -18.0081 -17.8173 -17.7883 -17.6535
   -17.6164 -17.5408 -17.1375 -16.7130  -6.6899  -6.5243  -6.4948  -6.2614
    -5.4689  -5.4378  -5.2110  -5.1959  -5.0960  -4.9716  -4.9104  -4.4510
    -4.3850  -4.3706  -3.9027  -3.6687  -3.5538  -3.3703  -3.2590  -3.2023
    -3.1778  -3.0729  -3.0465  -2.8781  -2.8336  -2.5423  -2.3895  -2.3074
    -2.0529  -1.9931  -1.9278  -1.6360  -1.5225  -1.2249  -1.2238  -0.9267
     1.2699   1.3052   1.4094   1.4919   1.5350   1.5470   1.6192   1.6266
     1.7354   1.9267   1.9944   2.0528   2.1621   2.2471   2.3535   2.6545
     2.6910   2.8894   2.9801   3.1441   3.7371   4.2878

          k = 0.1111 0.1166 0.0000 ( 37124 PWs)   bands (ev):

   -71.2184 -71.1781 -70.9739 -70.8100 -70.7844 -70.5143 -42.7217 -42.6313
   -42.5008 -42.4994 -42.4818 -42.4310 -42.4012 -42.3754 -42.3307 -42.3098
   -42.1382 -42.0745 -42.0562 -42.0449 -41.9824 -41.9768 -41.8170 -41.7285
   -19.2302 -18.8408 -18.6281 -18.5240 -18.1156 -17.9797 -17.9021 -17.6226
   -17.5734 -17.5218 -17.1344 -16.7048  -6.5282  -6.2367  -6.2132  -6.1327
    -5.4788  -5.3761  -5.2269  -5.0697  -5.0325  -4.8898  -4.7824  -4.4484
    -4.3978  -4.3671  -3.9348  -3.8731  -3.7375  -3.6058  -3.5818  -3.3957
    -3.2249  -3.0964  -3.0521  -3.0076  -2.8992  -2.7208  -2.3881  -2.3373
    -2.1923  -2.0800  -1.9341  -1.7964  -1.6450  -1.2767  -1.2348  -1.0597
     1.2592   1.3966   1.5694   1.6720   1.6856   1.7036   1.8041   1.8838
     1.9168   1.9412   2.0739   2.1290   2.2114   2.3175   2.3798   2.5514
     2.7120   2.8014   2.9799   3.1707   3.8533   4.2929

          k = 0.1111-0.2332 0.0000 ( 37144 PWs)   bands (ev):

   -71.2184 -71.1781 -70.9739 -70.8100 -70.7844 -70.5143 -42.7212 -42.6307
   -42.5008 -42.4984 -42.4818 -42.4310 -42.4011 -42.3753 -42.3307 -42.3098
   -42.1383 -42.0745 -42.0573 -42.0456 -41.9824 -41.9768 -41.8176 -41.7285
   -19.0930 -18.6926 -18.6460 -18.4262 -18.3521 -18.1750 -17.9405 -17.6635
   -17.5489 -17.4791 -17.1327 -16.6975  -6.4559  -5.8536  -5.8455  -5.8012
    -5.5004  -5.3807  -5.2274  -4.9004  -4.8345  -4.8236  -4.5314  -4.5042
    -4.3968  -4.3618  -4.2862  -3.9407  -3.9069  -3.8221  -3.7962  -3.7582
    -3.5529  -3.4437  -3.1245  -3.0932  -3.0145  -2.9490  -2.4084  -2.2864
    -2.1892  -1.9919  -1.8786  -1.7612  -1.6545  -1.3754  -1.3138  -1.1907
     1.2494   1.4924   1.6859   1.7310   1.8009   1.8032   1.9374   2.0280
     2.0321   2.0685   2.2060   2.2433   2.3034   2.3459   2.4909   2.5170
     2.6385   2.7539   3.0416   3.3174   3.8622   4.2270

          k = 0.1111-0.1166 0.0000 ( 37124 PWs)   bands (ev):

   -71.2184 -71.1781 -70.9739 -70.8100 -70.7844 -70.5143 -42.7217 -42.6313
   -42.5008 -42.4994 -42.4818 -42.4310 -42.4012 -42.3754 -42.3307 -42.3098
   -42.1382 -42.0745 -42.0562 -42.0449 -41.9824 -41.9768 -41.8170 -41.7285
   -19.2302 -18.8408 -18.6281 -18.5240 -18.1156 -17.9797 -17.9021 -17.6226
   -17.5734 -17.5218 -17.1344 -16.7048  -6.5282  -6.2367  -6.2132  -6.1327
    -5.4788  -5.3761  -5.2269  -5.0697  -5.0325  -4.8898  -4.7824  -4.4484
    -4.3978  -4.3671  -3.9348  -3.8731  -3.7375  -3.6058  -3.5818  -3.3957
    -3.2249  -3.0964  -3.0521  -3.0076  -2.8992  -2.7208  -2.3881  -2.3373
    -2.1923  -2.0800  -1.9341  -1.7964  -1.6450  -1.2767  -1.2348  -1.0597
     1.2592   1.3966   1.5694   1.6720   1.6856   1.7036   1.8041   1.8838
     1.9168   1.9412   2.0739   2.1290   2.2114   2.3175   2.3798   2.5514
     2.7120   2.8014   2.9799   3.1707   3.8534   4.2926

          k = 0.2222 0.0000 0.0000 ( 37192 PWs)   bands (ev):

   -71.2141 -71.1739 -70.9697 -70.8058 -70.7800 -70.5098 -42.7179 -42.6274
   -42.5398 -42.4956 -42.4885 -42.4205 -42.3958 -42.3875 -42.3701 -42.3007
   -42.1933 -42.0705 -42.0455 -42.0399 -42.0341 -42.0324 -41.8057 -41.7876
   -19.0276 -18.6986 -18.4971 -18.2598 -18.0215 -17.7171 -17.7096 -17.6797
   -17.6386 -17.6072 -17.2076 -16.7415  -6.3157  -6.2264  -6.2205  -6.0134
    -5.5489  -5.4708  -5.3580  -5.3106  -5.2033  -5.0502  -4.8318  -4.7023
    -4.3484  -4.2040  -3.9775  -3.8812  -3.7987  -3.6551  -3.5371  -3.3942
    -3.1550  -3.1238  -2.8624  -2.8474  -2.7795  -2.7235  -2.6285  -2.5088
    -2.2858  -2.2189  -2.1203  -2.0641  -1.9320  -1.3933  -1.2829  -1.1139
     1.2477   1.4188   1.4879   1.6631   1.8320   1.8444   1.8668   1.8938
     2.0294   2.0814   2.0875   2.1864   2.1955   2.3434   2.4026   2.4851
     2.6826   2.8497   2.9009   3.0527   3.7253   4.0879

          k = 0.2222 0.1166 0.0000 ( 37137 PWs)   bands (ev):

   -71.2141 -71.1739 -70.9697 -70.8058 -70.7800 -70.5098 -42.7177 -42.6272
   -42.5398 -42.4952 -42.4885 -42.4205 -42.3958 -42.3876 -42.3701 -42.3007
   -42.1934 -42.0705 -42.0461 -42.0397 -42.0345 -42.0321 -41.8060 -41.7875
   -18.9529 -18.6082 -18.4207 -18.3066 -18.0663 -17.8944 -17.8543 -17.6841
   -17.6123 -17.5204 -17.2048 -16.7363  -6.1952  -5.9339  -5.9220  -5.8536
    -5.4611  -5.4109  -5.3372  -5.2717  -5.2265  -5.0666  -4.7228  -4.5576
    -4.3679  -4.2654  -4.1228  -3.9831  -3.9322  -3.8186  -3.6888  -3.4973
    -3.4134  -3.1951  -3.1481  -3.0942  -2.9597  -2.8355  -2.7951  -2.5755
    -2.2442  -2.0844  -1.9842  -1.9230  -1.7904  -1.4035  -1.3554  -1.1798
     1.2344   1.4561   1.5259   1.6559   1.7995   1.8217   1.9314   2.0204
     2.0964   2.1807   2.2248   2.2861   2.3665   2.3914   2.4302   2.4994
     2.6326   2.7684   2.9795   3.1753   3.7716   3.9631

          k = 0.2222-0.2332 0.0000 ( 37166 PWs)   bands (ev):

   -71.2141 -71.1739 -70.9697 -70.8058 -70.7800 -70.5098 -42.7175 -42.6269
   -42.5398 -42.4948 -42.4885 -42.4205 -42.3958 -42.3876 -42.3701 -42.3007
   -42.1936 -42.0705 -42.0466 -42.0395 -42.0350 -42.0319 -41.8064 -41.7873
   -18.8492 -18.4498 -18.4453 -18.2309 -18.1951 -18.0456 -17.9619 -17.7386
   -17.5846 -17.4806 -17.2030 -16.7317  -6.1583  -5.5641  -5.5625  -5.4655
    -5.4016  -5.3855  -5.3148  -5.0882  -5.0381  -4.9604  -4.7372  -4.4938
    -4.4596  -4.4468  -4.2992  -4.2383  -4.1937  -4.0221  -3.8010  -3.7094
    -3.5639  -3.5338  -3.3067  -3.2658  -3.0977  -3.0304  -2.9300  -2.5321
    -2.1576  -1.9346  -1.8261  -1.7397  -1.6679  -1.4297  -1.3597  -1.3582
     1.3266   1.4315   1.4769   1.6209   1.7200   1.8136   1.9975   2.1162
     2.1376   2.2181   2.3698   2.3978   2.4224   2.4518   2.5763   2.6874
     2.6912   2.7328   3.0888   3.2669   3.7052   3.7506

          k = 0.2222-0.1166 0.0000 ( 37137 PWs)   bands (ev):

   -71.2141 -71.1739 -70.9697 -70.8058 -70.7800 -70.5098 -42.7177 -42.6272
   -42.5398 -42.4952 -42.4885 -42.4205 -42.3958 -42.3876 -42.3701 -42.3007
   -42.1934 -42.0705 -42.0461 -42.0397 -42.0345 -42.0321 -41.8060 -41.7875
   -18.9529 -18.6082 -18.4207 -18.3066 -18.0663 -17.8944 -17.8543 -17.6841
   -17.6123 -17.5204 -17.2048 -16.7363  -6.1952  -5.9339  -5.9220  -5.8536
    -5.4611  -5.4109  -5.3372  -5.2717  -5.2265  -5.0666  -4.7228  -4.5576
    -4.3679  -4.2654  -4.1228  -3.9831  -3.9322  -3.8186  -3.6888  -3.4973
    -3.4134  -3.1951  -3.1481  -3.0942  -2.9597  -2.8355  -2.7951  -2.5755
    -2.2442  -2.0844  -1.9842  -1.9230  -1.7904  -1.4035  -1.3554  -1.1798
     1.2344   1.4561   1.5259   1.6559   1.7995   1.8217   1.9314   2.0204
     2.0964   2.1807   2.2248   2.2861   2.3665   2.3914   2.4302   2.4994
     2.6326   2.7684   2.9795   3.1753   3.7717   3.9630

          k = 0.3333 0.0000 0.0000 ( 37184 PWs)   bands (ev):

   -71.2092 -71.1691 -70.9648 -70.8009 -70.7750 -70.5047 -42.7131 -42.6224
   -42.6019 -42.4903 -42.4777 -42.4483 -42.4082 -42.3902 -42.3679 -42.2902
   -42.2549 -42.1046 -42.0951 -42.0661 -42.0344 -42.0226 -41.8542 -41.7934
   -18.6420 -18.4063 -18.2335 -18.0987 -17.9943 -17.7930 -17.7514 -17.6830
   -17.6503 -17.4535 -17.2892 -16.7371  -5.9744  -5.8817  -5.8647  -5.7893
    -5.6882  -5.5760  -5.3819  -5.3807  -5.1934  -5.1780  -5.0501  -4.6782
    -4.6067  -4.3297  -4.2649  -4.1919  -4.0553  -3.9384  -3.6416  -3.4911
    -3.3674  -3.1011  -3.0158  -2.9833  -2.9338  -2.7502  -2.7352  -2.4436
    -2.3394  -2.3255  -2.1166  -2.0574  -1.7973  -1.5983  -1.5345  -1.2761
     1.2680   1.3653   1.6418   1.8055   1.9029   1.9158   2.0013   2.0724
     2.1343   2.1780   2.2138   2.2600   2.3297   2.4817   2.4936   2.5405
     2.5835   2.6993   2.8465   3.0095   3.4681   4.0465

          k = 0.3333 0.1166 0.0000 ( 37206 PWs)   bands (ev):

   -71.2092 -71.1691 -70.9648 -70.8009 -70.7750 -70.5047 -42.7132 -42.6226
   -42.6020 -42.4905 -42.4777 -42.4483 -42.4081 -42.3902 -42.3679 -42.2902
   -42.2550 -42.1042 -42.0945 -42.0661 -42.0345 -42.0227 -41.8539 -41.7935
   -18.6005 -18.3536 -18.1883 -18.0681 -18.0413 -17.8418 -17.8345 -17.7593
   -17.6182 -17.4351 -17.2877 -16.7363  -5.8443  -5.7553  -5.6804  -5.6630
    -5.5574  -5.5002  -5.4303  -5.3885  -5.1737  -5.1639  -5.1251  -4.7014
    -4.5895  -4.4086  -4.3094  -4.2199  -4.0909  -3.8445  -3.7493  -3.5228
    -3.4952  -3.2284  -3.1913  -3.1162  -3.0469  -2.8203  -2.5894  -2.4925
    -2.4224  -2.2559  -2.0808  -1.9396  -1.8214  -1.5522  -1.5144  -1.3455
     1.1979   1.2478   1.4772   1.6519   1.7570   1.8358   2.0266   2.1071
     2.1591   2.2276   2.2760   2.3842   2.4196   2.4992   2.5756   2.5830
     2.6536   2.7543   2.9786   3.1042   3.4750   3.6856

          k = 0.3333-0.2332 0.0000 ( 37216 PWs)   bands (ev):

   -71.2092 -71.1691 -70.9648 -70.8009 -70.7750 -70.5047 -42.7133 -42.6227
   -42.6020 -42.4908 -42.4777 -42.4484 -42.4081 -42.3902 -42.3679 -42.2902
   -42.2552 -42.1038 -42.0940 -42.0661 -42.0346 -42.0229 -41.8536 -41.7936
   -18.5518 -18.2599 -18.1800 -18.0678 -18.0076 -17.9246 -17.9217 -17.8365
   -17.6029 -17.4219 -17.2865 -16.7355  -5.8234  -5.6283  -5.5785  -5.5334
    -5.4510  -5.3951  -5.3328  -5.2903  -5.1249  -4.9833  -4.9132  -4.7822
    -4.6992  -4.6982  -4.3209  -4.3202  -4.1121  -4.0057  -3.8445  -3.7185
    -3.4404  -3.3445  -3.3107  -3.1987  -3.1466  -2.8599  -2.8092  -2.4424
    -2.3803  -2.0376  -2.0218  -1.9274  -1.7831  -1.5799  -1.4421  -1.4115
     1.0869   1.1863   1.2395   1.4802   1.8105   1.8487   2.0220   2.1037
     2.1959   2.2114   2.2915   2.4750   2.4873   2.4890   2.6332   2.7605
     2.7948   2.8259   3.0814   3.2031   3.3450   3.4198

          k = 0.3333-0.1166 0.0000 ( 37206 PWs)   bands (ev):

   -71.2092 -71.1691 -70.9648 -70.8009 -70.7750 -70.5047 -42.7132 -42.6226
   -42.6020 -42.4905 -42.4777 -42.4483 -42.4081 -42.3902 -42.3679 -42.2902
   -42.2550 -42.1042 -42.0945 -42.0661 -42.0345 -42.0227 -41.8539 -41.7935
   -18.6005 -18.3536 -18.1883 -18.0681 -18.0413 -17.8418 -17.8345 -17.7593
   -17.6182 -17.4351 -17.2877 -16.7363  -5.8443  -5.7553  -5.6804  -5.6630
    -5.5574  -5.5002  -5.4303  -5.3885  -5.1737  -5.1639  -5.1251  -4.7014
    -4.5895  -4.4086  -4.3094  -4.2199  -4.0909  -3.8445  -3.7493  -3.5228
    -3.4952  -3.2284  -3.1913  -3.1162  -3.0469  -2.8203  -2.5894  -2.4925
    -2.4224  -2.2559  -2.0808  -1.9396  -1.8214  -1.5522  -1.5144  -1.3455
     1.1979   1.2478   1.4772   1.6519   1.7570   1.8358   2.0266   2.1071
     2.1591   2.2276   2.2760   2.3842   2.4196   2.4992   2.5756   2.5830
     2.6536   2.7543   2.9786   3.1042   3.4751   3.6857

          k = 0.4444 0.0000 0.0000 ( 37180 PWs)   bands (ev):

   -71.2060 -71.1659 -70.9616 -70.7977 -70.7718 -70.5014 -42.7099 -42.6423
   -42.6191 -42.4882 -42.4868 -42.4704 -42.3999 -42.3872 -42.3661 -42.2945
   -42.2829 -42.1465 -42.1356 -42.0633 -42.0271 -42.0151 -41.8973 -41.7853
   -18.3762 -18.1803 -18.0692 -18.0068 -17.9390 -17.8443 -17.7981 -17.7326
   -17.6637 -17.3461 -17.3353 -16.7076  -6.0548  -5.8059  -5.7158  -5.6832
    -5.6291  -5.5619  -5.4539  -5.3500  -5.2855  -5.2577  -4.9970  -4.9128
    -4.7108  -4.6468  -4.4460  -4.3410  -3.8902  -3.6364  -3.6067  -3.5968
    -3.5578  -3.4050  -3.3666  -2.8942  -2.8407  -2.6317  -2.6191  -2.4586
    -2.4030  -2.2917  -2.1293  -2.0351  -1.9003  -1.7411  -1.6743  -1.3177
     1.3278   1.4257   1.5917   1.7232   1.7734   1.9337   2.1103   2.1219
     2.1537   2.2289   2.2638   2.3522   2.3978   2.4438   2.4993   2.6400
     2.6953   2.7448   2.8476   2.9606   3.2690   3.9658

          k = 0.4444 0.1166 0.0000 ( 37248 PWs)   bands (ev):

   -71.2060 -71.1659 -70.9616 -70.7977 -70.7718 -70.5014 -42.7102 -42.6424
   -42.6196 -42.4883 -42.4875 -42.4704 -42.3999 -42.3872 -42.3661 -42.2947
   -42.2829 -42.1459 -42.1348 -42.0633 -42.0270 -42.0150 -41.8969 -41.7853
   -18.3713 -18.1640 -18.0482 -18.0396 -17.9566 -17.8259 -17.8191 -17.7475
   -17.6499 -17.3461 -17.3364 -16.7074  -6.0244  -5.9840  -5.7752  -5.6884
    -5.6264  -5.5307  -5.4138  -5.3851  -5.2665  -5.0525  -4.9655  -4.6936
    -4.6473  -4.5504  -4.2373  -4.1985  -4.0422  -3.8750  -3.8065  -3.6826
    -3.4714  -3.3859  -3.1407  -3.1222  -2.8915  -2.5757  -2.5401  -2.4827
    -2.3986  -2.2286  -2.1787  -2.0472  -1.9987  -1.7129  -1.6468  -1.4385
     1.1769   1.2452   1.3505   1.4303   1.5006   1.9433   1.9670   2.1267
     2.1628   2.2717   2.3284   2.4240   2.4949   2.5476   2.6533   2.7201
     2.7310   2.8031   2.9213   3.0174   3.3078   3.5062

          k = 0.4444-0.2332 0.0000 ( 37264 PWs)   bands (ev):

   -71.2060 -71.1659 -70.9616 -70.7977 -70.7718 -70.5014 -42.7105 -42.6425
   -42.6200 -42.4883 -42.4882 -42.4704 -42.3999 -42.3872 -42.3661 -42.2949
   -42.2829 -42.1454 -42.1340 -42.0633 -42.0268 -42.0150 -41.8965 -41.7852
   -18.3665 -18.1366 -18.0806 -18.0185 -17.9730 -17.8560 -17.8020 -17.7621
   -17.6385 -17.3463 -17.3374 -16.7072  -6.0523  -5.9926  -5.9288  -5.9229
    -5.5193  -5.5084  -5.3118  -5.0763  -4.9572  -4.9464  -4.9284  -4.7274
    -4.6777  -4.4759  -4.2819  -4.2813  -4.1567  -3.9468  -3.7509  -3.6513
    -3.4360  -3.3120  -3.3100  -2.9600  -2.9303  -2.6837  -2.5918  -2.5472
    -2.4363  -2.3020  -2.0843  -2.0421  -1.8199  -1.7455  -1.7246  -1.5161
     0.9523   1.0282   1.0861   1.2533   1.5419   1.8367   1.9526   2.1397
     2.1626   2.3030   2.3358   2.4577   2.5243   2.5825   2.5980   2.6721
     2.8980   2.9338   3.0456   3.0838   3.2486   3.3418

          k = 0.4444-0.1166 0.0000 ( 37248 PWs)   bands (ev):

   -71.2060 -71.1659 -70.9616 -70.7977 -70.7718 -70.5014 -42.7102 -42.6424
   -42.6196 -42.4883 -42.4875 -42.4704 -42.3999 -42.3872 -42.3661 -42.2947
   -42.2829 -42.1459 -42.1348 -42.0633 -42.0270 -42.0150 -41.8969 -41.7853
   -18.3713 -18.1640 -18.0482 -18.0396 -17.9566 -17.8259 -17.8191 -17.7475
   -17.6499 -17.3461 -17.3364 -16.7074  -6.0244  -5.9840  -5.7752  -5.6884
    -5.6264  -5.5307  -5.4138  -5.3851  -5.2665  -5.0525  -4.9655  -4.6936
    -4.6473  -4.5504  -4.2373  -4.1985  -4.0422  -3.8750  -3.8065  -3.6826
    -3.4714  -3.3859  -3.1407  -3.1222  -2.8915  -2.5757  -2.5401  -2.4827
    -2.3986  -2.2286  -2.1787  -2.0472  -1.9987  -1.7129  -1.6468  -1.4385
     1.1769   1.2452   1.3505   1.4303   1.5006   1.9433   1.9670   2.1267
     2.1628   2.2716   2.3284   2.4240   2.4949   2.5476   2.6533   2.7201
     2.7310   2.8031   2.9212   3.0173   3.3076   3.5074

          k =-0.4444 0.0000 0.0000 ( 37180 PWs)   bands (ev):

   -71.2060 -71.1659 -70.9616 -70.7977 -70.7718 -70.5014 -42.7099 -42.6423
   -42.6191 -42.4882 -42.4868 -42.4704 -42.3999 -42.3872 -42.3661 -42.2945
   -42.2829 -42.1465 -42.1356 -42.0633 -42.0271 -42.0151 -41.8973 -41.7853
   -18.3762 -18.1803 -18.0692 -18.0068 -17.9390 -17.8443 -17.7981 -17.7326
   -17.6637 -17.3461 -17.3353 -16.7076  -6.0548  -5.8059  -5.7158  -5.6832
    -5.6291  -5.5619  -5.4539  -5.3500  -5.2855  -5.2577  -4.9970  -4.9128
    -4.7108  -4.6468  -4.4460  -4.3410  -3.8902  -3.6364  -3.6067  -3.5968
    -3.5578  -3.4050  -3.3666  -2.8942  -2.8407  -2.6317  -2.6191  -2.4586
    -2.4030  -2.2917  -2.1293  -2.0351  -1.9003  -1.7411  -1.6743  -1.3177
     1.3278   1.4257   1.5917   1.7232   1.7734   1.9337   2.1103   2.1219
     2.1537   2.2289   2.2638   2.3522   2.3978   2.4438   2.4993   2.6400
     2.6953   2.7448   2.8476   2.9606   3.2690   3.9662

          k =-0.4444 0.1166 0.0000 ( 37248 PWs)   bands (ev):

   -71.2060 -71.1659 -70.9616 -70.7977 -70.7718 -70.5014 -42.7102 -42.6424
   -42.6196 -42.4883 -42.4875 -42.4704 -42.3999 -42.3872 -42.3661 -42.2947
   -42.2829 -42.1459 -42.1348 -42.0633 -42.0270 -42.0150 -41.8969 -41.7853
   -18.3713 -18.1640 -18.0482 -18.0396 -17.9566 -17.8259 -17.8191 -17.7475
   -17.6499 -17.3461 -17.3364 -16.7074  -6.0244  -5.9840  -5.7752  -5.6884
    -5.6264  -5.5307  -5.4138  -5.3851  -5.2665  -5.0525  -4.9655  -4.6936
    -4.6473  -4.5504  -4.2373  -4.1985  -4.0422  -3.8750  -3.8065  -3.6826
    -3.4714  -3.3859  -3.1407  -3.1222  -2.8915  -2.5757  -2.5401  -2.4827
    -2.3986  -2.2286  -2.1787  -2.0472  -1.9987  -1.7129  -1.6468  -1.4385
     1.1769   1.2452   1.3505   1.4303   1.5006   1.9433   1.9670   2.1267
     2.1628   2.2717   2.3284   2.4240   2.4949   2.5476   2.6533   2.7201
     2.7310   2.8031   2.9213   3.0174   3.3077   3.5061

          k =-0.4444-0.2332 0.0000 ( 37264 PWs)   bands (ev):

   -71.2060 -71.1659 -70.9616 -70.7977 -70.7718 -70.5014 -42.7105 -42.6425
   -42.6200 -42.4883 -42.4882 -42.4704 -42.3999 -42.3872 -42.3661 -42.2949
   -42.2829 -42.1454 -42.1340 -42.0633 -42.0268 -42.0150 -41.8965 -41.7852
   -18.3665 -18.1366 -18.0806 -18.0185 -17.9730 -17.8560 -17.8020 -17.7621
   -17.6385 -17.3463 -17.3374 -16.7072  -6.0523  -5.9926  -5.9288  -5.9229
    -5.5193  -5.5084  -5.3118  -5.0763  -4.9572  -4.9464  -4.9284  -4.7274
    -4.6777  -4.4759  -4.2819  -4.2813  -4.1567  -3.9468  -3.7509  -3.6513
    -3.4360  -3.3120  -3.3100  -2.9600  -2.9303  -2.6837  -2.5918  -2.5472
    -2.4363  -2.3020  -2.0843  -2.0421  -1.8199  -1.7455  -1.7246  -1.5161
     0.9523   1.0282   1.0861   1.2533   1.5419   1.8367   1.9526   2.1397
     2.1626   2.3030   2.3358   2.4577   2.5244   2.5825   2.5980   2.6721
     2.8980   2.9339   3.0456   3.0838   3.2488   3.3418

          k =-0.4444-0.1166 0.0000 ( 37248 PWs)   bands (ev):

   -71.2060 -71.1659 -70.9616 -70.7977 -70.7718 -70.5014 -42.7102 -42.6424
   -42.6196 -42.4883 -42.4875 -42.4704 -42.3999 -42.3872 -42.3661 -42.2947
   -42.2829 -42.1459 -42.1348 -42.0633 -42.0270 -42.0150 -41.8969 -41.7853
   -18.3713 -18.1640 -18.0482 -18.0396 -17.9566 -17.8259 -17.8191 -17.7475
   -17.6499 -17.3461 -17.3364 -16.7074  -6.0244  -5.9840  -5.7752  -5.6884
    -5.6264  -5.5307  -5.4138  -5.3851  -5.2665  -5.0525  -4.9655  -4.6936
    -4.6473  -4.5504  -4.2373  -4.1985  -4.0422  -3.8750  -3.8065  -3.6826
    -3.4714  -3.3859  -3.1407  -3.1222  -2.8915  -2.5757  -2.5401  -2.4827
    -2.3986  -2.2286  -2.1787  -2.0472  -1.9987  -1.7129  -1.6468  -1.4385
     1.1769   1.2452   1.3505   1.4303   1.5006   1.9433   1.9670   2.1267
     2.1628   2.2716   2.3284   2.4240   2.4949   2.5476   2.6533   2.7201
     2.7310   2.8031   2.9212   3.0173   3.3076   3.5063

          k =-0.3333 0.0000 0.0000 ( 37184 PWs)   bands (ev):

   -71.2092 -71.1691 -70.9648 -70.8009 -70.7750 -70.5047 -42.7131 -42.6224
   -42.6019 -42.4903 -42.4777 -42.4483 -42.4082 -42.3902 -42.3679 -42.2902
   -42.2549 -42.1046 -42.0951 -42.0661 -42.0344 -42.0226 -41.8542 -41.7934
   -18.6420 -18.4063 -18.2335 -18.0987 -17.9943 -17.7930 -17.7514 -17.6830
   -17.6503 -17.4535 -17.2892 -16.7371  -5.9744  -5.8817  -5.8647  -5.7893
    -5.6882  -5.5760  -5.3819  -5.3807  -5.1934  -5.1780  -5.0501  -4.6782
    -4.6067  -4.3297  -4.2649  -4.1919  -4.0553  -3.9384  -3.6416  -3.4911
    -3.3674  -3.1011  -3.0158  -2.9833  -2.9338  -2.7502  -2.7352  -2.4436
    -2.3394  -2.3255  -2.1166  -2.0574  -1.7973  -1.5983  -1.5345  -1.2761
     1.2680   1.3653   1.6418   1.8055   1.9029   1.9158   2.0013   2.0724
     2.1343   2.1780   2.2138   2.2600   2.3297   2.4817   2.4936   2.5405
     2.5835   2.6993   2.8465   3.0095   3.4681   4.0461

          k =-0.3333 0.1166 0.0000 ( 37206 PWs)   bands (ev):

   -71.2092 -71.1691 -70.9648 -70.8009 -70.7750 -70.5047 -42.7132 -42.6226
   -42.6020 -42.4905 -42.4777 -42.4483 -42.4081 -42.3902 -42.3679 -42.2902
   -42.2550 -42.1042 -42.0945 -42.0661 -42.0345 -42.0227 -41.8539 -41.7935
   -18.6005 -18.3536 -18.1883 -18.0681 -18.0413 -17.8418 -17.8345 -17.7593
   -17.6182 -17.4351 -17.2877 -16.7363  -5.8443  -5.7553  -5.6804  -5.6630
    -5.5574  -5.5002  -5.4303  -5.3885  -5.1737  -5.1639  -5.1251  -4.7014
    -4.5895  -4.4086  -4.3094  -4.2199  -4.0909  -3.8445  -3.7493  -3.5228
    -3.4952  -3.2284  -3.1913  -3.1162  -3.0469  -2.8203  -2.5894  -2.4925
    -2.4224  -2.2559  -2.0808  -1.9396  -1.8214  -1.5522  -1.5144  -1.3455
     1.1979   1.2478   1.4772   1.6519   1.7570   1.8358   2.0266   2.1071
     2.1591   2.2276   2.2760   2.3842   2.4196   2.4992   2.5756   2.5830
     2.6536   2.7543   2.9786   3.1042   3.4750   3.6857

          k =-0.3333-0.2332 0.0000 ( 37216 PWs)   bands (ev):

   -71.2092 -71.1691 -70.9648 -70.8009 -70.7750 -70.5047 -42.7133 -42.6227
   -42.6020 -42.4908 -42.4777 -42.4484 -42.4081 -42.3902 -42.3679 -42.2902
   -42.2552 -42.1038 -42.0940 -42.0661 -42.0346 -42.0229 -41.8536 -41.7936
   -18.5518 -18.2599 -18.1800 -18.0678 -18.0076 -17.9246 -17.9217 -17.8365
   -17.6029 -17.4219 -17.2865 -16.7355  -5.8234  -5.6283  -5.5785  -5.5334
    -5.4510  -5.3951  -5.3328  -5.2903  -5.1249  -4.9833  -4.9132  -4.7822
    -4.6992  -4.6982  -4.3209  -4.3202  -4.1121  -4.0057  -3.8445  -3.7185
    -3.4404  -3.3445  -3.3107  -3.1987  -3.1466  -2.8599  -2.8092  -2.4424
    -2.3803  -2.0376  -2.0218  -1.9274  -1.7831  -1.5799  -1.4421  -1.4115
     1.0869   1.1863   1.2395   1.4802   1.8105   1.8487   2.0220   2.1037
     2.1959   2.2114   2.2915   2.4750   2.4873   2.4890   2.6332   2.7605
     2.7948   2.8259   3.0814   3.2031   3.3451   3.4198

          k =-0.3333-0.1166 0.0000 ( 37206 PWs)   bands (ev):

   -71.2092 -71.1691 -70.9648 -70.8009 -70.7750 -70.5047 -42.7132 -42.6226
   -42.6020 -42.4905 -42.4777 -42.4483 -42.4081 -42.3902 -42.3679 -42.2902
   -42.2550 -42.1042 -42.0945 -42.0661 -42.0345 -42.0227 -41.8539 -41.7935
   -18.6005 -18.3536 -18.1883 -18.0681 -18.0413 -17.8418 -17.8345 -17.7593
   -17.6182 -17.4351 -17.2877 -16.7363  -5.8443  -5.7553  -5.6804  -5.6630
    -5.5574  -5.5002  -5.4303  -5.3885  -5.1737  -5.1639  -5.1251  -4.7014
    -4.5895  -4.4086  -4.3094  -4.2199  -4.0909  -3.8445  -3.7493  -3.5228
    -3.4952  -3.2284  -3.1913  -3.1162  -3.0469  -2.8203  -2.5894  -2.4925
    -2.4224  -2.2559  -2.0808  -1.9396  -1.8214  -1.5522  -1.5144  -1.3455
     1.1979   1.2478   1.4772   1.6519   1.7570   1.8358   2.0266   2.1071
     2.1591   2.2276   2.2760   2.3842   2.4196   2.4992   2.5756   2.5830
     2.6536   2.7543   2.9786   3.1042   3.4750   3.6857

          k =-0.2222 0.0000 0.0000 ( 37192 PWs)   bands (ev):

   -71.2141 -71.1739 -70.9697 -70.8058 -70.7800 -70.5098 -42.7179 -42.6274
   -42.5398 -42.4956 -42.4885 -42.4205 -42.3958 -42.3875 -42.3701 -42.3007
   -42.1933 -42.0705 -42.0455 -42.0399 -42.0341 -42.0324 -41.8057 -41.7876
   -19.0276 -18.6986 -18.4971 -18.2598 -18.0215 -17.7171 -17.7096 -17.6797
   -17.6386 -17.6072 -17.2076 -16.7415  -6.3157  -6.2264  -6.2205  -6.0134
    -5.5489  -5.4708  -5.3580  -5.3106  -5.2033  -5.0502  -4.8318  -4.7023
    -4.3484  -4.2040  -3.9775  -3.8812  -3.7987  -3.6551  -3.5371  -3.3942
    -3.1550  -3.1238  -2.8624  -2.8474  -2.7795  -2.7235  -2.6285  -2.5088
    -2.2858  -2.2189  -2.1203  -2.0641  -1.9320  -1.3933  -1.2829  -1.1139
     1.2477   1.4188   1.4879   1.6631   1.8320   1.8444   1.8668   1.8938
     2.0294   2.0814   2.0875   2.1864   2.1955   2.3434   2.4026   2.4851
     2.6826   2.8497   2.9009   3.0527   3.7253   4.0879

          k =-0.2222 0.1166 0.0000 ( 37137 PWs)   bands (ev):

   -71.2141 -71.1739 -70.9697 -70.8058 -70.7800 -70.5098 -42.7177 -42.6272
   -42.5398 -42.4952 -42.4885 -42.4205 -42.3958 -42.3876 -42.3701 -42.3007
   -42.1934 -42.0705 -42.0461 -42.0397 -42.0345 -42.0321 -41.8060 -41.7875
   -18.9529 -18.6082 -18.4207 -18.3066 -18.0663 -17.8944 -17.8543 -17.6841
   -17.6123 -17.5204 -17.2048 -16.7363  -6.1952  -5.9339  -5.9220  -5.8536
    -5.4611  -5.4109  -5.3372  -5.2717  -5.2265  -5.0666  -4.7228  -4.5576
    -4.3679  -4.2654  -4.1228  -3.9831  -3.9322  -3.8186  -3.6888  -3.4973
    -3.4134  -3.1951  -3.1481  -3.0942  -2.9597  -2.8355  -2.7951  -2.5755
    -2.2442  -2.0844  -1.9842  -1.9230  -1.7904  -1.4035  -1.3554  -1.1798
     1.2344   1.4561   1.5259   1.6559   1.7995   1.8217   1.9314   2.0204
     2.0964   2.1807   2.2248   2.2861   2.3665   2.3914   2.4302   2.4994
     2.6326   2.7684   2.9795   3.1753   3.7716   3.9631

          k =-0.2222-0.2332 0.0000 ( 37166 PWs)   bands (ev):

   -71.2141 -71.1739 -70.9697 -70.8058 -70.7800 -70.5098 -42.7175 -42.6269
   -42.5398 -42.4948 -42.4885 -42.4205 -42.3958 -42.3876 -42.3701 -42.3007
   -42.1936 -42.0705 -42.0466 -42.0395 -42.0350 -42.0319 -41.8064 -41.7873
   -18.8492 -18.4498 -18.4453 -18.2309 -18.1951 -18.0456 -17.9619 -17.7386
   -17.5846 -17.4806 -17.2030 -16.7317  -6.1583  -5.5641  -5.5625  -5.4655
    -5.4016  -5.3855  -5.3148  -5.0882  -5.0381  -4.9604  -4.7372  -4.4938
    -4.4596  -4.4468  -4.2992  -4.2383  -4.1937  -4.0221  -3.8010  -3.7094
    -3.5639  -3.5338  -3.3067  -3.2658  -3.0977  -3.0304  -2.9300  -2.5321
    -2.1576  -1.9346  -1.8261  -1.7397  -1.6679  -1.4297  -1.3597  -1.3582
     1.3266   1.4315   1.4769   1.6209   1.7200   1.8136   1.9975   2.1162
     2.1376   2.2181   2.3698   2.3978   2.4224   2.4518   2.5763   2.6874
     2.6912   2.7328   3.0888   3.2669   3.7059   3.7507

          k =-0.2222-0.1166 0.0000 ( 37137 PWs)   bands (ev):

   -71.2141 -71.1739 -70.9697 -70.8058 -70.7800 -70.5098 -42.7177 -42.6272
   -42.5398 -42.4952 -42.4885 -42.4205 -42.3958 -42.3876 -42.3701 -42.3007
   -42.1934 -42.0705 -42.0461 -42.0397 -42.0345 -42.0321 -41.8060 -41.7875
   -18.9529 -18.6082 -18.4207 -18.3066 -18.0663 -17.8944 -17.8543 -17.6841
   -17.6123 -17.5204 -17.2048 -16.7363  -6.1952  -5.9339  -5.9220  -5.8536
    -5.4611  -5.4109  -5.3372  -5.2717  -5.2265  -5.0666  -4.7228  -4.5576
    -4.3679  -4.2654  -4.1228  -3.9831  -3.9322  -3.8186  -3.6888  -3.4973
    -3.4134  -3.1951  -3.1481  -3.0942  -2.9597  -2.8355  -2.7951  -2.5755
    -2.2442  -2.0844  -1.9842  -1.9230  -1.7904  -1.4035  -1.3554  -1.1798
     1.2344   1.4561   1.5259   1.6559   1.7995   1.8217   1.9314   2.0204
     2.0964   2.1807   2.2248   2.2861   2.3665   2.3914   2.4302   2.4994
     2.6326   2.7684   2.9795   3.1753   3.7720   3.9631

          k =-0.1111 0.0000 0.0000 ( 37175 PWs)   bands (ev):

   -71.2184 -71.1781 -70.9740 -70.8100 -70.7844 -70.5143 -42.7221 -42.6318
   -42.5008 -42.5003 -42.4818 -42.4311 -42.4012 -42.3754 -42.3307 -42.3098
   -42.1382 -42.0745 -42.0552 -42.0441 -41.9825 -41.9768 -41.8165 -41.7285
   -19.3226 -18.9495 -18.7264 -18.4337 -18.0081 -17.8173 -17.7883 -17.6535
   -17.6164 -17.5408 -17.1375 -16.7130  -6.6899  -6.5243  -6.4948  -6.2614
    -5.4689  -5.4378  -5.2110  -5.1959  -5.0960  -4.9716  -4.9104  -4.4510
    -4.3850  -4.3706  -3.9027  -3.6687  -3.5538  -3.3703  -3.2590  -3.2023
    -3.1778  -3.0729  -3.0465  -2.8781  -2.8336  -2.5423  -2.3895  -2.3074
    -2.0529  -1.9931  -1.9278  -1.6360  -1.5225  -1.2249  -1.2238  -0.9267
     1.2699   1.3052   1.4094   1.4919   1.5350   1.5470   1.6192   1.6266
     1.7354   1.9267   1.9944   2.0528   2.1621   2.2471   2.3535   2.6545
     2.6910   2.8894   2.9801   3.1441   3.7371   4.2877

          k =-0.1111 0.1166 0.0000 ( 37124 PWs)   bands (ev):

   -71.2184 -71.1781 -70.9739 -70.8100 -70.7844 -70.5143 -42.7217 -42.6313
   -42.5008 -42.4994 -42.4818 -42.4310 -42.4012 -42.3754 -42.3307 -42.3098
   -42.1382 -42.0745 -42.0562 -42.0449 -41.9824 -41.9768 -41.8170 -41.7285
   -19.2302 -18.8408 -18.6281 -18.5240 -18.1156 -17.9797 -17.9021 -17.6226
   -17.5734 -17.5218 -17.1344 -16.7048  -6.5282  -6.2367  -6.2132  -6.1327
    -5.4788  -5.3761  -5.2269  -5.0697  -5.0325  -4.8898  -4.7824  -4.4484
    -4.3978  -4.3671  -3.9348  -3.8731  -3.7375  -3.6058  -3.5818  -3.3957
    -3.2249  -3.0964  -3.0521  -3.0076  -2.8992  -2.7208  -2.3881  -2.3373
    -2.1923  -2.0800  -1.9341  -1.7964  -1.6450  -1.2767  -1.2348  -1.0597
     1.2592   1.3966   1.5694   1.6720   1.6856   1.7036   1.8041   1.8838
     1.9168   1.9412   2.0739   2.1290   2.2114   2.3175   2.3798   2.5514
     2.7120   2.8014   2.9799   3.1707   3.8533   4.2925

          k =-0.1111-0.2332 0.0000 ( 37144 PWs)   bands (ev):

   -71.2184 -71.1781 -70.9739 -70.8100 -70.7844 -70.5143 -42.7212 -42.6307
   -42.5008 -42.4984 -42.4818 -42.4310 -42.4011 -42.3753 -42.3307 -42.3098
   -42.1383 -42.0745 -42.0573 -42.0456 -41.9824 -41.9768 -41.8176 -41.7285
   -19.0930 -18.6926 -18.6460 -18.4262 -18.3521 -18.1750 -17.9405 -17.6635
   -17.5489 -17.4791 -17.1327 -16.6975  -6.4559  -5.8536  -5.8455  -5.8012
    -5.5004  -5.3807  -5.2274  -4.9004  -4.8345  -4.8236  -4.5314  -4.5042
    -4.3968  -4.3618  -4.2862  -3.9407  -3.9069  -3.8221  -3.7962  -3.7582
    -3.5529  -3.4437  -3.1245  -3.0932  -3.0145  -2.9490  -2.4084  -2.2864
    -2.1892  -1.9919  -1.8786  -1.7612  -1.6545  -1.3754  -1.3138  -1.1907
     1.2494   1.4924   1.6859   1.7310   1.8009   1.8032   1.9374   2.0280
     2.0321   2.0685   2.2060   2.2433   2.3034   2.3459   2.4909   2.5170
     2.6385   2.7539   3.0416   3.3174   3.8622   4.2271

          k =-0.1111-0.1166 0.0000 ( 37124 PWs)   bands (ev):

   -71.2184 -71.1781 -70.9739 -70.8100 -70.7844 -70.5143 -42.7217 -42.6313
   -42.5008 -42.4994 -42.4818 -42.4310 -42.4012 -42.3754 -42.3307 -42.3098
   -42.1382 -42.0745 -42.0562 -42.0449 -41.9824 -41.9768 -41.8170 -41.7285
   -19.2302 -18.8408 -18.6281 -18.5240 -18.1156 -17.9797 -17.9021 -17.6226
   -17.5734 -17.5218 -17.1344 -16.7048  -6.5282  -6.2367  -6.2132  -6.1327
    -5.4788  -5.3761  -5.2269  -5.0697  -5.0325  -4.8898  -4.7824  -4.4484
    -4.3978  -4.3671  -3.9348  -3.8731  -3.7375  -3.6058  -3.5818  -3.3957
    -3.2249  -3.0964  -3.0521  -3.0076  -2.8992  -2.7208  -2.3881  -2.3373
    -2.1923  -2.0800  -1.9341  -1.7964  -1.6450  -1.2767  -1.2348  -1.0597
     1.2592   1.3966   1.5694   1.6720   1.6856   1.7036   1.8041   1.8838
     1.9168   1.9412   2.0739   2.1290   2.2114   2.3175   2.3798   2.5514
     2.7120   2.8014   2.9799   3.1707   3.8533   4.2925

     the Fermi energy is     0.3548 ev

!    total energy              =   -1553.60924907 Ry
     estimated scf accuracy    <       0.00000075 Ry
     smearing contrib. (-TS)   =      -0.00059317 Ry
     internal energy E=F+TS    =   -1553.60865591 Ry

     The total energy is F=E-TS. E is the sum of the following terms:
     one-electron contribution =  -15141.69177590 Ry
     hartree contribution      =    7591.35577319 Ry
     xc contribution           =    -223.18744424 Ry
     ewald contribution        =    6334.14078422 Ry
     one-center paw contrib.   =    -114.22599318 Ry

     total magnetization       =    12.00 Bohr mag/cell
     absolute magnetization    =    14.23 Bohr mag/cell

     convergence has been achieved in  21 iterations

     negative rho (up, down):  2.423E-03 2.009E-02

     Forces acting on atoms (cartesian axes, Ry/au):

     atom    1 type  1   force =    -0.00000001   -0.00000010    0.09422835
     atom    2 type  1   force =    -0.00000005   -0.00000020   -0.09359516
     atom    3 type  1   force =    -0.00000005   -0.00000049    0.01220605
     atom    4 type  1   force =     0.00000009    0.00000033   -0.00609503
     atom    5 type  1   force =    -0.00000004    0.00000002   -0.02878720
     atom    6 type  1   force =    -0.00000018   -0.00000008    0.02900632
     atom    7 type  2   force =    -0.00000012   -0.00000022    0.04618450
     atom    8 type  2   force =    -0.00000012   -0.00000017    0.06373936
     atom    9 type  2   force =    -0.00000006    0.01714843   -0.03638901
     atom   10 type  2   force =    -0.00000001   -0.01714797   -0.03638891
     atom   11 type  2   force =     0.00000000   -0.00000004    0.01501278
     atom   12 type  2   force =     0.00000031    0.00000016   -0.00956497
     atom   13 type  2   force =     0.00000038    0.00577565   -0.00135105
     atom   14 type  2   force =    -0.00000011   -0.00577562   -0.00135067
     atom   15 type  2   force =     0.00000002    0.00000020   -0.04164405
     atom   16 type  2   force =     0.00000005    0.00000018   -0.00786545
     atom   17 type  2   force =    -0.00000015    0.01196498    0.00132704
     atom   18 type  2   force =     0.00000004   -0.01196506    0.00132710

     Total force =     0.065099     Total SCF correction =     0.001569

     Writing all to output data dir ./tmp_slab__u000/slab__u000.save/ :
     XML data file, charge density, pseudopotentials, collected wavefunctions

     init_run     :      6.05s CPU      6.74s WALL (       1 calls)
     electrons    :    210.49s CPU    214.20s WALL (       1 calls)
     forces       :      1.14s CPU      1.16s WALL (       1 calls)

     Called by init_run:
     wfcinit      :      3.42s CPU      4.02s WALL (       1 calls)
     potinit      :      1.25s CPU      1.27s WALL (       1 calls)
     hinit0       :      0.47s CPU      0.50s WALL (       1 calls)

     Called by electrons:
     c_bands      :    169.37s CPU    172.49s WALL (      21 calls)
     sum_band     :     29.56s CPU     29.95s WALL (      21 calls)
     v_of_rho     :      2.48s CPU      2.53s WALL (      22 calls)
     newd         :      1.79s CPU      1.82s WALL (      22 calls)
     PAW_pot      :      3.15s CPU      3.17s WALL (      22 calls)
     mix_rho      :      4.21s CPU      4.26s WALL (      21 calls)

     Called by c_bands:
     init_us_2    :      2.50s CPU      2.57s WALL (     792 calls)
     cegterg      :    131.52s CPU    133.83s WALL (     378 calls)

     Called by *egterg:
     cdiaghg      :     14.39s CPU     14.61s WALL (    1493 calls)
     h_psi        :     89.60s CPU     91.68s WALL (    1511 calls)
     s_psi        :      4.76s CPU      4.83s WALL (    1511 calls)
     g_psi        :      0.37s CPU      0.41s WALL (    1115 calls)

     Called by h_psi:
     h_psi:calbec :      7.90s CPU      8.11s WALL (    1511 calls)
     vloc_psi     :     76.46s CPU     78.21s WALL (    1511 calls)
                                        0.00s GPU  (    1511 calls)
     add_vuspsi   :      4.65s CPU      4.75s WALL (    1511 calls)

     General routines
     calbec       :     11.50s CPU     11.73s WALL (    1961 calls)
     fft          :      2.37s CPU      2.42s WALL (     563 calls)
     ffts         :      1.96s CPU      1.98s WALL (    2546 calls)
     fftw         :     84.13s CPU     85.93s WALL (  193396 calls)
     interpolate  :      0.42s CPU      0.43s WALL (      44 calls)

     Parallel routines

     PWSCF        :   3m39.95s CPU   3m44.84s WALL


   This run was terminated on:   3:23:35  28Aug2026            

=------------------------------------------------------------------------------=
   JOB DONE.
=------------------------------------------------------------------------------=
Note: The following floating-point exceptions are signalling: IEEE_DENORMAL
Note: The following floating-point exceptions are signalling: IEEE_DENORMAL
Note: The following floating-point exceptions are signalling: IEEE_DENORMAL
Note: The following floating-point exceptions are signalling: IEEE_DENORMAL
Note: The following floating-point exceptions are signalling: IEEE_DENORMAL
Note: The following floating-point exceptions are signalling: IEEE_DENORMAL
Note: The following floating-point exceptions are signalling: IEEE_DENORMAL
Note: The following floating-point exceptions are signalling: IEEE_DENORMAL
Note: The following floating-point exceptions are signalling: IEEE_DENORMAL
Note: The following floating-point exceptions are signalling: IEEE_DENORMAL
Note: The following floating-point exceptions are signalling: IEEE_DENORMAL
Note: The following floating-point exceptions are signalling: IEEE_DENORMAL
Note: The following floating-point exceptions are signalling: IEEE_DENORMAL
Note: The following floating-point exceptions are signalling: IEEE_DENORMAL
Note: The following floating-point exceptions are signalling: IEEE_DENORMAL
Note: The following floating-point exceptions are signalling: IEEE_DENORMAL
Note: The following floating-point exceptions are signalling: IEEE_DENORMAL
Note: The following floating-point exceptions are signalling: IEEE_DENORMAL
Note: The following floating-point exceptions are signalling: IEEE_DENORMAL
Note: The following floating-point exceptions are signalling: IEEE_DENORMAL
Note: The following floating-point exceptions are signalling: IEEE_DENORMAL
Note: The following floating-point exceptions are signalling: IEEE_DENORMAL
Note: The following floating-point exceptions are signalling: IEEE_DENORMAL
Note: The following floating-point exceptions are signalling: IEEE_DENORMAL
Note: The following floating-point exceptions are signalling: IEEE_DENORMAL
