
     Program PWSCF v.7.5 starts on 28Aug2026 at  9:59:25 

     This program is part of the open-source Quantum ESPRESSO suite
     for quantum simulation of materials; please cite
         "P. Giannozzi et al., J. Phys.:Condens. Matter 21 395502 (2009);
         "P. Giannozzi et al., J. Phys.:Condens. Matter 29 465901 (2017);
         "P. Giannozzi et al., J. Chem. Phys. 152 154105 (2020);
          URL http://www.quantum-espresso.org", 
     in publications or presentations arising from this work. More details at
     http://www.quantum-espresso.org/quote

     Parallel version (MPI & OpenMP), running on     128 processor cores
     Number of MPI processes:               128
     Threads/MPI process:                     1

     MPI processes distributed on     1 nodes
     14212 MiB available memory on the printing compute node when the environment starts

     Reading input from s0_OOH__u000.run.in

     Current dimensions of program PWSCF are:
     Max number of different atomic species (ntypx) = 10
     Max number of k-points (npk) =  40000
     Max angular momentum in pseudopotentials (lmaxx) =  4
     file O.pbe-n-kjpaw_psl.0.1.UPF: wavefunction(s)  2P renormalized
     Message from routine setup:
     using ibrav=0 with symmetry is DISCOURAGED, use correct ibrav instead

     K-points division:     npool     =       4
     R & G space division:  proc/nbgrp/npool/nimage =      32
     Subspace diagonalization in iterative solution of the eigenvalue problem:
     a serial algorithm will be used


     Parallelization info
     --------------------
     sticks:   dense  smooth     PW     G-vecs:    dense   smooth      PW
     Min         113      57     16                29407    10389    1566
     Max         114      58     17                29434    10403    1581
     Sum        3639    1825    519               941385   332621   50331

     Using Slab Decomposition



     bravais-lattice index     =            0
     lattice parameter (alat)  =       5.9602  a.u.
     unit-cell volume          =    3444.9838 (a.u.)^3
     number of atoms/cell      =           21
     number of atomic types    =            3
     number of electrons       =       175.00
     number of Kohn-Sham states=          106
     kinetic-energy cutoff     =      80.0000  Ry
     charge density cutoff     =     640.0000  Ry
     scf convergence threshold =      1.0E-06
     mixing beta               =       0.3000
     number of iterations used =            8  local-TF  mixing
     Exchange-correlation= SLA  PW   PBX  PBC
                           (   1   4   3   4   0   0   0)

     celldm(1)=   5.960196  celldm(2)=   0.000000  celldm(3)=   0.000000
     celldm(4)=   0.000000  celldm(5)=   0.000000  celldm(6)=   0.000000

     crystal axes: (cart. coord. in units of alat)
               a(1) = (   1.000000   0.000000   0.000000 )  
               a(2) = (   0.000000   2.016846   0.000000 )  
               a(3) = (   0.000000   0.000000   8.067384 )  

     reciprocal axes: (cart. coord. in units 2 pi/alat)
               b(1) = (  1.000000  0.000000  0.000000 )  
               b(2) = (  0.000000  0.495824  0.000000 )  
               b(3) = (  0.000000  0.000000  0.123956 )  


     PseudoPot. # 1 for H  read from file:
     /anvil/projects/x-che260157/pseudo/H.pbe-rrkjus_psl.1.0.0.UPF
     MD5 check sum: f52b6d4d1c606e5624b1dc7b2218f220
     Pseudo is Ultrasoft, Zval =  1.0
     Generated using "atomic" code by A. Dal Corso  v.5.1
     Using radial grid of  929 points,  2 beta functions with: 
                l(1) =   0
                l(2) =   0
     Q(r) pseudized with 0 coefficients 


     PseudoPot. # 2 for Ir read from file:
     /anvil/projects/x-che260157/pseudo/Ir_pbe_v1.2.uspp.F.UPF
     MD5 check sum: 8836f839c3459d2b385c504ce6d91f2c
     Pseudo is Ultrasoft + core correction, Zval = 15.0
     Generated by new atomic code, or converted to UPF format
     Using radial grid of  983 points,  7 beta functions with: 
                l(1) =   0
                l(2) =   0
                l(3) =   1
                l(4) =   1
                l(5) =   1
                l(6) =   2
                l(7) =   2
     Q(r) pseudized with  8 coefficients,  rinner =    1.400   1.400   1.400
                                                       1.400   1.400

     PseudoPot. # 3 for O  read from file:
     /anvil/projects/x-che260157/pseudo/O.pbe-n-kjpaw_psl.0.1.UPF
     MD5 check sum: 0234752ac141de4415c5fc33072bef88
     Pseudo is Projector augmented-wave + core cor, Zval =  6.0
     Generated using "atomic" code by A. Dal Corso  v.5.0.99 svn rev. 10869
     Shape of augmentation charge: BESSEL
     Using radial grid of 1095 points,  4 beta functions with: 
                l(1) =   0
                l(2) =   0
                l(3) =   1
                l(4) =   1
     Q(r) pseudized with 0 coefficients 


     atomic species   valence    mass     pseudopotential
     H                 1.00     1.00800     H ( 1.00)
     Ir               15.00   192.21700     Ir( 1.00)
     O                 6.00    15.99900     O ( 1.00)

      2 Sym. Ops. (no inversion) found ( 1 have fractional translation)



   Cartesian axes

     site n.     atom                  positions (alat units)
         1        Ir     tau(   1) = (   0.0000000   1.5126346   3.0252692  )
         2        Ir     tau(   2) = (   0.5000000   0.5042115   3.0252692  )
         3        Ir     tau(   3) = (  -0.0023840   0.5042115   4.0424363  )
         4        Ir     tau(   4) = (   0.4990610   1.5126346   4.0354930  )
         5        Ir     tau(   5) = (   0.0012848   1.5126346   5.0614101  )
         6        Ir     tau(   6) = (   0.4948989   0.5042115   5.0639483  )
         7        O      tau(   7) = (   0.0000000   0.5042115   3.4185541  )
         8        O      tau(   8) = (   0.0000000   0.5042115   2.6319842  )
         9        O      tau(   9) = (   0.5000000   1.1193496   3.0252692  )
        10        O      tau(  10) = (   0.5000000   1.9059196   3.0252692  )
        11        O      tau(  11) = (  -0.0006886   1.5126346   4.4334117  )
        12        O      tau(  12) = (   0.0000000   1.5126346   3.6404072  )
        13        O      tau(  13) = (   0.4978055   0.1177569   4.0372497  )
        14        O      tau(  14) = (   0.4978055   0.8906661   4.0372497  )
        15        O      tau(  15) = (  -0.0045322   0.5042115   5.4396437  )
        16        O      tau(  16) = (  -0.0052389   0.5042115   4.6686027  )
        17        O      tau(  17) = (   0.4950664   1.1230207   5.0499889  )
        18        O      tau(  18) = (   0.4950664   1.9022485   5.0499889  )
        19        O      tau(  19) = (  -0.1157108   1.5126346   5.6562437  )
        20        O      tau(  20) = (   0.1683169   1.5126346   6.0083143  )
        21        H      tau(  21) = (  -0.0522583   1.5126346   6.2279178  )

     number of k points=    15  Marzari-Vanderbilt smearing, width (Ry)=  0.0100
                       cart. coord. in units 2pi/alat
        k(    1) = (   0.0000000   0.0000000   0.0000000), wk =   0.0625000
        k(    2) = (   0.0000000   0.1239559   0.0000000), wk =   0.1250000
        k(    3) = (   0.0000000  -0.2479118   0.0000000), wk =   0.0625000
        k(    4) = (   0.1250000   0.0000000   0.0000000), wk =   0.1250000
        k(    5) = (   0.1250000   0.1239559   0.0000000), wk =   0.2500000
        k(    6) = (   0.1250000  -0.2479118   0.0000000), wk =   0.1250000
        k(    7) = (   0.2500000   0.0000000   0.0000000), wk =   0.1250000
        k(    8) = (   0.2500000   0.1239559   0.0000000), wk =   0.2500000
        k(    9) = (   0.2500000  -0.2479118   0.0000000), wk =   0.1250000
        k(   10) = (   0.3750000   0.0000000   0.0000000), wk =   0.1250000
        k(   11) = (   0.3750000   0.1239559   0.0000000), wk =   0.2500000
        k(   12) = (   0.3750000  -0.2479118   0.0000000), wk =   0.1250000
        k(   13) = (  -0.5000000   0.0000000   0.0000000), wk =   0.0625000
        k(   14) = (  -0.5000000   0.1239559   0.0000000), wk =   0.1250000
        k(   15) = (  -0.5000000  -0.2479118   0.0000000), wk =   0.0625000

     Dense  grid:   941385 G-vectors     FFT dimensions: (  48, 100, 400)

     Smooth grid:   332621 G-vectors     FFT dimensions: (  36,  72, 288)

     Estimated max dynamical RAM per process >      73.94 MB

     Estimated total dynamical RAM >       8.57 GB

     Initial potential from superposition of free atoms

     starting charge     171.9998, renormalised to     175.0000

     negative rho (up, down):  2.222E+00 0.000E+00
     Starting wfcs are  129 randomized atomic wfcs
     Checking if some PAW data can be deallocated... 

     total cpu time spent up to now is        5.1 secs

     per-process dynamical memory:   101.7 Mb

     Self-consistent Calculation

     iteration #  1     ecut=    80.00 Ry     beta= 0.30
     Davidson diagonalization with overlap
     ethr =  1.00E-02,  avg # of iterations =  3.3

     negative rho (up, down):  2.054E+00 0.000E+00

     total cpu time spent up to now is       11.7 secs

     total energy              =   -1674.68980593 Ry
     estimated scf accuracy    <      66.80943696 Ry

     iteration #  2     ecut=    80.00 Ry     beta= 0.30
     Davidson diagonalization with overlap
     ethr =  1.00E-02,  avg # of iterations =  1.0

     negative rho (up, down):  1.921E+00 0.000E+00

     total cpu time spent up to now is       15.0 secs

     total energy              =   -1674.05388772 Ry
     estimated scf accuracy    <      12.46359402 Ry

     iteration #  3     ecut=    80.00 Ry     beta= 0.30
     Davidson diagonalization with overlap
     ethr =  7.12E-03,  avg # of iterations =  1.1

     negative rho (up, down):  1.859E+00 0.000E+00

     total cpu time spent up to now is       22.8 secs

     total energy              =   -1673.99148001 Ry
     estimated scf accuracy    <       3.70719472 Ry

     iteration #  4     ecut=    80.00 Ry     beta= 0.30
     Davidson diagonalization with overlap
     ethr =  2.12E-03,  avg # of iterations =  4.9

     negative rho (up, down):  1.898E+00 0.000E+00

     total cpu time spent up to now is       26.6 secs

     total energy              =   -1674.13193418 Ry
     estimated scf accuracy    <       0.60021540 Ry

     iteration #  5     ecut=    80.00 Ry     beta= 0.30
     Davidson diagonalization with overlap
     ethr =  3.43E-04,  avg # of iterations =  5.3

     negative rho (up, down):  1.922E+00 0.000E+00

     total cpu time spent up to now is       30.4 secs

     total energy              =   -1674.12775230 Ry
     estimated scf accuracy    <       1.47091722 Ry

     iteration #  6     ecut=    80.00 Ry     beta= 0.30
     Davidson diagonalization with overlap
     ethr =  3.43E-04,  avg # of iterations =  1.1

     negative rho (up, down):  1.944E+00 0.000E+00

     total cpu time spent up to now is       38.5 secs

     total energy              =   -1674.10156450 Ry
     estimated scf accuracy    <       1.01685110 Ry

     iteration #  7     ecut=    80.00 Ry     beta= 0.30
     Davidson diagonalization with overlap
     ethr =  3.43E-04,  avg # of iterations =  1.9

     negative rho (up, down):  1.964E+00 0.000E+00

     total cpu time spent up to now is       42.1 secs

     total energy              =   -1674.10141579 Ry
     estimated scf accuracy    <       0.19530530 Ry

     iteration #  8     ecut=    80.00 Ry     beta= 0.30
     Davidson diagonalization with overlap
     ethr =  1.12E-04,  avg # of iterations =  4.6

     negative rho (up, down):  1.968E+00 0.000E+00

     total cpu time spent up to now is       47.1 secs

     total energy              =   -1674.09295755 Ry
     estimated scf accuracy    <       0.10996768 Ry

     iteration #  9     ecut=    80.00 Ry     beta= 0.30
     Davidson diagonalization with overlap
     ethr =  6.28E-05,  avg # of iterations =  7.1

     negative rho (up, down):  1.961E+00 0.000E+00

     total cpu time spent up to now is       50.3 secs

     total energy              =   -1674.09414128 Ry
     estimated scf accuracy    <       0.02183917 Ry

     iteration # 10     ecut=    80.00 Ry     beta= 0.30
     Davidson diagonalization with overlap
     ethr =  1.25E-05,  avg # of iterations =  8.0

     negative rho (up, down):  1.943E+00 0.000E+00

     total cpu time spent up to now is       54.1 secs

     total energy              =   -1674.09282770 Ry
     estimated scf accuracy    <       0.00795187 Ry

     iteration # 11     ecut=    80.00 Ry     beta= 0.30
     Davidson diagonalization with overlap
     ethr =  4.54E-06,  avg # of iterations =  9.3

     negative rho (up, down):  1.924E+00 0.000E+00

     total cpu time spent up to now is       58.5 secs

     total energy              =   -1674.09214145 Ry
     estimated scf accuracy    <       0.00530743 Ry

     iteration # 12     ecut=    80.00 Ry     beta= 0.30
     Davidson diagonalization with overlap
     ethr =  3.03E-06,  avg # of iterations =  6.3

     negative rho (up, down):  1.902E+00 0.000E+00

     total cpu time spent up to now is       72.7 secs

     total energy              =   -1674.09167927 Ry
     estimated scf accuracy    <       0.00634489 Ry

     iteration # 13     ecut=    80.00 Ry     beta= 0.30
     Davidson diagonalization with overlap
     ethr =  3.03E-06,  avg # of iterations =  6.7

     negative rho (up, down):  1.902E+00 0.000E+00

     total cpu time spent up to now is       83.9 secs

     total energy              =   -1674.09165393 Ry
     estimated scf accuracy    <       0.00152322 Ry

     iteration # 14     ecut=    80.00 Ry     beta= 0.30
     Davidson diagonalization with overlap
     ethr =  8.70E-07,  avg # of iterations =  3.8

     negative rho (up, down):  1.906E+00 0.000E+00

     total cpu time spent up to now is       91.7 secs

     total energy              =   -1674.09164896 Ry
     estimated scf accuracy    <       0.00078508 Ry

     iteration # 15     ecut=    80.00 Ry     beta= 0.30
     Davidson diagonalization with overlap
     ethr =  4.49E-07,  avg # of iterations =  6.3

     negative rho (up, down):  1.913E+00 0.000E+00

     total cpu time spent up to now is       95.5 secs

     total energy              =   -1674.09164781 Ry
     estimated scf accuracy    <       0.00051232 Ry

     iteration # 16     ecut=    80.00 Ry     beta= 0.30
     Davidson diagonalization with overlap
     ethr =  2.93E-07,  avg # of iterations =  6.7

     negative rho (up, down):  1.915E+00 0.000E+00

     total cpu time spent up to now is      100.5 secs

     total energy              =   -1674.09167328 Ry
     estimated scf accuracy    <       0.00027847 Ry

     iteration # 17     ecut=    80.00 Ry     beta= 0.30
     Davidson diagonalization with overlap
     ethr =  1.59E-07,  avg # of iterations =  3.6

     negative rho (up, down):  1.915E+00 0.000E+00

     total cpu time spent up to now is      104.1 secs

     total energy              =   -1674.09169675 Ry
     estimated scf accuracy    <       0.00022564 Ry

     iteration # 18     ecut=    80.00 Ry     beta= 0.30
     Davidson diagonalization with overlap
     ethr =  1.29E-07,  avg # of iterations =  4.4

     negative rho (up, down):  1.914E+00 0.000E+00

     total cpu time spent up to now is      107.3 secs

     total energy              =   -1674.09175097 Ry
     estimated scf accuracy    <       0.00012105 Ry

     iteration # 19     ecut=    80.00 Ry     beta= 0.30
     Davidson diagonalization with overlap
     ethr =  6.92E-08,  avg # of iterations =  4.7

     negative rho (up, down):  1.912E+00 0.000E+00

     total cpu time spent up to now is      110.7 secs

     total energy              =   -1674.09177330 Ry
     estimated scf accuracy    <       0.00004807 Ry

     iteration # 20     ecut=    80.00 Ry     beta= 0.30
     Davidson diagonalization with overlap
     ethr =  2.75E-08,  avg # of iterations =  4.3

     negative rho (up, down):  1.910E+00 0.000E+00

     total cpu time spent up to now is      115.0 secs

     total energy              =   -1674.09176785 Ry
     estimated scf accuracy    <       0.00001914 Ry

     iteration # 21     ecut=    80.00 Ry     beta= 0.30
     Davidson diagonalization with overlap
     ethr =  1.09E-08,  avg # of iterations =  7.5

     negative rho (up, down):  1.909E+00 0.000E+00

     total cpu time spent up to now is      123.0 secs

     total energy              =   -1674.09176237 Ry
     estimated scf accuracy    <       0.00000717 Ry

     iteration # 22     ecut=    80.00 Ry     beta= 0.30
     Davidson diagonalization with overlap
     ethr =  4.10E-09,  avg # of iterations =  6.6

     negative rho (up, down):  1.909E+00 0.000E+00

     total cpu time spent up to now is      126.9 secs

     total energy              =   -1674.09176207 Ry
     estimated scf accuracy    <       0.00000239 Ry

     iteration # 23     ecut=    80.00 Ry     beta= 0.30
     Davidson diagonalization with overlap
     ethr =  1.36E-09,  avg # of iterations =  2.1

     negative rho (up, down):  1.909E+00 0.000E+00

     total cpu time spent up to now is      131.3 secs

     End of self-consistent calculation

          k = 0.0000 0.0000 0.0000 ( 41611 PWs)   bands (ev):

   -48.2263 -48.1502 -48.0423 -48.0070 -48.0008 -47.9749 -47.9418 -47.9199
   -47.8869 -47.8636 -47.8197 -47.7472 -47.6704 -47.6518 -47.6511 -47.5695
   -47.5369 -47.3526 -21.1421 -18.6707 -18.3352 -18.2015 -17.8986 -17.3480
   -17.1454 -16.9858 -16.7075 -16.6488 -16.6049 -15.4943 -15.2423 -14.5892
    -7.4032  -7.3770  -7.3175  -6.9112  -6.0985  -6.0684  -5.7170  -5.6707
    -5.5449  -5.4560  -5.2347  -5.0132  -4.9809  -4.7874  -4.5491  -4.2148
    -3.5830  -3.5404  -2.8481  -2.8455  -2.6444  -2.6393  -2.3371  -2.2679
    -2.1794  -2.0217  -1.9728  -1.9052  -1.8986  -1.6836  -1.4999  -1.4663
    -1.3382  -1.1473  -0.9471  -0.7635  -0.6269  -0.3142  -0.2169  -0.1924
    -0.1510  -0.0470  -0.0290   0.0116   0.0706   0.1228   0.1479   0.2225
     0.7271   0.7506   0.8842   1.1949   1.4878   1.5844   1.9679   2.4890
     2.6145   2.7189   3.1556   3.4955   3.9005   4.5488   5.0651   5.4630
     5.8188   6.0397   6.4119   6.5547   6.5660   6.6221   6.6252   6.9252
     7.1301   7.3642

          k = 0.0000 0.1240 0.0000 ( 41688 PWs)   bands (ev):

   -48.2263 -48.1489 -48.0419 -48.0060 -48.0008 -47.9749 -47.9432 -47.9197
   -47.8871 -47.8636 -47.8197 -47.7483 -47.6703 -47.6518 -47.6511 -47.5696
   -47.5370 -47.3531 -21.1418 -18.5432 -18.1860 -18.0716 -17.9320 -17.3886
   -17.2499 -16.9861 -16.8412 -16.8035 -16.7640 -15.4906 -15.2388 -14.5883
    -6.9690  -6.8697  -6.8290  -6.7684  -6.0948  -6.0707  -5.6344  -5.5948
    -5.5437  -5.3661  -5.1182  -5.0117  -4.8965  -4.7863  -4.3679  -4.2159
    -3.7300  -3.5316  -3.4457  -3.3388  -3.1993  -3.0638  -2.9089  -2.7098
    -2.5277  -2.4719  -2.4515  -2.2555  -1.9724  -1.6384  -1.6089  -1.4715
    -1.3056  -1.1635  -1.1139  -0.9049  -0.5061  -0.3804  -0.2160  -0.1526
     0.1209   0.1831   0.3363   0.4707   0.5525   0.6117   0.6157   0.7028
     0.7724   0.8353   0.9092   1.2290   1.4891   1.5969   2.0145   2.3855
     2.5357   2.7247   2.9193   3.2949   4.3954   5.0296   5.4877   5.6549
     5.8621   6.1143   6.1403   6.2640   6.2707   6.6276   6.7938   6.9275
     7.1482   7.4156

          k = 0.0000-0.2479 0.0000 ( 41774 PWs)   bands (ev):

   -48.2263 -48.1476 -48.0415 -48.0049 -48.0007 -47.9749 -47.9446 -47.9195
   -47.8873 -47.8636 -47.8198 -47.7494 -47.6703 -47.6518 -47.6511 -47.5696
   -47.5370 -47.3535 -21.1415 -18.3237 -18.1311 -17.9308 -17.7314 -17.5487
   -17.4963 -17.0380 -16.9678 -16.9461 -16.8623 -15.4877 -15.2360 -14.5876
    -6.9287  -6.1741  -6.0926  -6.0280  -5.9204  -5.8462  -5.5458  -5.5343
    -5.5176  -5.2636  -5.0745  -5.0090  -4.7841  -4.5130  -4.4489  -4.3775
    -4.3565  -4.3147  -4.2155  -3.8311  -3.8257  -3.4212  -2.9973  -2.9495
    -2.8947  -2.8531  -2.7316  -2.4286  -2.2256  -1.6513  -1.6306  -1.2525
    -1.1852  -1.1715  -0.9478  -0.8586  -0.6530  -0.2932  -0.2647  -0.1980
     0.1273   0.2476   0.6289   0.7119   0.7273   0.8528   0.9109   0.9939
     1.0857   1.1508   1.2862   1.4534   1.5287   1.7241   1.7531   2.2500
     2.3769   2.7266   2.7432   3.1360   4.9257   5.0744   5.7461   5.7906
     5.9326   5.9595   5.9995   6.2540   6.4200   6.6285   6.7971   6.9288
     7.2675   7.4613

          k = 0.1250 0.0000 0.0000 ( 41611 PWs)   bands (ev):

   -48.2262 -48.1487 -48.0411 -48.0161 -48.0056 -47.9738 -47.9399 -47.9359
   -47.9035 -47.8612 -47.8359 -47.7450 -47.6861 -47.6501 -47.6494 -47.5859
   -47.5347 -47.3502 -21.1100 -18.5304 -18.2123 -18.0825 -17.7958 -17.2800
   -17.0585 -17.0517 -16.7873 -16.7280 -16.6888 -15.5449 -15.2840 -14.5943
    -7.2230  -7.1941  -7.1388  -6.7610  -6.1054  -6.0523  -5.7009  -5.6117
    -5.5671  -5.4238  -5.0922  -5.0243  -4.5612  -4.4939  -4.4095  -4.3637
    -3.6155  -3.4549  -3.3077  -2.8278  -2.7450  -2.7447  -2.6690  -2.5873
    -2.5420  -2.5126  -2.2547  -2.0689  -1.8328  -1.7919  -1.6653  -1.6492
    -1.4375  -1.3928  -1.2951  -1.2069  -0.8862  -0.6853  -0.2001  -0.1638
     0.0754   0.1256   0.1615   0.3128   0.4022   0.4205   0.5787   0.8212
     0.9432   0.9638   1.0042   1.3122   1.8056   1.8963   2.0118   2.3650
     2.5607   2.7693   3.0075   3.3352   4.1081   4.7588   5.2225   5.3276
     5.7370   5.9528   6.0405   6.1614   6.1991   6.2628   6.4676   6.8113
     7.2894   7.5693

          k = 0.1250 0.1240 0.0000 ( 41692 PWs)   bands (ev):

   -48.2262 -48.1478 -48.0408 -48.0159 -48.0050 -47.9738 -47.9411 -47.9357
   -47.9035 -47.8612 -47.8359 -47.7460 -47.6861 -47.6501 -47.6494 -47.5859
   -47.5347 -47.3506 -21.1098 -18.4087 -18.0691 -17.9525 -17.8295 -17.3157
   -17.1821 -17.0435 -16.9074 -16.8752 -16.8181 -15.5419 -15.2812 -14.5934
    -6.8191  -6.7129  -6.6749  -6.6241  -6.1028  -6.0538  -5.6049  -5.5726
    -5.5157  -5.3266  -5.1813  -4.7550  -4.5650  -4.4936  -4.4140  -4.2451
    -3.6477  -3.5203  -3.4538  -3.4236  -3.2711  -3.1453  -3.1097  -3.0092
    -2.9567  -2.8877  -2.5963  -2.4646  -2.2150  -1.9846  -1.7809  -1.4778
    -1.3587  -1.2734  -1.2203  -0.9551  -0.7685  -0.4111  -0.3120  -0.1923
     0.2576   0.3164   0.5269   0.5665   0.6682   0.7931   0.8466   0.8952
     0.9963   1.0355   1.1859   1.3896   1.8097   1.9426   2.0036   2.3065
     2.4168   2.7082   2.8890   3.1843   4.4997   5.1023   5.3549   5.4806
     5.6712   5.7239   5.9299   5.9799   6.1269   6.3417   6.4666   6.9430
     7.3267   7.4707

          k = 0.1250-0.2479 0.0000 ( 41706 PWs)   bands (ev):

   -48.2262 -48.1468 -48.0406 -48.0157 -48.0043 -47.9738 -47.9423 -47.9356
   -47.9035 -47.8612 -47.8359 -47.7469 -47.6860 -47.6501 -47.6494 -47.5859
   -47.5347 -47.3510 -21.1095 -18.2008 -18.0035 -17.8120 -17.6195 -17.4829
   -17.4516 -17.1095 -17.0144 -17.0077 -16.8797 -15.5395 -15.2789 -14.5928
    -6.7785  -6.1634  -6.0551  -5.8044  -5.7395  -5.6432  -5.6350  -5.6149
    -5.5576  -5.4720  -5.1972  -4.5712  -4.5016  -4.4468  -4.2899  -4.2210
    -4.0979  -4.0523  -4.0045  -3.9378  -3.9001  -3.6808  -3.5684  -3.4526
    -3.3133  -2.8997  -2.8304  -2.6792  -2.3511  -2.0434  -1.7800  -1.3624
    -1.2353  -1.0288  -0.9979  -0.8287  -0.6663  -0.4967  -0.2639  -0.2067
     0.2760   0.5475   0.5561   0.6396   0.7275   0.8120   0.9355   1.0864
     1.3765   1.4271   1.6145   1.6163   1.8196   1.8226   2.0562   2.1973
     2.3103   2.6255   2.6571   3.1507   4.8666   5.1528   5.2576   5.3131
     5.3810   5.5487   6.0672   6.1340   6.3653   6.4816   6.5229   6.8592
     7.4479   7.6081

          k = 0.2500 0.0000 0.0000 ( 41623 PWs)   bands (ev):

   -48.2266 -48.1453 -48.0522 -48.0384 -48.0024 -47.9742 -47.9715 -47.9435
   -47.9351 -47.8749 -47.8553 -47.7399 -47.7238 -47.6478 -47.6438 -47.6254
   -47.5292 -47.3446 -21.0310 -18.1646 -17.9056 -17.7857 -17.5589 -17.2061
   -17.1503 -16.9752 -16.9136 -16.8836 -16.8780 -15.6188 -15.3344 -14.6100
    -6.7772  -6.7055  -6.6612  -6.4976  -6.0148  -5.8605  -5.6060  -5.5917
    -5.4355  -5.2139  -5.0486  -4.7466  -4.6658  -4.5196  -4.1805  -3.9702
    -3.9031  -3.8547  -3.7541  -3.7126  -3.2831  -3.1438  -3.0440  -2.6574
    -2.5811  -2.4890  -2.4233  -2.3797  -2.2904  -2.1974  -2.1571  -2.0320
    -1.8021  -1.5189  -1.2270  -1.0986  -0.5250  -0.5125  -0.4749  -0.3775
     0.1023   0.3348   0.4957   0.5253   0.5753   0.8046   1.0585   1.1217
     1.3218   1.4477   1.6154   1.8178   1.8822   1.9490   2.1589   2.2029
     2.3772   2.6675   2.9025   2.9146   4.4019   4.8394   5.0667   5.2894
     5.3303   5.4297   5.5172   5.6425   5.7096   5.8956   6.4478   6.8790
     7.6751   7.7975

          k = 0.2500 0.1240 0.0000 ( 41653 PWs)   bands (ev):

   -48.2266 -48.1453 -48.0515 -48.0384 -48.0031 -47.9742 -47.9715 -47.9424
   -47.9361 -47.8746 -47.8553 -47.7403 -47.7238 -47.6478 -47.6438 -47.6252
   -47.5292 -47.3447 -21.0309 -18.0661 -17.7929 -17.6708 -17.5920 -17.2549
   -17.1720 -17.0676 -17.0368 -17.0234 -16.8489 -15.6177 -15.3336 -14.6093
    -6.5854  -6.3347  -6.3144  -6.2818  -6.0133  -5.8598  -5.5915  -5.4474
    -5.2705  -5.1246  -5.0778  -4.8043  -4.7374  -4.3631  -4.3128  -4.2791
    -4.2253  -4.0998  -3.9552  -3.6248  -3.3387  -3.1426  -3.0104  -2.9531
    -2.8224  -2.7193  -2.6987  -2.6553  -2.4585  -2.2641  -2.0759  -1.8495
    -1.6096  -1.5616  -1.2548  -1.0616  -0.7361  -0.4694  -0.3851  -0.3079
    -0.0545   0.3889   0.6159   0.8074   0.9031   0.9851   1.0595   1.1824
     1.2093   1.5561   1.6616   1.8193   1.8933   1.9863   2.2057   2.2243
     2.3193   2.5210   2.7127   3.0803   4.5101   4.7099   4.7732   4.9057
     4.9299   5.3590   5.6774   5.7523   6.1117   6.2585   6.5695   6.9687
     7.7785   7.8672

          k = 0.2500-0.2479 0.0000 ( 41680 PWs)   bands (ev):

   -48.2267 -48.1453 -48.0507 -48.0384 -48.0038 -47.9741 -47.9715 -47.9413
   -47.9370 -47.8743 -47.8553 -47.7408 -47.7238 -47.6478 -47.6438 -47.6251
   -47.5292 -47.3449 -21.0307 -17.9003 -17.7013 -17.5405 -17.4564 -17.3813
   -17.3593 -17.2543 -17.1236 -17.0638 -16.8466 -15.6167 -15.3329 -14.6087
    -6.5573  -6.0433  -5.8658  -5.7062  -5.6735  -5.6262  -5.5967  -5.1789
    -5.1651  -5.1201  -5.0195  -5.0170  -4.9353  -4.8414  -4.7886  -4.5755
    -4.1995  -3.9807  -3.7856  -3.7111  -3.4853  -3.4626  -3.3499  -3.3052
    -3.1036  -2.9825  -2.9130  -2.7334  -2.7156  -2.3746  -1.9770  -1.4955
    -1.4247  -1.1635  -1.1452  -0.9641  -0.9487  -0.7229  -0.3503  -0.2680
     0.1880   0.3597   0.5633   0.6496   0.8333   1.0193   1.2307   1.3738
     1.4081   1.6627   1.8010   1.9058   1.9088   2.0298   2.2291   2.3325
     2.3502   2.4500   2.5003   3.1639   4.2711   4.3264   4.4530   4.5975
     4.9603   5.4684   5.6828   5.9850   6.2659   6.6627   6.7730   6.9219
     7.9837   8.0112

          k = 0.3750 0.0000 0.0000 ( 41645 PWs)   bands (ev):

   -48.2285 -48.1419 -48.0865 -48.0357 -48.0122 -47.9991 -47.9837 -47.9690
   -47.9302 -47.9132 -47.8495 -47.7612 -47.7347 -47.6646 -47.6454 -47.6381
   -47.5237 -47.3389 -20.9496 -17.7301 -17.5918 -17.4736 -17.4248 -17.2419
   -17.1566 -17.1218 -17.0929 -17.0674 -16.7733 -15.5930 -15.2993 -14.6307
    -6.6217  -6.1724  -6.1235  -6.0808  -5.7961  -5.6344  -5.5407  -5.4373
    -5.3942  -5.3321  -5.1625  -4.8865  -4.8729  -4.7850  -4.6594  -4.4883
    -4.1231  -3.8795  -3.8077  -3.6666  -3.3788  -3.1935  -3.0396  -2.9737
    -2.8387  -2.6607  -2.4691  -2.3264  -2.3227  -2.1524  -1.9702  -1.8187
    -1.7863  -1.6569  -1.0718  -0.9215  -0.5471  -0.5214  -0.2963  -0.2748
    -0.0601   0.5065   0.5507   0.5568   0.6575   0.8907   0.9252   1.3070
     1.4243   1.4673   1.6364   1.6379   1.7717   1.8735   2.1284   2.2336
     2.4513   2.7088   2.7478   2.8967   4.2551   4.3761   4.7838   4.8813
     5.0102   5.2249   5.2522   5.4861   5.8066   5.9056   6.4557   7.0144
     8.2963   8.5993

          k = 0.3750 0.1240 0.0000 ( 41549 PWs)   bands (ev):

   -48.2287 -48.1434 -48.0846 -48.0360 -48.0123 -48.0048 -47.9779 -47.9689
   -47.9322 -47.9115 -47.8495 -47.7613 -47.7347 -47.6642 -47.6454 -47.6381
   -47.5237 -47.3389 -20.9495 -17.6988 -17.5730 -17.5055 -17.4538 -17.2792
   -17.2181 -17.0769 -17.0709 -17.0392 -16.7762 -15.5928 -15.2994 -14.6305
    -6.6136  -6.0455  -6.0112  -5.9631  -5.7957  -5.6693  -5.5875  -5.5002
    -5.4749  -5.3494  -5.3253  -5.1842  -4.7654  -4.5388  -4.4842  -4.2781
    -4.2057  -3.9543  -3.8687  -3.4654  -3.2762  -3.1405  -3.0769  -2.8547
    -2.8238  -2.5791  -2.4715  -2.4025  -2.2593  -2.2223  -2.1231  -1.9255
    -1.5372  -1.4437  -1.3581  -0.9145  -0.8207  -0.5358  -0.3948  -0.2525
    -0.1861   0.3668   0.5532   0.6116   0.7094   0.7655   0.7920   1.0008
     1.0549   1.3190   1.4415   1.5588   1.8675   2.3484   2.3922   2.4263
     2.5633   2.5993   2.7841   2.9312   4.0661   4.1309   4.3096   4.3303
     4.4126   5.2505   5.5873   6.0587   6.3955   6.5246   6.6404   7.0753
     8.4155   8.7032

          k = 0.3750-0.2479 0.0000 ( 41514 PWs)   bands (ev):

   -48.2289 -48.1448 -48.0828 -48.0362 -48.0124 -48.0088 -47.9740 -47.9687
   -47.9338 -47.9100 -47.8495 -47.7613 -47.7347 -47.6639 -47.6454 -47.6381
   -47.5237 -47.3388 -20.9495 -17.6453 -17.5645 -17.5390 -17.4922 -17.3036
   -17.2594 -17.0552 -17.0486 -17.0220 -16.7791 -15.5926 -15.2994 -14.6302
    -6.6102  -5.9174  -5.8403  -5.8219  -5.7187  -5.6531  -5.6236  -5.5944
    -5.5239  -5.5065  -5.4471  -5.3794  -4.8157  -4.5358  -4.2307  -4.0623
    -3.9765  -3.9071  -3.8989  -3.3771  -3.2323  -3.2062  -3.0909  -2.9583
    -2.7106  -2.6760  -2.4863  -2.4768  -2.3750  -2.2963  -1.9424  -1.8346
    -1.4932  -1.4341  -1.1702  -0.9853  -0.7552  -0.6540  -0.6413  -0.4335
    -0.0728   0.0481   0.1252   0.3892   0.6356   0.8588   0.8802   0.9072
     1.1759   1.3166   1.3878   1.4557   1.8314   2.3555   2.4199   2.5580
     2.7261   2.7479   2.7996   3.0673   3.6326   3.6824   3.8631   4.3708
     4.4044   5.2520   5.6628   6.4366   6.5626   6.9582   7.0697   7.0889
     8.5873   8.8131

          k =-0.5000 0.0000 0.0000 ( 41440 PWs)   bands (ev):

   -48.2301 -48.1405 -48.0999 -48.0345 -48.0278 -47.9999 -47.9978 -47.9686
   -47.9287 -47.9282 -47.8471 -47.7766 -47.7325 -47.6807 -47.6444 -47.6358
   -47.5214 -47.3365 -20.9151 -17.5550 -17.4330 -17.3784 -17.3378 -17.2639
   -17.2300 -17.1658 -17.1404 -17.1201 -16.7605 -15.5465 -15.2573 -14.6408
    -6.6672  -6.0720  -5.8510  -5.7772  -5.7501  -5.6072  -5.5945  -5.4983
    -5.3948  -5.3388  -5.2654  -4.9929  -4.9629  -4.8387  -4.6543  -4.5337
    -4.4808  -3.9922  -3.4967  -3.3900  -3.3708  -3.1308  -3.0947  -3.0791
    -2.9995  -2.9829  -2.5739  -2.3158  -2.1907  -2.0593  -1.8346  -1.7190
    -1.6069  -1.0523  -0.9497  -0.9311  -0.8776  -0.4664  -0.3117  -0.2432
     0.1107   0.5012   0.5210   0.5335   0.5560   0.7600   0.8397   0.9406
     1.2154   1.2744   1.4533   1.6324   1.8139   1.8954   1.9845   2.4120
     2.5438   2.5543   2.9166   3.1105   4.0946   4.2662   4.5940   4.6920
     4.8386   5.1581   5.2660   5.6083   5.7813   5.8300   6.5110   7.1405
     8.8234   9.2364

          k =-0.5000 0.1240 0.0000 ( 41518 PWs)   bands (ev):

   -48.2303 -48.1430 -48.0971 -48.0350 -48.0280 -48.0110 -47.9867 -47.9686
   -47.9346 -47.9223 -47.8471 -47.7767 -47.7324 -47.6803 -47.6444 -47.6358
   -47.5214 -47.3364 -20.9151 -17.5528 -17.5379 -17.5108 -17.5008 -17.2497
   -17.1349 -17.0691 -17.0318 -17.0151 -16.7628 -15.5453 -15.2566 -14.6409
    -6.6683  -6.0487  -5.9915  -5.9342  -5.8057  -5.7588  -5.7167  -5.6494
    -5.6092  -5.4783  -5.3053  -5.1088  -4.6837  -4.5804  -4.2935  -4.1299
    -4.0173  -3.6434  -3.4738  -3.4440  -3.4208  -3.3199  -3.1584  -3.1311
    -3.0339  -2.3621  -2.2680  -2.2106  -2.1944  -2.1093  -1.9905  -1.8719
    -1.4098  -1.2977  -0.9419  -0.8535  -0.8390  -0.7121  -0.5311  -0.2814
    -0.0148   0.3345   0.4959   0.5185   0.5286   0.5806   0.6231   0.7607
     0.8786   0.9046   0.9696   1.1810   1.8318   2.4846   2.5437   2.5884
     2.6463   2.7640   2.8426   3.0377   3.8544   3.8977   4.1043   4.1520
     4.2953   5.1605   5.7170   6.2096   6.5253   6.5842   6.6659   7.1869
     8.8972   9.3928

          k =-0.5000-0.2479 0.0000 ( 41524 PWs)   bands (ev):

   -48.2306 -48.1452 -48.0946 -48.0354 -48.0281 -48.0160 -47.9817 -47.9686
   -47.9371 -47.9197 -47.8471 -47.7768 -47.7322 -47.6798 -47.6444 -47.6358
   -47.5214 -47.3363 -20.9150 -17.6052 -17.5956 -17.5841 -17.5503 -17.2299
   -17.1550 -16.9845 -16.9478 -16.9289 -16.7652 -15.5442 -15.2560 -14.6410
    -6.6701  -6.2469  -6.1657  -6.0393  -5.8706  -5.7841  -5.6848  -5.5955
    -5.5806  -5.5121  -5.3425  -5.1136  -4.7962  -4.7051  -4.1979  -3.5517
    -3.4646  -3.4611  -3.4472  -3.3836  -3.2204  -3.1594  -3.0902  -2.9491
    -2.8064  -2.7465  -2.4581  -2.2684  -2.1060  -2.0613  -1.8147  -1.7501
    -1.3011  -1.2423  -1.2023  -0.8719  -0.8212  -0.7885  -0.6636  -0.4332
    -0.3120  -0.1546   0.1290   0.2022   0.5274   0.5440   0.5564   0.6004
     0.7609   0.9001   0.9472   1.0707   1.8220   2.5074   2.5551   2.6521
     2.8958   2.9773   2.9776   3.0538   3.4440   3.4900   3.6956   4.1944
     4.3195   5.1627   5.7686   6.6491   6.7120   7.0524   7.2010   7.2206
     8.9824   9.5525

     the Fermi energy is     2.3810 ev

!    total energy              =   -1674.09176121 Ry
     estimated scf accuracy    <       0.00000046 Ry
     smearing contrib. (-TS)   =      -0.00221019 Ry
     internal energy E=F+TS    =   -1674.08955102 Ry

     The total energy is F=E-TS. E is the sum of the following terms:
     one-electron contribution =  -15403.12318645 Ry
     hartree contribution      =    7753.59638643 Ry
     xc contribution           =    -405.84650121 Ry
     ewald contribution        =    6514.55670889 Ry
     one-center paw contrib.   =    -133.27295869 Ry

     convergence has been achieved in  23 iterations

     negative rho (up, down):  1.909E+00 0.000E+00

     Forces acting on atoms (cartesian axes, Ry/au):

     atom    1 type  2   force =    -0.00006293    0.00000000    0.03851107
     atom    2 type  2   force =     0.00020184    0.00000000   -0.03909627
     atom    3 type  2   force =     0.00051891    0.00000000   -0.00039972
     atom    4 type  2   force =     0.00076158    0.00000000   -0.00020790
     atom    5 type  2   force =    -0.00006770    0.00000000   -0.00026778
     atom    6 type  2   force =    -0.00017065    0.00000000    0.00084302
     atom    7 type  3   force =    -0.00106642    0.00000000   -0.00203175
     atom    8 type  3   force =     0.00008945    0.00000000    0.03273170
     atom    9 type  3   force =     0.00015335    0.02165065   -0.02535007
     atom   10 type  3   force =     0.00015335   -0.02165065   -0.02535007
     atom   11 type  3   force =     0.00090936    0.00000000   -0.00028666
     atom   12 type  3   force =    -0.00189919    0.00000000    0.01969288
     atom   13 type  3   force =     0.00064850    0.00081954    0.00057460
     atom   14 type  3   force =     0.00064850   -0.00081954    0.00057460
     atom   15 type  3   force =    -0.00117773    0.00000000    0.00094077
     atom   16 type  3   force =     0.00058363    0.00000000   -0.00020503
     atom   17 type  3   force =    -0.00010843    0.00056218   -0.00044709
     atom   18 type  3   force =    -0.00010843   -0.00056218   -0.00044709
     atom   19 type  3   force =     0.00103399    0.00000000    0.00006952
     atom   20 type  3   force =    -0.00092757    0.00000000    0.00034973
     atom   21 type  1   force =    -0.00011342    0.00000000   -0.00019848

     Total force =     0.003382     Total SCF correction =     0.002906
     SCF correction compared to forces is large: reduce conv_thr to get better values

     Writing all to output data dir ./tmp_s0_OOH__u000/s0_OOH__u000.save/ :
     XML data file, charge density, pseudopotentials, collected wavefunctions

     init_run     :      4.57s CPU      4.78s WALL (       1 calls)
     electrons    :    125.15s CPU    126.37s WALL (       1 calls)
     forces       :      0.57s CPU      0.58s WALL (       1 calls)

     Called by init_run:
     wfcinit      :      0.80s CPU      0.87s WALL (       1 calls)
     potinit      :      0.97s CPU      0.99s WALL (       1 calls)
     hinit0       :      0.46s CPU      0.54s WALL (       1 calls)

     Called by electrons:
     c_bands      :     88.52s CPU     89.33s WALL (      23 calls)
     sum_band     :     23.94s CPU     24.15s WALL (      23 calls)
     v_of_rho     :      1.46s CPU      1.50s WALL (      24 calls)
     newd         :      2.84s CPU      2.87s WALL (      24 calls)
     PAW_pot      :      4.45s CPU      4.47s WALL (      24 calls)
     mix_rho      :      3.03s CPU      3.08s WALL (      23 calls)

     Called by c_bands:
     init_us_2    :      0.81s CPU      0.82s WALL (     192 calls)
     cegterg      :     42.10s CPU     42.65s WALL (      92 calls)

     Called by *egterg:
     cdiaghg      :      7.53s CPU      7.58s WALL (     688 calls)
     h_psi        :     24.92s CPU     25.36s WALL (     692 calls)
     s_psi        :      1.75s CPU      1.77s WALL (     692 calls)
     g_psi        :      0.11s CPU      0.11s WALL (     596 calls)

     Called by h_psi:
     h_psi:calbec :      3.15s CPU      3.19s WALL (     692 calls)
     vloc_psi     :     19.81s CPU     20.18s WALL (     692 calls)
                                        0.00s GPU  (     692 calls)
     add_vuspsi   :      1.82s CPU      1.84s WALL (     692 calls)

     General routines
     calbec       :      4.40s CPU      4.45s WALL (     800 calls)
     fft          :      1.34s CPU      1.43s WALL (     321 calls)
     ffts         :      2.40s CPU      2.43s WALL (    2753 calls)
     fftw         :     23.29s CPU     23.70s WALL (   52464 calls)
     interpolate  :      0.56s CPU      0.56s WALL (      24 calls)

     Parallel routines

     PWSCF        :   2m10.87s CPU   2m16.21s WALL


   This run was terminated on:  10: 1:42  28Aug2026            

=------------------------------------------------------------------------------=
   JOB DONE.
=------------------------------------------------------------------------------=
