
     Program PWSCF v.7.5 starts on 28Aug2026 at 10: 3:40 

     This program is part of the open-source Quantum ESPRESSO suite
     for quantum simulation of materials; please cite
         "P. Giannozzi et al., J. Phys.:Condens. Matter 21 395502 (2009);
         "P. Giannozzi et al., J. Phys.:Condens. Matter 29 465901 (2017);
         "P. Giannozzi et al., J. Chem. Phys. 152 154105 (2020);
          URL http://www.quantum-espresso.org", 
     in publications or presentations arising from this work. More details at
     http://www.quantum-espresso.org/quote

     Parallel version (MPI & OpenMP), running on     128 processor cores
     Number of MPI processes:               128
     Threads/MPI process:                     1

     MPI processes distributed on     1 nodes
     221851 MiB available memory on the printing compute node when the environment starts

     Reading input from s0_OOH__u591.run.in

     Current dimensions of program PWSCF are:
     Max number of different atomic species (ntypx) = 10
     Max number of k-points (npk) =  40000
     Max angular momentum in pseudopotentials (lmaxx) =  4
     file O.pbe-n-kjpaw_psl.0.1.UPF: wavefunction(s)  2P renormalized
     Message from routine setup:
     using ibrav=0 with symmetry is DISCOURAGED, use correct ibrav instead

     K-points division:     npool     =       4
     R & G space division:  proc/nbgrp/npool/nimage =      32
     Subspace diagonalization in iterative solution of the eigenvalue problem:
     a serial algorithm will be used


     Parallelization info
     --------------------
     sticks:   dense  smooth     PW     G-vecs:    dense   smooth      PW
     Min         113      57     16                29407    10389    1566
     Max         114      58     17                29434    10403    1581
     Sum        3639    1825    519               941385   332621   50331

     Using Slab Decomposition



     bravais-lattice index     =            0
     lattice parameter (alat)  =       5.9602  a.u.
     unit-cell volume          =    3444.9838 (a.u.)^3
     number of atoms/cell      =           21
     number of atomic types    =            3
     number of electrons       =       175.00
     number of Kohn-Sham states=          106
     kinetic-energy cutoff     =      80.0000  Ry
     charge density cutoff     =     640.0000  Ry
     scf convergence threshold =      1.0E-06
     mixing beta               =       0.3000
     number of iterations used =            8  local-TF  mixing
     Exchange-correlation= SLA  PW   PBX  PBC
                           (   1   4   3   4   0   0   0)
     Hubbard projectors: atomic
     Hubbard parameters of DFT+U (Dudarev formulation) in eV:
     U(Ir-5d) =  5.9100

     Internal variables: lda_plus_u =T, lda_plus_u_kind = 0

     Internal variables: orbital_resolved =F, hub_pot_fix =F, apply_U = F

     celldm(1)=   5.960196  celldm(2)=   0.000000  celldm(3)=   0.000000
     celldm(4)=   0.000000  celldm(5)=   0.000000  celldm(6)=   0.000000

     crystal axes: (cart. coord. in units of alat)
               a(1) = (   1.000000   0.000000   0.000000 )  
               a(2) = (   0.000000   2.016846   0.000000 )  
               a(3) = (   0.000000   0.000000   8.067384 )  

     reciprocal axes: (cart. coord. in units 2 pi/alat)
               b(1) = (  1.000000  0.000000  0.000000 )  
               b(2) = (  0.000000  0.495824  0.000000 )  
               b(3) = (  0.000000  0.000000  0.123956 )  


     PseudoPot. # 1 for H  read from file:
     /anvil/projects/x-che260157/pseudo/H.pbe-rrkjus_psl.1.0.0.UPF
     MD5 check sum: f52b6d4d1c606e5624b1dc7b2218f220
     Pseudo is Ultrasoft, Zval =  1.0
     Generated using "atomic" code by A. Dal Corso  v.5.1
     Using radial grid of  929 points,  2 beta functions with: 
                l(1) =   0
                l(2) =   0
     Q(r) pseudized with 0 coefficients 


     PseudoPot. # 2 for Ir read from file:
     /anvil/projects/x-che260157/pseudo/Ir_pbe_v1.2.uspp.F.UPF
     MD5 check sum: 8836f839c3459d2b385c504ce6d91f2c
     Pseudo is Ultrasoft + core correction, Zval = 15.0
     Generated by new atomic code, or converted to UPF format
     Using radial grid of  983 points,  7 beta functions with: 
                l(1) =   0
                l(2) =   0
                l(3) =   1
                l(4) =   1
                l(5) =   1
                l(6) =   2
                l(7) =   2
     Q(r) pseudized with  8 coefficients,  rinner =    1.400   1.400   1.400
                                                       1.400   1.400

     PseudoPot. # 3 for O  read from file:
     /anvil/projects/x-che260157/pseudo/O.pbe-n-kjpaw_psl.0.1.UPF
     MD5 check sum: 0234752ac141de4415c5fc33072bef88
     Pseudo is Projector augmented-wave + core cor, Zval =  6.0
     Generated using "atomic" code by A. Dal Corso  v.5.0.99 svn rev. 10869
     Shape of augmentation charge: BESSEL
     Using radial grid of 1095 points,  4 beta functions with: 
                l(1) =   0
                l(2) =   0
                l(3) =   1
                l(4) =   1
     Q(r) pseudized with 0 coefficients 


     atomic species   valence    mass     pseudopotential
     H                 1.00     1.00800     H ( 1.00)
     Ir               15.00   192.21700     Ir( 1.00)
     O                 6.00    15.99900     O ( 1.00)

      2 Sym. Ops. (no inversion) found ( 1 have fractional translation)



   Cartesian axes

     site n.     atom                  positions (alat units)
         1        Ir     tau(   1) = (   0.0000000   1.5126346   3.0252692  )
         2        Ir     tau(   2) = (   0.5000000   0.5042115   3.0252692  )
         3        Ir     tau(   3) = (  -0.0023840   0.5042115   4.0424363  )
         4        Ir     tau(   4) = (   0.4990610   1.5126346   4.0354930  )
         5        Ir     tau(   5) = (   0.0012848   1.5126346   5.0614101  )
         6        Ir     tau(   6) = (   0.4948989   0.5042115   5.0639483  )
         7        O      tau(   7) = (   0.0000000   0.5042115   3.4185541  )
         8        O      tau(   8) = (   0.0000000   0.5042115   2.6319842  )
         9        O      tau(   9) = (   0.5000000   1.1193496   3.0252692  )
        10        O      tau(  10) = (   0.5000000   1.9059196   3.0252692  )
        11        O      tau(  11) = (  -0.0006886   1.5126346   4.4334117  )
        12        O      tau(  12) = (   0.0000000   1.5126346   3.6404072  )
        13        O      tau(  13) = (   0.4978055   0.1177569   4.0372497  )
        14        O      tau(  14) = (   0.4978055   0.8906661   4.0372497  )
        15        O      tau(  15) = (  -0.0045322   0.5042115   5.4396437  )
        16        O      tau(  16) = (  -0.0052389   0.5042115   4.6686027  )
        17        O      tau(  17) = (   0.4950664   1.1230207   5.0499889  )
        18        O      tau(  18) = (   0.4950664   1.9022485   5.0499889  )
        19        O      tau(  19) = (  -0.1157108   1.5126346   5.6562437  )
        20        O      tau(  20) = (   0.1683169   1.5126346   6.0083143  )
        21        H      tau(  21) = (  -0.0522583   1.5126346   6.2279178  )

     number of k points=    15  Marzari-Vanderbilt smearing, width (Ry)=  0.0100
                       cart. coord. in units 2pi/alat
        k(    1) = (   0.0000000   0.0000000   0.0000000), wk =   0.0625000
        k(    2) = (   0.0000000   0.1239559   0.0000000), wk =   0.1250000
        k(    3) = (   0.0000000  -0.2479118   0.0000000), wk =   0.0625000
        k(    4) = (   0.1250000   0.0000000   0.0000000), wk =   0.1250000
        k(    5) = (   0.1250000   0.1239559   0.0000000), wk =   0.2500000
        k(    6) = (   0.1250000  -0.2479118   0.0000000), wk =   0.1250000
        k(    7) = (   0.2500000   0.0000000   0.0000000), wk =   0.1250000
        k(    8) = (   0.2500000   0.1239559   0.0000000), wk =   0.2500000
        k(    9) = (   0.2500000  -0.2479118   0.0000000), wk =   0.1250000
        k(   10) = (   0.3750000   0.0000000   0.0000000), wk =   0.1250000
        k(   11) = (   0.3750000   0.1239559   0.0000000), wk =   0.2500000
        k(   12) = (   0.3750000  -0.2479118   0.0000000), wk =   0.1250000
        k(   13) = (  -0.5000000   0.0000000   0.0000000), wk =   0.0625000
        k(   14) = (  -0.5000000   0.1239559   0.0000000), wk =   0.1250000
        k(   15) = (  -0.5000000  -0.2479118   0.0000000), wk =   0.0625000

     Dense  grid:   941385 G-vectors     FFT dimensions: (  48, 100, 400)

     Smooth grid:   332621 G-vectors     FFT dimensions: (  36,  72, 288)

     Estimated max dynamical RAM per process >      76.91 MB

     Estimated total dynamical RAM >       8.94 GB

     Initial potential from superposition of free atoms

     starting charge     171.9998, renormalised to     175.0000

     negative rho (up, down):  2.222E+00 0.000E+00

     STARTING HUBBARD OCCUPATIONS:

     =================== HUBBARD OCCUPATIONS ===================
     ------------------------ ATOM    1 ------------------------
     Tr[ns(  1)] =   8.50000
     eigenvalues:
       0.850  0.850  0.850  0.850  0.850
     eigenvectors (columns):
       1.000  0.000  0.000  0.000  0.000
       0.000  1.000  0.000  0.000  0.000
       0.000  0.000  1.000  0.000  0.000
       0.000  0.000  0.000  1.000  0.000
       0.000  0.000  0.000  0.000  1.000
     occupation matrix ns (before diag.):
       0.850  0.000  0.000  0.000  0.000
       0.000  0.850  0.000  0.000  0.000
       0.000  0.000  0.850  0.000  0.000
       0.000  0.000  0.000  0.850  0.000
       0.000  0.000  0.000  0.000  0.850
     ------------------------ ATOM    2 ------------------------
     Tr[ns(  2)] =   8.50000
     eigenvalues:
       0.850  0.850  0.850  0.850  0.850
     eigenvectors (columns):
       1.000  0.000  0.000  0.000  0.000
       0.000  1.000  0.000  0.000  0.000
       0.000  0.000  1.000  0.000  0.000
       0.000  0.000  0.000  1.000  0.000
       0.000  0.000  0.000  0.000  1.000
     occupation matrix ns (before diag.):
       0.850  0.000  0.000  0.000  0.000
       0.000  0.850  0.000  0.000  0.000
       0.000  0.000  0.850  0.000  0.000
       0.000  0.000  0.000  0.850  0.000
       0.000  0.000  0.000  0.000  0.850
     ------------------------ ATOM    3 ------------------------
     Tr[ns(  3)] =   8.50000
     eigenvalues:
       0.850  0.850  0.850  0.850  0.850
     eigenvectors (columns):
       1.000  0.000  0.000  0.000  0.000
       0.000  1.000  0.000  0.000  0.000
       0.000  0.000  1.000  0.000  0.000
       0.000  0.000  0.000  1.000  0.000
       0.000  0.000  0.000  0.000  1.000
     occupation matrix ns (before diag.):
       0.850  0.000  0.000  0.000  0.000
       0.000  0.850  0.000  0.000  0.000
       0.000  0.000  0.850  0.000  0.000
       0.000  0.000  0.000  0.850  0.000
       0.000  0.000  0.000  0.000  0.850
     ------------------------ ATOM    4 ------------------------
     Tr[ns(  4)] =   8.50000
     eigenvalues:
       0.850  0.850  0.850  0.850  0.850
     eigenvectors (columns):
       1.000  0.000  0.000  0.000  0.000
       0.000  1.000  0.000  0.000  0.000
       0.000  0.000  1.000  0.000  0.000
       0.000  0.000  0.000  1.000  0.000
       0.000  0.000  0.000  0.000  1.000
     occupation matrix ns (before diag.):
       0.850  0.000  0.000  0.000  0.000
       0.000  0.850  0.000  0.000  0.000
       0.000  0.000  0.850  0.000  0.000
       0.000  0.000  0.000  0.850  0.000
       0.000  0.000  0.000  0.000  0.850
     ------------------------ ATOM    5 ------------------------
     Tr[ns(  5)] =   8.50000
     eigenvalues:
       0.850  0.850  0.850  0.850  0.850
     eigenvectors (columns):
       1.000  0.000  0.000  0.000  0.000
       0.000  1.000  0.000  0.000  0.000
       0.000  0.000  1.000  0.000  0.000
       0.000  0.000  0.000  1.000  0.000
       0.000  0.000  0.000  0.000  1.000
     occupation matrix ns (before diag.):
       0.850  0.000  0.000  0.000  0.000
       0.000  0.850  0.000  0.000  0.000
       0.000  0.000  0.850  0.000  0.000
       0.000  0.000  0.000  0.850  0.000
       0.000  0.000  0.000  0.000  0.850
     ------------------------ ATOM    6 ------------------------
     Tr[ns(  6)] =   8.50000
     eigenvalues:
       0.850  0.850  0.850  0.850  0.850
     eigenvectors (columns):
       1.000  0.000  0.000  0.000  0.000
       0.000  1.000  0.000  0.000  0.000
       0.000  0.000  1.000  0.000  0.000
       0.000  0.000  0.000  1.000  0.000
       0.000  0.000  0.000  0.000  1.000
     occupation matrix ns (before diag.):
       0.850  0.000  0.000  0.000  0.000
       0.000  0.850  0.000  0.000  0.000
       0.000  0.000  0.850  0.000  0.000
       0.000  0.000  0.000  0.850  0.000
       0.000  0.000  0.000  0.000  0.850

     Number of occupied Hubbard levels =   51.0000

     Atomic wfc used for Hubbard projectors are NOT orthogonalized

     Starting wfcs are  129 randomized atomic wfcs
     Checking if some PAW data can be deallocated... 

     total cpu time spent up to now is        2.7 secs

     per-process dynamical memory:   103.9 Mb

     Self-consistent Calculation

     iteration #  1     ecut=    80.00 Ry     beta= 0.30
     Davidson diagonalization with overlap
     ethr =  1.00E-02,  avg # of iterations =  3.6

     =================== HUBBARD OCCUPATIONS ===================
     ------------------------ ATOM    1 ------------------------
     Tr[ns(  1)] =   8.75773
     eigenvalues:
       0.564  0.851  0.982  0.987  0.995
     eigenvectors (columns):
      -0.000 -0.961 -0.275  0.000 -0.000
      -0.000  0.000 -0.001 -1.000  0.000
       0.000 -0.000  0.000 -0.000 -1.000
       0.000  0.275 -0.961  0.001 -0.000
       1.000 -0.000  0.000 -0.000  0.000
     occupation matrix ns (before diag.):
       0.861  0.000 -0.000  0.034  0.000
       0.000  0.987 -0.000 -0.000  0.000
      -0.000 -0.000  0.995  0.000 -0.000
       0.034 -0.000  0.000  0.972 -0.000
       0.000  0.000 -0.000 -0.000  0.564
     ------------------------ ATOM    2 ------------------------
     Tr[ns(  2)] =   8.01920
     eigenvalues:
       0.513  0.553  0.971  0.978  0.994
     eigenvectors (columns):
       0.000  0.394  0.000 -0.919 -0.000
       1.000  0.001 -0.000  0.000 -0.000
       0.000 -0.000 -0.000 -0.000  1.000
      -0.001  0.919 -0.000  0.394  0.000
      -0.000  0.000 -1.000 -0.000 -0.000
     occupation matrix ns (before diag.):
       0.913 -0.000 -0.000 -0.154  0.000
      -0.000  0.513 -0.000  0.000  0.000
      -0.000 -0.000  0.994  0.000 -0.000
      -0.154  0.000  0.000  0.619 -0.000
       0.000  0.000 -0.000 -0.000  0.971
     ------------------------ ATOM    3 ------------------------
     Tr[ns(  3)] =   7.96116
     eigenvalues:
       0.508  0.540  0.972  0.976  0.984
     eigenvectors (columns):
      -0.000 -0.993 -0.116  0.011 -0.000
      -0.000 -0.006 -0.045 -0.999  0.000
       0.000 -0.000  0.000 -0.000 -1.000
       0.000  0.116 -0.992  0.044 -0.000
       1.000 -0.000  0.000 -0.000  0.000
     occupation matrix ns (before diag.):
       0.546 -0.002 -0.000  0.050  0.000
      -0.002  0.976 -0.000  0.000  0.000
      -0.000 -0.000  0.984  0.000 -0.000
       0.050  0.000  0.000  0.966 -0.000
       0.000  0.000 -0.000 -0.000  0.508
     ------------------------ ATOM    4 ------------------------
     Tr[ns(  4)] =   8.02403
     eigenvalues:
       0.534  0.540  0.971  0.976  0.992
     eigenvectors (columns):
      -0.030  0.396  0.000 -0.918 -0.000
       0.997  0.073 -0.000 -0.001 -0.000
       0.000 -0.000 -0.005 -0.000  1.000
      -0.067  0.915 -0.000  0.397  0.000
      -0.000  0.000 -1.000 -0.000 -0.005
     occupation matrix ns (before diag.):
       0.907  0.001 -0.000 -0.159  0.000
       0.001  0.534 -0.000  0.000  0.000
      -0.000 -0.000  0.992  0.000 -0.000
      -0.159  0.000  0.000  0.609 -0.000
       0.000  0.000 -0.000 -0.000  0.971
     ------------------------ ATOM    5 ------------------------
     Tr[ns(  5)] =   5.41331
     eigenvalues:
       0.483  0.508  0.556  0.557  0.603
     eigenvectors (columns):
      -0.000  0.494  0.857 -0.000  0.147
      -0.000  0.077  0.126 -0.000 -0.989
      -0.206 -0.000  0.000  0.979  0.000
       0.000 -0.866  0.499 -0.000 -0.004
       0.979  0.000  0.000  0.206 -0.000
     occupation matrix ns (before diag.):
       0.545 -0.009 -0.000  0.021  0.000
      -0.009  0.601 -0.000  0.003  0.000
      -0.000 -0.000  0.554  0.000  0.015
       0.021  0.003  0.000  0.520 -0.000
       0.000  0.000  0.015 -0.000  0.486
     ------------------------ ATOM    6 ------------------------
     Tr[ns(  6)] =   4.88313
     eigenvalues:
       0.417  0.442  0.506  0.529  0.547
     eigenvectors (columns):
       0.880  0.000 -0.010 -0.474 -0.000
       0.000 -0.000  1.000 -0.022 -0.000
       0.000 -0.015  0.000  0.000  1.000
      -0.474 -0.000 -0.019 -0.880  0.000
      -0.000  1.000  0.000  0.000  0.015
     occupation matrix ns (before diag.):
       0.442  0.000 -0.000  0.047  0.000
       0.000  0.506 -0.000  0.000  0.000
      -0.000 -0.000  0.547  0.000  0.002
       0.047  0.000  0.000  0.504 -0.000
       0.000  0.000  0.002 -0.000  0.442

     Number of occupied Hubbard levels =   43.0586

     negative rho (up, down):  2.071E+00 0.000E+00

     total cpu time spent up to now is        7.5 secs

     total energy              =   -1673.55252636 Ry
     estimated scf accuracy    <      54.16336921 Ry

     iteration #  2     ecut=    80.00 Ry     beta= 0.30
     Davidson diagonalization with overlap
     ethr =  1.00E-02,  avg # of iterations =  1.0

     negative rho (up, down):  1.685E+00 0.000E+00

     total cpu time spent up to now is       10.1 secs

     total energy              =   -1666.35236548 Ry
     estimated scf accuracy    <      43.24305365 Ry

     iteration #  3     ecut=    80.00 Ry     beta= 0.30
     Davidson diagonalization with overlap
     ethr =  1.00E-02,  avg # of iterations =  2.9

     negative rho (up, down):  1.940E+00 0.000E+00

     total cpu time spent up to now is       12.7 secs

     total energy              =   -1668.93923754 Ry
     estimated scf accuracy    <      82.54807437 Ry

     iteration #  4     ecut=    80.00 Ry     beta= 0.30
     Davidson diagonalization with overlap
     ethr =  1.00E-02,  avg # of iterations =  2.0

     negative rho (up, down):  1.942E+00 0.000E+00

     total cpu time spent up to now is       14.8 secs

     total energy              =   -1672.43638206 Ry
     estimated scf accuracy    <       4.15448969 Ry

     iteration #  5     ecut=    80.00 Ry     beta= 0.30
     Davidson diagonalization with overlap
     ethr =  2.37E-03,  avg # of iterations =  1.4

     negative rho (up, down):  1.929E+00 0.000E+00

     total cpu time spent up to now is       17.0 secs

     total energy              =   -1672.50099618 Ry
     estimated scf accuracy    <       4.11247018 Ry

     iteration #  6     ecut=    80.00 Ry     beta= 0.30
     Davidson diagonalization with overlap
     ethr =  2.35E-03,  avg # of iterations =  1.0

     negative rho (up, down):  1.897E+00 0.000E+00

     total cpu time spent up to now is       19.0 secs

     total energy              =   -1672.56171462 Ry
     estimated scf accuracy    <       3.89612999 Ry

     iteration #  7     ecut=    80.00 Ry     beta= 0.30
     Davidson diagonalization with overlap
     ethr =  2.23E-03,  avg # of iterations =  1.1

     negative rho (up, down):  1.963E+00 0.000E+00

     total cpu time spent up to now is       21.1 secs

     total energy              =   -1672.52302089 Ry
     estimated scf accuracy    <       5.07063067 Ry

     iteration #  8     ecut=    80.00 Ry     beta= 0.30
     Davidson diagonalization with overlap
     ethr =  2.23E-03,  avg # of iterations =  1.0

     negative rho (up, down):  1.958E+00 0.000E+00

     total cpu time spent up to now is       23.1 secs

     total energy              =   -1672.56939674 Ry
     estimated scf accuracy    <       2.42247235 Ry

     iteration #  9     ecut=    80.00 Ry     beta= 0.30
     Davidson diagonalization with overlap
     ethr =  1.38E-03,  avg # of iterations =  1.0

     negative rho (up, down):  1.962E+00 0.000E+00

     total cpu time spent up to now is       25.1 secs

     total energy              =   -1672.52943467 Ry
     estimated scf accuracy    <       1.65708490 Ry

     iteration # 10     ecut=    80.00 Ry     beta= 0.30
     Davidson diagonalization with overlap
     ethr =  9.47E-04,  avg # of iterations =  1.1

     negative rho (up, down):  1.959E+00 0.000E+00

     total cpu time spent up to now is       27.3 secs

     total energy              =   -1672.42902032 Ry
     estimated scf accuracy    <       1.05877336 Ry

     iteration # 11     ecut=    80.00 Ry     beta= 0.30
     Davidson diagonalization with overlap
     ethr =  6.05E-04,  avg # of iterations =  1.9

     negative rho (up, down):  1.951E+00 0.000E+00

     total cpu time spent up to now is       29.4 secs

     total energy              =   -1672.37293852 Ry
     estimated scf accuracy    <       0.34145421 Ry

     iteration # 12     ecut=    80.00 Ry     beta= 0.30
     Davidson diagonalization with overlap
     ethr =  1.95E-04,  avg # of iterations =  6.1

     negative rho (up, down):  1.945E+00 0.000E+00

     total cpu time spent up to now is       32.1 secs

     total energy              =   -1672.38035220 Ry
     estimated scf accuracy    <       0.07169371 Ry

     iteration # 13     ecut=    80.00 Ry     beta= 0.30
     Davidson diagonalization with overlap
     ethr =  4.10E-05,  avg # of iterations =  8.0

     negative rho (up, down):  1.940E+00 0.000E+00

     total cpu time spent up to now is       35.1 secs

     total energy              =   -1672.37962166 Ry
     estimated scf accuracy    <       0.02169360 Ry

     iteration # 14     ecut=    80.00 Ry     beta= 0.30
     Davidson diagonalization with overlap
     ethr =  1.24E-05,  avg # of iterations =  5.1

     negative rho (up, down):  1.938E+00 0.000E+00

     total cpu time spent up to now is       37.9 secs

     total energy              =   -1672.37998238 Ry
     estimated scf accuracy    <       0.01389591 Ry

     iteration # 15     ecut=    80.00 Ry     beta= 0.30
     Davidson diagonalization with overlap
     ethr =  7.94E-06,  avg # of iterations =  3.6

     negative rho (up, down):  1.936E+00 0.000E+00

     total cpu time spent up to now is       40.7 secs

     total energy              =   -1672.37914469 Ry
     estimated scf accuracy    <       0.00795342 Ry

     iteration # 16     ecut=    80.00 Ry     beta= 0.30
     Davidson diagonalization with overlap
     ethr =  4.54E-06,  avg # of iterations =  5.8

     negative rho (up, down):  1.933E+00 0.000E+00

     total cpu time spent up to now is       43.2 secs

     total energy              =   -1672.37846591 Ry
     estimated scf accuracy    <       0.00588746 Ry

     iteration # 17     ecut=    80.00 Ry     beta= 0.30
     Davidson diagonalization with overlap
     ethr =  3.36E-06,  avg # of iterations =  6.6

     negative rho (up, down):  1.931E+00 0.000E+00

     total cpu time spent up to now is       45.9 secs

     total energy              =   -1672.37829074 Ry
     estimated scf accuracy    <       0.00238262 Ry

     iteration # 18     ecut=    80.00 Ry     beta= 0.30
     Davidson diagonalization with overlap
     ethr =  1.36E-06,  avg # of iterations =  6.3

     negative rho (up, down):  1.931E+00 0.000E+00

     total cpu time spent up to now is       48.6 secs

     total energy              =   -1672.37818439 Ry
     estimated scf accuracy    <       0.00140996 Ry

     iteration # 19     ecut=    80.00 Ry     beta= 0.30
     Davidson diagonalization with overlap
     ethr =  8.06E-07,  avg # of iterations =  5.4

     negative rho (up, down):  1.929E+00 0.000E+00

     total cpu time spent up to now is       51.2 secs

     total energy              =   -1672.37812479 Ry
     estimated scf accuracy    <       0.00082315 Ry

     iteration # 20     ecut=    80.00 Ry     beta= 0.30
     Davidson diagonalization with overlap
     ethr =  4.70E-07,  avg # of iterations =  6.5

     negative rho (up, down):  1.928E+00 0.000E+00

     total cpu time spent up to now is       53.9 secs

     total energy              =   -1672.37812138 Ry
     estimated scf accuracy    <       0.00047000 Ry

     iteration # 21     ecut=    80.00 Ry     beta= 0.30
     Davidson diagonalization with overlap
     ethr =  2.69E-07,  avg # of iterations =  6.1

     negative rho (up, down):  1.928E+00 0.000E+00

     total cpu time spent up to now is       56.5 secs

     total energy              =   -1672.37814796 Ry
     estimated scf accuracy    <       0.00029046 Ry

     iteration # 22     ecut=    80.00 Ry     beta= 0.30
     Davidson diagonalization with overlap
     ethr =  1.66E-07,  avg # of iterations =  3.9

     negative rho (up, down):  1.929E+00 0.000E+00

     total cpu time spent up to now is       58.9 secs

     total energy              =   -1672.37818531 Ry
     estimated scf accuracy    <       0.00016966 Ry

     iteration # 23     ecut=    80.00 Ry     beta= 0.30
     Davidson diagonalization with overlap
     ethr =  9.69E-08,  avg # of iterations =  3.3

     negative rho (up, down):  1.930E+00 0.000E+00

     total cpu time spent up to now is       61.2 secs

     total energy              =   -1672.37823033 Ry
     estimated scf accuracy    <       0.00008618 Ry

     iteration # 24     ecut=    80.00 Ry     beta= 0.30
     Davidson diagonalization with overlap
     ethr =  4.92E-08,  avg # of iterations =  4.4

     negative rho (up, down):  1.930E+00 0.000E+00

     total cpu time spent up to now is       63.8 secs

     total energy              =   -1672.37824415 Ry
     estimated scf accuracy    <       0.00002253 Ry

     iteration # 25     ecut=    80.00 Ry     beta= 0.30
     Davidson diagonalization with overlap
     ethr =  1.29E-08,  avg # of iterations =  3.6

     negative rho (up, down):  1.929E+00 0.000E+00

     total cpu time spent up to now is       66.3 secs

     total energy              =   -1672.37825520 Ry
     estimated scf accuracy    <       0.00001079 Ry

     iteration # 26     ecut=    80.00 Ry     beta= 0.30
     Davidson diagonalization with overlap
     ethr =  6.16E-09,  avg # of iterations =  5.6

     negative rho (up, down):  1.928E+00 0.000E+00

     total cpu time spent up to now is       68.9 secs

     total energy              =   -1672.37825288 Ry
     estimated scf accuracy    <       0.00000314 Ry

     iteration # 27     ecut=    80.00 Ry     beta= 0.30
     Davidson diagonalization with overlap
     ethr =  1.80E-09,  avg # of iterations =  4.4

     negative rho (up, down):  1.928E+00 0.000E+00

     total cpu time spent up to now is       71.4 secs

     total energy              =   -1672.37825038 Ry
     estimated scf accuracy    <       0.00000113 Ry

     iteration # 28     ecut=    80.00 Ry     beta= 0.30
     Davidson diagonalization with overlap
     ethr =  6.43E-10,  avg # of iterations =  5.9

     negative rho (up, down):  1.927E+00 0.000E+00

     total cpu time spent up to now is       74.0 secs

     End of self-consistent calculation

     =================== HUBBARD OCCUPATIONS ===================
     ------------------------ ATOM    1 ------------------------
     Tr[ns(  1)] =   8.14206
     eigenvalues:
       0.559  0.610  0.952  0.964  0.986
     eigenvectors (columns):
       0.997  0.000  0.001 -0.000 -0.073
      -0.001 -0.000  1.000 -0.000  0.000
       0.000 -0.000  0.000  1.000 -0.000
      -0.073  0.000  0.000 -0.000 -0.997
      -0.000  1.000  0.000  0.000  0.000
     occupation matrix ns (before diag.):
       0.562  0.000 -0.000  0.031  0.000
       0.000  0.952 -0.000 -0.000  0.000
      -0.000 -0.000  0.964  0.000  0.000
       0.031 -0.000  0.000  0.984 -0.000
       0.000  0.000  0.000 -0.000  0.610
     ------------------------ ATOM    2 ------------------------
     Tr[ns(  2)] =   8.17897
     eigenvalues:
       0.652  0.670  0.859  0.922  0.987
     eigenvectors (columns):
      -0.002  0.400 -0.000 -0.000 -0.917
      -1.000 -0.003  0.000  0.000  0.000
      -0.000 -0.000 -1.000  0.005  0.000
      -0.003  0.917  0.000  0.000  0.400
       0.000  0.000  0.005  1.000 -0.000
     occupation matrix ns (before diag.):
       0.936 -0.000 -0.000 -0.116  0.000
      -0.000  0.652 -0.000 -0.000  0.000
      -0.000 -0.000  0.859  0.000  0.000
      -0.116 -0.000  0.000  0.720 -0.000
       0.000  0.000  0.000 -0.000  0.922
     ------------------------ ATOM    3 ------------------------
     Tr[ns(  3)] =   8.21020
     eigenvalues:
       0.619  0.654  0.911  0.936  0.985
     eigenvectors (columns):
      -0.000 -0.996 -0.000 -0.006  0.094
      -0.000 -0.006  0.000  1.000  0.000
      -0.001 -0.000  1.000 -0.000  0.000
       0.000  0.094 -0.000  0.001  0.996
       1.000 -0.000  0.001  0.000 -0.000
     occupation matrix ns (before diag.):
       0.657 -0.002 -0.000  0.031  0.000
      -0.002  0.936 -0.000  0.000  0.000
      -0.000 -0.000  0.911  0.000  0.000
       0.031  0.000  0.000  0.983 -0.000
       0.000  0.000  0.000 -0.000  0.619
     ------------------------ ATOM    4 ------------------------
     Tr[ns(  4)] =   8.20389
     eigenvalues:
       0.611  0.646  0.915  0.951  0.980
     eigenvectors (columns):
       0.004  0.441 -0.000 -0.000 -0.898
      -1.000  0.005  0.000  0.000 -0.001
      -0.000 -0.000 -1.000  0.009  0.000
       0.004  0.898  0.000  0.000  0.441
       0.000  0.000  0.009  1.000 -0.000
     occupation matrix ns (before diag.):
       0.915  0.001 -0.000 -0.132  0.000
       0.001  0.611 -0.000 -0.000  0.000
      -0.000 -0.000  0.915  0.000  0.000
      -0.132 -0.000  0.000  0.711 -0.000
       0.000  0.000  0.000 -0.000  0.951
     ------------------------ ATOM    5 ------------------------
     Tr[ns(  5)] =   8.20259
     eigenvalues:
       0.626  0.660  0.885  0.944  0.987
     eigenvectors (columns):
      -0.000 -0.994 -0.000 -0.045  0.101
      -0.000 -0.049  0.000  0.998 -0.040
      -0.009 -0.000  1.000 -0.000  0.000
       0.000  0.099 -0.000  0.044  0.994
       1.000 -0.000  0.009  0.000 -0.000
     occupation matrix ns (before diag.):
       0.664 -0.014 -0.000  0.032  0.000
      -0.014  0.943 -0.000 -0.000  0.000
      -0.000 -0.000  0.885  0.000  0.002
       0.032 -0.000  0.000  0.983 -0.000
       0.000  0.000  0.002 -0.000  0.626
     ------------------------ ATOM    6 ------------------------
     Tr[ns(  6)] =   8.17917
     eigenvalues:
       0.652  0.672  0.860  0.920  0.986
     eigenvectors (columns):
       0.002  0.383 -0.000 -0.000 -0.924
      -1.000  0.006  0.000  0.000  0.000
      -0.000 -0.000 -1.000  0.016  0.000
       0.006  0.924  0.000  0.000  0.383
       0.000  0.000  0.016  1.000 -0.000
     occupation matrix ns (before diag.):
       0.940 -0.000 -0.000 -0.111  0.000
      -0.000  0.652 -0.000  0.000  0.000
      -0.000 -0.000  0.860  0.000  0.001
      -0.111  0.000  0.000  0.718 -0.000
       0.000  0.000  0.001 -0.000  0.920

     Number of occupied Hubbard levels =   49.1169

          k = 0.0000 0.0000 0.0000 ( 41611 PWs)   bands (ev):

   -47.3929 -47.3058 -47.2311 -47.2181 -47.1442 -47.1295 -47.1001 -47.0805
   -47.0725 -47.0446 -47.0252 -47.0182 -46.9682 -46.8918 -46.8722 -46.8613
   -46.7867 -46.6990 -21.4512 -18.6108 -18.5085 -18.4028 -18.0839 -17.7060
   -17.3980 -16.9274 -16.6094 -16.5775 -16.4927 -15.6684 -15.4054 -14.8835
    -8.5135  -8.3755  -8.2704  -7.7326  -7.0307  -7.0211  -6.4985  -6.2867
    -6.0654  -5.9784  -5.9426  -5.7832  -5.6636  -5.3905  -5.0794  -4.7876
    -4.4526  -3.7878  -3.5829  -3.2739  -3.2222  -2.8739  -2.5859  -2.4989
    -2.3031  -2.2455  -2.1165  -2.0629  -2.0180  -1.8615  -1.8245  -1.7762
    -1.7111  -1.6050  -1.5925  -1.5402  -1.4315  -1.4093  -1.3280  -1.3220
    -1.1783  -1.0843  -0.9252  -0.7607  -0.6124  -0.5359  -0.2870  -0.1892
    -0.1490   0.2665   0.4833   0.8467   0.9003   1.0088   1.4934   2.0844
     2.3552   2.7345   2.8115   3.1855   3.9841   4.6512   5.1635   5.3282
     6.0210   6.1113   6.5573   6.5706   6.6944   6.7107   6.8060   7.0159
     7.1073   7.2665

          k = 0.0000 0.1240 0.0000 ( 41688 PWs)   bands (ev):

   -47.3932 -47.3052 -47.2314 -47.2182 -47.1442 -47.1323 -47.1000 -47.0809
   -47.0729 -47.0449 -47.0253 -47.0185 -46.9682 -46.8919 -46.8742 -46.8616
   -46.7871 -46.7006 -21.4515 -18.4757 -18.3303 -18.2357 -18.0592 -17.6976
   -17.4223 -16.9498 -16.8448 -16.8007 -16.7555 -15.6690 -15.4089 -14.8837
    -8.0954  -7.9098  -7.7871  -7.6371  -7.0179  -6.7029  -6.4995  -6.2769
    -5.8800  -5.7840  -5.6963  -5.6562  -5.6042  -5.3921  -5.0792  -4.6527
    -4.5285  -4.4514  -3.9934  -3.5902  -3.4554  -3.4140  -3.3199  -3.2352
    -2.9925  -2.9467  -2.9228  -2.8353  -2.5751  -2.4425  -2.3817  -1.9428
    -1.5774  -1.3186  -1.2463  -1.1942  -1.0116  -0.8677  -0.7143  -0.5852
    -0.5398  -0.4601  -0.4107  -0.3958  -0.3307  -0.2997  -0.1973  -0.1526
    -0.0080   0.2837   0.4724   0.8246   0.9084   1.0349   1.5185   2.0096
     2.1494   2.4962   2.8040   3.0574   4.4704   5.0760   5.5286   5.6582
     6.0723   6.1784   6.2922   6.4078   6.5370   6.7160   6.7403   7.0183
     7.0862   7.4808

          k = 0.0000-0.2479 0.0000 ( 41774 PWs)   bands (ev):

   -47.3935 -47.3046 -47.2317 -47.2183 -47.1441 -47.1351 -47.0999 -47.0813
   -47.0734 -47.0452 -47.0253 -47.0188 -46.9682 -46.8921 -46.8762 -46.8620
   -46.7876 -46.7022 -21.4519 -18.3013 -18.1308 -18.0348 -17.8220 -17.7422
   -17.5542 -17.1609 -17.0836 -17.0597 -16.9197 -15.6708 -15.4128 -14.8843
    -7.8688  -7.2868  -7.2749  -7.0502  -6.9723  -6.4785  -6.4099  -5.8069
    -5.6633  -5.6442  -5.6336  -5.5572  -5.4089  -5.3463  -5.0779  -5.0346
    -4.7970  -4.5137  -4.5003  -4.4352  -4.3160  -3.9651  -3.9453  -3.6667
    -3.6280  -3.5768  -3.3615  -2.9920  -2.7016  -2.4870  -2.4071  -1.9189
    -1.3501  -1.2048  -1.1463  -0.9853  -0.9707  -0.7681  -0.6690  -0.5505
    -0.4262  -0.3177  -0.2363  -0.1616  -0.1173  -0.0318   0.2100   0.3769
     0.4470   0.5753   0.6983   0.8660   0.9540   1.1886   1.2961   1.7209
     2.0522   2.3412   2.5019   3.1199   4.9337   5.1653   5.7765   5.9846
     6.0967   6.1191   6.2502   6.3197   6.4748   6.7162   6.9260   7.0199
     7.2614   7.3360

          k = 0.1250 0.0000 0.0000 ( 41611 PWs)   bands (ev):

   -47.3949 -47.3051 -47.2366 -47.2306 -47.1436 -47.1282 -47.1212 -47.0802
   -47.0715 -47.0658 -47.0462 -47.0166 -46.9888 -46.9122 -46.8707 -46.8591
   -46.7846 -46.6973 -21.4195 -18.4508 -18.3488 -18.2530 -17.9387 -17.5978
   -17.2628 -17.0284 -16.7360 -16.6959 -16.6175 -15.7609 -15.4965 -14.8921
    -8.1889  -8.0607  -7.9643  -7.4640  -6.8427  -6.8358  -6.5922  -6.2061
    -6.1440  -5.9744  -5.7899  -5.7175  -5.6207  -5.1783  -4.8196  -4.6799
    -4.6228  -4.1741  -3.6773  -3.3608  -3.2508  -3.2258  -3.0318  -2.9137
    -2.8746  -2.8489  -2.7550  -2.6183  -2.3214  -2.0796  -1.9958  -1.9478
    -1.8719  -1.8190  -1.7906  -1.5638  -1.5363  -1.4025  -1.2741  -0.9163
    -0.8474  -0.7071  -0.5820  -0.3203  -0.2185  -0.1492  -0.0966   0.0282
     0.1502   0.5334   0.6433   0.8598   1.2383   1.4201   1.4452   1.9645
     2.1815   2.6469   2.8818   3.0086   4.1854   4.8525   5.3148   5.3819
     5.7726   6.0640   6.2008   6.3136   6.3304   6.4138   6.5435   6.7406
     7.2666   7.5104

          k = 0.1250 0.1240 0.0000 ( 41692 PWs)   bands (ev):

   -47.3952 -47.3045 -47.2364 -47.2308 -47.1436 -47.1304 -47.1208 -47.0805
   -47.0718 -47.0659 -47.0459 -47.0169 -46.9886 -46.9123 -46.8720 -46.8594
   -46.7850 -46.6983 -21.4199 -18.3213 -18.1794 -18.0882 -17.9223 -17.5859
   -17.2923 -17.0513 -16.9466 -16.8907 -16.8604 -15.7614 -15.4983 -14.8924
    -7.7857  -7.6180  -7.4963  -7.3707  -6.8270  -6.6242  -6.5405  -6.1395
    -6.0128  -5.8518  -5.7291  -5.6355  -5.4223  -5.1788  -4.8239  -4.7009
    -4.4870  -4.3984  -4.2586  -3.9240  -3.7198  -3.6389  -3.4383  -3.3420
    -3.2562  -3.1730  -3.1076  -3.0642  -2.8415  -2.6659  -2.5333  -2.0063
    -1.7862  -1.6404  -1.5034  -1.4096  -1.2639  -1.0719  -0.9218  -0.5423
    -0.3525  -0.2864  -0.2467  -0.1476  -0.0242   0.1221   0.1768   0.2212
     0.2384   0.5164   0.6299   0.8491   1.2504   1.4353   1.4517   1.9039
     2.0239   2.3709   2.7237   3.0782   4.5673   5.1559   5.4929   5.6249
     5.7891   5.8779   5.9689   6.1858   6.2219   6.4183   6.5415   6.9112
     7.2660   7.5583

          k = 0.1250-0.2479 0.0000 ( 41706 PWs)   bands (ev):

   -47.3954 -47.3039 -47.2362 -47.2310 -47.1435 -47.1326 -47.1205 -47.0808
   -47.0722 -47.0660 -47.0458 -47.0171 -46.9884 -46.9124 -46.8734 -46.8597
   -46.7853 -46.6993 -21.4203 -18.1476 -17.9739 -17.8763 -17.6807 -17.6261
   -17.4968 -17.2491 -17.1650 -17.1048 -17.0157 -15.7625 -15.5005 -14.8928
    -7.5745  -7.0281  -7.0098  -6.7578  -6.7567  -6.5514  -6.3412  -5.8765
    -5.7835  -5.6455  -5.6260  -5.5340  -5.3550  -5.0927  -5.0450  -4.9264
    -4.8261  -4.6346  -4.4701  -4.3542  -4.2803  -4.1029  -4.0426  -3.9469
    -3.8423  -3.7307  -3.6418  -3.2235  -2.9698  -2.7207  -2.4921  -2.0247
    -1.5932  -1.5475  -1.2351  -1.1223  -1.0211  -0.8667  -0.7841  -0.3405
    -0.2951  -0.2700  -0.2550  -0.1471  -0.1310   0.2310   0.4202   0.6101
     0.7284   0.8060   0.9453   0.9985   1.2641   1.3350   1.4741   1.6989
     1.9538   2.2344   2.3559   3.1824   4.8937   5.2691   5.4220   5.5346
     5.5519   5.7443   6.0558   6.2135   6.4463   6.5725   6.5958   7.0013
     7.3964   7.5200

          k = 0.2500 0.0000 0.0000 ( 41623 PWs)   bands (ev):

   -47.4012 -47.3024 -47.2731 -47.2286 -47.1660 -47.1412 -47.1248 -47.1121
   -47.0929 -47.0760 -47.0682 -47.0343 -47.0116 -46.9558 -46.8669 -46.8536
   -46.7793 -46.6932 -21.3413 -18.0686 -17.9802 -17.8936 -17.6050 -17.4139
   -17.2666 -17.0253 -16.9958 -16.9684 -16.9010 -15.9112 -15.6207 -14.9161
    -7.3714  -7.2223  -7.1462  -7.0094  -6.6240  -6.4523  -6.4364  -6.3359
    -6.2357  -5.9311  -5.8094  -5.7578  -5.3189  -5.0941  -5.0529  -4.7761
    -4.2299  -4.1861  -4.1456  -3.9856  -3.8847  -3.7601  -3.6418  -3.4610
    -3.4013  -3.2070  -3.0259  -2.9130  -2.8211  -2.6697  -2.5682  -2.2525
    -2.2440  -1.8473  -1.5456  -1.5298  -1.2607  -1.2204  -0.9414  -0.6815
    -0.5584  -0.4748  -0.3642  -0.2078  -0.1788  -0.0960   0.4475   0.6437
     0.6701   0.8515   1.1058   1.2492   1.3900   1.5282   1.5604   1.8041
     1.9645   2.2630   2.5348   3.0136   4.4905   4.9555   5.1966   5.4035
     5.4889   5.6454   5.6821   5.6999   5.7711   5.8852   6.5282   6.9128
     7.5065   7.8687

          k = 0.2500 0.1240 0.0000 ( 41653 PWs)   bands (ev):

   -47.4014 -47.3029 -47.2714 -47.2287 -47.1651 -47.1427 -47.1261 -47.1102
   -47.0917 -47.0760 -47.0684 -47.0335 -47.0117 -46.9556 -46.8667 -46.8538
   -46.7795 -46.6927 -21.3417 -17.9713 -17.8656 -17.7712 -17.6151 -17.4053
   -17.2964 -17.1579 -17.1054 -17.0599 -16.9741 -15.9094 -15.6191 -14.9163
    -7.1665  -6.8975  -6.8110  -6.7479  -6.5891  -6.4325  -6.4088  -6.3153
    -6.2279  -6.0506  -6.0012  -5.5138  -5.3719  -5.0913  -4.7940  -4.7178
    -4.5404  -4.4954  -4.3696  -4.0338  -3.9942  -3.9649  -3.7216  -3.5287
    -3.4101  -3.3551  -3.1158  -3.0569  -2.9752  -2.8485  -2.5552  -2.4356
    -2.0370  -1.9673  -1.8565  -1.6679  -1.3724  -1.3477  -0.8001  -0.6070
    -0.3648  -0.1745  -0.0894   0.0322   0.1500   0.1732   0.2208   0.5402
     0.6418   1.0369   1.1151   1.2576   1.3567   1.4271   1.7446   1.8138
     1.8967   2.1286   2.3785   3.1183   4.6155   4.8497   4.9723   5.0130
     5.0258   5.4758   5.7410   5.8539   6.2225   6.3112   6.6528   7.0504
     7.5824   7.9455

          k = 0.2500-0.2479 0.0000 ( 41680 PWs)   bands (ev):

   -47.4016 -47.3033 -47.2697 -47.2287 -47.1642 -47.1440 -47.1273 -47.1084
   -47.0906 -47.0761 -47.0686 -47.0328 -47.0118 -46.9554 -46.8665 -46.8539
   -46.7797 -46.6923 -21.3421 -17.8019 -17.6965 -17.6007 -17.5264 -17.4916
   -17.4148 -17.3330 -17.2879 -17.1924 -16.9782 -15.9077 -15.6174 -14.9167
    -7.1369  -6.6840  -6.5855  -6.4575  -6.4449  -6.3153  -6.2879  -6.1011
    -5.8441  -5.7361  -5.6715  -5.4711  -5.4149  -5.4129  -5.2592  -5.1882
    -4.9556  -4.5909  -4.5568  -4.3872  -3.8905  -3.8723  -3.7909  -3.7678
    -3.4962  -3.4180  -3.2859  -3.2814  -3.2580  -3.1490  -2.4084  -2.2154
    -1.9620  -1.9602  -1.7824  -1.6331  -1.4996  -1.3266  -0.6972  -0.5117
    -0.3509  -0.2487  -0.0793  -0.0604   0.1681   0.4534   0.4793   0.5735
     0.7043   1.1792   1.1996   1.2731   1.4048   1.4156   1.7936   1.9124
     1.9613   2.0861   2.1002   3.2001   4.4235   4.5719   4.5740   4.7234
     5.0380   5.5398   5.7458   6.0976   6.3468   6.7838   6.8024   7.0777
     7.7733   8.0635

          k = 0.3750 0.0000 0.0000 ( 41645 PWs)   bands (ev):

   -47.4100 -47.2984 -47.2980 -47.2255 -47.2022 -47.1501 -47.1375 -47.1302
   -47.1214 -47.0735 -47.0710 -47.0634 -47.0077 -46.9917 -46.8629 -46.8478
   -46.7737 -46.6887 -21.2601 -17.6775 -17.6498 -17.5339 -17.4812 -17.3671
   -17.2936 -17.2818 -17.2250 -17.1622 -16.9091 -15.8743 -15.5802 -14.9450
    -7.4318  -6.8516  -6.7343  -6.6146  -6.4361  -6.2490  -6.1717  -6.1345
    -6.0810  -6.0695  -5.8118  -5.5658  -5.3502  -5.1591  -5.0796  -4.9563
    -4.7695  -4.4698  -4.3172  -4.1650  -3.7807  -3.6505  -3.4072  -3.4038
    -3.2502  -3.2306  -3.2129  -3.1262  -2.7896  -2.6520  -2.6095  -2.4494
    -2.0822  -1.9764  -1.4214  -1.2755  -1.0089  -0.9605  -0.8568  -0.8324
    -0.7474  -0.6420  -0.5605  -0.2754  -0.2261  -0.0448   0.4211   0.4838
     0.4878   1.0107   1.1055   1.1981   1.2364   1.4477   1.7195   1.7855
     2.0499   2.3066   2.5098   2.8547   4.3606   4.4838   4.9371   5.1175
     5.1438   5.2858   5.3739   5.5939   5.8999   5.9794   6.6181   6.9392
     8.0501   8.7013

          k = 0.3750 0.1240 0.0000 ( 41549 PWs)   bands (ev):

   -47.4103 -47.3063 -47.2884 -47.2258 -47.2011 -47.1565 -47.1327 -47.1297
   -47.1169 -47.0733 -47.0696 -47.0635 -47.0076 -46.9910 -46.8611 -46.8478
   -46.7736 -46.6869 -21.2604 -17.7568 -17.7212 -17.6565 -17.5389 -17.4128
   -17.3035 -17.1408 -17.0862 -17.0499 -16.9117 -15.8685 -15.5756 -14.9455
    -7.4605  -7.0788  -6.9288  -6.8673  -6.7060  -6.5917  -6.1345  -6.0224
    -5.9748  -5.9095  -5.6981  -5.5670  -5.2737  -4.8704  -4.6554  -4.5234
    -4.4763  -4.2710  -4.2515  -4.0001  -3.8629  -3.7294  -3.5558  -3.3758
    -3.3264  -3.2984  -3.1794  -3.0511  -2.8068  -2.6504  -2.5347  -2.3497
    -2.1607  -1.8658  -1.6341  -1.4299  -1.3636  -1.2445  -0.8721  -0.7338
    -0.5769  -0.4688  -0.4014  -0.3544  -0.2515  -0.1548  -0.0235   0.2826
     0.3830   0.4969   0.5703   1.1192   1.3998   1.9452   2.0022   2.0295
     2.1894   2.2624   2.4164   2.9363   4.1994   4.3344   4.4099   4.4374
     4.5198   5.2910   5.6285   6.2309   6.5392   6.6321   6.7878   7.0344
     8.1655   8.8001

          k = 0.3750-0.2479 0.0000 ( 41514 PWs)   bands (ev):

   -47.4105 -47.3092 -47.2838 -47.2260 -47.1999 -47.1604 -47.1335 -47.1251
   -47.1135 -47.0732 -47.0683 -47.0635 -47.0076 -46.9903 -46.8593 -46.8478
   -46.7736 -46.6851 -21.2607 -17.8336 -17.7814 -17.7383 -17.5553 -17.4236
   -17.3083 -17.0483 -16.9993 -16.9733 -16.9143 -15.8627 -15.5708 -14.9459
    -7.4878  -7.2912  -7.1901  -7.0284  -6.9367  -6.6584  -6.0511  -5.8154
    -5.7464  -5.7264  -5.6789  -5.5644  -5.2455  -4.7649  -4.5336  -4.3487
    -4.3322  -4.1881  -4.1616  -3.9120  -3.8474  -3.8285  -3.7154  -3.4356
    -3.0899  -2.9302  -2.8951  -2.8230  -2.7824  -2.6436  -2.4150  -2.3319
    -2.1831  -2.0419  -1.9835  -1.7724  -1.4660  -1.3079  -1.1207  -0.7892
    -0.7089  -0.5625  -0.4235  -0.4208  -0.2253  -0.2058  -0.1320   0.0208
     0.2758   0.4576   0.5942   0.9436   1.3749   1.9674   2.0213   2.3221
     2.3433   2.3686   2.4533   3.0132   3.7564   3.9065   3.9523   4.4591
     4.5306   5.2930   5.6791   6.5736   6.7444   7.0557   7.0968   7.2074
     8.3302   8.9080

          k =-0.5000 0.0000 0.0000 ( 41440 PWs)   bands (ev):

   -47.4143 -47.3050 -47.2963 -47.2239 -47.2147 -47.1637 -47.1439 -47.1355
   -47.1200 -47.0840 -47.0717 -47.0613 -47.0059 -47.0044 -46.8612 -46.8453
   -46.7712 -46.6867 -21.2254 -17.6281 -17.4782 -17.4495 -17.4394 -17.3992
   -17.3567 -17.3272 -17.2644 -17.1668 -16.9345 -15.7940 -15.5147 -14.9585
    -7.6369  -7.1370  -6.8745  -6.7642  -6.5124  -6.1656  -6.1330  -5.9525
    -5.7980  -5.7475  -5.6453  -5.6378  -5.4713  -5.3420  -5.0628  -4.7557
    -4.7147  -4.1283  -4.1133  -4.0821  -3.6230  -3.6211  -3.5082  -3.3780
    -3.3113  -3.2986  -3.2332  -3.0968  -3.0674  -2.8134  -2.0938  -2.0387
    -1.6935  -1.3188  -1.2400  -1.0250  -1.0138  -0.9852  -0.9790  -0.9613
    -0.8333  -0.8174  -0.7897  -0.7030  -0.5917  -0.2924  -0.1499  -0.0825
     0.7359   0.8033   0.9740   1.1699   1.3346   1.4779   1.4793   1.9746
     2.1398   2.5171   2.7215   2.7301   4.1691   4.4161   4.7444   4.9303
     4.9660   5.1875   5.4444   5.6892   5.8916   5.9445   6.6644   7.0377
     8.5647   9.4093

          k =-0.5000 0.1240 0.0000 ( 41518 PWs)   bands (ev):

   -47.4147 -47.3105 -47.2890 -47.2244 -47.2135 -47.1682 -47.1442 -47.1297
   -47.1162 -47.0822 -47.0717 -47.0612 -47.0059 -47.0034 -46.8587 -46.8452
   -46.7711 -46.6844 -21.2257 -17.7838 -17.7271 -17.6850 -17.6292 -17.4344
   -17.1675 -17.0499 -16.9939 -16.9842 -16.9377 -15.7866 -15.5086 -14.9591
    -7.6651  -7.3757  -7.1879  -7.1744  -7.0072  -6.8297  -6.0135  -5.9486
    -5.7284  -5.6029  -5.5272  -5.4390  -5.0504  -4.8364  -4.5883  -4.5481
    -4.2978  -4.1244  -3.9912  -3.9201  -3.7656  -3.4755  -3.2737  -3.2589
    -3.2293  -3.1538  -3.0238  -2.9126  -2.8713  -2.8030  -2.2359  -1.9963
    -1.6986  -1.6161  -1.3609  -1.2017  -1.1384  -0.9785  -0.9767  -0.9509
    -0.9386  -0.8976  -0.8325  -0.8019  -0.5995  -0.4257  -0.2850  -0.2205
    -0.0873   0.0567   0.4108   0.7190   1.4135   2.0876   2.1580   2.2207
     2.3637   2.4399   2.6225   2.8123   3.9825   4.1138   4.1966   4.2156
     4.4542   5.1903   5.7419   6.4342   6.6613   6.7344   6.7908   7.0987
     8.6370   9.5520

          k =-0.5000-0.2479 0.0000 ( 41524 PWs)   bands (ev):

   -47.4150 -47.3135 -47.2843 -47.2249 -47.2124 -47.1716 -47.1443 -47.1251
   -47.1127 -47.0805 -47.0716 -47.0612 -47.0058 -47.0023 -46.8562 -46.8451
   -46.7710 -46.6821 -21.2260 -17.9252 -17.8645 -17.8193 -17.6305 -17.4295
   -17.1674 -16.9416 -16.8914 -16.8393 -16.8327 -15.7791 -15.5024 -14.9596
    -7.6940  -7.6637  -7.5599  -7.3982  -7.2096  -6.9027  -6.0088  -5.8060
    -5.7853  -5.7188  -5.5147  -5.4034  -4.9571  -4.9516  -4.3890  -3.9785
    -3.9567  -3.9374  -3.5963  -3.5767  -3.4618  -3.3680  -3.2512  -3.2152
    -3.0234  -2.9774  -2.5707  -2.5639  -2.4905  -2.4080  -2.3229  -2.2213
    -2.0756  -1.8805  -1.7416  -1.6674  -1.5411  -1.1625  -0.9751  -0.9573
    -0.9522  -0.9165  -0.8358  -0.8247  -0.7966  -0.6932  -0.6251  -0.4438
    -0.3084  -0.1504  -0.0480   0.6225   1.4077   2.1179   2.2013   2.5260
     2.5624   2.6156   2.6475   2.8556   3.5531   3.6970   3.7687   4.2514
     4.4858   5.1927   5.7788   6.7972   6.9223   7.1623   7.1870   7.3295
     8.7202   9.6995

     the Fermi energy is     1.9854 ev

!    total energy              =   -1672.37824877 Ry
     estimated scf accuracy    <       0.00000045 Ry
     smearing contrib. (-TS)   =      -0.00224921 Ry
     internal energy E=F+TS    =   -1672.37599956 Ry

     The total energy is F=E-TS. E is the sum of the following terms:
     one-electron contribution =  -15407.29096875 Ry
     hartree contribution      =    7757.90406404 Ry
     xc contribution           =    -405.88954294 Ry
     ewald contribution        =    6514.55670889 Ry
     Hubbard energy            =       1.62599523 Ry
     one-center paw contrib.   =    -133.28225603 Ry

     convergence has been achieved in  28 iterations

     negative rho (up, down):  1.927E+00 0.000E+00
     force_hub    :      0.58s CPU      0.60s WALL (       1 calls)
     dndtau       :      0.46s CPU      0.47s WALL (     252 calls)
     dprojdtau    :      0.05s CPU      0.05s WALL (    1512 calls)
     matel_dSdtau :      0.40s CPU      0.41s WALL (     252 calls)

     Forces acting on atoms (cartesian axes, Ry/au):

     atom    1 type  2   force =    -0.00001154    0.00000000    0.04216651
     atom    2 type  2   force =     0.00021167    0.00000000   -0.03324413
     atom    3 type  2   force =     0.00056066    0.00000000   -0.00279762
     atom    4 type  2   force =     0.00076537    0.00000000    0.00131264
     atom    5 type  2   force =    -0.00237043    0.00000000   -0.01894266
     atom    6 type  2   force =     0.00027299    0.00000000   -0.01073934
     atom    7 type  3   force =    -0.00115742    0.00000000   -0.00591047
     atom    8 type  3   force =     0.00015627    0.00000000    0.03264722
     atom    9 type  3   force =     0.00011872    0.00728645   -0.01977464
     atom   10 type  3   force =     0.00011872   -0.00728645   -0.01977464
     atom   11 type  3   force =     0.00182296    0.00000000    0.00266281
     atom   12 type  3   force =    -0.00196715    0.00000000    0.00945501
     atom   13 type  3   force =     0.00063002   -0.00205914    0.00147591
     atom   14 type  3   force =     0.00063002    0.00205914    0.00147591
     atom   15 type  3   force =    -0.00156252    0.00000000    0.00273098
     atom   16 type  3   force =     0.00057903    0.00000000    0.00549025
     atom   17 type  3   force =     0.00006106   -0.00738864    0.00331452
     atom   18 type  3   force =     0.00006106    0.00738864    0.00331452
     atom   19 type  3   force =     0.00941914    0.00000000    0.01334909
     atom   20 type  3   force =    -0.00796219    0.00000000   -0.00872576
     atom   21 type  1   force =    -0.00037642    0.00000000    0.00051388

     Total force =     0.033057     Total SCF correction =     0.001403

     Writing all to output data dir ./tmp_s0_OOH__u591/s0_OOH__u591.save/ :
     XML data file, charge density, pseudopotentials, collected wavefunctions

     init_run     :      2.28s CPU      2.41s WALL (       1 calls)
     electrons    :     70.33s CPU     71.30s WALL (       1 calls)
     forces       :      1.25s CPU      1.28s WALL (       1 calls)

     Called by init_run:
     wfcinit      :      0.82s CPU      0.87s WALL (       1 calls)
     potinit      :      0.48s CPU      0.50s WALL (       1 calls)
     hinit0       :      0.46s CPU      0.49s WALL (       1 calls)

     Called by electrons:
     c_bands      :     51.81s CPU     52.43s WALL (      28 calls)
     sum_band     :     10.91s CPU     11.11s WALL (      28 calls)
     v_of_rho     :      1.64s CPU      1.68s WALL (      29 calls)
     newd         :      1.53s CPU      1.56s WALL (      29 calls)
     PAW_pot      :      0.77s CPU      0.77s WALL (      29 calls)
     mix_rho      :      3.22s CPU      3.27s WALL (      28 calls)

     Called by c_bands:
     init_us_2    :      1.28s CPU      1.31s WALL (     240 calls)
     cegterg      :     45.95s CPU     46.49s WALL (     112 calls)

     Called by *egterg:
     cdiaghg      :      6.56s CPU      6.60s WALL (     618 calls)
     h_psi        :     29.20s CPU     29.65s WALL (     622 calls)
     s_psi        :      2.28s CPU      2.30s WALL (     630 calls)
     g_psi        :      0.14s CPU      0.14s WALL (     506 calls)

     Called by h_psi:
     h_psi:calbec :      3.03s CPU      3.06s WALL (     622 calls)
     vloc_psi     :     22.60s CPU     22.97s WALL (     622 calls)
                                        0.00s GPU  (     622 calls)
     add_vuspsi   :      2.16s CPU      2.18s WALL (     622 calls)
     vhpsi        :      1.17s CPU      1.19s WALL (     622 calls)

     General routines
     calbec       :      5.92s CPU      5.99s WALL (    2504 calls)
     fft          :      1.51s CPU      1.54s WALL (     386 calls)
     ffts         :      2.33s CPU      2.35s WALL (    3378 calls)
     fftw         :     26.47s CPU     26.89s WALL (   62950 calls)
     interpolate  :      0.53s CPU      0.54s WALL (      29 calls)

     Parallel routines

     Hubbard U routines
     new_ns       :      0.37s CPU      0.39s WALL (      28 calls)
     vhpsi        :      1.17s CPU      1.19s WALL (     622 calls)
     force_hub    :      0.58s CPU      0.60s WALL (       1 calls)

     PWSCF        :   1m14.53s CPU   1m15.97s WALL


   This run was terminated on:  10: 4:56  28Aug2026            

=------------------------------------------------------------------------------=
   JOB DONE.
=------------------------------------------------------------------------------=
