
     Program PWSCF v.7.5 starts on 28Aug2026 at  9:53:37 

     This program is part of the open-source Quantum ESPRESSO suite
     for quantum simulation of materials; please cite
         "P. Giannozzi et al., J. Phys.:Condens. Matter 21 395502 (2009);
         "P. Giannozzi et al., J. Phys.:Condens. Matter 29 465901 (2017);
         "P. Giannozzi et al., J. Chem. Phys. 152 154105 (2020);
          URL http://www.quantum-espresso.org", 
     in publications or presentations arising from this work. More details at
     http://www.quantum-espresso.org/quote

     Parallel version (MPI & OpenMP), running on     128 processor cores
     Number of MPI processes:               128
     Threads/MPI process:                     1

     MPI processes distributed on     1 nodes
     221902 MiB available memory on the printing compute node when the environment starts

     Reading input from s0_OH__u750.run.in

     Current dimensions of program PWSCF are:
     Max number of different atomic species (ntypx) = 10
     Max number of k-points (npk) =  40000
     Max angular momentum in pseudopotentials (lmaxx) =  4
     file O.pbe-n-kjpaw_psl.0.1.UPF: wavefunction(s)  2P renormalized
     Message from routine setup:
     using ibrav=0 with symmetry is DISCOURAGED, use correct ibrav instead

     K-points division:     npool     =       4
     R & G space division:  proc/nbgrp/npool/nimage =      32
     Subspace diagonalization in iterative solution of the eigenvalue problem:
     a serial algorithm will be used


     Parallelization info
     --------------------
     sticks:   dense  smooth     PW     G-vecs:    dense   smooth      PW
     Min         113      57     16                29407    10389    1566
     Max         114      58     17                29434    10403    1581
     Sum        3639    1825    519               941385   332621   50331

     Using Slab Decomposition



     bravais-lattice index     =            0
     lattice parameter (alat)  =       5.9602  a.u.
     unit-cell volume          =    3444.9838 (a.u.)^3
     number of atoms/cell      =           20
     number of atomic types    =            3
     number of electrons       =       169.00
     number of Kohn-Sham states=          102
     kinetic-energy cutoff     =      80.0000  Ry
     charge density cutoff     =     640.0000  Ry
     scf convergence threshold =      1.0E-06
     mixing beta               =       0.3000
     number of iterations used =            8  local-TF  mixing
     Exchange-correlation= SLA  PW   PBX  PBC
                           (   1   4   3   4   0   0   0)
     Hubbard projectors: atomic
     Hubbard parameters of DFT+U (Dudarev formulation) in eV:
     U(Ir-5d) =  7.5000

     Internal variables: lda_plus_u =T, lda_plus_u_kind = 0

     Internal variables: orbital_resolved =F, hub_pot_fix =F, apply_U = F

     celldm(1)=   5.960196  celldm(2)=   0.000000  celldm(3)=   0.000000
     celldm(4)=   0.000000  celldm(5)=   0.000000  celldm(6)=   0.000000

     crystal axes: (cart. coord. in units of alat)
               a(1) = (   1.000000   0.000000   0.000000 )  
               a(2) = (   0.000000   2.016846   0.000000 )  
               a(3) = (   0.000000   0.000000   8.067384 )  

     reciprocal axes: (cart. coord. in units 2 pi/alat)
               b(1) = (  1.000000  0.000000  0.000000 )  
               b(2) = (  0.000000  0.495824  0.000000 )  
               b(3) = (  0.000000  0.000000  0.123956 )  


     PseudoPot. # 1 for H  read from file:
     /anvil/projects/x-che260157/pseudo/H.pbe-rrkjus_psl.1.0.0.UPF
     MD5 check sum: f52b6d4d1c606e5624b1dc7b2218f220
     Pseudo is Ultrasoft, Zval =  1.0
     Generated using "atomic" code by A. Dal Corso  v.5.1
     Using radial grid of  929 points,  2 beta functions with: 
                l(1) =   0
                l(2) =   0
     Q(r) pseudized with 0 coefficients 


     PseudoPot. # 2 for Ir read from file:
     /anvil/projects/x-che260157/pseudo/Ir_pbe_v1.2.uspp.F.UPF
     MD5 check sum: 8836f839c3459d2b385c504ce6d91f2c
     Pseudo is Ultrasoft + core correction, Zval = 15.0
     Generated by new atomic code, or converted to UPF format
     Using radial grid of  983 points,  7 beta functions with: 
                l(1) =   0
                l(2) =   0
                l(3) =   1
                l(4) =   1
                l(5) =   1
                l(6) =   2
                l(7) =   2
     Q(r) pseudized with  8 coefficients,  rinner =    1.400   1.400   1.400
                                                       1.400   1.400

     PseudoPot. # 3 for O  read from file:
     /anvil/projects/x-che260157/pseudo/O.pbe-n-kjpaw_psl.0.1.UPF
     MD5 check sum: 0234752ac141de4415c5fc33072bef88
     Pseudo is Projector augmented-wave + core cor, Zval =  6.0
     Generated using "atomic" code by A. Dal Corso  v.5.0.99 svn rev. 10869
     Shape of augmentation charge: BESSEL
     Using radial grid of 1095 points,  4 beta functions with: 
                l(1) =   0
                l(2) =   0
                l(3) =   1
                l(4) =   1
     Q(r) pseudized with 0 coefficients 


     atomic species   valence    mass     pseudopotential
     H                 1.00     1.00800     H ( 1.00)
     Ir               15.00   192.21700     Ir( 1.00)
     O                 6.00    15.99900     O ( 1.00)

      2 Sym. Ops. (no inversion) found ( 1 have fractional translation)



   Cartesian axes

     site n.     atom                  positions (alat units)
         1        Ir     tau(   1) = (   0.0000000   1.5126346   3.0252692  )
         2        Ir     tau(   2) = (   0.5000000   0.5042115   3.0252692  )
         3        Ir     tau(   3) = (  -0.0008242   0.5042115   4.0440689  )
         4        Ir     tau(   4) = (   0.4992639   1.5126346   4.0342031  )
         5        Ir     tau(   5) = (  -0.0026497   1.5126346   5.0620142  )
         6        Ir     tau(   6) = (   0.4951993   0.5042115   5.0709699  )
         7        O      tau(   7) = (   0.0000000   0.5042115   3.4185541  )
         8        O      tau(   8) = (   0.0000000   0.5042115   2.6319842  )
         9        O      tau(   9) = (   0.5000000   1.1193496   3.0252692  )
        10        O      tau(  10) = (   0.5000000   1.9059196   3.0252692  )
        11        O      tau(  11) = (  -0.0015798   1.5126346   4.4293404  )
        12        O      tau(  12) = (   0.0000000   1.5126346   3.6404072  )
        13        O      tau(  13) = (   0.4992996   0.1182431   4.0371691  )
        14        O      tau(  14) = (   0.4992996   0.8901799   4.0371691  )
        15        O      tau(  15) = (  -0.0050805   0.5042115   5.4448748  )
        16        O      tau(  16) = (  -0.0040464   0.5042115   4.6729430  )
        17        O      tau(  17) = (   0.4959964   1.1251299   5.0554257  )
        18        O      tau(  18) = (   0.4959964   1.9001393   5.0554257  )
        19        O      tau(  19) = (  -0.0349756   1.5126346   5.6753284  )
        20        H      tau(  20) = (   0.2502274   1.5126346   5.7991802  )

     number of k points=    15  Marzari-Vanderbilt smearing, width (Ry)=  0.0100
                       cart. coord. in units 2pi/alat
        k(    1) = (   0.0000000   0.0000000   0.0000000), wk =   0.0625000
        k(    2) = (   0.0000000   0.1239559   0.0000000), wk =   0.1250000
        k(    3) = (   0.0000000  -0.2479118   0.0000000), wk =   0.0625000
        k(    4) = (   0.1250000   0.0000000   0.0000000), wk =   0.1250000
        k(    5) = (   0.1250000   0.1239559   0.0000000), wk =   0.2500000
        k(    6) = (   0.1250000  -0.2479118   0.0000000), wk =   0.1250000
        k(    7) = (   0.2500000   0.0000000   0.0000000), wk =   0.1250000
        k(    8) = (   0.2500000   0.1239559   0.0000000), wk =   0.2500000
        k(    9) = (   0.2500000  -0.2479118   0.0000000), wk =   0.1250000
        k(   10) = (   0.3750000   0.0000000   0.0000000), wk =   0.1250000
        k(   11) = (   0.3750000   0.1239559   0.0000000), wk =   0.2500000
        k(   12) = (   0.3750000  -0.2479118   0.0000000), wk =   0.1250000
        k(   13) = (  -0.5000000   0.0000000   0.0000000), wk =   0.0625000
        k(   14) = (  -0.5000000   0.1239559   0.0000000), wk =   0.1250000
        k(   15) = (  -0.5000000  -0.2479118   0.0000000), wk =   0.0625000

     Dense  grid:   941385 G-vectors     FFT dimensions: (  48, 100, 400)

     Smooth grid:   332621 G-vectors     FFT dimensions: (  36,  72, 288)

     Estimated max dynamical RAM per process >      76.01 MB

     Estimated total dynamical RAM >       8.83 GB

     Initial potential from superposition of free atoms

     starting charge     165.9998, renormalised to     169.0000

     negative rho (up, down):  2.223E+00 0.000E+00

     STARTING HUBBARD OCCUPATIONS:

     =================== HUBBARD OCCUPATIONS ===================
     ------------------------ ATOM    1 ------------------------
     Tr[ns(  1)] =   8.50000
     eigenvalues:
       0.850  0.850  0.850  0.850  0.850
     eigenvectors (columns):
       1.000  0.000  0.000  0.000  0.000
       0.000  1.000  0.000  0.000  0.000
       0.000  0.000  1.000  0.000  0.000
       0.000  0.000  0.000  1.000  0.000
       0.000  0.000  0.000  0.000  1.000
     occupation matrix ns (before diag.):
       0.850  0.000  0.000  0.000  0.000
       0.000  0.850  0.000  0.000  0.000
       0.000  0.000  0.850  0.000  0.000
       0.000  0.000  0.000  0.850  0.000
       0.000  0.000  0.000  0.000  0.850
     ------------------------ ATOM    2 ------------------------
     Tr[ns(  2)] =   8.50000
     eigenvalues:
       0.850  0.850  0.850  0.850  0.850
     eigenvectors (columns):
       1.000  0.000  0.000  0.000  0.000
       0.000  1.000  0.000  0.000  0.000
       0.000  0.000  1.000  0.000  0.000
       0.000  0.000  0.000  1.000  0.000
       0.000  0.000  0.000  0.000  1.000
     occupation matrix ns (before diag.):
       0.850  0.000  0.000  0.000  0.000
       0.000  0.850  0.000  0.000  0.000
       0.000  0.000  0.850  0.000  0.000
       0.000  0.000  0.000  0.850  0.000
       0.000  0.000  0.000  0.000  0.850
     ------------------------ ATOM    3 ------------------------
     Tr[ns(  3)] =   8.50000
     eigenvalues:
       0.850  0.850  0.850  0.850  0.850
     eigenvectors (columns):
       1.000  0.000  0.000  0.000  0.000
       0.000  1.000  0.000  0.000  0.000
       0.000  0.000  1.000  0.000  0.000
       0.000  0.000  0.000  1.000  0.000
       0.000  0.000  0.000  0.000  1.000
     occupation matrix ns (before diag.):
       0.850  0.000  0.000  0.000  0.000
       0.000  0.850  0.000  0.000  0.000
       0.000  0.000  0.850  0.000  0.000
       0.000  0.000  0.000  0.850  0.000
       0.000  0.000  0.000  0.000  0.850
     ------------------------ ATOM    4 ------------------------
     Tr[ns(  4)] =   8.50000
     eigenvalues:
       0.850  0.850  0.850  0.850  0.850
     eigenvectors (columns):
       1.000  0.000  0.000  0.000  0.000
       0.000  1.000  0.000  0.000  0.000
       0.000  0.000  1.000  0.000  0.000
       0.000  0.000  0.000  1.000  0.000
       0.000  0.000  0.000  0.000  1.000
     occupation matrix ns (before diag.):
       0.850  0.000  0.000  0.000  0.000
       0.000  0.850  0.000  0.000  0.000
       0.000  0.000  0.850  0.000  0.000
       0.000  0.000  0.000  0.850  0.000
       0.000  0.000  0.000  0.000  0.850
     ------------------------ ATOM    5 ------------------------
     Tr[ns(  5)] =   8.50000
     eigenvalues:
       0.850  0.850  0.850  0.850  0.850
     eigenvectors (columns):
       1.000  0.000  0.000  0.000  0.000
       0.000  1.000  0.000  0.000  0.000
       0.000  0.000  1.000  0.000  0.000
       0.000  0.000  0.000  1.000  0.000
       0.000  0.000  0.000  0.000  1.000
     occupation matrix ns (before diag.):
       0.850  0.000  0.000  0.000  0.000
       0.000  0.850  0.000  0.000  0.000
       0.000  0.000  0.850  0.000  0.000
       0.000  0.000  0.000  0.850  0.000
       0.000  0.000  0.000  0.000  0.850
     ------------------------ ATOM    6 ------------------------
     Tr[ns(  6)] =   8.50000
     eigenvalues:
       0.850  0.850  0.850  0.850  0.850
     eigenvectors (columns):
       1.000  0.000  0.000  0.000  0.000
       0.000  1.000  0.000  0.000  0.000
       0.000  0.000  1.000  0.000  0.000
       0.000  0.000  0.000  1.000  0.000
       0.000  0.000  0.000  0.000  1.000
     occupation matrix ns (before diag.):
       0.850  0.000  0.000  0.000  0.000
       0.000  0.850  0.000  0.000  0.000
       0.000  0.000  0.850  0.000  0.000
       0.000  0.000  0.000  0.850  0.000
       0.000  0.000  0.000  0.000  0.850

     Number of occupied Hubbard levels =   51.0000

     Atomic wfc used for Hubbard projectors are NOT orthogonalized

     Starting wfcs are  125 randomized atomic wfcs
     Checking if some PAW data can be deallocated... 

     total cpu time spent up to now is        5.3 secs

     per-process dynamical memory:   102.9 Mb

     Self-consistent Calculation

     iteration #  1     ecut=    80.00 Ry     beta= 0.30
     Davidson diagonalization with overlap
     ethr =  1.00E-02,  avg # of iterations =  3.4

     =================== HUBBARD OCCUPATIONS ===================
     ------------------------ ATOM    1 ------------------------
     Tr[ns(  1)] =   8.56748
     eigenvalues:
       0.524  0.809  0.979  0.986  0.987
     eigenvectors (columns):
      -0.000 -0.983 -0.183 -0.001 -0.000
      -0.000  0.001  0.001 -1.000  0.000
       0.000 -0.000  0.000 -0.000 -1.000
       0.000  0.183 -0.983 -0.001 -0.000
       1.000 -0.000  0.000 -0.000  0.000
     occupation matrix ns (before diag.):
       0.814  0.000 -0.000  0.030  0.000
       0.000  0.986 -0.000 -0.000  0.000
      -0.000 -0.000  0.987  0.000 -0.000
       0.030 -0.000  0.000  0.973 -0.000
       0.000  0.000 -0.000 -0.000  0.524
     ------------------------ ATOM    2 ------------------------
     Tr[ns(  2)] =   8.01881
     eigenvalues:
       0.526  0.556  0.969  0.978  0.981
     eigenvectors (columns):
       0.000  0.397  0.000  0.918 -0.000
      -1.000  0.001 -0.000 -0.000 -0.000
      -0.000 -0.000 -0.001  0.000  1.000
       0.001  0.918 -0.000 -0.397  0.000
       0.000  0.000 -1.000  0.000 -0.001
     occupation matrix ns (before diag.):
       0.911 -0.000 -0.000 -0.154  0.000
      -0.000  0.526 -0.000  0.000  0.000
      -0.000 -0.000  0.981  0.000 -0.000
      -0.154  0.000  0.000  0.622 -0.000
       0.000  0.000 -0.000 -0.000  0.969
     ------------------------ ATOM    3 ------------------------
     Tr[ns(  3)] =   7.87484
     eigenvalues:
       0.524  0.546  0.929  0.966  0.972
     eigenvectors (columns):
      -0.000  0.993  0.000 -0.003  0.117
      -0.000  0.004 -0.000  1.000 -0.010
       0.000  0.000 -1.000 -0.000  0.000
       0.000 -0.117  0.000  0.010  0.993
       1.000  0.000  0.000  0.000 -0.000
     occupation matrix ns (before diag.):
       0.552 -0.002 -0.000  0.050  0.000
      -0.002  0.966 -0.000  0.000  0.000
      -0.000 -0.000  0.929  0.000 -0.000
       0.050  0.000  0.000  0.966 -0.000
       0.000  0.000 -0.000 -0.000  0.524
     ------------------------ ATOM    4 ------------------------
     Tr[ns(  4)] =   7.92737
     eigenvalues:
       0.538  0.554  0.943  0.955  0.973
     eigenvectors (columns):
      -0.002  0.394  0.000 -0.000 -0.919
      -1.000 -0.010 -0.000  0.000 -0.002
      -0.000 -0.000  0.011 -1.000  0.000
      -0.009  0.919 -0.000  0.000  0.394
       0.000  0.000 -1.000 -0.011 -0.000
     occupation matrix ns (before diag.):
       0.908  0.001 -0.000 -0.152  0.000
       0.001  0.538 -0.000 -0.000  0.000
      -0.000 -0.000  0.955  0.000  0.000
      -0.152 -0.000  0.000  0.619 -0.000
       0.000  0.000  0.000 -0.000  0.943
     ------------------------ ATOM    5 ------------------------
     Tr[ns(  5)] =   5.52116
     eigenvalues:
       0.458  0.510  0.526  0.627  0.639
     eigenvectors (columns):
       0.000 -0.000  0.943  0.057  0.329
       0.000 -0.000  0.042 -0.998  0.052
       1.000  0.007 -0.000  0.000  0.000
      -0.000  0.000 -0.331  0.035  0.943
      -0.007  1.000  0.000 -0.000 -0.000
     occupation matrix ns (before diag.):
       0.539 -0.004 -0.000  0.035  0.000
      -0.004  0.627 -0.000  0.002  0.000
      -0.000 -0.000  0.458  0.000  0.000
       0.035  0.002  0.000  0.627 -0.000
       0.000  0.000  0.000 -0.000  0.510
     ------------------------ ATOM    6 ------------------------
     Tr[ns(  6)] =   5.39397
     eigenvalues:
       0.481  0.521  0.531  0.545  0.618
     eigenvectors (columns):
       0.855  0.014  0.000  0.518 -0.000
      -0.011  1.000  0.000 -0.009 -0.000
       0.000  0.000 -0.016 -0.000  1.000
      -0.518  0.002  0.000  0.855  0.000
      -0.000 -0.000  1.000 -0.000  0.016
     occupation matrix ns (before diag.):
       0.499  0.000 -0.000  0.028  0.000
       0.000  0.521 -0.000 -0.000  0.000
      -0.000 -0.000  0.618  0.000  0.001
       0.028 -0.000  0.000  0.528 -0.000
       0.000  0.000  0.001 -0.000  0.531

     Number of occupied Hubbard levels =   43.3036

     negative rho (up, down):  2.070E+00 0.000E+00

     total cpu time spent up to now is        9.3 secs

     total energy              =   -1631.20476334 Ry
     estimated scf accuracy    <      39.53645756 Ry

     iteration #  2     ecut=    80.00 Ry     beta= 0.30
     Davidson diagonalization with overlap
     ethr =  1.00E-02,  avg # of iterations =  1.0

     negative rho (up, down):  1.812E+00 0.000E+00

     total cpu time spent up to now is       15.5 secs

     total energy              =   -1628.12737815 Ry
     estimated scf accuracy    <      19.69388929 Ry

     iteration #  3     ecut=    80.00 Ry     beta= 0.30
     Davidson diagonalization with overlap
     ethr =  1.00E-02,  avg # of iterations =  2.1

     negative rho (up, down):  1.893E+00 0.000E+00

     total cpu time spent up to now is       24.1 secs

     total energy              =   -1630.19046823 Ry
     estimated scf accuracy    <       8.10865976 Ry

     iteration #  4     ecut=    80.00 Ry     beta= 0.30
     Davidson diagonalization with overlap
     ethr =  4.80E-03,  avg # of iterations =  1.0

     negative rho (up, down):  1.897E+00 0.000E+00

     total cpu time spent up to now is       27.1 secs

     total energy              =   -1630.39413358 Ry
     estimated scf accuracy    <       1.88250242 Ry

     iteration #  5     ecut=    80.00 Ry     beta= 0.30
     Davidson diagonalization with overlap
     ethr =  1.11E-03,  avg # of iterations =  1.7

     negative rho (up, down):  1.929E+00 0.000E+00

     total cpu time spent up to now is       29.6 secs

     total energy              =   -1630.36091101 Ry
     estimated scf accuracy    <       1.33743940 Ry

     iteration #  6     ecut=    80.00 Ry     beta= 0.30
     Davidson diagonalization with overlap
     ethr =  7.91E-04,  avg # of iterations =  4.1

     negative rho (up, down):  1.940E+00 0.000E+00

     total cpu time spent up to now is       33.0 secs

     total energy              =   -1630.49468933 Ry
     estimated scf accuracy    <       0.22137157 Ry

     iteration #  7     ecut=    80.00 Ry     beta= 0.30
     Davidson diagonalization with overlap
     ethr =  1.31E-04,  avg # of iterations =  5.8

     negative rho (up, down):  1.940E+00 0.000E+00

     total cpu time spent up to now is       36.8 secs

     total energy              =   -1630.49166896 Ry
     estimated scf accuracy    <       0.17971717 Ry

     iteration #  8     ecut=    80.00 Ry     beta= 0.30
     Davidson diagonalization with overlap
     ethr =  1.06E-04,  avg # of iterations =  1.3

     negative rho (up, down):  1.949E+00 0.000E+00

     total cpu time spent up to now is       40.0 secs

     total energy              =   -1630.49457737 Ry
     estimated scf accuracy    <       0.02739140 Ry

     iteration #  9     ecut=    80.00 Ry     beta= 0.30
     Davidson diagonalization with overlap
     ethr =  1.62E-05,  avg # of iterations =  6.2

     negative rho (up, down):  1.952E+00 0.000E+00

     total cpu time spent up to now is       43.8 secs

     total energy              =   -1630.49643190 Ry
     estimated scf accuracy    <       0.00547000 Ry

     iteration # 10     ecut=    80.00 Ry     beta= 0.30
     Davidson diagonalization with overlap
     ethr =  3.24E-06,  avg # of iterations =  5.4

     negative rho (up, down):  1.958E+00 0.000E+00

     total cpu time spent up to now is       47.5 secs

     total energy              =   -1630.49590334 Ry
     estimated scf accuracy    <       0.00584722 Ry

     iteration # 11     ecut=    80.00 Ry     beta= 0.30
     Davidson diagonalization with overlap
     ethr =  3.24E-06,  avg # of iterations =  5.2

     negative rho (up, down):  1.956E+00 0.000E+00

     total cpu time spent up to now is       50.1 secs

     total energy              =   -1630.49581928 Ry
     estimated scf accuracy    <       0.00192376 Ry

     iteration # 12     ecut=    80.00 Ry     beta= 0.30
     Davidson diagonalization with overlap
     ethr =  1.14E-06,  avg # of iterations =  7.3

     negative rho (up, down):  1.954E+00 0.000E+00

     total cpu time spent up to now is       53.1 secs

     total energy              =   -1630.49571105 Ry
     estimated scf accuracy    <       0.00154564 Ry

     iteration # 13     ecut=    80.00 Ry     beta= 0.30
     Davidson diagonalization with overlap
     ethr =  9.15E-07,  avg # of iterations =  4.6

     negative rho (up, down):  1.947E+00 0.000E+00

     total cpu time spent up to now is       56.6 secs

     total energy              =   -1630.49557841 Ry
     estimated scf accuracy    <       0.00066140 Ry

     iteration # 14     ecut=    80.00 Ry     beta= 0.30
     Davidson diagonalization with overlap
     ethr =  3.91E-07,  avg # of iterations =  7.3

     negative rho (up, down):  1.940E+00 0.000E+00

     total cpu time spent up to now is       59.7 secs

     total energy              =   -1630.49541534 Ry
     estimated scf accuracy    <       0.00036571 Ry

     iteration # 15     ecut=    80.00 Ry     beta= 0.30
     Davidson diagonalization with overlap
     ethr =  2.16E-07,  avg # of iterations = 11.3

     negative rho (up, down):  1.938E+00 0.000E+00

     total cpu time spent up to now is       70.4 secs

     total energy              =   -1630.49534622 Ry
     estimated scf accuracy    <       0.00017776 Ry

     iteration # 16     ecut=    80.00 Ry     beta= 0.30
     Davidson diagonalization with overlap
     ethr =  1.05E-07,  avg # of iterations = 10.4

     negative rho (up, down):  1.936E+00 0.000E+00

     total cpu time spent up to now is       74.3 secs

     total energy              =   -1630.49528409 Ry
     estimated scf accuracy    <       0.00010151 Ry

     iteration # 17     ecut=    80.00 Ry     beta= 0.30
     Davidson diagonalization with overlap
     ethr =  6.01E-08,  avg # of iterations =  9.5

     negative rho (up, down):  1.935E+00 0.000E+00

     total cpu time spent up to now is       78.2 secs

     total energy              =   -1630.49525254 Ry
     estimated scf accuracy    <       0.00006400 Ry

     iteration # 18     ecut=    80.00 Ry     beta= 0.30
     Davidson diagonalization with overlap
     c_bands:  1 eigenvalues not converged
     ethr =  3.79E-08,  avg # of iterations =  7.4

     negative rho (up, down):  1.933E+00 0.000E+00

     total cpu time spent up to now is       86.2 secs

     total energy              =   -1630.49521134 Ry
     estimated scf accuracy    <       0.00004912 Ry

     iteration # 19     ecut=    80.00 Ry     beta= 0.30
     Davidson diagonalization with overlap
     ethr =  2.91E-08,  avg # of iterations =  9.9

     negative rho (up, down):  1.933E+00 0.000E+00

     total cpu time spent up to now is       89.6 secs

     total energy              =   -1630.49518886 Ry
     estimated scf accuracy    <       0.00002080 Ry

     iteration # 20     ecut=    80.00 Ry     beta= 0.30
     Davidson diagonalization with overlap
     ethr =  1.23E-08,  avg # of iterations =  5.1

     negative rho (up, down):  1.932E+00 0.000E+00

     total cpu time spent up to now is       93.2 secs

     total energy              =   -1630.49517495 Ry
     estimated scf accuracy    <       0.00001076 Ry

     iteration # 21     ecut=    80.00 Ry     beta= 0.30
     Davidson diagonalization with overlap
     ethr =  6.37E-09,  avg # of iterations =  5.3

     negative rho (up, down):  1.931E+00 0.000E+00

     total cpu time spent up to now is       96.9 secs

     total energy              =   -1630.49517393 Ry
     estimated scf accuracy    <       0.00000278 Ry

     iteration # 22     ecut=    80.00 Ry     beta= 0.30
     Davidson diagonalization with overlap
     ethr =  1.65E-09,  avg # of iterations =  3.3

     negative rho (up, down):  1.931E+00 0.000E+00

     total cpu time spent up to now is      100.3 secs

     End of self-consistent calculation

     =================== HUBBARD OCCUPATIONS ===================
     ------------------------ ATOM    1 ------------------------
     Tr[ns(  1)] =   8.16592
     eigenvalues:
       0.554  0.613  0.959  0.969  0.988
     eigenvectors (columns):
       0.997  0.000 -0.000 -0.000 -0.077
       0.000 -0.000  1.000 -0.000 -0.000
       0.000 -0.000  0.000  1.000 -0.000
      -0.077  0.000 -0.000 -0.000 -0.997
      -0.000  1.000  0.000  0.000  0.000
     occupation matrix ns (before diag.):
       0.557 -0.000 -0.000  0.033  0.000
      -0.000  0.959 -0.000  0.000  0.000
      -0.000 -0.000  0.969  0.000  0.000
       0.033  0.000  0.000  0.985 -0.000
       0.000  0.000  0.000 -0.000  0.613
     ------------------------ ATOM    2 ------------------------
     Tr[ns(  2)] =   8.22646
     eigenvalues:
       0.654  0.672  0.870  0.929  0.988
     eigenvectors (columns):
       0.000  0.399 -0.000 -0.000 -0.917
      -1.000  0.000  0.000  0.000  0.000
      -0.000 -0.000 -1.000  0.000  0.000
       0.000  0.917  0.000  0.000  0.399
       0.000  0.000  0.000  1.000 -0.000
     occupation matrix ns (before diag.):
       0.938 -0.000 -0.000 -0.116  0.000
      -0.000  0.654 -0.000  0.000  0.000
      -0.000 -0.000  0.870  0.000  0.000
      -0.116  0.000  0.000  0.723 -0.000
       0.000  0.000  0.000 -0.000  0.929
     ------------------------ ATOM    3 ------------------------
     Tr[ns(  3)] =   8.25115
     eigenvalues:
       0.619  0.654  0.926  0.941  0.987
     eigenvectors (columns):
      -0.000 -0.996 -0.000 -0.004  0.095
      -0.000 -0.004  0.000  1.000 -0.000
      -0.000 -0.000  1.000 -0.000  0.000
       0.000  0.095 -0.000  0.001  0.996
       1.000 -0.000  0.000  0.000 -0.000
     occupation matrix ns (before diag.):
       0.657 -0.001 -0.000  0.031  0.000
      -0.001  0.941 -0.000  0.000  0.000
      -0.000 -0.000  0.926  0.000  0.000
       0.031  0.000  0.000  0.984 -0.000
       0.000  0.000  0.000 -0.000  0.619
     ------------------------ ATOM    4 ------------------------
     Tr[ns(  4)] =   8.24425
     eigenvalues:
       0.616  0.651  0.920  0.952  0.983
     eigenvectors (columns):
      -0.006  0.434 -0.000 -0.000 -0.901
      -1.000 -0.016  0.000  0.000 -0.001
      -0.000 -0.000 -1.000  0.018  0.000
      -0.015  0.901  0.000  0.000  0.434
       0.000  0.000  0.018  1.000 -0.000
     occupation matrix ns (before diag.):
       0.920  0.000 -0.000 -0.130  0.000
       0.000  0.616 -0.000 -0.001  0.000
      -0.000 -0.000  0.920  0.000  0.001
      -0.130 -0.001  0.000  0.713 -0.000
       0.000  0.000  0.001 -0.000  0.952
     ------------------------ ATOM    5 ------------------------
     Tr[ns(  5)] =   8.22948
     eigenvalues:
       0.620  0.668  0.896  0.943  0.988
     eigenvectors (columns):
      -0.000  0.995  0.000 -0.020  0.100
      -0.000  0.020 -0.000  1.000 -0.005
       0.000  0.000 -1.000 -0.000  0.000
       0.000 -0.100  0.000  0.007  0.995
       1.000  0.000  0.000  0.000 -0.000
     occupation matrix ns (before diag.):
       0.672 -0.006 -0.000  0.032  0.000
      -0.006  0.943 -0.000  0.000  0.000
      -0.000 -0.000  0.896  0.000 -0.000
       0.032  0.000  0.000  0.985 -0.000
       0.000  0.000 -0.000 -0.000  0.620
     ------------------------ ATOM    6 ------------------------
     Tr[ns(  6)] =   8.22479
     eigenvalues:
       0.654  0.674  0.872  0.926  0.987
     eigenvectors (columns):
      -0.003  0.381 -0.000 -0.000 -0.924
      -1.000 -0.009  0.000  0.000 -0.000
      -0.000 -0.000 -1.000  0.017  0.000
      -0.008  0.924  0.000  0.000  0.381
       0.000  0.000  0.017  1.000 -0.000
     occupation matrix ns (before diag.):
       0.941  0.000 -0.000 -0.110  0.000
       0.000  0.654 -0.000 -0.000  0.000
      -0.000 -0.000  0.872  0.000  0.001
      -0.110 -0.000  0.000  0.719 -0.000
       0.000  0.000  0.001 -0.000  0.926

     Number of occupied Hubbard levels =   49.3421

          k = 0.0000 0.0000 0.0000 ( 41611 PWs)   bands (ev):

   -47.8799 -47.8250 -47.7833 -47.7633 -47.7413 -47.7085 -47.6701 -47.6552
   -47.6417 -47.6384 -47.6355 -47.6274 -47.5587 -47.5016 -47.4500 -47.4374
   -47.3897 -47.3798 -19.4359 -19.3913 -19.2837 -18.9898 -18.5805 -18.2660
   -17.9459 -17.5164 -17.3881 -17.3674 -17.2822 -16.5180 -16.2545  -9.7028
    -9.5131  -9.4270  -8.8339  -8.3849  -8.1202  -7.4887  -7.1893  -6.9168
    -6.8474  -6.7440  -6.6370  -6.2933  -5.9679  -5.9250  -5.6280  -4.9120
    -4.4894  -4.1705  -4.0073  -3.6186  -3.5431  -3.2401  -3.2207  -3.1193
    -3.0416  -2.8718  -2.7250  -2.6688  -2.6513  -2.6447  -2.6141  -2.6079
    -2.5959  -2.5509  -2.4820  -2.4592  -2.3713  -2.2363  -1.8670  -1.7720
    -1.5660  -1.4608  -1.3088  -1.1974  -0.9838  -0.6590  -0.5706  -0.5454
    -0.2723   0.0026   0.1719   0.4849   1.1241   1.4520   1.9200   1.9822
     2.2945   3.2785   3.9396   4.3884   5.2689   5.3879   5.8869   5.9238
     5.9635   6.0651   6.1679   6.2295   6.5350   7.1901

          k = 0.0000 0.1240 0.0000 ( 41688 PWs)   bands (ev):

   -47.8804 -47.8254 -47.7838 -47.7638 -47.7413 -47.7090 -47.6701 -47.6554
   -47.6420 -47.6385 -47.6363 -47.6276 -47.5610 -47.5017 -47.4504 -47.4395
   -47.3903 -47.3818 -19.2990 -19.2073 -19.1145 -18.9352 -18.5685 -18.2781
   -17.9498 -17.6483 -17.6335 -17.5749 -17.5056 -16.5212 -16.2615  -9.2994
    -9.0416  -8.9628  -8.7525  -8.1056  -8.0172  -7.4882  -6.8666  -6.7134
    -6.6570  -6.6300  -6.5367  -6.2953  -5.9665  -5.7608  -5.6794  -5.6279
    -4.9849  -4.5232  -4.3605  -4.2676  -4.1537  -4.0990  -3.9946  -3.9703
    -3.9385  -3.7203  -3.5423  -3.4642  -3.0964  -2.4271  -2.2513  -2.1086
    -1.9294  -1.8742  -1.8127  -1.5829  -1.4786  -1.4406  -1.3706  -1.3127
    -1.2947  -1.2396  -1.1925  -1.1786  -0.9803  -0.6533  -0.5953  -0.5325
    -0.3059   0.0081   0.1726   0.5138   1.0857   1.2165   1.6057   1.9638
     2.2454   3.7966   4.5089   4.8347   5.3704   5.3882   5.6030   5.6944
     5.8021   5.9309   6.2243   6.2344   6.7572   6.8122

          k = 0.0000-0.2479 0.0000 ( 41774 PWs)   bands (ev):

   -47.8810 -47.8259 -47.7843 -47.7643 -47.7413 -47.7095 -47.6701 -47.6555
   -47.6423 -47.6384 -47.6373 -47.6278 -47.5633 -47.5018 -47.4508 -47.4415
   -47.3908 -47.3839 -19.1604 -18.9579 -18.9074 -18.6702 -18.5934 -18.3712
   -18.0083 -17.9429 -17.9318 -17.8966 -17.5230 -16.5257 -16.2688  -9.0274
    -8.5023  -8.4098  -8.2693  -8.0762  -7.6445  -7.0131  -6.8787  -6.6252
    -6.4205  -6.3942  -6.3020  -6.2218  -6.0587  -5.9972  -5.9647  -5.5672
    -5.3580  -5.2772  -5.1560  -5.0495  -4.9632  -4.7489  -4.7035  -4.6587
    -4.4057  -3.8094  -3.5500  -3.4872  -3.0678  -2.1303  -2.0580  -2.0168
    -1.8716  -1.7869  -1.6573  -1.4904  -1.3925  -1.2191  -1.1706  -1.0977
    -1.0928  -0.9651  -0.7257  -0.6768  -0.6612  -0.5898  -0.4387  -0.3822
    -0.0700   0.0737   0.2719   0.3803   0.7175   1.1573   1.4081   1.6147
     2.3515   4.3553   4.6299   5.2951   5.3889   5.4113   5.5132   5.5237
     5.7603   5.9300   6.1270   6.2344   6.6303   7.2766

          k = 0.1250 0.0000 0.0000 ( 41611 PWs)   bands (ev):

   -47.8796 -47.8247 -47.7829 -47.7659 -47.7608 -47.7108 -47.6902 -47.6774
   -47.6639 -47.6499 -47.6381 -47.6338 -47.5574 -47.5235 -47.4478 -47.4361
   -47.3877 -47.3784 -19.2653 -19.2145 -19.1260 -18.8327 -18.4576 -18.1083
   -17.9827 -17.5637 -17.5249 -17.4993 -17.4189 -16.6246 -16.3642  -9.3341
    -9.1687  -9.0870  -8.5282  -8.1726  -7.8945  -7.3148  -7.2710  -6.8739
    -6.8045  -6.7470  -6.6761  -6.1404  -5.8951  -5.7466  -5.6517  -5.1320
    -4.7953  -4.3161  -4.2117  -4.1507  -3.8922  -3.8691  -3.7115  -3.6396
    -3.4964  -3.3476  -3.3164  -3.0943  -2.9459  -2.8642  -2.7033  -2.6611
    -2.5518  -2.4635  -2.4031  -2.1393  -1.8747  -1.7573  -1.6260  -1.5139
    -1.1633  -1.1133  -1.0087  -0.9770  -0.8421  -0.6137  -0.4914  -0.3523
    -0.0545   0.3534   0.4355   0.5748   0.9883   1.2715   1.7475   2.1122
     2.1239   3.5033   4.1603   4.5786   4.9302   5.2865   5.5225   5.5488
     5.5876   5.6722   5.7515   6.3244   6.8456   7.0207

          k = 0.1250 0.1240 0.0000 ( 41692 PWs)   bands (ev):

   -47.8799 -47.8250 -47.7833 -47.7658 -47.7610 -47.7111 -47.6900 -47.6773
   -47.6640 -47.6501 -47.6382 -47.6345 -47.5588 -47.5235 -47.4482 -47.4373
   -47.3882 -47.3797 -19.1344 -19.0388 -18.9572 -18.7905 -18.4441 -18.1275
   -17.9890 -17.7547 -17.7281 -17.6865 -17.5598 -16.6278 -16.3685  -8.9496
    -8.7225  -8.6444  -8.4514  -7.8779  -7.8513  -7.3177  -7.0299  -6.7940
    -6.7052  -6.6467  -6.5168  -6.1523  -5.8888  -5.6787  -5.5579  -5.5068
    -5.1920  -4.8961  -4.6609  -4.5833  -4.4160  -4.3097  -4.1291  -4.1110
    -4.0064  -3.9559  -3.7525  -3.6279  -3.1122  -2.7690  -2.5892  -2.3980
    -2.3405  -2.1322  -2.0708  -1.7885  -1.4044  -1.2197  -1.2098  -1.0824
    -1.0317  -0.8932  -0.7950  -0.7519  -0.7158  -0.6050  -0.4830  -0.3372
    -0.0941   0.3454   0.4493   0.5740   0.9663   1.0848   1.4682   1.8408
     2.3012   3.9363   4.5979   4.8342   4.9062   5.1213   5.2609   5.4310
     5.4557   5.6449   5.7538   6.3710   6.8329   7.1523

          k = 0.1250-0.2479 0.0000 ( 41706 PWs)   bands (ev):

   -47.8802 -47.8252 -47.7836 -47.7658 -47.7611 -47.7113 -47.6898 -47.6771
   -47.6641 -47.6503 -47.6383 -47.6353 -47.5603 -47.5234 -47.4486 -47.4386
   -47.3886 -47.3809 -18.9943 -18.7845 -18.7309 -18.5210 -18.4660 -18.3038
   -18.1006 -18.0229 -17.9629 -17.9591 -17.5683 -16.6318 -16.3730  -8.6909
    -8.2172  -8.1128  -7.9711  -7.8400  -7.5550  -7.0275  -6.8194  -6.5127
    -6.5018  -6.4478  -6.4300  -6.2471  -6.1198  -6.0226  -5.7273  -5.5640
    -5.4941  -5.4147  -5.2408  -4.9386  -4.8740  -4.8676  -4.8614  -4.7706
    -4.7090  -4.0134  -3.9655  -3.6773  -3.0695  -2.6189  -2.4119  -2.0910
    -2.0810  -1.9113  -1.7882  -1.5703  -1.2387  -1.1910  -1.1693  -1.0579
    -1.0378  -0.9864  -0.7173  -0.5906  -0.3230  -0.2226  -0.1019  -0.0059
     0.0486   0.3653   0.4127   0.5804   0.7003   1.0561   1.2914   1.4603
     2.4133   4.4677   4.5687   4.7190   4.7963   4.9052   5.1581   5.4374
     5.6725   5.7842   5.8567   6.2072   6.8196   7.5872

          k = 0.2500 0.0000 0.0000 ( 41623 PWs)   bands (ev):

   -47.8777 -47.8230 -47.8115 -47.7810 -47.7599 -47.7448 -47.7236 -47.7117
   -47.7015 -47.6960 -47.6358 -47.6296 -47.5688 -47.5539 -47.4424 -47.4325
   -47.3825 -47.3748 -18.8695 -18.8145 -18.7505 -18.4754 -18.2532 -18.1584
   -17.8376 -17.8048 -17.7987 -17.7291 -17.5681 -16.8054 -16.5158  -8.3755
    -8.2479  -8.1709  -7.7684  -7.7054  -7.5489  -7.4388  -7.2891  -7.0145
    -6.9951  -6.9013  -6.7860  -6.1397  -5.9141  -5.6837  -5.2834  -5.1249
    -5.0138  -4.8464  -4.7428  -4.6211  -4.5293  -4.4953  -4.4629  -4.1495
    -3.8764  -3.7854  -3.7653  -3.4767  -3.3432  -3.1736  -3.1192  -2.4426
    -2.3760  -2.2022  -2.1373  -2.0205  -1.6391  -1.5604  -1.4992  -1.2834
    -1.1237  -1.1037  -0.9473  -0.5394  -0.4668  -0.1935   0.0219   0.1563
     0.3571   0.4846   0.6137   0.6692   0.8529   1.0596   1.3376   1.6231
     2.2550   3.8999   4.2458   4.4664   4.6942   4.8345   4.8660   4.9377
     4.9397   5.0127   5.6752   6.1522   7.2176   7.8170

          k = 0.2500 0.1240 0.0000 ( 41653 PWs)   bands (ev):

   -47.8777 -47.8232 -47.8104 -47.7814 -47.7601 -47.7436 -47.7226 -47.7109
   -47.7015 -47.6961 -47.6358 -47.6301 -47.5684 -47.5534 -47.4426 -47.4320
   -47.3827 -47.3742 -18.7748 -18.6980 -18.6272 -18.4698 -18.2482 -18.1831
   -17.9795 -17.9358 -17.8938 -17.7847 -17.5687 -16.8057 -16.5140  -8.1031
    -7.9407  -7.8773  -7.7038  -7.5795  -7.4780  -7.4350  -7.2635  -7.2020
    -7.1238  -6.9658  -6.5647  -5.9172  -5.8062  -5.6562  -5.3628  -5.3347
    -5.2361  -5.0172  -4.9057  -4.8444  -4.6509  -4.5111  -4.4142  -4.2941
    -4.0339  -4.0050  -3.9485  -3.7431  -3.4413  -3.0140  -2.9472  -2.8078
    -2.6835  -2.4004  -2.3168  -1.8912  -1.4456  -1.2456  -1.0663  -0.9955
    -0.8924  -0.8256  -0.8052  -0.6926  -0.5722  -0.2801   0.1220   0.2116
     0.3587   0.4747   0.5329   0.8315   0.8515   0.9909   1.2121   1.4745
     2.3519   4.0291   4.1700   4.2034   4.2462   4.3031   4.9470   4.9633
     5.2891   5.5088   5.8278   6.2796   7.2731   8.0098

          k = 0.2500-0.2479 0.0000 ( 41680 PWs)   bands (ev):

   -47.8778 -47.8233 -47.8094 -47.7819 -47.7603 -47.7424 -47.7215 -47.7101
   -47.7015 -47.6961 -47.6358 -47.6305 -47.5679 -47.5530 -47.4427 -47.4314
   -47.3829 -47.3736 -18.6280 -18.4983 -18.4427 -18.3592 -18.3317 -18.2799
   -18.1906 -18.1331 -18.0487 -17.7821 -17.5705 -16.8060 -16.5122  -7.9202
    -7.8748  -7.7251  -7.6703  -7.5787  -7.3760  -7.2675  -7.0166  -6.6220
    -6.6094  -6.5075  -6.4016  -6.3697  -6.2393  -6.0542  -5.9582  -5.5829
    -5.5229  -5.3208  -4.9143  -4.7775  -4.6802  -4.6663  -4.4718  -4.3017
    -4.1509  -4.1193  -4.0997  -4.0560  -3.2641  -3.0000  -2.9346  -2.7810
    -2.6711  -2.5016  -2.2661  -1.7548  -1.4150  -1.1837  -1.1137  -1.0032
    -0.9730  -0.7161  -0.7108  -0.4643  -0.3216  -0.3112   0.2300   0.3321
     0.3650   0.5102   0.5141   0.8809   0.9205   1.0690   1.1853   1.2123
     2.4305   3.7559   3.7839   3.8197   4.2279   4.2491   4.9565   5.2837
     5.3093   5.9649   5.9907   6.2882   7.3668   8.3757

          k = 0.3750 0.0000 0.0000 ( 41645 PWs)   bands (ev):

   -47.8741 -47.8478 -47.8197 -47.7804 -47.7773 -47.7601 -47.7556 -47.7490
   -47.7342 -47.6979 -47.6329 -47.6257 -47.6030 -47.5500 -47.4365 -47.4287
   -47.3768 -47.3708 -18.5047 -18.4701 -18.3696 -18.3475 -18.2101 -18.1527
   -18.1261 -18.0767 -18.0146 -17.7277 -17.4878 -16.7589 -16.4699  -8.1829
    -8.1089  -8.0042  -7.6544  -7.4766  -7.3058  -7.1711  -7.0927  -7.0253
    -6.8342  -6.5336  -6.2762  -6.2466  -5.9123  -5.7779  -5.6265  -5.4195
    -5.3518  -4.9880  -4.7073  -4.5974  -4.3145  -4.2367  -4.1409  -4.0956
    -4.0661  -4.0146  -3.8360  -3.6743  -3.5189  -3.2634  -2.8061  -2.3874
    -2.2296  -2.1428  -1.8976  -1.8476  -1.8458  -1.7751  -1.7751  -1.5547
    -1.4322  -1.1229  -1.0658  -0.5020  -0.4470  -0.4433   0.1083   0.1582
     0.1993   0.4506   0.4828   0.8543   0.8666   1.1340   1.4062   1.6222
     2.0986   3.5685   3.8959   4.3044   4.3131   4.3870   4.4844   4.6540
     4.9397   5.1434   5.6972   5.8411   8.0251   8.9456

          k = 0.3750 0.1240 0.0000 ( 41549 PWs)   bands (ev):

   -47.8747 -47.8463 -47.8210 -47.7806 -47.7781 -47.7574 -47.7555 -47.7446
   -47.7332 -47.6979 -47.6328 -47.6257 -47.6020 -47.5477 -47.4365 -47.4262
   -47.3767 -47.3684 -18.5912 -18.5852 -18.5211 -18.4232 -18.2485 -18.1688
   -17.9472 -17.9055 -17.8724 -17.7282 -17.4884 -16.7529 -16.4632  -8.3707
    -8.2349  -8.1847  -8.0855  -7.9392  -7.6639  -6.9675  -6.8872  -6.7924
    -6.5760  -6.4649  -6.0317  -5.9218  -5.5758  -5.4170  -5.2695  -5.1264
    -5.0913  -4.8815  -4.7361  -4.5821  -4.4927  -4.3977  -4.3122  -4.2163
    -4.1498  -4.0915  -3.7483  -3.6250  -3.4817  -3.1474  -2.7522  -2.6804
    -2.3599  -2.2915  -2.2559  -2.0637  -1.6513  -1.5581  -1.5068  -1.4826
    -1.3979  -1.2526  -1.1601  -0.9445  -0.7296  -0.5437  -0.3911  -0.3466
     0.1531   0.4099   1.0821   1.0963   1.1514   1.2926   1.3878   1.5284
     2.1719   3.4977   3.5800   3.6040   3.6461   3.9349   4.4911   5.3507
     5.6324   5.7845   5.9613   6.0407   8.1125   9.1179

          k = 0.3750-0.2479 0.0000 ( 41514 PWs)   bands (ev):

   -47.8752 -47.8448 -47.8221 -47.7832 -47.7758 -47.7560 -47.7542 -47.7409
   -47.7323 -47.6980 -47.6326 -47.6258 -47.6011 -47.5454 -47.4365 -47.4238
   -47.3767 -47.3661 -18.6798 -18.6762 -18.6142 -18.4391 -18.2527 -18.1724
   -17.8395 -17.8052 -17.7755 -17.7287 -17.4889 -16.7466 -16.4564  -8.6100
    -8.4168  -8.3501  -8.2520  -8.2106  -7.8149  -6.6518  -6.5792  -6.5080
    -6.4886  -6.4207  -5.9663  -5.6623  -5.5194  -5.3440  -5.2608  -5.0325
    -5.0247  -4.8357  -4.7623  -4.7156  -4.5225  -4.4856  -3.9400  -3.8583
    -3.7933  -3.7447  -3.5749  -3.5259  -3.3705  -3.2500  -3.1956  -3.1202
    -2.7863  -2.5470  -2.3463  -1.9853  -1.9410  -1.5884  -1.4727  -1.4320
    -1.3123  -1.2913  -1.2636  -1.2139  -0.8964  -0.8151  -0.4623  -0.3200
     0.0434   0.3375   1.0844   1.1140   1.4249   1.4589   1.5554   1.5559
     2.2411   3.0883   3.1338   3.1459   3.6386   3.9572   4.4919   5.6471
     5.7738   6.1238   6.3026   6.4199   8.2043   9.4210

          k =-0.5000 0.0000 0.0000 ( 41440 PWs)   bands (ev):

   -47.8722 -47.8597 -47.8178 -47.7920 -47.7753 -47.7723 -47.7615 -47.7535
   -47.7478 -47.6958 -47.6332 -47.6240 -47.6126 -47.5484 -47.4340 -47.4270
   -47.3742 -47.3690 -18.5191 -18.2996 -18.2799 -18.2710 -18.2390 -18.1888
   -18.1864 -18.1265 -18.0386 -17.7707 -17.4391 -16.6616 -16.3941  -8.5221
    -8.4196  -8.1950  -7.7806  -7.7137  -7.4638  -6.8720  -6.7347  -6.5528
    -6.5254  -6.4539  -6.4191  -5.9927  -5.8336  -5.6588  -5.4873  -5.2884
    -5.0938  -5.0299  -4.6847  -4.5862  -4.3431  -4.2113  -4.1155  -4.0323
    -4.0063  -4.0024  -3.9888  -3.8418  -2.8234  -2.5196  -2.2763  -2.2250
    -2.1908  -2.1787  -2.0871  -2.0273  -1.9374  -1.8046  -1.7796  -1.7769
    -1.7668  -1.6541  -1.6019  -1.1216  -0.9712  -0.1721  -0.1150   0.0770
     0.2471   0.3713   0.4469   0.6804   1.1132   1.2619   1.6200   1.8440
     1.9667   3.3488   3.8367   4.1075   4.1335   4.1986   4.3814   4.7003
     5.0071   5.1531   5.6340   5.8868   8.6933   9.8099

          k =-0.5000 0.1240 0.0000 ( 41518 PWs)   bands (ev):

   -47.8733 -47.8581 -47.8205 -47.7892 -47.7824 -47.7679 -47.7534 -47.7528
   -47.7464 -47.6958 -47.6327 -47.6239 -47.6116 -47.5453 -47.4339 -47.4238
   -47.3741 -47.3660 -18.6271 -18.6197 -18.5629 -18.5222 -18.2770 -18.0371
   -17.8379 -17.8079 -17.7953 -17.7729 -17.4387 -16.6537 -16.3857  -8.6841
    -8.5721  -8.4628  -8.4185  -8.2790  -7.8802  -6.7005  -6.5573  -6.4173
    -6.2920  -6.1291  -5.8740  -5.7509  -5.4965  -5.4207  -5.3120  -5.0647
    -4.9536  -4.7728  -4.4964  -4.3560  -4.1864  -4.1656  -4.0607  -4.0604
    -4.0237  -3.9390  -3.8101  -3.6398  -2.8038  -2.6647  -2.5449  -2.2992
    -2.1918  -2.1884  -2.1794  -2.1023  -2.0432  -2.0238  -1.9440  -1.7927
    -1.7729  -1.7362  -1.6247  -1.2122  -1.1666  -1.0718  -0.8539  -0.5040
    -0.1916   0.3607   1.2338   1.2701   1.3620   1.4726   1.5635   1.7512
     2.0419   3.3070   3.3500   3.3794   3.3884   3.8681   4.3833   5.6795
     5.7236   5.8786   5.9450   6.0036   8.8313   9.8250

          k =-0.5000-0.2479 0.0000 ( 41524 PWs)   bands (ev):

   -47.8743 -47.8566 -47.8227 -47.7866 -47.7864 -47.7640 -47.7534 -47.7470
   -47.7449 -47.6958 -47.6324 -47.6238 -47.6105 -47.5422 -47.4338 -47.4206
   -47.3740 -47.3629 -18.7808 -18.7725 -18.7111 -18.5255 -18.2743 -18.0355
   -17.7757 -17.6643 -17.6315 -17.6289 -17.4382 -16.6456 -16.3772  -8.9934
    -8.7990  -8.7071  -8.6207  -8.5006  -8.0265  -6.6386  -6.5422  -6.4040
    -6.1891  -6.1558  -5.8346  -5.7569  -5.4581  -4.9770  -4.7426  -4.7111
    -4.5692  -4.5018  -4.2387  -4.0993  -4.0350  -3.9996  -3.9198  -3.6690
    -3.5980  -3.5693  -3.3327  -3.3244  -3.2502  -3.2349  -2.9802  -2.8637
    -2.6486  -2.3756  -2.2286  -2.1858  -2.1837  -2.0905  -1.9987  -1.8245
    -1.7992  -1.7885  -1.7466  -1.5565  -1.4217  -1.2369  -1.1822  -1.1017
    -0.2781   0.3699   1.2432   1.3190   1.6802   1.6829   1.7532   1.7570
     2.0907   2.8820   2.9313   2.9412   3.4206   3.8971   4.3848   5.8066
     5.9977   6.2172   6.3936   6.5397   8.9730   9.8290

     the Fermi energy is     1.0767 ev

!    total energy              =   -1630.49517462 Ry
     estimated scf accuracy    <       0.00000041 Ry
     smearing contrib. (-TS)   =      -0.00176298 Ry
     internal energy E=F+TS    =   -1630.49341163 Ry

     The total energy is F=E-TS. E is the sum of the following terms:
     one-electron contribution =  -15355.52773468 Ry
     hartree contribution      =    7725.15542411 Ry
     xc contribution           =    -398.61163986 Ry
     ewald contribution        =    6520.21152001 Ry
     Hubbard energy            =       2.01697253 Ry
     one-center paw contrib.   =    -123.73795375 Ry

     convergence has been achieved in  22 iterations

     negative rho (up, down):  1.931E+00 0.000E+00
     force_hub    :      0.91s CPU      0.92s WALL (       1 calls)
     dndtau       :      0.40s CPU      0.41s WALL (     240 calls)
     dprojdtau    :      0.04s CPU      0.04s WALL (    1440 calls)
     matel_dSdtau :      0.35s CPU      0.36s WALL (     240 calls)

     Forces acting on atoms (cartesian axes, Ry/au):

     atom    1 type  2   force =    -0.00004691    0.00000000    0.04008245
     atom    2 type  2   force =    -0.00003710    0.00000000   -0.03246811
     atom    3 type  2   force =    -0.00058866    0.00000000   -0.00296112
     atom    4 type  2   force =     0.00046617    0.00000000    0.00208984
     atom    5 type  2   force =    -0.00268739    0.00000000   -0.01335330
     atom    6 type  2   force =     0.00099431    0.00000000   -0.01639976
     atom    7 type  3   force =     0.00011813    0.00000000   -0.00602531
     atom    8 type  3   force =     0.00002718    0.00000000    0.03433903
     atom    9 type  3   force =     0.00000947    0.00496854   -0.01868331
     atom   10 type  3   force =     0.00000947   -0.00496854   -0.01868331
     atom   11 type  3   force =     0.00158283    0.00000000    0.00060299
     atom   12 type  3   force =    -0.00181309    0.00000000    0.00824276
     atom   13 type  3   force =    -0.00045792   -0.00581529    0.00211335
     atom   14 type  3   force =    -0.00045792    0.00581529    0.00211335
     atom   15 type  3   force =     0.00076564    0.00000000    0.00122909
     atom   16 type  3   force =     0.00055690    0.00000000    0.00798794
     atom   17 type  3   force =    -0.00021789   -0.01100547    0.00523435
     atom   18 type  3   force =    -0.00021789    0.01100547    0.00523435
     atom   19 type  3   force =     0.00007129    0.00000000   -0.00034478
     atom   20 type  1   force =     0.00192339    0.00000000   -0.00035050

     Total force =     0.030271     Total SCF correction =     0.000970

     Writing all to output data dir ./tmp_s0_OH__u750/s0_OH__u750.save/ :
     XML data file, charge density, pseudopotentials, collected wavefunctions

     init_run     :      4.86s CPU      4.97s WALL (       1 calls)
     electrons    :     88.26s CPU     95.16s WALL (       1 calls)
     forces       :      1.39s CPU      1.43s WALL (       1 calls)

     Called by init_run:
     wfcinit      :      0.74s CPU      0.77s WALL (       1 calls)
     potinit      :      0.86s CPU      0.88s WALL (       1 calls)
     hinit0       :      0.47s CPU      0.49s WALL (       1 calls)

     Called by electrons:
     c_bands      :     66.77s CPU     71.30s WALL (      22 calls)
     sum_band     :     11.05s CPU     12.19s WALL (      22 calls)
     v_of_rho     :      1.72s CPU      1.87s WALL (      23 calls)
     newd         :      1.84s CPU      2.02s WALL (      23 calls)
     PAW_pot      :      2.30s CPU      2.58s WALL (      23 calls)
     mix_rho      :      3.39s CPU      3.77s WALL (      22 calls)

     Called by c_bands:
     init_us_2    :      0.72s CPU      0.79s WALL (     192 calls)
     cegterg      :     43.61s CPU     47.60s WALL (      88 calls)

     Called by *egterg:
     cdiaghg      :      5.49s CPU      6.05s WALL (     605 calls)
     h_psi        :     27.89s CPU     30.40s WALL (     609 calls)
     s_psi        :      1.60s CPU      1.80s WALL (     617 calls)
     g_psi        :      0.10s CPU      0.13s WALL (     517 calls)

     Called by h_psi:
     h_psi:calbec :      2.90s CPU      3.14s WALL (     609 calls)
     vloc_psi     :     21.61s CPU     23.56s WALL (     609 calls)
                                        0.00s GPU  (     609 calls)
     add_vuspsi   :      1.56s CPU      1.80s WALL (     609 calls)
     vhpsi        :      1.71s CPU      1.77s WALL (     609 calls)

     General routines
     calbec       :      6.39s CPU      6.83s WALL (    2382 calls)
     fft          :      1.57s CPU      1.64s WALL (     308 calls)
     ffts         :      2.60s CPU      2.80s WALL (    2628 calls)
     fftw         :     24.91s CPU     27.16s WALL (   47888 calls)
     interpolate  :      0.67s CPU      0.68s WALL (      23 calls)

     Parallel routines

     Hubbard U routines
     new_ns       :      0.80s CPU      0.85s WALL (      22 calls)
     vhpsi        :      1.71s CPU      1.77s WALL (     609 calls)
     force_hub    :      0.91s CPU      0.92s WALL (       1 calls)

     PWSCF        :   1m35.11s CPU   1m46.30s WALL


   This run was terminated on:   9:55:23  28Aug2026            

=------------------------------------------------------------------------------=
   JOB DONE.
=------------------------------------------------------------------------------=
