
     Program PWSCF v.7.5 starts on 28Aug2026 at  8:40:33 

     This program is part of the open-source Quantum ESPRESSO suite
     for quantum simulation of materials; please cite
         "P. Giannozzi et al., J. Phys.:Condens. Matter 21 395502 (2009);
         "P. Giannozzi et al., J. Phys.:Condens. Matter 29 465901 (2017);
         "P. Giannozzi et al., J. Chem. Phys. 152 154105 (2020);
          URL http://www.quantum-espresso.org", 
     in publications or presentations arising from this work. More details at
     http://www.quantum-espresso.org/quote

     Parallel version (MPI & OpenMP), running on     128 processor cores
     Number of MPI processes:               128
     Threads/MPI process:                     1

     MPI processes distributed on     1 nodes
     224951 MiB available memory on the printing compute node when the environment starts

     Reading input from slab__u000.run.in

     Current dimensions of program PWSCF are:
     Max number of different atomic species (ntypx) = 10
     Max number of k-points (npk) =  40000
     Max angular momentum in pseudopotentials (lmaxx) =  4
     file O.pbe-n-kjpaw_psl.0.1.UPF: wavefunction(s)  2P renormalized

     K-points division:     npool     =       4
     R & G space division:  proc/nbgrp/npool/nimage =      32
     Subspace diagonalization in iterative solution of the eigenvalue problem:
     a serial algorithm will be used


     Parallelization info
     --------------------
     sticks:   dense  smooth     PW     G-vecs:    dense   smooth      PW
     Min         113      57     16                29407    10389    1566
     Max         114      58     17                29434    10403    1581
     Sum        3639    1825    519               941385   332621   50331

     Using Slab Decomposition



     bravais-lattice index     =            0
     lattice parameter (alat)  =       5.9602  a.u.
     unit-cell volume          =    3444.9838 (a.u.)^3
     number of atoms/cell      =           18
     number of atomic types    =            2
     number of electrons       =       162.00
     number of Kohn-Sham states=           97
     kinetic-energy cutoff     =      80.0000  Ry
     charge density cutoff     =     640.0000  Ry
     scf convergence threshold =      1.0E-06
     mixing beta               =       0.3000
     number of iterations used =            8  local-TF  mixing
     Exchange-correlation= SLA  PW   PBX  PBC
                           (   1   4   3   4   0   0   0)

     celldm(1)=   5.960196  celldm(2)=   0.000000  celldm(3)=   0.000000
     celldm(4)=   0.000000  celldm(5)=   0.000000  celldm(6)=   0.000000

     crystal axes: (cart. coord. in units of alat)
               a(1) = (   1.000000   0.000000   0.000000 )  
               a(2) = (   0.000000   2.016846   0.000000 )  
               a(3) = (   0.000000   0.000000   8.067384 )  

     reciprocal axes: (cart. coord. in units 2 pi/alat)
               b(1) = (  1.000000  0.000000  0.000000 )  
               b(2) = (  0.000000  0.495824  0.000000 )  
               b(3) = (  0.000000  0.000000  0.123956 )  


     PseudoPot. # 1 for Ir read from file:
     /anvil/projects/x-che260157/pseudo/Ir_pbe_v1.2.uspp.F.UPF
     MD5 check sum: 8836f839c3459d2b385c504ce6d91f2c
     Pseudo is Ultrasoft + core correction, Zval = 15.0
     Generated by new atomic code, or converted to UPF format
     Using radial grid of  983 points,  7 beta functions with: 
                l(1) =   0
                l(2) =   0
                l(3) =   1
                l(4) =   1
                l(5) =   1
                l(6) =   2
                l(7) =   2
     Q(r) pseudized with  8 coefficients,  rinner =    1.400   1.400   1.400
                                                       1.400   1.400

     PseudoPot. # 2 for O  read from file:
     /anvil/projects/x-che260157/pseudo/O.pbe-n-kjpaw_psl.0.1.UPF
     MD5 check sum: 0234752ac141de4415c5fc33072bef88
     Pseudo is Projector augmented-wave + core cor, Zval =  6.0
     Generated using "atomic" code by A. Dal Corso  v.5.0.99 svn rev. 10869
     Shape of augmentation charge: BESSEL
     Using radial grid of 1095 points,  4 beta functions with: 
                l(1) =   0
                l(2) =   0
                l(3) =   1
                l(4) =   1
     Q(r) pseudized with 0 coefficients 


     atomic species   valence    mass     pseudopotential
     Ir               15.00   192.21700     Ir( 1.00)
     O                 6.00    15.99900     O ( 1.00)

     No symmetry found



   Cartesian axes

     site n.     atom                  positions (alat units)
         1        Ir     tau(   1) = (   0.0000000   1.5126346   3.0252692  )
         2        Ir     tau(   2) = (   0.5000000   0.5042115   3.0252692  )
         3        Ir     tau(   3) = (  -0.0000000   0.5042115   4.0490144  )
         4        Ir     tau(   4) = (   0.4999999   1.5126345   4.0369655  )
         5        Ir     tau(   5) = (  -0.0000001   1.5126347   5.0521139  )
         6        Ir     tau(   6) = (   0.5000000   0.5042117   5.0842459  )
         7        O      tau(   7) = (   0.0000000   0.5042115   3.4185541  )
         8        O      tau(   8) = (   0.0000000   0.5042115   2.6319842  )
         9        O      tau(   9) = (   0.5000000   1.1193496   3.0252692  )
        10        O      tau(  10) = (   0.5000000   1.9059196   3.0252692  )
        11        O      tau(  11) = (  -0.0000001   1.5126339   4.4343023  )
        12        O      tau(  12) = (   0.0000000   1.5126346   3.6404072  )
        13        O      tau(  13) = (   0.5000000   0.1171043   4.0441494  )
        14        O      tau(  14) = (   0.5000000   0.8913186   4.0441490  )
        15        O      tau(  15) = (  -0.0000000   0.5042117   5.4603797  )
        16        O      tau(  16) = (  -0.0000000   0.5042116   4.6811465  )
        17        O      tau(  17) = (   0.5000000   1.1288945   5.0949094  )
        18        O      tau(  18) = (   0.5000000   1.8963749   5.0949092  )

     number of k points=    32  Marzari-Vanderbilt smearing, width (Ry)=  0.0100
                       cart. coord. in units 2pi/alat
        k(    1) = (   0.0000000   0.0000000   0.0000000), wk =   0.0625000
        k(    2) = (   0.0000000   0.1239559   0.0000000), wk =   0.0625000
        k(    3) = (   0.0000000  -0.2479118   0.0000000), wk =   0.0625000
        k(    4) = (   0.0000000  -0.1239559   0.0000000), wk =   0.0625000
        k(    5) = (   0.1250000   0.0000000   0.0000000), wk =   0.0625000
        k(    6) = (   0.1250000   0.1239559   0.0000000), wk =   0.0625000
        k(    7) = (   0.1250000  -0.2479118   0.0000000), wk =   0.0625000
        k(    8) = (   0.1250000  -0.1239559   0.0000000), wk =   0.0625000
        k(    9) = (   0.2500000   0.0000000   0.0000000), wk =   0.0625000
        k(   10) = (   0.2500000   0.1239559   0.0000000), wk =   0.0625000
        k(   11) = (   0.2500000  -0.2479118   0.0000000), wk =   0.0625000
        k(   12) = (   0.2500000  -0.1239559   0.0000000), wk =   0.0625000
        k(   13) = (   0.3750000   0.0000000   0.0000000), wk =   0.0625000
        k(   14) = (   0.3750000   0.1239559   0.0000000), wk =   0.0625000
        k(   15) = (   0.3750000  -0.2479118   0.0000000), wk =   0.0625000
        k(   16) = (   0.3750000  -0.1239559   0.0000000), wk =   0.0625000
        k(   17) = (  -0.5000000   0.0000000   0.0000000), wk =   0.0625000
        k(   18) = (  -0.5000000   0.1239559   0.0000000), wk =   0.0625000
        k(   19) = (  -0.5000000  -0.2479118   0.0000000), wk =   0.0625000
        k(   20) = (  -0.5000000  -0.1239559   0.0000000), wk =   0.0625000
        k(   21) = (  -0.3750000   0.0000000   0.0000000), wk =   0.0625000
        k(   22) = (  -0.3750000   0.1239559   0.0000000), wk =   0.0625000
        k(   23) = (  -0.3750000  -0.2479118   0.0000000), wk =   0.0625000
        k(   24) = (  -0.3750000  -0.1239559   0.0000000), wk =   0.0625000
        k(   25) = (  -0.2500000   0.0000000   0.0000000), wk =   0.0625000
        k(   26) = (  -0.2500000   0.1239559   0.0000000), wk =   0.0625000
        k(   27) = (  -0.2500000  -0.2479118   0.0000000), wk =   0.0625000
        k(   28) = (  -0.2500000  -0.1239559   0.0000000), wk =   0.0625000
        k(   29) = (  -0.1250000   0.0000000   0.0000000), wk =   0.0625000
        k(   30) = (  -0.1250000   0.1239559   0.0000000), wk =   0.0625000
        k(   31) = (  -0.1250000  -0.2479118   0.0000000), wk =   0.0625000
        k(   32) = (  -0.1250000  -0.1239559   0.0000000), wk =   0.0625000

     Dense  grid:   941385 G-vectors     FFT dimensions: (  48, 100, 400)

     Smooth grid:   332621 G-vectors     FFT dimensions: (  36,  72, 288)

     Estimated max dynamical RAM per process >      76.10 MB

     Estimated total dynamical RAM >       8.84 GB

     Initial potential from superposition of free atoms

     starting charge     158.9998, renormalised to     162.0000

     negative rho (up, down):  2.226E+00 0.000E+00
     Starting wfcs are  120 randomized atomic wfcs
     Checking if some PAW data can be deallocated... 

     total cpu time spent up to now is        3.3 secs

     per-process dynamical memory:   102.4 Mb

     Self-consistent Calculation

     iteration #  1     ecut=    80.00 Ry     beta= 0.30
     Davidson diagonalization with overlap
     ethr =  1.00E-02,  avg # of iterations =  3.1

     negative rho (up, down):  2.093E+00 0.000E+00

     total cpu time spent up to now is        8.9 secs

     total energy              =   -1590.60549534 Ry
     estimated scf accuracy    <      13.99362055 Ry

     iteration #  2     ecut=    80.00 Ry     beta= 0.30
     Davidson diagonalization with overlap
     ethr =  8.64E-03,  avg # of iterations =  1.0

     negative rho (up, down):  1.916E+00 0.000E+00

     total cpu time spent up to now is       12.2 secs

     total energy              =   -1589.02637064 Ry
     estimated scf accuracy    <       5.46750397 Ry

     iteration #  3     ecut=    80.00 Ry     beta= 0.30
     Davidson diagonalization with overlap
     ethr =  3.38E-03,  avg # of iterations =  2.2

     negative rho (up, down):  1.920E+00 0.000E+00

     total cpu time spent up to now is       16.6 secs

     total energy              =   -1589.79672119 Ry
     estimated scf accuracy    <       0.40652166 Ry

     iteration #  4     ecut=    80.00 Ry     beta= 0.30
     Davidson diagonalization with overlap
     ethr =  2.51E-04,  avg # of iterations =  8.4

     negative rho (up, down):  1.941E+00 0.000E+00

     total cpu time spent up to now is       22.1 secs

     total energy              =   -1589.74598867 Ry
     estimated scf accuracy    <       0.20364533 Ry

     iteration #  5     ecut=    80.00 Ry     beta= 0.30
     Davidson diagonalization with overlap
     ethr =  1.26E-04,  avg # of iterations =  2.1

     negative rho (up, down):  1.955E+00 0.000E+00

     total cpu time spent up to now is       26.2 secs

     total energy              =   -1589.74865080 Ry
     estimated scf accuracy    <       0.05982744 Ry

     iteration #  6     ecut=    80.00 Ry     beta= 0.30
     Davidson diagonalization with overlap
     ethr =  3.69E-05,  avg # of iterations =  7.6

     negative rho (up, down):  1.971E+00 0.000E+00

     total cpu time spent up to now is       31.2 secs

     total energy              =   -1589.75427096 Ry
     estimated scf accuracy    <       0.01526069 Ry

     iteration #  7     ecut=    80.00 Ry     beta= 0.30
     Davidson diagonalization with overlap
     ethr =  9.42E-06,  avg # of iterations =  4.8

     negative rho (up, down):  1.987E+00 0.000E+00

     total cpu time spent up to now is       35.3 secs

     total energy              =   -1589.75323337 Ry
     estimated scf accuracy    <       0.01199191 Ry

     iteration #  8     ecut=    80.00 Ry     beta= 0.30
     Davidson diagonalization with overlap
     ethr =  7.40E-06,  avg # of iterations =  5.7

     negative rho (up, down):  1.999E+00 0.000E+00

     total cpu time spent up to now is       40.1 secs

     total energy              =   -1589.75198979 Ry
     estimated scf accuracy    <       0.00884122 Ry

     iteration #  9     ecut=    80.00 Ry     beta= 0.30
     Davidson diagonalization with overlap
     ethr =  5.46E-06,  avg # of iterations =  6.5

     negative rho (up, down):  1.988E+00 0.000E+00

     total cpu time spent up to now is       44.5 secs

     total energy              =   -1589.75103668 Ry
     estimated scf accuracy    <       0.00541745 Ry

     iteration # 10     ecut=    80.00 Ry     beta= 0.30
     Davidson diagonalization with overlap
     c_bands:  3 eigenvalues not converged
     ethr =  3.34E-06,  avg # of iterations =  7.2

     negative rho (up, down):  1.961E+00 0.000E+00

     total cpu time spent up to now is       49.1 secs

     total energy              =   -1589.74994559 Ry
     estimated scf accuracy    <       0.00348640 Ry

     iteration # 11     ecut=    80.00 Ry     beta= 0.30
     Davidson diagonalization with overlap
     c_bands:  1 eigenvalues not converged
     ethr =  2.15E-06,  avg # of iterations = 11.4

     negative rho (up, down):  1.946E+00 0.000E+00

     total cpu time spent up to now is       54.2 secs

     total energy              =   -1589.74937549 Ry
     estimated scf accuracy    <       0.00192992 Ry

     iteration # 12     ecut=    80.00 Ry     beta= 0.30
     Davidson diagonalization with overlap
     c_bands:  2 eigenvalues not converged
     ethr =  1.19E-06,  avg # of iterations = 11.7

     negative rho (up, down):  1.936E+00 0.000E+00

     total cpu time spent up to now is       59.8 secs

     total energy              =   -1589.74875892 Ry
     estimated scf accuracy    <       0.00102321 Ry

     iteration # 13     ecut=    80.00 Ry     beta= 0.30
     Davidson diagonalization with overlap
     c_bands:  1 eigenvalues not converged
     c_bands:  1 eigenvalues not converged
     ethr =  6.32E-07,  avg # of iterations = 12.2

     negative rho (up, down):  1.930E+00 0.000E+00

     total cpu time spent up to now is       65.1 secs

     total energy              =   -1589.74830670 Ry
     estimated scf accuracy    <       0.00047164 Ry

     iteration # 14     ecut=    80.00 Ry     beta= 0.30
     Davidson diagonalization with overlap
     c_bands:  1 eigenvalues not converged
     ethr =  2.91E-07,  avg # of iterations =  8.7

     negative rho (up, down):  1.926E+00 0.000E+00

     total cpu time spent up to now is       69.8 secs

     total energy              =   -1589.74827407 Ry
     estimated scf accuracy    <       0.00012383 Ry

     iteration # 15     ecut=    80.00 Ry     beta= 0.30
     Davidson diagonalization with overlap
     ethr =  7.64E-08,  avg # of iterations =  4.7

     negative rho (up, down):  1.921E+00 0.000E+00

     total cpu time spent up to now is       73.9 secs

     total energy              =   -1589.74824876 Ry
     estimated scf accuracy    <       0.00005972 Ry

     iteration # 16     ecut=    80.00 Ry     beta= 0.30
     Davidson diagonalization with overlap
     c_bands:  1 eigenvalues not converged
     ethr =  3.69E-08,  avg # of iterations =  5.6

     negative rho (up, down):  1.919E+00 0.000E+00

     total cpu time spent up to now is       78.1 secs

     total energy              =   -1589.74823000 Ry
     estimated scf accuracy    <       0.00001054 Ry

     iteration # 17     ecut=    80.00 Ry     beta= 0.30
     Davidson diagonalization with overlap
     ethr =  6.50E-09,  avg # of iterations =  3.5

     negative rho (up, down):  1.918E+00 0.000E+00

     total cpu time spent up to now is       82.0 secs

     total energy              =   -1589.74822735 Ry
     estimated scf accuracy    <       0.00000202 Ry

     iteration # 18     ecut=    80.00 Ry     beta= 0.30
     Davidson diagonalization with overlap
     ethr =  1.25E-09,  avg # of iterations =  3.3

     negative rho (up, down):  1.917E+00 0.000E+00

     total cpu time spent up to now is       86.5 secs

     End of self-consistent calculation

          k = 0.0000 0.0000 0.0000 ( 41611 PWs)   bands (ev):

   -48.8991 -48.7912 -48.7840 -48.7558 -48.7308 -48.6919 -48.6533 -48.5660
   -48.5285 -48.5014 -48.4678 -48.4142 -48.4013 -48.3955 -48.3878 -48.2811
   -48.1848 -48.1408 -19.5063 -19.1406 -19.0437 -18.7657 -18.0674 -17.9250
   -17.8617 -17.5610 -17.4875 -17.4172 -16.2661 -16.0715  -8.2272  -8.1662
    -8.0506  -7.6924  -6.7709  -6.5436  -6.4160  -6.3302  -6.3008  -5.9793
    -5.7142  -5.6629  -5.5517  -5.1488  -4.6855  -4.1463  -3.6914  -3.5053
    -3.4524  -3.2666  -3.0975  -3.0902  -3.0475  -2.9052  -2.8056  -2.7734
    -2.6355  -2.4713  -2.2423  -2.1549  -1.7878  -1.5699  -1.2671  -1.1215
    -1.0364  -1.0095  -0.8730  -0.8190  -0.7782  -0.7381  -0.7269  -0.6662
    -0.6023  -0.5908  -0.0162   0.0140   0.0938   0.6474   0.8782   0.8786
     1.4837   1.6116   1.8756   2.3286   2.3650   2.6831   3.4023   4.2175
     4.3344   4.9846   5.3241   5.6940   5.7186   5.7889   5.8797   6.0817
     6.3096

          k = 0.0000 0.1240 0.0000 ( 41688 PWs)   bands (ev):

   -48.8988 -48.7900 -48.7839 -48.7554 -48.7307 -48.6919 -48.6534 -48.5673
   -48.5284 -48.5013 -48.4677 -48.4143 -48.4013 -48.3955 -48.3879 -48.2811
   -48.1853 -48.1413 -19.3836 -18.9941 -18.9159 -18.7872 -18.1262 -17.9964
   -17.9095 -17.7029 -17.6450 -17.5307 -16.2609 -16.0684  -7.7485  -7.6730
    -7.6119  -7.5330  -6.7698  -6.4655  -6.4144  -6.2527  -6.2105  -5.8764
    -5.6624  -5.6191  -5.5515  -4.9908  -4.6936  -4.3706  -4.2195  -4.1170
    -3.9869  -3.7518  -3.7246  -3.5180  -3.3583  -3.3087  -3.1782  -2.9626
    -2.4747  -2.3571  -2.3145  -2.2615  -1.9748  -1.6818  -1.3261  -1.2126
    -1.1495  -0.9797  -0.7909  -0.6608  -0.3875  -0.2670  -0.2252  -0.1893
    -0.1300  -0.0851   0.0458   0.1578   0.2323   0.6466   0.8779   0.9637
     1.5386   1.5603   1.6861   2.1297   2.2690   2.6860   3.8462   4.6818
     4.8818   4.9852   5.4057   5.4183   5.5611   5.6144   5.7952   6.0837
     6.3517

          k = 0.0000-0.2479 0.0000 ( 41774 PWs)   bands (ev):

   -48.8984 -48.7887 -48.7839 -48.7549 -48.7306 -48.6919 -48.6535 -48.5686
   -48.5283 -48.5013 -48.4677 -48.4144 -48.4014 -48.3955 -48.3879 -48.2811
   -48.1857 -48.1418 -19.1910 -18.9396 -18.7572 -18.6047 -18.3263 -18.2178
   -17.9107 -17.8874 -17.7644 -17.5986 -16.2568 -16.0660  -7.7028  -6.8756
    -6.7671  -6.7057  -6.6908  -6.4172  -6.3722  -6.1656  -6.1072  -5.8270
    -5.6609  -5.5512  -5.3318  -5.2344  -5.1369  -5.0786  -5.0540  -4.7077
    -4.5772  -4.2504  -3.7702  -3.7392  -3.7286  -3.6306  -3.4178  -3.3268
    -2.4642  -2.3974  -2.0718  -2.0223  -1.7573  -1.7202  -1.4788  -1.4067
    -1.1089  -1.0967  -0.7036  -0.6609  -0.1196  -0.1157   0.0051   0.0696
     0.2241   0.2979   0.4286   0.5481   0.5841   0.7183   0.8462   0.9589
     1.2750   1.4121   1.7827   1.9192   2.0526   2.7932   4.1381   4.9874
     5.0876   5.0906   5.1840   5.3307   5.3786   5.7948   5.8890   6.0842
     6.5042

          k = 0.0000-0.1240 0.0000 ( 41688 PWs)   bands (ev):

   -48.8988 -48.7900 -48.7839 -48.7554 -48.7307 -48.6919 -48.6534 -48.5673
   -48.5284 -48.5013 -48.4677 -48.4143 -48.4013 -48.3955 -48.3879 -48.2811
   -48.1853 -48.1413 -19.3836 -18.9941 -18.9159 -18.7872 -18.1262 -17.9964
   -17.9095 -17.7029 -17.6450 -17.5307 -16.2609 -16.0684  -7.7485  -7.6730
    -7.6119  -7.5330  -6.7698  -6.4655  -6.4144  -6.2527  -6.2105  -5.8764
    -5.6624  -5.6191  -5.5515  -4.9908  -4.6936  -4.3706  -4.2195  -4.1170
    -3.9869  -3.7518  -3.7246  -3.5180  -3.3583  -3.3087  -3.1782  -2.9626
    -2.4747  -2.3571  -2.3145  -2.2615  -1.9748  -1.6818  -1.3261  -1.2126
    -1.1495  -0.9797  -0.7909  -0.6608  -0.3875  -0.2670  -0.2252  -0.1893
    -0.1300  -0.0851   0.0458   0.1578   0.2323   0.6466   0.8779   0.9637
     1.5386   1.5603   1.6861   2.1297   2.2690   2.6860   3.8462   4.6818
     4.8818   4.9852   5.4057   5.4183   5.5611   5.6144   5.7952   6.0837
     6.3517

          k = 0.1250 0.0000 0.0000 ( 41611 PWs)   bands (ev):

   -48.8980 -48.7898 -48.7829 -48.7546 -48.7474 -48.6894 -48.6696 -48.5639
   -48.5441 -48.5174 -48.4667 -48.4306 -48.4048 -48.3990 -48.3944 -48.2788
   -48.1824 -48.1384 -19.3667 -19.0186 -18.9229 -18.6628 -18.0000 -17.9925
   -17.7668 -17.6411 -17.5668 -17.5004 -16.3168 -16.1165  -8.0411  -7.9876
    -7.8694  -7.5042  -6.7300  -6.5121  -6.4493  -6.2848  -6.2465  -5.8140
    -5.7885  -5.3039  -5.1883  -4.9631  -4.5236  -4.4275  -4.0104  -3.7311
    -3.5991  -3.4985  -3.4569  -3.3864  -3.3063  -3.0987  -2.8924  -2.8164
    -2.6887  -2.5208  -2.4654  -2.2872  -2.1961  -2.1042  -1.9282  -1.4292
    -1.0077  -0.9110  -0.8901  -0.7035  -0.5986  -0.4921  -0.3949  -0.3905
    -0.2076  -0.0071   0.2381   0.2999   0.4259   0.7833   0.9941   1.2646
     1.3120   1.7136   1.8290   2.2063   2.3368   2.5147   3.6192   4.3405
     4.4374   4.8314   5.1353   5.3035   5.3537   5.5071   5.5444   5.6380
     6.5459

          k = 0.1250 0.1240 0.0000 ( 41692 PWs)   bands (ev):

   -48.8977 -48.7893 -48.7829 -48.7543 -48.7468 -48.6894 -48.6697 -48.5650
   -48.5441 -48.5174 -48.4667 -48.4307 -48.4048 -48.3991 -48.3944 -48.2788
   -48.1828 -48.1388 -19.2500 -18.8773 -18.7959 -18.6823 -18.0630 -18.0023
   -17.8994 -17.7710 -17.7033 -17.5774 -16.3126 -16.1139  -7.5694  -7.5038
    -7.4618  -7.3772  -6.7302  -6.4538  -6.4177  -6.1898  -6.1598  -5.9160
    -5.5089  -5.3025  -5.1842  -4.9291  -4.5368  -4.3624  -4.3016  -4.2422
    -4.0391  -3.9597  -3.8937  -3.8514  -3.7275  -3.6004  -3.3265  -3.2222
    -2.8356  -2.6031  -2.3484  -2.1861  -2.0839  -2.0507  -1.5699  -1.2054
    -1.1651  -1.0134  -0.8784  -0.4502  -0.2963  -0.2648  -0.0216  -0.0066
     0.0598   0.1602   0.2156   0.4748   0.6252   0.8660   1.0076   1.2413
     1.3823   1.4630   1.7889   2.0796   2.1629   2.6134   3.9769   4.5543
     4.6688   4.8611   4.9146   5.1532   5.2905   5.3373   5.5947   5.7862
     6.5729

          k = 0.1250-0.2479 0.0000 ( 41706 PWs)   bands (ev):

   -48.8975 -48.7888 -48.7829 -48.7540 -48.7461 -48.6894 -48.6699 -48.5660
   -48.5441 -48.5173 -48.4667 -48.4307 -48.4048 -48.3991 -48.3944 -48.2788
   -48.1832 -48.1392 -19.0691 -18.8096 -18.6375 -18.4907 -18.2869 -18.1723
   -17.9756 -17.9546 -17.7943 -17.6078 -16.3093 -16.1118  -7.5110  -6.7314
    -6.6457  -6.5015  -6.4875  -6.4563  -6.4264  -6.3172  -6.2611  -5.9326
    -5.3050  -5.1902  -5.0712  -5.0217  -4.9059  -4.8190  -4.8040  -4.7355
    -4.7017  -4.5102  -4.4319  -4.2769  -3.8184  -3.8088  -3.6907  -3.4701
    -2.8299  -2.6192  -2.1865  -2.0236  -1.8692  -1.7293  -1.6386  -1.2379
    -1.1121  -1.0279  -0.8816  -0.2492  -0.2357  -0.1736  -0.0399   0.0596
     0.2832   0.5372   0.6974   0.7173   0.8813   1.0117   1.0162   1.1670
     1.3222   1.4102   1.6405   1.7755   2.1589   2.7186   4.2534   4.4438
     4.5267   4.6695   4.7067   5.3005   5.3116   5.5024   5.6522   5.9752
     6.6906

          k = 0.1250-0.1240 0.0000 ( 41692 PWs)   bands (ev):

   -48.8977 -48.7893 -48.7829 -48.7543 -48.7468 -48.6894 -48.6697 -48.5650
   -48.5441 -48.5174 -48.4667 -48.4307 -48.4048 -48.3991 -48.3944 -48.2788
   -48.1828 -48.1388 -19.2500 -18.8773 -18.7959 -18.6823 -18.0630 -18.0023
   -17.8994 -17.7710 -17.7033 -17.5774 -16.3126 -16.1139  -7.5694  -7.5038
    -7.4618  -7.3772  -6.7302  -6.4538  -6.4177  -6.1898  -6.1598  -5.9160
    -5.5089  -5.3025  -5.1842  -4.9291  -4.5368  -4.3624  -4.3016  -4.2422
    -4.0391  -3.9597  -3.8937  -3.8514  -3.7275  -3.6004  -3.3265  -3.2222
    -2.8356  -2.6031  -2.3484  -2.1861  -2.0839  -2.0507  -1.5699  -1.2054
    -1.1651  -1.0134  -0.8784  -0.4502  -0.2963  -0.2648  -0.0216  -0.0066
     0.0598   0.1602   0.2156   0.4748   0.6252   0.8660   1.0076   1.2413
     1.3823   1.4630   1.7889   2.0796   2.1629   2.6134   3.9769   4.5543
     4.6688   4.8611   4.9146   5.1532   5.2905   5.3373   5.5947   5.7862
     6.5729

          k = 0.2500 0.0000 0.0000 ( 41623 PWs)   bands (ev):

   -48.8953 -48.7871 -48.7864 -48.7804 -48.7519 -48.7086 -48.6833 -48.5818
   -48.5589 -48.5560 -48.4701 -48.4643 -48.4455 -48.3936 -48.3919 -48.2731
   -48.1768 -48.1326 -19.0027 -18.7168 -18.6210 -18.4184 -18.1486 -17.8754
   -17.8297 -17.7516 -17.6947 -17.5706 -16.3939 -16.1731  -7.5517  -7.5104
    -7.3853  -7.0043  -6.5359  -6.4119  -6.4020  -6.1242  -6.0136  -5.7406
    -5.5791  -5.2980  -4.9641  -4.7532  -4.7317  -4.5860  -4.4982  -4.4701
    -4.4258  -3.8079  -3.6703  -3.4576  -3.3406  -3.2213  -3.1865  -3.1445
    -3.0729  -2.9319  -2.7915  -2.6500  -2.3725  -2.1417  -1.9067  -1.3497
    -1.2021  -1.1721  -0.5371  -0.5346  -0.3798  -0.3076  -0.0552  -0.0387
     0.3115   0.4869   0.6522   0.6583   0.9419   1.0683   1.0870   1.1334
     1.3942   1.5408   1.8329   2.0550   2.1073   2.2595   3.8998   4.1017
     4.4008   4.5768   4.6729   4.7853   4.8117   4.8550   4.9448   5.6246
     7.0543

          k = 0.2500 0.1240 0.0000 ( 41653 PWs)   bands (ev):

   -48.8953 -48.7951 -48.7804 -48.7777 -48.7519 -48.7088 -48.6833 -48.5818
   -48.5594 -48.5560 -48.4700 -48.4643 -48.4453 -48.3936 -48.3919 -48.2731
   -48.1769 -48.1328 -18.9093 -18.6054 -18.5085 -18.4344 -18.1553 -17.9988
   -17.9030 -17.8634 -17.8032 -17.5510 -16.3925 -16.1724  -7.1720  -7.1307
    -7.0085  -6.9887  -6.5346  -6.4119  -6.2478  -5.9748  -5.8933  -5.8416
    -5.6293  -5.2294  -5.1627  -5.0938  -4.9875  -4.8530  -4.6250  -4.4716
    -4.2266  -3.9191  -3.7715  -3.6441  -3.5520  -3.5128  -3.4188  -3.3485
    -3.3434  -2.9824  -2.7144  -2.4451  -2.2967  -2.0361  -1.8711  -1.4091
    -1.2749  -1.1349  -0.7932  -0.5078  -0.2920   0.0207   0.1405   0.3204
     0.3658   0.5216   0.6544   0.7529   0.9681   1.0800   1.0936   1.1956
     1.3977   1.4806   1.6625   1.7948   2.2407   2.4484   3.9038   4.0191
     4.0436   4.1199   4.2758   4.8388   4.8738   5.3022   5.4782   5.8134
     7.1191

          k = 0.2500-0.2479 0.0000 ( 41680 PWs)   bands (ev):

   -48.8953 -48.7984 -48.7804 -48.7738 -48.7519 -48.7090 -48.6833 -48.5818
   -48.5599 -48.5560 -48.4698 -48.4643 -48.4451 -48.3936 -48.3919 -48.2731
   -48.1771 -48.1330 -18.7688 -18.4963 -18.3818 -18.2735 -18.2201 -18.1614
   -18.1170 -18.0623 -17.8074 -17.5447 -16.3912 -16.1717  -7.0050  -6.5480
    -6.5214  -6.4633  -6.4203  -6.2991  -6.0170  -5.9036  -5.8891  -5.8505
    -5.8378  -5.6861  -5.5760  -5.5013  -4.9431  -4.8763  -4.6231  -4.4095
    -4.3113  -4.1796  -4.1528  -4.0078  -3.9624  -3.7963  -3.6315  -3.5239
    -3.5062  -2.9026  -2.3067  -2.2478  -2.0118  -1.8149  -1.8005  -1.5968
    -1.5408  -1.0962  -0.5614  -0.4903  -0.4326  -0.0981   0.0953   0.4928
     0.5473   0.5775   0.8771   0.8942   1.0766   1.1693   1.1799   1.3036
     1.3137   1.4827   1.5367   1.6213   2.3288   2.5599   3.4853   3.6075
     3.7668   4.0639   4.2382   4.8504   5.0959   5.4767   5.8144   6.0543
     7.2325

          k = 0.2500-0.1240 0.0000 ( 41653 PWs)   bands (ev):

   -48.8953 -48.7951 -48.7804 -48.7777 -48.7519 -48.7088 -48.6833 -48.5818
   -48.5594 -48.5560 -48.4700 -48.4643 -48.4453 -48.3936 -48.3919 -48.2731
   -48.1769 -48.1328 -18.9093 -18.6054 -18.5085 -18.4344 -18.1553 -17.9988
   -17.9030 -17.8634 -17.8032 -17.5510 -16.3925 -16.1724  -7.1720  -7.1307
    -7.0085  -6.9887  -6.5346  -6.4119  -6.2478  -5.9748  -5.8933  -5.8416
    -5.6293  -5.2294  -5.1627  -5.0938  -4.9875  -4.8530  -4.6250  -4.4716
    -4.2266  -3.9191  -3.7715  -3.6441  -3.5520  -3.5128  -3.4188  -3.3485
    -3.3434  -2.9824  -2.7144  -2.4451  -2.2967  -2.0361  -1.8711  -1.4091
    -1.2749  -1.1349  -0.7932  -0.5078  -0.2920   0.0207   0.1405   0.3204
     0.3658   0.5216   0.6544   0.7529   0.9681   1.0800   1.0936   1.1956
     1.3977   1.4806   1.6625   1.7948   2.2407   2.4484   3.9038   4.0191
     4.0436   4.1199   4.2758   4.8388   4.8738   5.3022   5.4782   5.8134
     7.1191

          k = 0.3750 0.0000 0.0000 ( 41645 PWs)   bands (ev):

   -48.8926 -48.8266 -48.7830 -48.7779 -48.7491 -48.7473 -48.6773 -48.6192
   -48.5942 -48.5538 -48.5093 -48.4859 -48.4619 -48.3894 -48.3881 -48.2674
   -48.1711 -48.1268 -18.5667 -18.4322 -18.3109 -18.2591 -18.2000 -18.0119
   -17.9278 -17.8805 -17.8265 -17.4582 -16.3710 -16.1405  -6.9725  -6.9608
    -6.7990  -6.5319  -6.3614  -6.2690  -6.2251  -6.2179  -5.9645  -5.8511
    -5.6683  -5.5889  -5.4770  -5.4631  -5.0405  -4.8534  -4.5760  -4.5007
    -4.0945  -3.8852  -3.8099  -3.7517  -3.5872  -3.2925  -3.2218  -3.1676
    -2.9518  -2.7331  -2.6085  -2.5983  -2.5377  -1.9725  -1.7089  -1.4087
    -1.3369  -0.9727  -0.6138  -0.3993  -0.2126   0.0248   0.0347   0.0530
     0.1350   0.5456   0.6484   0.6703   0.8335   0.9970   1.0357   1.1880
     1.3850   1.4079   1.9125   1.9307   2.0601   2.1394   3.4505   4.0287
     4.0653   4.1659   4.2868   4.4301   4.4551   4.8710   5.0054   5.5551
     7.8525

          k = 0.3750 0.1240 0.0000 ( 41549 PWs)   bands (ev):

   -48.8929 -48.8293 -48.7801 -48.7779 -48.7495 -48.7475 -48.6772 -48.6192
   -48.5943 -48.5538 -48.5089 -48.4854 -48.4619 -48.3894 -48.3881 -48.2674
   -48.1710 -48.1268 -18.5403 -18.4170 -18.3350 -18.2756 -18.2180 -18.0357
   -17.9150 -17.8930 -17.8028 -17.4601 -16.3711 -16.1406  -6.8659  -6.8208
    -6.6552  -6.5520  -6.4306  -6.3050  -6.2401  -6.1718  -6.1055  -6.0205
    -6.0079  -5.3391  -5.2612  -5.1503  -5.0892  -4.9141  -4.6381  -4.2268
    -4.0836  -3.9725  -3.7522  -3.6868  -3.4093  -3.3759  -3.2983  -3.0661
    -3.0467  -2.8943  -2.7487  -2.4155  -2.3104  -2.1531  -1.6878  -1.6437
    -1.3358  -1.1114  -0.7920  -0.3665  -0.3269  -0.2352  -0.0728   0.1617
     0.1986   0.2360   0.2935   0.5542   0.6788   0.9088   1.3608   1.3790
     1.6075   1.6771   1.7860   1.9687   2.1339   2.2760   3.2732   3.4482
     3.5073   3.5861   4.1087   4.4379   5.1928   5.5498   5.6857   5.7722
     7.9523

          k = 0.3750-0.2479 0.0000 ( 41514 PWs)   bands (ev):

   -48.8931 -48.8317 -48.7779 -48.7774 -48.7499 -48.7477 -48.6772 -48.6193
   -48.5943 -48.5538 -48.5086 -48.4849 -48.4619 -48.3894 -48.3881 -48.2674
   -48.1710 -48.1268 -18.5015 -18.4056 -18.3683 -18.2874 -18.2374 -18.0585
   -17.9054 -17.8992 -17.7856 -17.4619 -16.3713 -16.1407  -6.7515  -6.6141
    -6.5375  -6.4868  -6.4693  -6.4409  -6.2371  -6.2037  -6.2014  -6.1513
    -6.1175  -5.2987  -5.2729  -4.9439  -4.9036  -4.7337  -4.6891  -4.1440
    -4.0924  -3.8461  -3.8214  -3.5906  -3.5156  -3.4332  -3.3881  -3.1816
    -3.1492  -3.0204  -2.6012  -2.2630  -2.2068  -1.9861  -1.6091  -1.5871
    -1.4741  -1.4641  -0.9408  -0.7733  -0.5310  -0.4382  -0.2852   0.0711
     0.3322   0.3748   0.4799   0.5511   0.5768   0.7127   1.4182   1.4595
     1.5669   1.8749   1.9252   1.9476   2.2690   2.4221   2.8524   3.0141
     3.1414   3.5233   4.1323   4.4366   5.5224   5.7536   6.1128   6.2152
     8.0555

          k = 0.3750-0.1240 0.0000 ( 41549 PWs)   bands (ev):

   -48.8929 -48.8293 -48.7801 -48.7779 -48.7495 -48.7475 -48.6772 -48.6192
   -48.5943 -48.5538 -48.5089 -48.4854 -48.4619 -48.3894 -48.3881 -48.2674
   -48.1710 -48.1268 -18.5403 -18.4170 -18.3350 -18.2756 -18.2180 -18.0357
   -17.9150 -17.8930 -17.8028 -17.4601 -16.3711 -16.1406  -6.8659  -6.8208
    -6.6552  -6.5520  -6.4306  -6.3050  -6.2401  -6.1718  -6.1055  -6.0205
    -6.0079  -5.3391  -5.2612  -5.1503  -5.0892  -4.9141  -4.6381  -4.2268
    -4.0836  -3.9725  -3.7522  -3.6868  -3.4093  -3.3759  -3.2983  -3.0661
    -3.0467  -2.8943  -2.7487  -2.4155  -2.3104  -2.1531  -1.6878  -1.6437
    -1.3358  -1.1114  -0.7920  -0.3665  -0.3269  -0.2352  -0.0728   0.1617
     0.1986   0.2360   0.2935   0.5542   0.6788   0.9088   1.3608   1.3790
     1.6075   1.6771   1.7860   1.9687   2.1339   2.2760   3.2732   3.4482
     3.5073   3.5861   4.1087   4.4379   5.1928   5.5498   5.6857   5.7722
     7.9523

          k =-0.5000 0.0000 0.0000 ( 41440 PWs)   bands (ev):

   -48.8915 -48.8428 -48.7816 -48.7769 -48.7632 -48.7479 -48.6748 -48.6345
   -48.6099 -48.5517 -48.5254 -48.5025 -48.4609 -48.3884 -48.3858 -48.2651
   -48.1687 -48.1244 -18.4184 -18.2851 -18.2161 -18.2003 -18.1481 -18.0855
   -17.9986 -17.9552 -17.8322 -17.4449 -16.3241 -16.0981  -6.8897  -6.5930
    -6.4840  -6.4666  -6.3982  -6.3433  -6.2753  -6.1230  -6.0434  -5.8263
    -5.6991  -5.6812  -5.4919  -5.4457  -5.4195  -5.2231  -4.2538  -4.2207
    -4.1088  -3.9397  -3.9124  -3.8795  -3.8033  -3.3823  -3.3279  -3.0061
    -2.9563  -2.6586  -2.4195  -2.3846  -1.9927  -1.7603  -1.7121  -1.6944
    -1.2586  -1.0640  -0.3192  -0.3132  -0.2987  -0.1387  -0.0272  -0.0001
     0.0833   0.1098   0.4037   0.6367   0.6573   0.7853   1.0513   1.2747
     1.5309   1.5652   1.6175   2.0172   2.1412   2.2791   3.2268   3.8385
     3.9941   4.1051   4.1051   4.3565   4.4462   4.8324   4.9803   5.6056
     8.4563

          k =-0.5000 0.1240 0.0000 ( 41518 PWs)   bands (ev):

   -48.8919 -48.8451 -48.7792 -48.7769 -48.7634 -48.7485 -48.6748 -48.6346
   -48.6100 -48.5515 -48.5250 -48.5019 -48.4609 -48.3884 -48.3858 -48.2651
   -48.1686 -48.1243 -18.4169 -18.3990 -18.3628 -18.2662 -18.1946 -17.9340
   -17.8668 -17.8430 -17.8379 -17.4467 -16.3235 -16.0975  -6.8734  -6.8481
    -6.6350  -6.5742  -6.4958  -6.4530  -6.3657  -6.2847  -5.9997  -5.9392
    -5.8332  -5.5478  -5.3122  -4.9715  -4.8022  -4.4546  -4.3249  -4.2749
    -4.2543  -4.1702  -4.0338  -3.8721  -3.2415  -3.2198  -3.1019  -3.0179
    -2.9407  -2.7061  -2.6966  -2.2359  -2.1632  -1.7398  -1.6746  -1.6566
    -1.5307  -1.2164  -0.5723  -0.4979  -0.3041  -0.2589  -0.1991  -0.0426
     0.0133   0.0387   0.0582   0.1126   0.1160   0.5115   1.5368   1.5670
     1.7488   1.8735   1.9375   2.0478   2.1254   2.2142   3.0559   3.2570
     3.2719   3.3419   4.1297   4.3555   5.3844   5.6717   5.6963   5.8176
     8.6115

          k =-0.5000-0.2479 0.0000 ( 41524 PWs)   bands (ev):

   -48.8923 -48.8473 -48.7770 -48.7769 -48.7636 -48.7491 -48.6747 -48.6347
   -48.6101 -48.5513 -48.5246 -48.5013 -48.4609 -48.3884 -48.3858 -48.2651
   -48.1685 -48.1242 -18.4722 -18.4461 -18.4155 -18.3356 -18.1886 -17.8499
   -17.8439 -17.7801 -17.7710 -17.4484 -16.3229 -16.0968  -7.0832  -6.8779
    -6.8073  -6.8057  -6.4445  -6.3883  -6.3697  -6.1445  -6.0157  -5.9589
    -5.8335  -5.6641  -5.4228  -4.5104  -4.3691  -4.2923  -4.2388  -4.1975
    -4.0563  -3.8897  -3.7979  -3.5063  -3.4833  -3.4469  -3.1996  -2.9191
    -2.9188  -2.8427  -2.5942  -2.1424  -2.0294  -2.0037  -1.6583  -1.6547
    -1.6168  -1.1121  -1.1022  -0.9500  -0.7426  -0.7371  -0.2890  -0.2398
     0.0368   0.0602   0.0891   0.1137   0.2080   0.2380   1.5776   1.5950
     1.7747   2.1229   2.1572   2.1610   2.1628   2.2779   2.6700   2.8471
     2.9546   3.3068   4.1543   4.3535   5.7339   5.9015   6.2080   6.3495
     8.7690

          k =-0.5000-0.1240 0.0000 ( 41518 PWs)   bands (ev):

   -48.8919 -48.8451 -48.7792 -48.7769 -48.7634 -48.7485 -48.6748 -48.6346
   -48.6100 -48.5515 -48.5250 -48.5019 -48.4609 -48.3884 -48.3858 -48.2651
   -48.1686 -48.1243 -18.4169 -18.3990 -18.3628 -18.2662 -18.1946 -17.9340
   -17.8668 -17.8430 -17.8379 -17.4467 -16.3235 -16.0975  -6.8734  -6.8481
    -6.6350  -6.5742  -6.4958  -6.4530  -6.3657  -6.2847  -5.9997  -5.9392
    -5.8332  -5.5478  -5.3122  -4.9715  -4.8022  -4.4546  -4.3249  -4.2749
    -4.2543  -4.1702  -4.0338  -3.8721  -3.2415  -3.2198  -3.1019  -3.0179
    -2.9407  -2.7061  -2.6966  -2.2359  -2.1632  -1.7398  -1.6746  -1.6566
    -1.5307  -1.2164  -0.5723  -0.4979  -0.3041  -0.2589  -0.1991  -0.0426
     0.0133   0.0387   0.0582   0.1126   0.1160   0.5115   1.5368   1.5670
     1.7488   1.8735   1.9375   2.0478   2.1254   2.2142   3.0559   3.2570
     3.2719   3.3419   4.1297   4.3555   5.3844   5.6717   5.6963   5.8176
     8.6115

          k =-0.3750 0.0000 0.0000 ( 41645 PWs)   bands (ev):

   -48.8926 -48.8266 -48.7830 -48.7779 -48.7491 -48.7473 -48.6773 -48.6192
   -48.5942 -48.5538 -48.5093 -48.4859 -48.4619 -48.3894 -48.3881 -48.2674
   -48.1711 -48.1268 -18.5667 -18.4322 -18.3109 -18.2591 -18.2000 -18.0119
   -17.9278 -17.8805 -17.8265 -17.4582 -16.3710 -16.1405  -6.9725  -6.9608
    -6.7990  -6.5319  -6.3614  -6.2690  -6.2251  -6.2179  -5.9645  -5.8511
    -5.6683  -5.5889  -5.4770  -5.4631  -5.0405  -4.8534  -4.5760  -4.5007
    -4.0945  -3.8852  -3.8099  -3.7517  -3.5872  -3.2925  -3.2218  -3.1676
    -2.9518  -2.7331  -2.6085  -2.5983  -2.5377  -1.9725  -1.7089  -1.4087
    -1.3369  -0.9727  -0.6138  -0.3993  -0.2126   0.0248   0.0347   0.0530
     0.1350   0.5456   0.6484   0.6703   0.8335   0.9970   1.0357   1.1880
     1.3850   1.4079   1.9125   1.9307   2.0601   2.1394   3.4505   4.0287
     4.0653   4.1659   4.2868   4.4301   4.4551   4.8710   5.0054   5.5551
     7.8525

          k =-0.3750 0.1240 0.0000 ( 41549 PWs)   bands (ev):

   -48.8929 -48.8293 -48.7801 -48.7779 -48.7495 -48.7475 -48.6772 -48.6192
   -48.5943 -48.5538 -48.5089 -48.4854 -48.4619 -48.3894 -48.3881 -48.2674
   -48.1710 -48.1268 -18.5403 -18.4170 -18.3350 -18.2756 -18.2180 -18.0357
   -17.9150 -17.8930 -17.8028 -17.4601 -16.3711 -16.1406  -6.8659  -6.8208
    -6.6552  -6.5520  -6.4306  -6.3050  -6.2401  -6.1718  -6.1055  -6.0205
    -6.0079  -5.3391  -5.2612  -5.1503  -5.0892  -4.9141  -4.6381  -4.2268
    -4.0836  -3.9725  -3.7522  -3.6868  -3.4093  -3.3759  -3.2983  -3.0661
    -3.0467  -2.8943  -2.7487  -2.4155  -2.3104  -2.1531  -1.6878  -1.6437
    -1.3358  -1.1114  -0.7920  -0.3665  -0.3269  -0.2352  -0.0728   0.1617
     0.1986   0.2360   0.2935   0.5542   0.6788   0.9088   1.3608   1.3790
     1.6075   1.6771   1.7860   1.9687   2.1339   2.2760   3.2732   3.4482
     3.5073   3.5861   4.1087   4.4379   5.1928   5.5498   5.6857   5.7722
     7.9523

          k =-0.3750-0.2479 0.0000 ( 41514 PWs)   bands (ev):

   -48.8931 -48.8317 -48.7779 -48.7774 -48.7499 -48.7477 -48.6772 -48.6193
   -48.5943 -48.5538 -48.5086 -48.4849 -48.4619 -48.3894 -48.3881 -48.2674
   -48.1710 -48.1268 -18.5015 -18.4056 -18.3683 -18.2874 -18.2374 -18.0585
   -17.9054 -17.8992 -17.7856 -17.4619 -16.3713 -16.1407  -6.7515  -6.6141
    -6.5375  -6.4868  -6.4693  -6.4409  -6.2371  -6.2037  -6.2014  -6.1513
    -6.1175  -5.2987  -5.2729  -4.9439  -4.9036  -4.7337  -4.6891  -4.1440
    -4.0924  -3.8461  -3.8214  -3.5906  -3.5156  -3.4332  -3.3881  -3.1816
    -3.1492  -3.0204  -2.6012  -2.2630  -2.2068  -1.9861  -1.6091  -1.5871
    -1.4741  -1.4641  -0.9408  -0.7733  -0.5310  -0.4382  -0.2852   0.0711
     0.3322   0.3748   0.4799   0.5511   0.5768   0.7127   1.4182   1.4595
     1.5669   1.8749   1.9252   1.9476   2.2690   2.4221   2.8524   3.0141
     3.1414   3.5233   4.1323   4.4366   5.5224   5.7536   6.1128   6.2152
     8.0555

          k =-0.3750-0.1240 0.0000 ( 41549 PWs)   bands (ev):

   -48.8929 -48.8293 -48.7801 -48.7779 -48.7495 -48.7475 -48.6772 -48.6192
   -48.5943 -48.5538 -48.5089 -48.4854 -48.4619 -48.3894 -48.3881 -48.2674
   -48.1710 -48.1268 -18.5403 -18.4170 -18.3350 -18.2756 -18.2180 -18.0357
   -17.9150 -17.8930 -17.8028 -17.4601 -16.3711 -16.1406  -6.8659  -6.8208
    -6.6552  -6.5520  -6.4306  -6.3050  -6.2401  -6.1718  -6.1055  -6.0205
    -6.0079  -5.3391  -5.2612  -5.1503  -5.0892  -4.9141  -4.6381  -4.2268
    -4.0836  -3.9725  -3.7522  -3.6868  -3.4093  -3.3759  -3.2983  -3.0661
    -3.0467  -2.8943  -2.7487  -2.4155  -2.3104  -2.1531  -1.6878  -1.6437
    -1.3358  -1.1114  -0.7920  -0.3665  -0.3269  -0.2352  -0.0728   0.1617
     0.1986   0.2360   0.2935   0.5542   0.6788   0.9088   1.3608   1.3790
     1.6075   1.6771   1.7860   1.9687   2.1339   2.2760   3.2732   3.4482
     3.5073   3.5861   4.1087   4.4379   5.1928   5.5498   5.6857   5.7722
     7.9523

          k =-0.2500 0.0000 0.0000 ( 41623 PWs)   bands (ev):

   -48.8953 -48.7871 -48.7864 -48.7804 -48.7519 -48.7086 -48.6833 -48.5818
   -48.5589 -48.5560 -48.4701 -48.4643 -48.4455 -48.3936 -48.3919 -48.2731
   -48.1768 -48.1326 -19.0027 -18.7168 -18.6210 -18.4184 -18.1486 -17.8754
   -17.8297 -17.7516 -17.6947 -17.5706 -16.3939 -16.1731  -7.5517  -7.5104
    -7.3853  -7.0043  -6.5359  -6.4119  -6.4020  -6.1242  -6.0136  -5.7406
    -5.5791  -5.2980  -4.9641  -4.7532  -4.7317  -4.5860  -4.4982  -4.4701
    -4.4258  -3.8079  -3.6703  -3.4576  -3.3406  -3.2213  -3.1865  -3.1445
    -3.0729  -2.9319  -2.7915  -2.6500  -2.3725  -2.1417  -1.9067  -1.3497
    -1.2021  -1.1721  -0.5371  -0.5346  -0.3798  -0.3076  -0.0552  -0.0387
     0.3115   0.4869   0.6522   0.6583   0.9419   1.0683   1.0870   1.1334
     1.3942   1.5408   1.8329   2.0550   2.1073   2.2595   3.8998   4.1017
     4.4008   4.5768   4.6729   4.7853   4.8117   4.8550   4.9449   5.6246
     7.0543

          k =-0.2500 0.1240 0.0000 ( 41653 PWs)   bands (ev):

   -48.8953 -48.7951 -48.7804 -48.7777 -48.7519 -48.7088 -48.6833 -48.5818
   -48.5594 -48.5560 -48.4700 -48.4643 -48.4453 -48.3936 -48.3919 -48.2731
   -48.1769 -48.1328 -18.9093 -18.6054 -18.5085 -18.4344 -18.1553 -17.9988
   -17.9030 -17.8634 -17.8032 -17.5510 -16.3925 -16.1724  -7.1720  -7.1307
    -7.0085  -6.9887  -6.5346  -6.4119  -6.2478  -5.9748  -5.8933  -5.8416
    -5.6293  -5.2294  -5.1627  -5.0938  -4.9875  -4.8530  -4.6250  -4.4716
    -4.2266  -3.9191  -3.7715  -3.6441  -3.5520  -3.5128  -3.4188  -3.3485
    -3.3434  -2.9824  -2.7144  -2.4451  -2.2967  -2.0361  -1.8711  -1.4091
    -1.2749  -1.1349  -0.7932  -0.5078  -0.2920   0.0207   0.1405   0.3204
     0.3658   0.5216   0.6544   0.7529   0.9681   1.0800   1.0936   1.1956
     1.3977   1.4806   1.6625   1.7948   2.2407   2.4484   3.9038   4.0191
     4.0436   4.1199   4.2758   4.8388   4.8738   5.3022   5.4782   5.8134
     7.1191

          k =-0.2500-0.2479 0.0000 ( 41680 PWs)   bands (ev):

   -48.8953 -48.7984 -48.7804 -48.7738 -48.7519 -48.7090 -48.6833 -48.5818
   -48.5599 -48.5560 -48.4698 -48.4643 -48.4451 -48.3936 -48.3919 -48.2731
   -48.1771 -48.1330 -18.7688 -18.4963 -18.3818 -18.2735 -18.2201 -18.1614
   -18.1170 -18.0623 -17.8074 -17.5447 -16.3912 -16.1717  -7.0050  -6.5480
    -6.5214  -6.4633  -6.4203  -6.2991  -6.0170  -5.9036  -5.8891  -5.8505
    -5.8378  -5.6861  -5.5760  -5.5013  -4.9431  -4.8763  -4.6231  -4.4095
    -4.3113  -4.1796  -4.1528  -4.0078  -3.9624  -3.7963  -3.6315  -3.5239
    -3.5062  -2.9026  -2.3067  -2.2478  -2.0118  -1.8149  -1.8005  -1.5968
    -1.5408  -1.0962  -0.5614  -0.4903  -0.4326  -0.0981   0.0953   0.4928
     0.5473   0.5775   0.8771   0.8942   1.0766   1.1693   1.1799   1.3036
     1.3137   1.4827   1.5367   1.6213   2.3288   2.5599   3.4853   3.6075
     3.7668   4.0639   4.2382   4.8504   5.0959   5.4767   5.8144   6.0543
     7.2325

          k =-0.2500-0.1240 0.0000 ( 41653 PWs)   bands (ev):

   -48.8953 -48.7951 -48.7804 -48.7777 -48.7519 -48.7088 -48.6833 -48.5818
   -48.5594 -48.5560 -48.4700 -48.4643 -48.4453 -48.3936 -48.3919 -48.2731
   -48.1769 -48.1328 -18.9093 -18.6054 -18.5085 -18.4344 -18.1553 -17.9988
   -17.9030 -17.8634 -17.8032 -17.5510 -16.3925 -16.1724  -7.1720  -7.1307
    -7.0085  -6.9887  -6.5346  -6.4119  -6.2478  -5.9748  -5.8933  -5.8416
    -5.6293  -5.2294  -5.1627  -5.0938  -4.9875  -4.8530  -4.6250  -4.4716
    -4.2266  -3.9191  -3.7715  -3.6441  -3.5520  -3.5128  -3.4188  -3.3485
    -3.3434  -2.9824  -2.7144  -2.4451  -2.2967  -2.0361  -1.8711  -1.4091
    -1.2749  -1.1349  -0.7932  -0.5078  -0.2920   0.0207   0.1405   0.3204
     0.3658   0.5216   0.6544   0.7529   0.9681   1.0800   1.0936   1.1956
     1.3977   1.4806   1.6625   1.7948   2.2407   2.4484   3.9038   4.0191
     4.0436   4.1199   4.2758   4.8388   4.8738   5.3022   5.4782   5.8134
     7.1191

          k =-0.1250 0.0000 0.0000 ( 41611 PWs)   bands (ev):

   -48.8980 -48.7898 -48.7829 -48.7546 -48.7474 -48.6894 -48.6696 -48.5639
   -48.5441 -48.5174 -48.4667 -48.4306 -48.4048 -48.3990 -48.3944 -48.2788
   -48.1824 -48.1384 -19.3667 -19.0186 -18.9229 -18.6628 -18.0000 -17.9925
   -17.7668 -17.6411 -17.5668 -17.5004 -16.3168 -16.1165  -8.0411  -7.9876
    -7.8694  -7.5042  -6.7300  -6.5121  -6.4493  -6.2848  -6.2465  -5.8140
    -5.7885  -5.3039  -5.1883  -4.9631  -4.5236  -4.4275  -4.0104  -3.7311
    -3.5991  -3.4985  -3.4569  -3.3864  -3.3063  -3.0987  -2.8924  -2.8164
    -2.6887  -2.5208  -2.4654  -2.2872  -2.1961  -2.1042  -1.9282  -1.4292
    -1.0077  -0.9110  -0.8901  -0.7035  -0.5986  -0.4921  -0.3949  -0.3905
    -0.2076  -0.0071   0.2381   0.2999   0.4259   0.7833   0.9941   1.2646
     1.3120   1.7136   1.8290   2.2063   2.3368   2.5147   3.6192   4.3405
     4.4374   4.8314   5.1353   5.3035   5.3537   5.5071   5.5444   5.6380
     6.5459

          k =-0.1250 0.1240 0.0000 ( 41692 PWs)   bands (ev):

   -48.8977 -48.7893 -48.7829 -48.7543 -48.7468 -48.6894 -48.6697 -48.5650
   -48.5441 -48.5174 -48.4667 -48.4307 -48.4048 -48.3991 -48.3944 -48.2788
   -48.1828 -48.1388 -19.2500 -18.8773 -18.7959 -18.6823 -18.0630 -18.0023
   -17.8994 -17.7710 -17.7033 -17.5774 -16.3126 -16.1139  -7.5694  -7.5038
    -7.4618  -7.3772  -6.7302  -6.4538  -6.4177  -6.1898  -6.1598  -5.9160
    -5.5089  -5.3025  -5.1842  -4.9291  -4.5368  -4.3624  -4.3016  -4.2422
    -4.0391  -3.9597  -3.8937  -3.8514  -3.7275  -3.6004  -3.3265  -3.2222
    -2.8356  -2.6031  -2.3484  -2.1861  -2.0839  -2.0507  -1.5699  -1.2054
    -1.1651  -1.0134  -0.8784  -0.4502  -0.2963  -0.2648  -0.0216  -0.0066
     0.0598   0.1602   0.2156   0.4748   0.6252   0.8660   1.0076   1.2413
     1.3823   1.4630   1.7889   2.0796   2.1629   2.6134   3.9769   4.5543
     4.6688   4.8611   4.9146   5.1532   5.2905   5.3373   5.5947   5.7862
     6.5729

          k =-0.1250-0.2479 0.0000 ( 41706 PWs)   bands (ev):

   -48.8975 -48.7888 -48.7829 -48.7540 -48.7461 -48.6894 -48.6699 -48.5660
   -48.5441 -48.5173 -48.4667 -48.4307 -48.4048 -48.3991 -48.3944 -48.2788
   -48.1832 -48.1392 -19.0691 -18.8096 -18.6375 -18.4907 -18.2869 -18.1723
   -17.9756 -17.9546 -17.7943 -17.6078 -16.3093 -16.1118  -7.5110  -6.7314
    -6.6457  -6.5015  -6.4875  -6.4563  -6.4264  -6.3172  -6.2611  -5.9326
    -5.3050  -5.1902  -5.0712  -5.0217  -4.9059  -4.8190  -4.8040  -4.7355
    -4.7017  -4.5102  -4.4319  -4.2769  -3.8184  -3.8088  -3.6907  -3.4701
    -2.8299  -2.6192  -2.1865  -2.0236  -1.8692  -1.7293  -1.6386  -1.2379
    -1.1121  -1.0279  -0.8816  -0.2492  -0.2357  -0.1736  -0.0399   0.0596
     0.2832   0.5372   0.6974   0.7173   0.8813   1.0117   1.0162   1.1670
     1.3222   1.4102   1.6405   1.7755   2.1589   2.7186   4.2534   4.4438
     4.5267   4.6695   4.7067   5.3005   5.3116   5.5024   5.6522   5.9752
     6.6906

          k =-0.1250-0.1240 0.0000 ( 41692 PWs)   bands (ev):

   -48.8977 -48.7893 -48.7829 -48.7543 -48.7468 -48.6894 -48.6697 -48.5650
   -48.5441 -48.5174 -48.4667 -48.4307 -48.4048 -48.3991 -48.3944 -48.2788
   -48.1828 -48.1388 -19.2500 -18.8773 -18.7959 -18.6823 -18.0630 -18.0023
   -17.8994 -17.7710 -17.7033 -17.5774 -16.3126 -16.1139  -7.5694  -7.5038
    -7.4618  -7.3772  -6.7302  -6.4538  -6.4177  -6.1898  -6.1598  -5.9160
    -5.5089  -5.3025  -5.1842  -4.9291  -4.5368  -4.3624  -4.3016  -4.2422
    -4.0391  -3.9597  -3.8937  -3.8514  -3.7275  -3.6004  -3.3265  -3.2222
    -2.8356  -2.6031  -2.3484  -2.1861  -2.0839  -2.0507  -1.5699  -1.2054
    -1.1651  -1.0134  -0.8784  -0.4502  -0.2963  -0.2648  -0.0216  -0.0066
     0.0598   0.1602   0.2156   0.4748   0.6252   0.8660   1.0076   1.2413
     1.3823   1.4630   1.7889   2.0796   2.1629   2.6134   3.9769   4.5543
     4.6688   4.8611   4.9146   5.1532   5.2905   5.3373   5.5947   5.7862
     6.5729

     the Fermi energy is     1.5226 ev

!    total energy              =   -1589.74822617 Ry
     estimated scf accuracy    <       0.00000073 Ry
     smearing contrib. (-TS)   =      -0.00016271 Ry
     internal energy E=F+TS    =   -1589.74806346 Ry

     The total energy is F=E-TS. E is the sum of the following terms:
     one-electron contribution =  -14880.21847287 Ry
     hartree contribution      =    7481.37670164 Ry
     xc contribution           =    -390.42102006 Ry
     ewald contribution        =    6313.72977163 Ry
     one-center paw contrib.   =    -114.21504380 Ry

     convergence has been achieved in  18 iterations

     negative rho (up, down):  1.917E+00 0.000E+00

     Forces acting on atoms (cartesian axes, Ry/au):

     atom    1 type  1   force =    -0.00000007   -0.00000039    0.03385114
     atom    2 type  1   force =     0.00000026   -0.00000048   -0.03986060
     atom    3 type  1   force =    -0.00000119   -0.00000019    0.00116445
     atom    4 type  1   force =     0.00000106    0.00000044   -0.00022626
     atom    5 type  1   force =    -0.00000036    0.00000137    0.00066391
     atom    6 type  1   force =    -0.00000003    0.00000005   -0.00128129
     atom    7 type  2   force =    -0.00000018    0.00000046    0.00982708
     atom    8 type  2   force =    -0.00000015    0.00000073    0.03431895
     atom    9 type  2   force =    -0.00000081    0.02221531   -0.02521934
     atom   10 type  2   force =     0.00000063   -0.02221609   -0.02521871
     atom   11 type  2   force =     0.00000042   -0.00000114   -0.00045000
     atom   12 type  2   force =     0.00000017    0.00000023    0.00954412
     atom   13 type  2   force =    -0.00000039   -0.00065055    0.00183875
     atom   14 type  2   force =     0.00000087    0.00064945    0.00184056
     atom   15 type  2   force =    -0.00000070   -0.00000094   -0.00165218
     atom   16 type  2   force =    -0.00000039   -0.00000056    0.00042782
     atom   17 type  2   force =     0.00000069   -0.00030681    0.00021586
     atom   18 type  2   force =     0.00000019    0.00030913    0.00021574

     Total force =     0.003808     Total SCF correction =     0.002422
     SCF correction compared to forces is large: reduce conv_thr to get better values

     Writing all to output data dir ./tmp_slab__u000/slab__u000.save/ :
     XML data file, charge density, pseudopotentials, collected wavefunctions

     init_run     :      2.89s CPU      3.03s WALL (       1 calls)
     electrons    :     82.14s CPU     83.24s WALL (       1 calls)
     forces       :      0.77s CPU      0.78s WALL (       1 calls)

     Called by init_run:
     wfcinit      :      1.58s CPU      1.63s WALL (       1 calls)
     potinit      :      0.48s CPU      0.49s WALL (       1 calls)
     hinit0       :      0.43s CPU      0.48s WALL (       1 calls)

     Called by electrons:
     c_bands      :     66.83s CPU     67.63s WALL (      18 calls)
     sum_band     :     10.65s CPU     10.82s WALL (      18 calls)
     v_of_rho     :      1.05s CPU      1.08s WALL (      19 calls)
     newd         :      0.97s CPU      1.01s WALL (      19 calls)
     PAW_pot      :      0.45s CPU      0.45s WALL (      19 calls)
     mix_rho      :      1.99s CPU      2.03s WALL (      18 calls)

     Called by c_bands:
     init_us_2    :      1.48s CPU      1.51s WALL (     304 calls)
     cegterg      :     60.14s CPU     60.85s WALL (     144 calls)

     Called by *egterg:
     cdiaghg      :     10.61s CPU     10.69s WALL (    1246 calls)
     h_psi        :     35.85s CPU     36.36s WALL (    1254 calls)
     s_psi        :      2.72s CPU      2.75s WALL (    1254 calls)
     g_psi        :      0.17s CPU      0.18s WALL (    1102 calls)

     Called by h_psi:
     h_psi:calbec :      4.42s CPU      4.46s WALL (    1254 calls)
     vloc_psi     :     28.14s CPU     28.58s WALL (    1254 calls)
                                        0.00s GPU  (    1254 calls)
     add_vuspsi   :      2.92s CPU      2.94s WALL (    1254 calls)

     General routines
     calbec       :      6.15s CPU      6.20s WALL (    1430 calls)
     fft          :      1.11s CPU      1.16s WALL (     256 calls)
     ffts         :      1.66s CPU      1.69s WALL (    2128 calls)
     fftw         :     32.54s CPU     33.03s WALL (   77834 calls)
     interpolate  :      0.48s CPU      0.48s WALL (      19 calls)

     Parallel routines

     PWSCF        :   1m26.43s CPU   2m12.25s WALL


   This run was terminated on:   8:42:45  28Aug2026            

=------------------------------------------------------------------------------=
   JOB DONE.
=------------------------------------------------------------------------------=
