
     Program PWSCF v.7.5 starts on 28Aug2026 at  8:40:33 

     This program is part of the open-source Quantum ESPRESSO suite
     for quantum simulation of materials; please cite
         "P. Giannozzi et al., J. Phys.:Condens. Matter 21 395502 (2009);
         "P. Giannozzi et al., J. Phys.:Condens. Matter 29 465901 (2017);
         "P. Giannozzi et al., J. Chem. Phys. 152 154105 (2020);
          URL http://www.quantum-espresso.org", 
     in publications or presentations arising from this work. More details at
     http://www.quantum-espresso.org/quote

     Parallel version (MPI & OpenMP), running on     128 processor cores
     Number of MPI processes:               128
     Threads/MPI process:                     1

     MPI processes distributed on     1 nodes
     223759 MiB available memory on the printing compute node when the environment starts

     Reading input from slab__u300.run.in

     Current dimensions of program PWSCF are:
     Max number of different atomic species (ntypx) = 10
     Max number of k-points (npk) =  40000
     Max angular momentum in pseudopotentials (lmaxx) =  4
     file O.pbe-n-kjpaw_psl.0.1.UPF: wavefunction(s)  2P renormalized

     K-points division:     npool     =       4
     R & G space division:  proc/nbgrp/npool/nimage =      32
     Subspace diagonalization in iterative solution of the eigenvalue problem:
     a serial algorithm will be used


     Parallelization info
     --------------------
     sticks:   dense  smooth     PW     G-vecs:    dense   smooth      PW
     Min         113      57     16                29407    10389    1566
     Max         114      58     17                29434    10403    1581
     Sum        3639    1825    519               941385   332621   50331

     Using Slab Decomposition



     bravais-lattice index     =            0
     lattice parameter (alat)  =       5.9602  a.u.
     unit-cell volume          =    3444.9838 (a.u.)^3
     number of atoms/cell      =           18
     number of atomic types    =            2
     number of electrons       =       162.00
     number of Kohn-Sham states=           97
     kinetic-energy cutoff     =      80.0000  Ry
     charge density cutoff     =     640.0000  Ry
     scf convergence threshold =      1.0E-06
     mixing beta               =       0.3000
     number of iterations used =            8  local-TF  mixing
     Exchange-correlation= SLA  PW   PBX  PBC
                           (   1   4   3   4   0   0   0)
     Hubbard projectors: atomic
     Hubbard parameters of DFT+U (Dudarev formulation) in eV:
     U(Ir-5d) =  3.0000

     Internal variables: lda_plus_u =T, lda_plus_u_kind = 0

     Internal variables: orbital_resolved =F, hub_pot_fix =F, apply_U = F

     celldm(1)=   5.960196  celldm(2)=   0.000000  celldm(3)=   0.000000
     celldm(4)=   0.000000  celldm(5)=   0.000000  celldm(6)=   0.000000

     crystal axes: (cart. coord. in units of alat)
               a(1) = (   1.000000   0.000000   0.000000 )  
               a(2) = (   0.000000   2.016846   0.000000 )  
               a(3) = (   0.000000   0.000000   8.067384 )  

     reciprocal axes: (cart. coord. in units 2 pi/alat)
               b(1) = (  1.000000  0.000000  0.000000 )  
               b(2) = (  0.000000  0.495824  0.000000 )  
               b(3) = (  0.000000  0.000000  0.123956 )  


     PseudoPot. # 1 for Ir read from file:
     /anvil/projects/x-che260157/pseudo/Ir_pbe_v1.2.uspp.F.UPF
     MD5 check sum: 8836f839c3459d2b385c504ce6d91f2c
     Pseudo is Ultrasoft + core correction, Zval = 15.0
     Generated by new atomic code, or converted to UPF format
     Using radial grid of  983 points,  7 beta functions with: 
                l(1) =   0
                l(2) =   0
                l(3) =   1
                l(4) =   1
                l(5) =   1
                l(6) =   2
                l(7) =   2
     Q(r) pseudized with  8 coefficients,  rinner =    1.400   1.400   1.400
                                                       1.400   1.400

     PseudoPot. # 2 for O  read from file:
     /anvil/projects/x-che260157/pseudo/O.pbe-n-kjpaw_psl.0.1.UPF
     MD5 check sum: 0234752ac141de4415c5fc33072bef88
     Pseudo is Projector augmented-wave + core cor, Zval =  6.0
     Generated using "atomic" code by A. Dal Corso  v.5.0.99 svn rev. 10869
     Shape of augmentation charge: BESSEL
     Using radial grid of 1095 points,  4 beta functions with: 
                l(1) =   0
                l(2) =   0
                l(3) =   1
                l(4) =   1
     Q(r) pseudized with 0 coefficients 


     atomic species   valence    mass     pseudopotential
     Ir               15.00   192.21700     Ir( 1.00)
     O                 6.00    15.99900     O ( 1.00)

     No symmetry found



   Cartesian axes

     site n.     atom                  positions (alat units)
         1        Ir     tau(   1) = (   0.0000000   1.5126346   3.0252692  )
         2        Ir     tau(   2) = (   0.5000000   0.5042115   3.0252692  )
         3        Ir     tau(   3) = (  -0.0000000   0.5042115   4.0490144  )
         4        Ir     tau(   4) = (   0.4999999   1.5126345   4.0369655  )
         5        Ir     tau(   5) = (  -0.0000001   1.5126347   5.0521139  )
         6        Ir     tau(   6) = (   0.5000000   0.5042117   5.0842459  )
         7        O      tau(   7) = (   0.0000000   0.5042115   3.4185541  )
         8        O      tau(   8) = (   0.0000000   0.5042115   2.6319842  )
         9        O      tau(   9) = (   0.5000000   1.1193496   3.0252692  )
        10        O      tau(  10) = (   0.5000000   1.9059196   3.0252692  )
        11        O      tau(  11) = (  -0.0000001   1.5126339   4.4343023  )
        12        O      tau(  12) = (   0.0000000   1.5126346   3.6404072  )
        13        O      tau(  13) = (   0.5000000   0.1171043   4.0441494  )
        14        O      tau(  14) = (   0.5000000   0.8913186   4.0441490  )
        15        O      tau(  15) = (  -0.0000000   0.5042117   5.4603797  )
        16        O      tau(  16) = (  -0.0000000   0.5042116   4.6811465  )
        17        O      tau(  17) = (   0.5000000   1.1288945   5.0949094  )
        18        O      tau(  18) = (   0.5000000   1.8963749   5.0949092  )

     number of k points=    32  Marzari-Vanderbilt smearing, width (Ry)=  0.0100
                       cart. coord. in units 2pi/alat
        k(    1) = (   0.0000000   0.0000000   0.0000000), wk =   0.0625000
        k(    2) = (   0.0000000   0.1239559   0.0000000), wk =   0.0625000
        k(    3) = (   0.0000000  -0.2479118   0.0000000), wk =   0.0625000
        k(    4) = (   0.0000000  -0.1239559   0.0000000), wk =   0.0625000
        k(    5) = (   0.1250000   0.0000000   0.0000000), wk =   0.0625000
        k(    6) = (   0.1250000   0.1239559   0.0000000), wk =   0.0625000
        k(    7) = (   0.1250000  -0.2479118   0.0000000), wk =   0.0625000
        k(    8) = (   0.1250000  -0.1239559   0.0000000), wk =   0.0625000
        k(    9) = (   0.2500000   0.0000000   0.0000000), wk =   0.0625000
        k(   10) = (   0.2500000   0.1239559   0.0000000), wk =   0.0625000
        k(   11) = (   0.2500000  -0.2479118   0.0000000), wk =   0.0625000
        k(   12) = (   0.2500000  -0.1239559   0.0000000), wk =   0.0625000
        k(   13) = (   0.3750000   0.0000000   0.0000000), wk =   0.0625000
        k(   14) = (   0.3750000   0.1239559   0.0000000), wk =   0.0625000
        k(   15) = (   0.3750000  -0.2479118   0.0000000), wk =   0.0625000
        k(   16) = (   0.3750000  -0.1239559   0.0000000), wk =   0.0625000
        k(   17) = (  -0.5000000   0.0000000   0.0000000), wk =   0.0625000
        k(   18) = (  -0.5000000   0.1239559   0.0000000), wk =   0.0625000
        k(   19) = (  -0.5000000  -0.2479118   0.0000000), wk =   0.0625000
        k(   20) = (  -0.5000000  -0.1239559   0.0000000), wk =   0.0625000
        k(   21) = (  -0.3750000   0.0000000   0.0000000), wk =   0.0625000
        k(   22) = (  -0.3750000   0.1239559   0.0000000), wk =   0.0625000
        k(   23) = (  -0.3750000  -0.2479118   0.0000000), wk =   0.0625000
        k(   24) = (  -0.3750000  -0.1239559   0.0000000), wk =   0.0625000
        k(   25) = (  -0.2500000   0.0000000   0.0000000), wk =   0.0625000
        k(   26) = (  -0.2500000   0.1239559   0.0000000), wk =   0.0625000
        k(   27) = (  -0.2500000  -0.2479118   0.0000000), wk =   0.0625000
        k(   28) = (  -0.2500000  -0.1239559   0.0000000), wk =   0.0625000
        k(   29) = (  -0.1250000   0.0000000   0.0000000), wk =   0.0625000
        k(   30) = (  -0.1250000   0.1239559   0.0000000), wk =   0.0625000
        k(   31) = (  -0.1250000  -0.2479118   0.0000000), wk =   0.0625000
        k(   32) = (  -0.1250000  -0.1239559   0.0000000), wk =   0.0625000

     Dense  grid:   941385 G-vectors     FFT dimensions: (  48, 100, 400)

     Smooth grid:   332621 G-vectors     FFT dimensions: (  36,  72, 288)

     Estimated max dynamical RAM per process >      81.45 MB

     Estimated total dynamical RAM >       9.51 GB

     Initial potential from superposition of free atoms

     starting charge     158.9998, renormalised to     162.0000

     negative rho (up, down):  2.226E+00 0.000E+00

     STARTING HUBBARD OCCUPATIONS:

     =================== HUBBARD OCCUPATIONS ===================
     ------------------------ ATOM    1 ------------------------
     Tr[ns(  1)] =   8.50000
     eigenvalues:
       0.850  0.850  0.850  0.850  0.850
     eigenvectors (columns):
       1.000  0.000  0.000  0.000  0.000
       0.000  1.000  0.000  0.000  0.000
       0.000  0.000  1.000  0.000  0.000
       0.000  0.000  0.000  1.000  0.000
       0.000  0.000  0.000  0.000  1.000
     occupation matrix ns (before diag.):
       0.850  0.000  0.000  0.000  0.000
       0.000  0.850  0.000  0.000  0.000
       0.000  0.000  0.850  0.000  0.000
       0.000  0.000  0.000  0.850  0.000
       0.000  0.000  0.000  0.000  0.850
     ------------------------ ATOM    2 ------------------------
     Tr[ns(  2)] =   8.50000
     eigenvalues:
       0.850  0.850  0.850  0.850  0.850
     eigenvectors (columns):
       1.000  0.000  0.000  0.000  0.000
       0.000  1.000  0.000  0.000  0.000
       0.000  0.000  1.000  0.000  0.000
       0.000  0.000  0.000  1.000  0.000
       0.000  0.000  0.000  0.000  1.000
     occupation matrix ns (before diag.):
       0.850  0.000  0.000  0.000  0.000
       0.000  0.850  0.000  0.000  0.000
       0.000  0.000  0.850  0.000  0.000
       0.000  0.000  0.000  0.850  0.000
       0.000  0.000  0.000  0.000  0.850
     ------------------------ ATOM    3 ------------------------
     Tr[ns(  3)] =   8.50000
     eigenvalues:
       0.850  0.850  0.850  0.850  0.850
     eigenvectors (columns):
       1.000  0.000  0.000  0.000  0.000
       0.000  1.000  0.000  0.000  0.000
       0.000  0.000  1.000  0.000  0.000
       0.000  0.000  0.000  1.000  0.000
       0.000  0.000  0.000  0.000  1.000
     occupation matrix ns (before diag.):
       0.850  0.000  0.000  0.000  0.000
       0.000  0.850  0.000  0.000  0.000
       0.000  0.000  0.850  0.000  0.000
       0.000  0.000  0.000  0.850  0.000
       0.000  0.000  0.000  0.000  0.850
     ------------------------ ATOM    4 ------------------------
     Tr[ns(  4)] =   8.50000
     eigenvalues:
       0.850  0.850  0.850  0.850  0.850
     eigenvectors (columns):
       1.000  0.000  0.000  0.000  0.000
       0.000  1.000  0.000  0.000  0.000
       0.000  0.000  1.000  0.000  0.000
       0.000  0.000  0.000  1.000  0.000
       0.000  0.000  0.000  0.000  1.000
     occupation matrix ns (before diag.):
       0.850  0.000  0.000  0.000  0.000
       0.000  0.850  0.000  0.000  0.000
       0.000  0.000  0.850  0.000  0.000
       0.000  0.000  0.000  0.850  0.000
       0.000  0.000  0.000  0.000  0.850
     ------------------------ ATOM    5 ------------------------
     Tr[ns(  5)] =   8.50000
     eigenvalues:
       0.850  0.850  0.850  0.850  0.850
     eigenvectors (columns):
       1.000  0.000  0.000  0.000  0.000
       0.000  1.000  0.000  0.000  0.000
       0.000  0.000  1.000  0.000  0.000
       0.000  0.000  0.000  1.000  0.000
       0.000  0.000  0.000  0.000  1.000
     occupation matrix ns (before diag.):
       0.850  0.000  0.000  0.000  0.000
       0.000  0.850  0.000  0.000  0.000
       0.000  0.000  0.850  0.000  0.000
       0.000  0.000  0.000  0.850  0.000
       0.000  0.000  0.000  0.000  0.850
     ------------------------ ATOM    6 ------------------------
     Tr[ns(  6)] =   8.50000
     eigenvalues:
       0.850  0.850  0.850  0.850  0.850
     eigenvectors (columns):
       1.000  0.000  0.000  0.000  0.000
       0.000  1.000  0.000  0.000  0.000
       0.000  0.000  1.000  0.000  0.000
       0.000  0.000  0.000  1.000  0.000
       0.000  0.000  0.000  0.000  1.000
     occupation matrix ns (before diag.):
       0.850  0.000  0.000  0.000  0.000
       0.000  0.850  0.000  0.000  0.000
       0.000  0.000  0.850  0.000  0.000
       0.000  0.000  0.000  0.850  0.000
       0.000  0.000  0.000  0.000  0.850

     Number of occupied Hubbard levels =   51.0000

     Atomic wfc used for Hubbard projectors are NOT orthogonalized

     Starting wfcs are  120 randomized atomic wfcs
     Checking if some PAW data can be deallocated... 

     total cpu time spent up to now is        4.1 secs

     per-process dynamical memory:   106.6 Mb

     Self-consistent Calculation

     iteration #  1     ecut=    80.00 Ry     beta= 0.30
     Davidson diagonalization with overlap
     ethr =  1.00E-02,  avg # of iterations =  3.2

     =================== HUBBARD OCCUPATIONS ===================
     ------------------------ ATOM    1 ------------------------
     Tr[ns(  1)] =   7.28191
     eigenvalues:
       0.457  0.474  0.859  0.897  0.955
     eigenvectors (columns):
       0.998 -0.002 -0.000  0.000  0.061
       0.000  0.000  1.000 -0.000 -0.000
       0.000  0.000 -0.000 -1.000  0.000
      -0.061  0.000  0.000 -0.000  0.998
       0.002  1.000 -0.000  0.000  0.000
     occupation matrix ns (before diag.):
       0.459 -0.000 -0.000  0.030 -0.000
      -0.000  0.859  0.000 -0.000 -0.000
      -0.000  0.000  0.897  0.000 -0.000
       0.030 -0.000  0.000  0.953  0.000
      -0.000 -0.000 -0.000  0.000  0.474
     ------------------------ ATOM    2 ------------------------
     Tr[ns(  2)] =   6.90018
     eigenvalues:
       0.469  0.507  0.652  0.858  0.964
     eigenvectors (columns):
       0.000 -0.402  0.000 -0.000 -0.915
       1.000  0.000 -0.000 -0.000  0.000
       0.000  0.000  1.000  0.000  0.000
       0.000 -0.915  0.000 -0.000  0.402
      -0.000  0.000  0.000 -1.000  0.000
     occupation matrix ns (before diag.):
       0.890 -0.000  0.000 -0.168  0.000
      -0.000  0.469 -0.000 -0.000  0.000
       0.000 -0.000  0.652  0.000 -0.000
      -0.168 -0.000  0.000  0.581  0.000
       0.000  0.000 -0.000  0.000  0.858
     ------------------------ ATOM    3 ------------------------
     Tr[ns(  3)] =   7.08001
     eigenvalues:
       0.474  0.494  0.787  0.835  0.949
     eigenvectors (columns):
       0.003  0.994  0.000  0.000  0.106
       0.000  0.000 -0.000 -1.000 -0.000
       0.000 -0.000 -1.000  0.000  0.000
      -0.000 -0.106  0.000 -0.000  0.994
       1.000 -0.003  0.000  0.000  0.000
     occupation matrix ns (before diag.):
       0.499 -0.000  0.000  0.048 -0.000
      -0.000  0.835 -0.000 -0.000 -0.000
       0.000 -0.000  0.787  0.000 -0.000
       0.048 -0.000  0.000  0.944  0.000
      -0.000 -0.000 -0.000  0.000  0.474
     ------------------------ ATOM    4 ------------------------
     Tr[ns(  4)] =   7.01671
     eigenvalues:
       0.471  0.499  0.753  0.870  0.916
     eigenvectors (columns):
       0.000  0.436  0.000 -0.000 -0.900
      -1.000  0.000  0.000 -0.000  0.000
      -0.000 -0.000 -1.000 -0.000 -0.000
       0.000  0.900 -0.000  0.000  0.436
       0.000  0.000  0.000 -1.000  0.000
     occupation matrix ns (before diag.):
       0.836 -0.000  0.000 -0.164 -0.000
      -0.000  0.471 -0.000  0.000  0.000
       0.000 -0.000  0.753 -0.000  0.000
      -0.164  0.000 -0.000  0.578 -0.000
      -0.000  0.000  0.000 -0.000  0.870
     ------------------------ ATOM    5 ------------------------
     Tr[ns(  5)] =   7.19211
     eigenvalues:
       0.447  0.477  0.845  0.879  0.948
     eigenvectors (columns):
      -0.997  0.000  0.000  0.000 -0.080
       0.000 -0.000  1.000  0.000  0.000
       0.000 -0.000  0.000 -1.000 -0.001
       0.080 -0.000  0.000  0.001 -0.997
       0.000  1.000  0.000 -0.000  0.000
     occupation matrix ns (before diag.):
       0.451  0.000  0.000  0.040  0.000
       0.000  0.845 -0.000 -0.000  0.000
       0.000 -0.000  0.879  0.000  0.000
       0.040 -0.000  0.000  0.945 -0.000
       0.000  0.000  0.000 -0.000  0.477
     ------------------------ ATOM    6 ------------------------
     Tr[ns(  6)] =   6.95243
     eigenvalues:
       0.472  0.501  0.698  0.841  0.964
     eigenvectors (columns):
       0.000  0.396 -0.000 -0.000 -0.918
      -1.000  0.001 -0.000  0.000 -0.000
       0.000 -0.000 -1.000  0.000  0.000
       0.001  0.918 -0.000  0.000  0.396
      -0.000  0.000 -0.000 -1.000  0.000
     occupation matrix ns (before diag.):
       0.892  0.000 -0.000 -0.169 -0.000
       0.000  0.472  0.000  0.000 -0.000
      -0.000  0.000  0.698  0.000 -0.000
      -0.169  0.000  0.000  0.573  0.000
      -0.000 -0.000 -0.000  0.000  0.841

     Number of occupied Hubbard levels =   42.4234

     negative rho (up, down):  2.089E+00 0.000E+00

     total cpu time spent up to now is       10.8 secs

     total energy              =   -1589.82995122 Ry
     estimated scf accuracy    <      11.65905897 Ry

     iteration #  2     ecut=    80.00 Ry     beta= 0.30
     Davidson diagonalization with overlap
     ethr =  7.20E-03,  avg # of iterations =  1.0

     negative rho (up, down):  1.858E+00 0.000E+00

     total cpu time spent up to now is       14.9 secs

     total energy              =   -1587.54790573 Ry
     estimated scf accuracy    <       5.45676281 Ry

     iteration #  3     ecut=    80.00 Ry     beta= 0.30
     Davidson diagonalization with overlap
     ethr =  3.37E-03,  avg # of iterations =  2.4

     negative rho (up, down):  1.932E+00 0.000E+00

     total cpu time spent up to now is       19.7 secs

     total energy              =   -1588.74290424 Ry
     estimated scf accuracy    <       1.08209755 Ry

     iteration #  4     ecut=    80.00 Ry     beta= 0.30
     Davidson diagonalization with overlap
     ethr =  6.68E-04,  avg # of iterations =  4.5

     negative rho (up, down):  1.937E+00 0.000E+00

     total cpu time spent up to now is       24.4 secs

     total energy              =   -1588.86286003 Ry
     estimated scf accuracy    <       0.31181610 Ry

     iteration #  5     ecut=    80.00 Ry     beta= 0.30
     Davidson diagonalization with overlap
     ethr =  1.92E-04,  avg # of iterations =  5.0

     negative rho (up, down):  1.954E+00 0.000E+00

     total cpu time spent up to now is       29.1 secs

     total energy              =   -1588.84966950 Ry
     estimated scf accuracy    <       0.10691130 Ry

     iteration #  6     ecut=    80.00 Ry     beta= 0.30
     Davidson diagonalization with overlap
     ethr =  6.60E-05,  avg # of iterations =  6.1

     negative rho (up, down):  1.968E+00 0.000E+00

     total cpu time spent up to now is       35.9 secs

     total energy              =   -1588.86533432 Ry
     estimated scf accuracy    <       0.01485599 Ry

     iteration #  7     ecut=    80.00 Ry     beta= 0.30
     Davidson diagonalization with overlap
     ethr =  9.17E-06,  avg # of iterations =  8.4

     negative rho (up, down):  1.984E+00 0.000E+00

     total cpu time spent up to now is       41.2 secs

     total energy              =   -1588.86540000 Ry
     estimated scf accuracy    <       0.01786663 Ry

     iteration #  8     ecut=    80.00 Ry     beta= 0.30
     Davidson diagonalization with overlap
     ethr =  9.17E-06,  avg # of iterations =  4.6

     negative rho (up, down):  1.997E+00 0.000E+00

     total cpu time spent up to now is       45.6 secs

     total energy              =   -1588.86217542 Ry
     estimated scf accuracy    <       0.01470321 Ry

     iteration #  9     ecut=    80.00 Ry     beta= 0.30
     Davidson diagonalization with overlap
     ethr =  9.08E-06,  avg # of iterations =  3.0

     negative rho (up, down):  1.990E+00 0.000E+00

     total cpu time spent up to now is       49.7 secs

     total energy              =   -1588.86175862 Ry
     estimated scf accuracy    <       0.00541319 Ry

     iteration # 10     ecut=    80.00 Ry     beta= 0.30
     Davidson diagonalization with overlap
     ethr =  3.34E-06,  avg # of iterations =  9.3

     negative rho (up, down):  1.970E+00 0.000E+00

     total cpu time spent up to now is       55.2 secs

     total energy              =   -1588.86090658 Ry
     estimated scf accuracy    <       0.00275803 Ry

     iteration # 11     ecut=    80.00 Ry     beta= 0.30
     Davidson diagonalization with overlap
     c_bands:  1 eigenvalues not converged
     ethr =  1.70E-06,  avg # of iterations = 10.5

     negative rho (up, down):  1.960E+00 0.000E+00

     total cpu time spent up to now is       60.6 secs

     total energy              =   -1588.86048574 Ry
     estimated scf accuracy    <       0.00168610 Ry

     iteration # 12     ecut=    80.00 Ry     beta= 0.30
     Davidson diagonalization with overlap
     c_bands:  1 eigenvalues not converged
     c_bands:  1 eigenvalues not converged
     ethr =  1.04E-06,  avg # of iterations = 10.5

     negative rho (up, down):  1.947E+00 0.000E+00

     total cpu time spent up to now is       66.0 secs

     total energy              =   -1588.85989573 Ry
     estimated scf accuracy    <       0.00105282 Ry

     iteration # 13     ecut=    80.00 Ry     beta= 0.30
     Davidson diagonalization with overlap
     c_bands:  1 eigenvalues not converged
     c_bands:  1 eigenvalues not converged
     c_bands:  1 eigenvalues not converged
     ethr =  6.50E-07,  avg # of iterations = 13.5

     negative rho (up, down):  1.941E+00 0.000E+00

     total cpu time spent up to now is       71.7 secs

     total energy              =   -1588.85951851 Ry
     estimated scf accuracy    <       0.00049588 Ry

     iteration # 14     ecut=    80.00 Ry     beta= 0.30
     Davidson diagonalization with overlap
     c_bands:  1 eigenvalues not converged
     c_bands:  1 eigenvalues not converged
     ethr =  3.06E-07,  avg # of iterations = 10.7

     negative rho (up, down):  1.936E+00 0.000E+00

     total cpu time spent up to now is       77.1 secs

     total energy              =   -1588.85937934 Ry
     estimated scf accuracy    <       0.00018879 Ry

     iteration # 15     ecut=    80.00 Ry     beta= 0.30
     Davidson diagonalization with overlap
     ethr =  1.17E-07,  avg # of iterations =  5.8

     negative rho (up, down):  1.931E+00 0.000E+00

     total cpu time spent up to now is       81.7 secs

     total energy              =   -1588.85936810 Ry
     estimated scf accuracy    <       0.00007632 Ry

     iteration # 16     ecut=    80.00 Ry     beta= 0.30
     Davidson diagonalization with overlap
     c_bands:  2 eigenvalues not converged
     ethr =  4.71E-08,  avg # of iterations =  5.2

     negative rho (up, down):  1.927E+00 0.000E+00

     total cpu time spent up to now is       86.2 secs

     total energy              =   -1588.85933502 Ry
     estimated scf accuracy    <       0.00002799 Ry

     iteration # 17     ecut=    80.00 Ry     beta= 0.30
     Davidson diagonalization with overlap
     ethr =  1.73E-08,  avg # of iterations =  5.7

     negative rho (up, down):  1.927E+00 0.000E+00

     total cpu time spent up to now is       90.7 secs

     total energy              =   -1588.85933120 Ry
     estimated scf accuracy    <       0.00000413 Ry

     iteration # 18     ecut=    80.00 Ry     beta= 0.30
     Davidson diagonalization with overlap
     ethr =  2.55E-09,  avg # of iterations =  2.0

     negative rho (up, down):  1.927E+00 0.000E+00

     total cpu time spent up to now is       94.9 secs

     total energy              =   -1588.85932961 Ry
     estimated scf accuracy    <       0.00000107 Ry

     iteration # 19     ecut=    80.00 Ry     beta= 0.30
     Davidson diagonalization with overlap
     ethr =  6.62E-10,  avg # of iterations =  2.2

     negative rho (up, down):  1.926E+00 0.000E+00

     total cpu time spent up to now is       98.8 secs

     End of self-consistent calculation

     =================== HUBBARD OCCUPATIONS ===================
     ------------------------ ATOM    1 ------------------------
     Tr[ns(  1)] =   8.08493
     eigenvalues:
       0.574  0.606  0.933  0.948  0.981
     eigenvectors (columns):
      -0.998 -0.000  0.000  0.000  0.065
      -0.000  0.000 -1.000 -0.000  0.000
      -0.000  0.000  0.000 -1.000 -0.000
       0.065  0.000  0.000 -0.000  0.998
      -0.000  1.000  0.000  0.000 -0.000
     occupation matrix ns (before diag.):
       0.576 -0.000 -0.000  0.026 -0.000
      -0.000  0.933  0.000  0.000 -0.000
      -0.000  0.000  0.948 -0.000 -0.000
       0.026  0.000 -0.000  0.980 -0.000
      -0.000 -0.000 -0.000 -0.000  0.606
     ------------------------ ATOM    2 ------------------------
     Tr[ns(  2)] =   8.08552
     eigenvalues:
       0.650  0.667  0.838  0.905  0.983
     eigenvectors (columns):
       0.000  0.401 -0.000 -0.000  0.916
       1.000 -0.000  0.000 -0.000 -0.000
      -0.000 -0.000  1.000  0.000  0.000
       0.000  0.916  0.000  0.000 -0.401
      -0.000  0.000  0.000 -1.000 -0.000
     occupation matrix ns (before diag.):
       0.932 -0.000  0.000 -0.116 -0.000
      -0.000  0.650  0.000 -0.000  0.000
       0.000  0.000  0.838  0.000 -0.000
      -0.116 -0.000  0.000  0.718 -0.000
      -0.000  0.000 -0.000 -0.000  0.905
     ------------------------ ATOM    3 ------------------------
     Tr[ns(  3)] =   8.12371
     eigenvalues:
       0.616  0.649  0.898  0.918  0.982
     eigenvectors (columns):
       0.000 -0.996 -0.000 -0.000 -0.088
       0.000 -0.000 -0.000  1.000 -0.000
      -0.000  0.000 -1.000 -0.000  0.000
      -0.000  0.088 -0.000 -0.000 -0.996
       1.000  0.000 -0.000 -0.000 -0.000
     occupation matrix ns (before diag.):
       0.652 -0.000  0.000  0.029 -0.000
      -0.000  0.918 -0.000  0.000 -0.000
       0.000 -0.000  0.898 -0.000  0.000
       0.029  0.000 -0.000  0.979  0.000
      -0.000 -0.000  0.000  0.000  0.616
     ------------------------ ATOM    4 ------------------------
     Tr[ns(  4)] =   8.13181
     eigenvalues:
       0.617  0.639  0.889  0.958  0.963
     eigenvectors (columns):
       0.000  0.454 -0.000  0.000  0.891
       1.000 -0.000  0.000 -0.000  0.000
      -0.000  0.000  1.000  0.000  0.000
       0.000  0.891 -0.000 -0.000 -0.454
       0.000 -0.000 -0.000  1.000 -0.000
     occupation matrix ns (before diag.):
       0.896  0.000 -0.000 -0.131 -0.000
       0.000  0.617  0.000 -0.000 -0.000
      -0.000  0.000  0.889 -0.000  0.000
      -0.131 -0.000 -0.000  0.706  0.000
      -0.000 -0.000  0.000  0.000  0.958
     ------------------------ ATOM    5 ------------------------
     Tr[ns(  5)] =   8.08271
     eigenvalues:
       0.589  0.610  0.925  0.938  0.980
     eigenvectors (columns):
      -0.997 -0.000 -0.000 -0.000  0.077
       0.000  0.000 -1.000  0.000 -0.000
       0.000 -0.000 -0.000 -1.000 -0.000
       0.077  0.000 -0.000 -0.000  0.997
      -0.000  1.000  0.000 -0.000 -0.000
     occupation matrix ns (before diag.):
       0.591  0.000  0.000  0.030 -0.000
       0.000  0.925 -0.000 -0.000 -0.000
       0.000 -0.000  0.938 -0.000  0.000
       0.030 -0.000 -0.000  0.978 -0.000
      -0.000 -0.000  0.000 -0.000  0.610
     ------------------------ ATOM    6 ------------------------
     Tr[ns(  6)] =   8.08605
     eigenvalues:
       0.644  0.663  0.854  0.899  0.982
     eigenvectors (columns):
      -0.000  0.392  0.000  0.000  0.920
       1.000  0.000  0.000 -0.000  0.000
       0.000  0.000 -1.000  0.000  0.000
      -0.000  0.920  0.000 -0.000 -0.392
      -0.000 -0.000 -0.000 -1.000  0.000
     occupation matrix ns (before diag.):
       0.933  0.000  0.000 -0.115  0.000
       0.000  0.644 -0.000 -0.000  0.000
       0.000 -0.000  0.854 -0.000 -0.000
      -0.115 -0.000 -0.000  0.712  0.000
       0.000  0.000 -0.000  0.000  0.899

     Number of occupied Hubbard levels =   48.5947

          k = 0.0000 0.0000 0.0000 ( 41611 PWs)   bands (ev):

   -48.5044 -48.3676 -48.3428 -48.3333 -48.3117 -48.2880 -48.2799 -48.1880
   -48.1354 -48.1047 -48.1035 -48.0972 -48.0840 -48.0540 -48.0272 -47.8804
   -47.8433 -47.7703 -19.4591 -19.1870 -19.1337 -18.8430 -18.2278 -17.9710
   -17.8709 -17.4945 -17.4315 -17.3644 -16.3398 -16.1562  -8.6723  -8.5996
    -8.5030  -8.0885  -7.1876  -6.8197  -6.6413  -6.4964  -6.4487  -6.4415
    -6.3044  -5.8432  -5.8414  -5.6673  -4.7382  -4.6389  -3.9094  -3.8153
    -3.5680  -3.2403  -3.1072  -3.0826  -3.0631  -2.9329  -2.9137  -2.8863
    -2.7155  -2.6177  -2.4834  -2.3882  -1.7915  -1.6956  -1.6743  -1.5946
    -1.5880  -1.5592  -1.4801  -1.3655  -1.3599  -1.3350  -1.2888  -1.1870
    -1.1009  -0.8563  -0.5029  -0.2865  -0.2329   0.2968   0.5436   0.5638
     1.2183   1.6200   1.6763   2.1540   2.3606   2.5023   3.4739   4.2720
     4.3800   5.0721   5.3909   5.7875   5.8338   5.8362   5.9723   6.1419
     6.3150

          k = 0.0000 0.1240 0.0000 ( 41688 PWs)   bands (ev):

   -48.5044 -48.3670 -48.3428 -48.3335 -48.3120 -48.2868 -48.2811 -48.1881
   -48.1351 -48.1051 -48.1051 -48.0974 -48.0837 -48.0544 -48.0274 -47.8806
   -47.8443 -47.7713 -19.3361 -19.0260 -18.9882 -18.8346 -18.2504 -18.0410
   -17.8737 -17.6755 -17.6430 -17.5447 -16.3368 -16.1563  -8.2450  -8.0869
    -8.0322  -7.9621  -7.1832  -6.5992  -6.5186  -6.4935  -6.3341  -6.3118
    -6.2633  -5.8414  -5.6673  -5.6161  -4.8030  -4.6618  -4.5409  -4.3627
    -4.1049  -4.0084  -3.8754  -3.7469  -3.5409  -3.4891  -3.3685  -3.2040
    -2.9164  -2.6800  -2.3840  -2.3323  -2.0511  -1.7128  -1.5613  -1.4732
    -1.4627  -1.3343  -1.1449  -1.0521  -0.8774  -0.8432  -0.8172  -0.6923
    -0.6311  -0.5758  -0.3228  -0.2025  -0.1502   0.2985   0.5473   0.6369
     1.2595   1.3658   1.6247   1.9804   2.1432   2.6456   3.9112   4.7483
     4.9238   5.0727   5.4955   5.5558   5.6204   5.7131   5.8427   6.3606
     6.5681

          k = 0.0000-0.2479 0.0000 ( 41774 PWs)   bands (ev):

   -48.5044 -48.3665 -48.3428 -48.3336 -48.3123 -48.2845 -48.2835 -48.1882
   -48.1349 -48.1067 -48.1054 -48.0975 -48.0835 -48.0547 -48.0276 -47.8808
   -47.8453 -47.7724 -19.1660 -18.9237 -18.7692 -18.6412 -18.3801 -18.2343
   -17.9028 -17.8697 -17.8543 -17.6901 -16.3353 -16.1570  -8.1358  -7.4027
    -7.2563  -7.2368  -7.1731  -6.4944  -6.4164  -6.3636  -6.1991  -6.1525
    -5.8392  -5.7609  -5.7232  -5.6678  -5.3387  -5.2019  -5.1064  -5.0513
    -4.8130  -4.6528  -4.1232  -4.0503  -4.0471  -3.9179  -3.8330  -3.6327
    -2.9109  -2.7139  -2.0621  -2.0360  -1.8386  -1.7754  -1.7278  -1.4836
    -1.4656  -1.2751  -1.2499  -0.9569  -0.7275  -0.5807  -0.4881  -0.3411
    -0.3030  -0.1372   0.0401   0.1640   0.2276   0.3817   0.6144   0.6375
     0.8855   1.2689   1.5063   1.7755   2.0140   2.7819   4.1961   5.0748
     5.1763   5.2562   5.2602   5.4178   5.4388   5.8416   5.9598   6.1444
     6.5131

          k = 0.0000-0.1240 0.0000 ( 41688 PWs)   bands (ev):

   -48.5044 -48.3670 -48.3428 -48.3335 -48.3120 -48.2868 -48.2811 -48.1881
   -48.1351 -48.1051 -48.1051 -48.0974 -48.0837 -48.0544 -48.0274 -47.8806
   -47.8443 -47.7713 -19.3361 -19.0260 -18.9882 -18.8346 -18.2504 -18.0410
   -17.8737 -17.6755 -17.6430 -17.5447 -16.3368 -16.1563  -8.2450  -8.0869
    -8.0322  -7.9621  -7.1832  -6.5992  -6.5186  -6.4935  -6.3341  -6.3118
    -6.2633  -5.8414  -5.6673  -5.6161  -4.8030  -4.6618  -4.5409  -4.3627
    -4.1049  -4.0084  -3.8754  -3.7469  -3.5409  -3.4891  -3.3685  -3.2040
    -2.9164  -2.6800  -2.3840  -2.3323  -2.0511  -1.7128  -1.5613  -1.4732
    -1.4627  -1.3343  -1.1449  -1.0521  -0.8774  -0.8432  -0.8172  -0.6923
    -0.6311  -0.5758  -0.3228  -0.2025  -0.1502   0.2985   0.5473   0.6369
     1.2595   1.3658   1.6247   1.9804   2.1432   2.6456   3.9112   4.7483
     4.9238   5.0727   5.4955   5.5557   5.6204   5.7133   5.8427   6.3606
     6.5687

          k = 0.1250 0.0000 0.0000 ( 41611 PWs)   bands (ev):

   -48.5036 -48.3666 -48.3420 -48.3310 -48.3109 -48.3069 -48.2984 -48.1872
   -48.1535 -48.1232 -48.1025 -48.1017 -48.0964 -48.0730 -48.0250 -47.8781
   -47.8413 -47.7683 -19.3100 -19.0543 -18.9947 -18.7219 -18.1420 -17.9583
   -17.8519 -17.5934 -17.5320 -17.4664 -16.4093 -16.2263  -8.4110  -8.3588
    -8.2581  -7.8487  -7.0690  -6.7191  -6.6422  -6.5451  -6.4012  -6.3628
    -6.2206  -5.6105  -5.5697  -5.3694  -4.7085  -4.5803  -4.5140  -3.8127
    -3.8005  -3.7503  -3.5975  -3.5554  -3.4964  -3.2356  -3.0005  -2.8939
    -2.7612  -2.7335  -2.5733  -2.4774  -2.4482  -2.2898  -2.1958  -1.9531
    -1.5630  -1.4519  -1.2138  -1.1467  -1.0947  -0.9583  -0.8972  -0.7896
    -0.7464  -0.4700  -0.1898  -0.0243   0.1661   0.4604   0.6626   0.9444
     1.0439   1.5058   1.8306   1.9866   2.3251   2.3579   3.6888   4.4015
     4.4875   4.9033   5.1998   5.4244   5.4444   5.5909   5.5996   5.6965
     6.5603

          k = 0.1250 0.1240 0.0000 ( 41692 PWs)   bands (ev):

   -48.5036 -48.3663 -48.3420 -48.3311 -48.3111 -48.3055 -48.2995 -48.1873
   -48.1531 -48.1235 -48.1028 -48.1021 -48.0965 -48.0733 -48.0252 -47.8783
   -47.8419 -47.7689 -19.1929 -18.8997 -18.8510 -18.7150 -18.1640 -17.9798
   -17.9211 -17.7542 -17.7237 -17.6164 -16.4070 -16.2259  -7.9828  -7.8603
    -7.8032  -7.7419  -7.0642  -6.5830  -6.5431  -6.5007  -6.3389  -6.2917
    -6.0622  -5.5686  -5.4918  -5.3640  -4.7645  -4.7105  -4.4872  -4.4756
    -4.3936  -4.1901  -4.0870  -3.9004  -3.8844  -3.8312  -3.5833  -3.4793
    -3.1795  -3.0148  -2.4648  -2.3584  -2.2455  -2.1056  -1.8403  -1.6070
    -1.5453  -1.4284  -1.0977  -0.8285  -0.7817  -0.7323  -0.4587  -0.4255
    -0.3829  -0.3026  -0.2045   0.1187   0.2559   0.5243   0.6762   0.9313
     1.0988   1.2525   1.6243   1.9830   2.0472   2.5821   4.0439   4.6318
     4.7443   4.9330   5.0134   5.2633   5.3412   5.4167   5.6467   5.8531
     6.5953

          k = 0.1250-0.2479 0.0000 ( 41706 PWs)   bands (ev):

   -48.5036 -48.3660 -48.3420 -48.3312 -48.3113 -48.3028 -48.3019 -48.1874
   -48.1528 -48.1237 -48.1040 -48.1017 -48.0966 -48.0735 -48.0254 -47.8784
   -47.8426 -47.7696 -19.0303 -18.7793 -18.6346 -18.5130 -18.3239 -18.1861
   -17.9894 -17.9346 -17.9105 -17.7005 -16.4058 -16.2258  -7.8782  -7.1487
    -7.0402  -6.9842  -6.9645  -6.5605  -6.4603  -6.4397  -6.3529  -6.2784
    -5.6466  -5.6043  -5.4562  -5.3551  -5.2802  -5.1706  -4.8708  -4.8627
    -4.7637  -4.7628  -4.6073  -4.4657  -4.2882  -4.1265  -4.0856  -3.8992
    -3.2152  -3.0321  -2.2749  -2.1567  -2.0363  -1.8607  -1.8038  -1.5776
    -1.3927  -1.2920  -1.0990  -0.7016  -0.6559  -0.6264  -0.5623  -0.4034
    -0.1572   0.1518   0.3490   0.3679   0.5348   0.6881   0.6989   0.7686
     1.0097   1.2211   1.3653   1.6176   2.1389   2.7023   4.3169   4.5923
     4.6088   4.7563   4.8035   5.3455   5.4100   5.5528   5.7088   6.0540
     6.7022

          k = 0.1250-0.1240 0.0000 ( 41692 PWs)   bands (ev):

   -48.5036 -48.3663 -48.3420 -48.3311 -48.3111 -48.3055 -48.2995 -48.1873
   -48.1531 -48.1235 -48.1028 -48.1021 -48.0965 -48.0733 -48.0252 -47.8783
   -47.8419 -47.7689 -19.1929 -18.8997 -18.8510 -18.7150 -18.1640 -17.9798
   -17.9211 -17.7542 -17.7237 -17.6164 -16.4070 -16.2259  -7.9828  -7.8603
    -7.8032  -7.7419  -7.0642  -6.5830  -6.5431  -6.5007  -6.3389  -6.2917
    -6.0622  -5.5686  -5.4918  -5.3640  -4.7645  -4.7105  -4.4872  -4.4756
    -4.3936  -4.1901  -4.0870  -3.9004  -3.8844  -3.8312  -3.5833  -3.4793
    -3.1795  -3.0148  -2.4648  -2.3584  -2.2455  -2.1056  -1.8403  -1.6070
    -1.5453  -1.4284  -1.0977  -0.8285  -0.7817  -0.7323  -0.4587  -0.4255
    -0.3829  -0.3026  -0.2045   0.1187   0.2559   0.5243   0.6762   0.9313
     1.0988   1.2525   1.6243   1.9830   2.0472   2.5821   4.0439   4.6318
     4.7443   4.9330   5.0134   5.2633   5.3412   5.4167   5.6467   5.8531
     6.5953

          k = 0.2500 0.0000 0.0000 ( 41623 PWs)   bands (ev):

   -48.5012 -48.3638 -48.3494 -48.3404 -48.3396 -48.3251 -48.3086 -48.1941
   -48.1850 -48.1651 -48.1441 -48.1164 -48.0972 -48.0940 -48.0196 -47.8725
   -47.8363 -47.7631 -18.9370 -18.7349 -18.6581 -18.4387 -18.1569 -17.9884
   -17.8240 -17.7621 -17.7022 -17.6166 -16.5219 -16.3219  -7.7367  -7.7169
    -7.6052  -7.2004  -6.7479  -6.7300  -6.5863  -6.4803  -6.2867  -6.1346
    -5.9715  -5.9484  -5.2209  -5.0510  -4.9278  -4.8430  -4.7213  -4.5513
    -4.5001  -4.1782  -4.0989  -3.8178  -3.6565  -3.5846  -3.3780  -3.3626
    -3.3334  -3.1208  -2.8625  -2.8381  -2.5173  -2.3066  -2.1402  -1.7561
    -1.5563  -1.3057  -1.1243  -0.8830  -0.8657  -0.7211  -0.7177  -0.6940
    -0.1028   0.1627   0.2490   0.3457   0.6488   0.7232   0.8303   0.9054
     1.0503   1.3183   1.5914   1.8423   2.1033   2.2433   3.9547   4.1842
     4.4678   4.7187   4.7441   4.8348   4.8987   4.9015   4.9866   5.7118
     7.0810

          k = 0.2500 0.1240 0.0000 ( 41653 PWs)   bands (ev):

   -48.5013 -48.3666 -48.3460 -48.3402 -48.3397 -48.3251 -48.3087 -48.1936
   -48.1851 -48.1651 -48.1435 -48.1163 -48.0974 -48.0941 -48.0197 -47.8726
   -47.8362 -47.7630 -18.8452 -18.6207 -18.5383 -18.4392 -18.1679 -18.0424
   -17.9133 -17.8921 -17.8625 -17.6002 -16.5206 -16.3208  -7.3391  -7.3044
    -7.1933  -7.1729  -6.7221  -6.6796  -6.5881  -6.4582  -6.3077  -6.2598
    -6.0416  -5.6275  -5.3195  -5.2884  -5.1748  -4.9985  -4.8562  -4.7503
    -4.5500  -4.2253  -4.0139  -3.9129  -3.8839  -3.7172  -3.6258  -3.5967
    -3.4886  -3.3436  -2.9959  -2.6469  -2.4761  -2.3511  -2.1160  -1.8633
    -1.5445  -1.3745  -1.1215  -1.0719  -0.6878  -0.3722  -0.3281  -0.2320
    -0.1439   0.1235   0.3211   0.4426   0.6576   0.7264   0.8027   0.9048
     1.1428   1.2320   1.4260   1.6116   2.2192   2.4010   4.0057   4.0856
     4.1044   4.1936   4.3581   4.8829   4.9590   5.3887   5.5389   5.9017
     7.1425

          k = 0.2500-0.2479 0.0000 ( 41680 PWs)   bands (ev):

   -48.5013 -48.3687 -48.3434 -48.3399 -48.3397 -48.3251 -48.3089 -48.1930
   -48.1851 -48.1651 -48.1430 -48.1162 -48.0975 -48.0941 -48.0198 -47.8727
   -47.8361 -47.7630 -18.7104 -18.4654 -18.3592 -18.3191 -18.2226 -18.2070
   -18.1575 -18.0683 -17.9178 -17.5955 -16.5196 -16.3197  -7.1860  -6.7308
    -6.6158  -6.6016  -6.5433  -6.5232  -6.4540  -6.3741  -6.3088  -6.2927
    -6.1015  -6.0404  -5.9258  -5.8156  -5.2613  -5.1550  -4.8225  -4.6763
    -4.4024  -4.3196  -4.2456  -4.2275  -4.1438  -4.1152  -3.8844  -3.8778
    -3.8673  -3.3345  -2.5895  -2.4909  -2.1707  -2.1233  -2.0200  -1.9950
    -1.9845  -1.1598  -1.0128  -1.0107  -0.8098  -0.5731  -0.2342   0.0512
     0.0615   0.0949   0.4922   0.5888   0.7188   0.8104   0.8886   0.9619
     1.1064   1.2618   1.3228   1.3891   2.3065   2.5090   3.6270   3.6744
     3.8489   4.1136   4.3243   4.8912   5.1624   5.5904   5.8831   6.1376
     7.2480

          k = 0.2500-0.1240 0.0000 ( 41653 PWs)   bands (ev):

   -48.5013 -48.3666 -48.3460 -48.3402 -48.3397 -48.3251 -48.3087 -48.1936
   -48.1851 -48.1651 -48.1435 -48.1163 -48.0974 -48.0941 -48.0197 -47.8726
   -47.8362 -47.7630 -18.8452 -18.6207 -18.5383 -18.4392 -18.1679 -18.0424
   -17.9133 -17.8921 -17.8625 -17.6002 -16.5206 -16.3208  -7.3391  -7.3044
    -7.1933  -7.1729  -6.7221  -6.6796  -6.5881  -6.4582  -6.3077  -6.2598
    -6.0416  -5.6275  -5.3195  -5.2884  -5.1748  -4.9985  -4.8562  -4.7503
    -4.5500  -4.2253  -4.0139  -3.9129  -3.8839  -3.7172  -3.6258  -3.5967
    -3.4886  -3.3436  -2.9959  -2.6469  -2.4761  -2.3511  -2.1160  -1.8633
    -1.5445  -1.3745  -1.1215  -1.0719  -0.6878  -0.3722  -0.3281  -0.2320
    -0.1439   0.1235   0.3211   0.4426   0.6576   0.7264   0.8027   0.9048
     1.1428   1.2320   1.4260   1.6116   2.2192   2.4010   4.0057   4.0856
     4.1044   4.1936   4.3581   4.8829   4.9590   5.3887   5.5389   5.9017
     7.1425

          k = 0.3750 0.0000 0.0000 ( 41645 PWs)   bands (ev):

   -48.4984 -48.3866 -48.3798 -48.3603 -48.3367 -48.3188 -48.3061 -48.2303
   -48.2036 -48.1825 -48.1813 -48.1561 -48.0927 -48.0913 -48.0141 -47.8667
   -47.8311 -47.7578 -18.5234 -18.4450 -18.3359 -18.2876 -18.1847 -18.0434
   -17.9772 -17.9378 -17.9247 -17.5107 -16.4958 -16.2895  -7.1047  -6.9511
    -6.8393  -6.8139  -6.8076  -6.7584  -6.5169  -6.3938  -6.3265  -6.2267
    -6.1748  -5.7641  -5.5889  -5.5356  -5.3701  -5.1522  -4.9830  -4.5338
    -4.3607  -4.0394  -4.0236  -3.9974  -3.8168  -3.6205  -3.5808  -3.2389
    -3.1326  -3.0518  -3.0148  -2.7251  -2.7239  -2.1130  -1.9330  -1.6351
    -1.4376  -1.2928  -1.0992  -0.9831  -0.9015  -0.7554  -0.7220  -0.3705
    -0.1384   0.0073   0.1351   0.4136   0.5252   0.7238   0.7461   0.9841
     1.1203   1.1568   1.7025   1.8601   1.8637   2.1396   3.4936   4.1454
     4.1703   4.2365   4.3730   4.4683   4.5370   4.9341   5.0497   5.6491
     7.8853

          k = 0.3750 0.1240 0.0000 ( 41549 PWs)   bands (ev):

   -48.4985 -48.3894 -48.3807 -48.3554 -48.3371 -48.3188 -48.3061 -48.2297
   -48.2030 -48.1825 -48.1807 -48.1553 -48.0918 -48.0913 -48.0140 -47.8667
   -47.8303 -47.7570 -18.5302 -18.4624 -18.3937 -18.3367 -18.2094 -18.0378
   -17.9229 -17.8996 -17.8756 -17.5119 -16.4941 -16.2876  -7.2011  -7.0139
    -6.9497  -6.8308  -6.8172  -6.6527  -6.5588  -6.5157  -6.3594  -6.3184
    -6.2418  -5.5709  -5.3562  -5.2516  -5.1353  -5.0089  -4.8239  -4.5318
    -4.4386  -4.1462  -3.9340  -3.8697  -3.7084  -3.6525  -3.5337  -3.3216
    -3.2298  -3.1173  -2.9471  -2.7053  -2.5217  -2.3304  -1.9711  -1.9176
    -1.5426  -1.4398  -1.1971  -1.0055  -0.7456  -0.7088  -0.6166  -0.5488
    -0.4678  -0.1362  -0.1104   0.0357   0.1829   0.6198   1.0981   1.2366
     1.3762   1.4974   1.5612   1.7725   2.0373   2.2435   3.3898   3.5096
     3.5523   3.6460   4.1908   4.4696   5.2943   5.6397   5.7577   5.8506
     7.9799

          k = 0.3750-0.2479 0.0000 ( 41514 PWs)   bands (ev):

   -48.4987 -48.3922 -48.3808 -48.3515 -48.3374 -48.3188 -48.3062 -48.2291
   -48.2025 -48.1825 -48.1801 -48.1545 -48.0913 -48.0908 -48.0140 -47.8667
   -47.8294 -47.7562 -18.5231 -18.5174 -18.4039 -18.3852 -18.2252 -18.0450
   -17.8686 -17.8662 -17.8420 -17.5130 -16.4924 -16.2856  -7.3582  -7.1306
    -7.0064  -6.9587  -6.8438  -6.5216  -6.4730  -6.4253  -6.2987  -6.2701
    -6.2361  -5.6079  -5.3758  -5.0594  -5.0397  -4.8192  -4.7203  -4.4658
    -4.3500  -3.9720  -3.8894  -3.8441  -3.7735  -3.6022  -3.5103  -3.4458
    -3.3000  -3.2286  -2.8632  -2.5633  -2.4588  -2.1604  -2.1451  -1.8313
    -1.7568  -1.6023  -1.5605  -1.1412  -1.0313  -0.9957  -0.6915  -0.5466
    -0.3986  -0.3207   0.0053   0.0420   0.2435   0.3296   1.1412   1.3564
     1.3816   1.6791   1.7278   1.7657   2.1639   2.3518   2.9781   3.0667
     3.2091   3.5619   4.2147   4.4674   5.6019   5.8755   6.1957   6.2818
     8.0784

          k = 0.3750-0.1240 0.0000 ( 41549 PWs)   bands (ev):

   -48.4985 -48.3894 -48.3807 -48.3554 -48.3371 -48.3188 -48.3061 -48.2297
   -48.2030 -48.1825 -48.1807 -48.1553 -48.0918 -48.0913 -48.0140 -47.8667
   -47.8303 -47.7570 -18.5302 -18.4624 -18.3937 -18.3367 -18.2094 -18.0378
   -17.9229 -17.8996 -17.8756 -17.5119 -16.4941 -16.2876  -7.2011  -7.0139
    -6.9497  -6.8308  -6.8172  -6.6527  -6.5588  -6.5157  -6.3594  -6.3184
    -6.2418  -5.5709  -5.3562  -5.2516  -5.1353  -5.0089  -4.8239  -4.5318
    -4.4386  -4.1462  -3.9340  -3.8697  -3.7084  -3.6525  -3.5337  -3.3216
    -3.2298  -3.1173  -2.9471  -2.7053  -2.5217  -2.3304  -1.9711  -1.9176
    -1.5426  -1.4398  -1.1971  -1.0055  -0.7456  -0.7088  -0.6166  -0.5488
    -0.4678  -0.1362  -0.1104   0.0357   0.1829   0.6198   1.0981   1.2366
     1.3762   1.4974   1.5612   1.7725   2.0373   2.2435   3.3898   3.5096
     3.5523   3.6460   4.1908   4.4696   5.2943   5.6397   5.7577   5.8506
     7.9799

          k =-0.5000 0.0000 0.0000 ( 41440 PWs)   bands (ev):

   -48.4970 -48.3996 -48.3961 -48.3586 -48.3353 -48.3162 -48.3052 -48.2438
   -48.2186 -48.1953 -48.1813 -48.1716 -48.0907 -48.0900 -48.0117 -47.8642
   -47.8289 -47.7555 -18.4697 -18.2873 -18.2227 -18.1641 -18.1476 -18.1312
   -18.0624 -18.0134 -17.9435 -17.5156 -16.4333 -16.2364  -7.2811  -7.0405
    -6.8495  -6.5452  -6.5451  -6.5079  -6.4500  -6.3687  -6.2918  -6.1332
    -6.1190  -6.0230  -5.8033  -5.7394  -5.4248  -5.3362  -4.3236  -4.2750
    -4.1835  -4.1701  -4.1647  -4.0853  -3.9203  -3.8381  -3.6977  -3.3780
    -3.0124  -2.9554  -2.7586  -2.4286  -2.1387  -1.7859  -1.7679  -1.7223
    -1.5026  -1.3014  -1.0860  -1.0831  -0.8740  -0.8570  -0.7306  -0.7094
    -0.6978  -0.4997   0.1305   0.3214   0.3912   0.5338   0.7674   0.9831
     1.3118   1.3547   1.5495   1.9171   2.0449   2.0830   3.2751   3.9812
     4.0643   4.1804   4.1902   4.3870   4.5431   4.9018   5.0329   5.6952
     8.5211

          k =-0.5000 0.1240 0.0000 ( 41518 PWs)   bands (ev):

   -48.4973 -48.4029 -48.3956 -48.3547 -48.3359 -48.3161 -48.3051 -48.2433
   -48.2177 -48.1949 -48.1813 -48.1704 -48.0900 -48.0894 -48.0116 -47.8642
   -47.8278 -47.7544 -18.4742 -18.4699 -18.4524 -18.3576 -18.1345 -17.9540
   -17.8837 -17.8578 -17.8253 -17.5173 -16.4304 -16.2335  -7.4395  -7.2874
    -7.1507  -7.0593  -7.0438  -6.5080  -6.4588  -6.3699  -6.1653  -6.0384
    -5.9521  -5.8305  -5.4209  -5.1170  -4.9931  -4.6598  -4.5864  -4.4484
    -4.2178  -4.1828  -4.1155  -3.9061  -3.6671  -3.5572  -3.3505  -3.2290
    -3.1865  -2.9083  -2.7933  -2.4635  -2.3225  -1.9527  -1.7554  -1.6842
    -1.6735  -1.5705  -1.0798  -1.0623  -0.9196  -0.8974  -0.8363  -0.8169
    -0.7333  -0.6988  -0.5496  -0.4240  -0.2156   0.1934   1.2900   1.5329
     1.5810   1.6295   1.7472   1.8089   2.0264   2.1289   3.1806   3.3102
     3.3165   3.4098   4.2070   4.3839   5.5025   5.7586   5.7761   5.8779
     8.6690

          k =-0.5000-0.2479 0.0000 ( 41524 PWs)   bands (ev):

   -48.4975 -48.4057 -48.3951 -48.3512 -48.3365 -48.3161 -48.3051 -48.2428
   -48.2169 -48.1944 -48.1813 -48.1692 -48.0900 -48.0881 -48.0116 -47.8642
   -47.8266 -47.7533 -18.5813 -18.5618 -18.4700 -18.4561 -18.1196 -17.9664
   -17.7647 -17.7370 -17.7199 -17.5190 -16.4276 -16.2305  -7.7154  -7.4743
    -7.3568  -7.2956  -7.0773  -6.4981  -6.3670  -6.3499  -6.1960  -6.0304
    -5.8910  -5.8200  -5.5172  -4.7940  -4.4841  -4.3203  -4.1890  -4.1843
    -4.1093  -4.0297  -3.8610  -3.7245  -3.6872  -3.4647  -3.3069  -3.2525
    -3.0758  -2.9023  -2.7861  -2.5179  -2.2725  -2.2393  -1.8498  -1.8113
    -1.7082  -1.6593  -1.6038  -1.2188  -1.1793  -1.0743  -1.0487  -1.0259
    -0.8226  -0.8166  -0.7152  -0.6893  -0.2611  -0.0131   1.3229   1.5712
     1.6181   1.9366   1.9502   1.9800   2.0351   2.1829   2.7802   2.8915
     3.0159   3.3499   4.2349   4.3788   5.8188   6.0243   6.2877   6.4125
     8.8200

          k =-0.5000-0.1240 0.0000 ( 41518 PWs)   bands (ev):

   -48.4973 -48.4029 -48.3956 -48.3547 -48.3359 -48.3161 -48.3051 -48.2433
   -48.2177 -48.1949 -48.1813 -48.1704 -48.0900 -48.0894 -48.0116 -47.8642
   -47.8278 -47.7544 -18.4742 -18.4699 -18.4524 -18.3576 -18.1345 -17.9540
   -17.8837 -17.8578 -17.8253 -17.5173 -16.4304 -16.2335  -7.4395  -7.2874
    -7.1507  -7.0593  -7.0438  -6.5080  -6.4588  -6.3699  -6.1653  -6.0384
    -5.9521  -5.8305  -5.4209  -5.1170  -4.9931  -4.6598  -4.5864  -4.4484
    -4.2178  -4.1828  -4.1155  -3.9061  -3.6671  -3.5572  -3.3505  -3.2290
    -3.1865  -2.9083  -2.7933  -2.4635  -2.3225  -1.9527  -1.7554  -1.6842
    -1.6735  -1.5705  -1.0798  -1.0623  -0.9196  -0.8974  -0.8363  -0.8169
    -0.7333  -0.6988  -0.5496  -0.4240  -0.2156   0.1934   1.2900   1.5329
     1.5810   1.6295   1.7472   1.8089   2.0264   2.1289   3.1806   3.3102
     3.3165   3.4098   4.2070   4.3839   5.5025   5.7586   5.7761   5.8779
     8.6690

          k =-0.3750 0.0000 0.0000 ( 41645 PWs)   bands (ev):

   -48.4984 -48.3866 -48.3798 -48.3603 -48.3367 -48.3188 -48.3061 -48.2303
   -48.2036 -48.1825 -48.1813 -48.1561 -48.0927 -48.0913 -48.0141 -47.8667
   -47.8311 -47.7578 -18.5234 -18.4450 -18.3359 -18.2876 -18.1847 -18.0434
   -17.9772 -17.9378 -17.9247 -17.5107 -16.4958 -16.2895  -7.1047  -6.9511
    -6.8393  -6.8139  -6.8076  -6.7584  -6.5169  -6.3938  -6.3265  -6.2267
    -6.1748  -5.7641  -5.5889  -5.5356  -5.3701  -5.1522  -4.9830  -4.5338
    -4.3607  -4.0394  -4.0236  -3.9974  -3.8168  -3.6205  -3.5808  -3.2389
    -3.1326  -3.0518  -3.0148  -2.7251  -2.7239  -2.1130  -1.9330  -1.6351
    -1.4376  -1.2928  -1.0992  -0.9831  -0.9015  -0.7554  -0.7220  -0.3705
    -0.1384   0.0073   0.1351   0.4136   0.5252   0.7238   0.7461   0.9841
     1.1203   1.1568   1.7025   1.8601   1.8637   2.1396   3.4936   4.1454
     4.1703   4.2365   4.3730   4.4683   4.5370   4.9341   5.0497   5.6491
     7.8853

          k =-0.3750 0.1240 0.0000 ( 41549 PWs)   bands (ev):

   -48.4985 -48.3894 -48.3807 -48.3554 -48.3371 -48.3188 -48.3061 -48.2297
   -48.2030 -48.1825 -48.1807 -48.1553 -48.0918 -48.0913 -48.0140 -47.8667
   -47.8303 -47.7570 -18.5302 -18.4624 -18.3937 -18.3367 -18.2094 -18.0378
   -17.9229 -17.8996 -17.8756 -17.5119 -16.4941 -16.2876  -7.2011  -7.0139
    -6.9497  -6.8308  -6.8172  -6.6527  -6.5588  -6.5157  -6.3594  -6.3184
    -6.2418  -5.5709  -5.3562  -5.2516  -5.1353  -5.0089  -4.8239  -4.5318
    -4.4386  -4.1462  -3.9340  -3.8697  -3.7084  -3.6525  -3.5337  -3.3216
    -3.2298  -3.1173  -2.9471  -2.7053  -2.5217  -2.3304  -1.9711  -1.9176
    -1.5426  -1.4398  -1.1971  -1.0055  -0.7456  -0.7088  -0.6166  -0.5488
    -0.4678  -0.1362  -0.1104   0.0357   0.1829   0.6198   1.0981   1.2366
     1.3762   1.4974   1.5612   1.7725   2.0373   2.2435   3.3898   3.5096
     3.5523   3.6460   4.1908   4.4696   5.2943   5.6397   5.7577   5.8506
     7.9799

          k =-0.3750-0.2479 0.0000 ( 41514 PWs)   bands (ev):

   -48.4987 -48.3922 -48.3808 -48.3515 -48.3374 -48.3188 -48.3062 -48.2291
   -48.2025 -48.1825 -48.1801 -48.1545 -48.0913 -48.0908 -48.0140 -47.8667
   -47.8294 -47.7562 -18.5231 -18.5174 -18.4039 -18.3852 -18.2252 -18.0450
   -17.8686 -17.8662 -17.8420 -17.5130 -16.4924 -16.2856  -7.3582  -7.1306
    -7.0064  -6.9587  -6.8438  -6.5216  -6.4730  -6.4253  -6.2987  -6.2701
    -6.2361  -5.6079  -5.3758  -5.0594  -5.0397  -4.8192  -4.7203  -4.4658
    -4.3500  -3.9720  -3.8894  -3.8441  -3.7735  -3.6022  -3.5103  -3.4458
    -3.3000  -3.2286  -2.8632  -2.5633  -2.4588  -2.1604  -2.1451  -1.8313
    -1.7568  -1.6023  -1.5605  -1.1412  -1.0313  -0.9957  -0.6915  -0.5466
    -0.3986  -0.3207   0.0053   0.0420   0.2435   0.3296   1.1412   1.3564
     1.3816   1.6791   1.7278   1.7657   2.1639   2.3518   2.9781   3.0667
     3.2091   3.5619   4.2147   4.4674   5.6019   5.8755   6.1957   6.2818
     8.0784

          k =-0.3750-0.1240 0.0000 ( 41549 PWs)   bands (ev):

   -48.4985 -48.3894 -48.3807 -48.3554 -48.3371 -48.3188 -48.3061 -48.2297
   -48.2030 -48.1825 -48.1807 -48.1553 -48.0918 -48.0913 -48.0140 -47.8667
   -47.8303 -47.7570 -18.5302 -18.4624 -18.3937 -18.3367 -18.2094 -18.0378
   -17.9229 -17.8996 -17.8756 -17.5119 -16.4941 -16.2876  -7.2011  -7.0139
    -6.9497  -6.8308  -6.8172  -6.6527  -6.5588  -6.5157  -6.3594  -6.3184
    -6.2418  -5.5709  -5.3562  -5.2516  -5.1353  -5.0089  -4.8239  -4.5318
    -4.4386  -4.1462  -3.9340  -3.8697  -3.7084  -3.6525  -3.5337  -3.3216
    -3.2298  -3.1173  -2.9471  -2.7053  -2.5217  -2.3304  -1.9711  -1.9176
    -1.5426  -1.4398  -1.1971  -1.0055  -0.7456  -0.7088  -0.6166  -0.5488
    -0.4678  -0.1362  -0.1104   0.0357   0.1829   0.6198   1.0981   1.2366
     1.3762   1.4974   1.5612   1.7725   2.0373   2.2435   3.3898   3.5096
     3.5523   3.6460   4.1908   4.4696   5.2943   5.6397   5.7577   5.8506
     7.9799

          k =-0.2500 0.0000 0.0000 ( 41623 PWs)   bands (ev):

   -48.5012 -48.3638 -48.3494 -48.3404 -48.3396 -48.3251 -48.3086 -48.1941
   -48.1850 -48.1651 -48.1441 -48.1164 -48.0972 -48.0940 -48.0196 -47.8725
   -47.8363 -47.7631 -18.9370 -18.7349 -18.6581 -18.4387 -18.1569 -17.9884
   -17.8240 -17.7621 -17.7022 -17.6166 -16.5219 -16.3219  -7.7367  -7.7169
    -7.6052  -7.2004  -6.7479  -6.7300  -6.5863  -6.4803  -6.2867  -6.1346
    -5.9715  -5.9484  -5.2209  -5.0510  -4.9278  -4.8430  -4.7213  -4.5513
    -4.5001  -4.1782  -4.0989  -3.8178  -3.6565  -3.5846  -3.3780  -3.3626
    -3.3334  -3.1208  -2.8625  -2.8381  -2.5173  -2.3066  -2.1402  -1.7561
    -1.5563  -1.3057  -1.1243  -0.8830  -0.8657  -0.7211  -0.7177  -0.6940
    -0.1028   0.1627   0.2490   0.3457   0.6488   0.7232   0.8303   0.9054
     1.0503   1.3183   1.5914   1.8423   2.1033   2.2433   3.9547   4.1842
     4.4678   4.7187   4.7441   4.8348   4.8987   4.9015   4.9866   5.7118
     7.0810

          k =-0.2500 0.1240 0.0000 ( 41653 PWs)   bands (ev):

   -48.5013 -48.3666 -48.3460 -48.3402 -48.3397 -48.3251 -48.3087 -48.1936
   -48.1851 -48.1651 -48.1435 -48.1163 -48.0974 -48.0941 -48.0197 -47.8726
   -47.8362 -47.7630 -18.8452 -18.6207 -18.5383 -18.4392 -18.1679 -18.0424
   -17.9133 -17.8921 -17.8625 -17.6002 -16.5206 -16.3208  -7.3391  -7.3044
    -7.1933  -7.1729  -6.7221  -6.6796  -6.5881  -6.4582  -6.3077  -6.2598
    -6.0416  -5.6275  -5.3195  -5.2884  -5.1748  -4.9985  -4.8562  -4.7503
    -4.5500  -4.2253  -4.0139  -3.9129  -3.8839  -3.7172  -3.6258  -3.5967
    -3.4886  -3.3436  -2.9959  -2.6469  -2.4761  -2.3511  -2.1160  -1.8633
    -1.5445  -1.3745  -1.1215  -1.0719  -0.6878  -0.3722  -0.3281  -0.2320
    -0.1439   0.1235   0.3211   0.4426   0.6576   0.7264   0.8027   0.9048
     1.1428   1.2320   1.4260   1.6116   2.2192   2.4010   4.0057   4.0856
     4.1044   4.1936   4.3581   4.8829   4.9590   5.3887   5.5389   5.9017
     7.1425

          k =-0.2500-0.2479 0.0000 ( 41680 PWs)   bands (ev):

   -48.5013 -48.3687 -48.3434 -48.3399 -48.3397 -48.3251 -48.3089 -48.1930
   -48.1851 -48.1651 -48.1430 -48.1162 -48.0975 -48.0941 -48.0198 -47.8727
   -47.8361 -47.7630 -18.7104 -18.4654 -18.3592 -18.3191 -18.2226 -18.2070
   -18.1575 -18.0683 -17.9178 -17.5955 -16.5196 -16.3197  -7.1860  -6.7308
    -6.6158  -6.6016  -6.5433  -6.5232  -6.4540  -6.3741  -6.3088  -6.2927
    -6.1015  -6.0404  -5.9258  -5.8156  -5.2613  -5.1550  -4.8225  -4.6763
    -4.4024  -4.3196  -4.2456  -4.2275  -4.1438  -4.1152  -3.8844  -3.8778
    -3.8673  -3.3345  -2.5895  -2.4909  -2.1707  -2.1233  -2.0200  -1.9950
    -1.9845  -1.1598  -1.0128  -1.0107  -0.8098  -0.5731  -0.2342   0.0512
     0.0615   0.0949   0.4922   0.5888   0.7188   0.8104   0.8886   0.9619
     1.1064   1.2618   1.3228   1.3891   2.3065   2.5090   3.6270   3.6744
     3.8489   4.1136   4.3243   4.8912   5.1624   5.5904   5.8831   6.1376
     7.2480

          k =-0.2500-0.1240 0.0000 ( 41653 PWs)   bands (ev):

   -48.5013 -48.3666 -48.3460 -48.3402 -48.3397 -48.3251 -48.3087 -48.1936
   -48.1851 -48.1651 -48.1435 -48.1163 -48.0974 -48.0941 -48.0197 -47.8726
   -47.8362 -47.7630 -18.8452 -18.6207 -18.5383 -18.4392 -18.1679 -18.0424
   -17.9133 -17.8921 -17.8625 -17.6002 -16.5206 -16.3208  -7.3391  -7.3044
    -7.1933  -7.1729  -6.7221  -6.6796  -6.5881  -6.4582  -6.3077  -6.2598
    -6.0416  -5.6275  -5.3195  -5.2884  -5.1748  -4.9985  -4.8562  -4.7503
    -4.5500  -4.2253  -4.0139  -3.9129  -3.8839  -3.7172  -3.6258  -3.5967
    -3.4886  -3.3436  -2.9959  -2.6469  -2.4761  -2.3511  -2.1160  -1.8633
    -1.5445  -1.3745  -1.1215  -1.0719  -0.6878  -0.3722  -0.3281  -0.2320
    -0.1439   0.1235   0.3211   0.4426   0.6576   0.7264   0.8027   0.9048
     1.1428   1.2320   1.4260   1.6116   2.2192   2.4010   4.0057   4.0856
     4.1044   4.1936   4.3581   4.8829   4.9590   5.3887   5.5389   5.9017
     7.1425

          k =-0.1250 0.0000 0.0000 ( 41611 PWs)   bands (ev):

   -48.5036 -48.3666 -48.3420 -48.3310 -48.3109 -48.3069 -48.2984 -48.1872
   -48.1535 -48.1232 -48.1025 -48.1017 -48.0964 -48.0730 -48.0250 -47.8781
   -47.8413 -47.7683 -19.3100 -19.0543 -18.9947 -18.7219 -18.1420 -17.9583
   -17.8519 -17.5934 -17.5320 -17.4664 -16.4093 -16.2263  -8.4110  -8.3588
    -8.2581  -7.8487  -7.0690  -6.7191  -6.6422  -6.5451  -6.4012  -6.3628
    -6.2206  -5.6105  -5.5697  -5.3694  -4.7085  -4.5803  -4.5140  -3.8127
    -3.8005  -3.7503  -3.5975  -3.5554  -3.4964  -3.2356  -3.0005  -2.8939
    -2.7612  -2.7335  -2.5733  -2.4774  -2.4482  -2.2898  -2.1958  -1.9531
    -1.5630  -1.4519  -1.2138  -1.1467  -1.0947  -0.9583  -0.8972  -0.7896
    -0.7464  -0.4700  -0.1898  -0.0243   0.1661   0.4604   0.6626   0.9444
     1.0439   1.5058   1.8306   1.9866   2.3251   2.3579   3.6888   4.4015
     4.4875   4.9033   5.1998   5.4244   5.4444   5.5909   5.5996   5.6965
     6.5603

          k =-0.1250 0.1240 0.0000 ( 41692 PWs)   bands (ev):

   -48.5036 -48.3663 -48.3420 -48.3311 -48.3111 -48.3055 -48.2995 -48.1873
   -48.1531 -48.1235 -48.1028 -48.1021 -48.0965 -48.0733 -48.0252 -47.8783
   -47.8419 -47.7689 -19.1929 -18.8997 -18.8510 -18.7150 -18.1640 -17.9798
   -17.9211 -17.7542 -17.7237 -17.6164 -16.4070 -16.2259  -7.9828  -7.8603
    -7.8032  -7.7419  -7.0642  -6.5830  -6.5431  -6.5007  -6.3389  -6.2917
    -6.0622  -5.5686  -5.4918  -5.3640  -4.7645  -4.7105  -4.4872  -4.4756
    -4.3936  -4.1901  -4.0870  -3.9004  -3.8844  -3.8312  -3.5833  -3.4793
    -3.1795  -3.0148  -2.4648  -2.3584  -2.2455  -2.1056  -1.8403  -1.6070
    -1.5453  -1.4284  -1.0977  -0.8285  -0.7817  -0.7323  -0.4587  -0.4255
    -0.3829  -0.3026  -0.2045   0.1187   0.2559   0.5243   0.6762   0.9313
     1.0988   1.2525   1.6243   1.9830   2.0472   2.5821   4.0439   4.6318
     4.7443   4.9330   5.0134   5.2633   5.3412   5.4167   5.6467   5.8531
     6.5953

          k =-0.1250-0.2479 0.0000 ( 41706 PWs)   bands (ev):

   -48.5036 -48.3660 -48.3420 -48.3312 -48.3113 -48.3028 -48.3019 -48.1874
   -48.1528 -48.1237 -48.1040 -48.1017 -48.0966 -48.0735 -48.0254 -47.8784
   -47.8426 -47.7696 -19.0303 -18.7793 -18.6346 -18.5130 -18.3239 -18.1861
   -17.9894 -17.9346 -17.9105 -17.7005 -16.4058 -16.2258  -7.8782  -7.1487
    -7.0402  -6.9842  -6.9645  -6.5605  -6.4603  -6.4397  -6.3529  -6.2784
    -5.6466  -5.6043  -5.4562  -5.3551  -5.2802  -5.1706  -4.8708  -4.8627
    -4.7637  -4.7628  -4.6073  -4.4657  -4.2882  -4.1265  -4.0856  -3.8992
    -3.2152  -3.0321  -2.2749  -2.1567  -2.0363  -1.8607  -1.8038  -1.5776
    -1.3927  -1.2920  -1.0990  -0.7016  -0.6559  -0.6264  -0.5623  -0.4034
    -0.1572   0.1518   0.3490   0.3679   0.5348   0.6881   0.6989   0.7686
     1.0097   1.2211   1.3653   1.6176   2.1389   2.7023   4.3169   4.5923
     4.6088   4.7563   4.8035   5.3455   5.4100   5.5528   5.7088   6.0539
     6.7022

          k =-0.1250-0.1240 0.0000 ( 41692 PWs)   bands (ev):

   -48.5036 -48.3663 -48.3420 -48.3311 -48.3111 -48.3055 -48.2995 -48.1873
   -48.1531 -48.1235 -48.1028 -48.1021 -48.0965 -48.0733 -48.0252 -47.8783
   -47.8419 -47.7689 -19.1929 -18.8997 -18.8510 -18.7150 -18.1640 -17.9798
   -17.9211 -17.7542 -17.7237 -17.6164 -16.4070 -16.2259  -7.9828  -7.8603
    -7.8032  -7.7419  -7.0642  -6.5830  -6.5431  -6.5007  -6.3389  -6.2917
    -6.0622  -5.5686  -5.4918  -5.3640  -4.7645  -4.7105  -4.4872  -4.4756
    -4.3936  -4.1901  -4.0870  -3.9004  -3.8844  -3.8312  -3.5833  -3.4793
    -3.1795  -3.0148  -2.4648  -2.3584  -2.2455  -2.1056  -1.8403  -1.6070
    -1.5453  -1.4284  -1.0977  -0.8285  -0.7817  -0.7323  -0.4587  -0.4255
    -0.3829  -0.3026  -0.2045   0.1187   0.2559   0.5243   0.6762   0.9313
     1.0988   1.2525   1.6243   1.9830   2.0472   2.5821   4.0439   4.6318
     4.7443   4.9330   5.0134   5.2633   5.3412   5.4167   5.6467   5.8531
     6.5953

     the Fermi energy is     1.3111 ev

!    total energy              =   -1588.85932968 Ry
     estimated scf accuracy    <       0.00000017 Ry
     smearing contrib. (-TS)   =      -0.00058148 Ry
     internal energy E=F+TS    =   -1588.85874820 Ry

     The total energy is F=E-TS. E is the sum of the following terms:
     one-electron contribution =  -14882.42945986 Ry
     hartree contribution      =    7483.65387023 Ry
     xc contribution           =    -390.46085801 Ry
     ewald contribution        =    6313.72977163 Ry
     Hubbard energy            =       0.86121722 Ry
     one-center paw contrib.   =    -114.21328942 Ry

     convergence has been achieved in  19 iterations

     negative rho (up, down):  1.926E+00 0.000E+00
     force_hub    :      1.07s CPU      1.09s WALL (       1 calls)
     dndtau       :      0.84s CPU      0.85s WALL (     432 calls)
     dprojdtau    :      0.10s CPU      0.10s WALL (    2592 calls)
     matel_dSdtau :      0.72s CPU      0.73s WALL (     432 calls)

     Forces acting on atoms (cartesian axes, Ry/au):

     atom    1 type  1   force =     0.00000014    0.00000006    0.04188832
     atom    2 type  1   force =     0.00000021    0.00000003   -0.03550840
     atom    3 type  1   force =    -0.00000097    0.00000058    0.00046863
     atom    4 type  1   force =     0.00000006   -0.00000024    0.00244864
     atom    5 type  1   force =     0.00000002    0.00000001   -0.00515884
     atom    6 type  1   force =     0.00000019    0.00000006   -0.00807633
     atom    7 type  2   force =    -0.00000007    0.00000005    0.00662010
     atom    8 type  2   force =    -0.00000005    0.00000006    0.03382291
     atom    9 type  2   force =    -0.00000024    0.01351700   -0.02171610
     atom   10 type  2   force =     0.00000021   -0.01351729   -0.02171632
     atom   11 type  2   force =     0.00000026   -0.00000015    0.00579542
     atom   12 type  2   force =    -0.00000002    0.00000004    0.00282467
     atom   13 type  2   force =    -0.00000010   -0.00279761    0.00179690
     atom   14 type  2   force =     0.00000022    0.00279801    0.00179732
     atom   15 type  2   force =    -0.00000003   -0.00000012   -0.00000021
     atom   16 type  2   force =    -0.00000004    0.00000002    0.00515872
     atom   17 type  2   force =     0.00000015   -0.01021869   -0.00522309
     atom   18 type  2   force =     0.00000007    0.01021818   -0.00522235

     Total force =     0.021066     Total SCF correction =     0.001099

     Writing all to output data dir ./tmp_slab__u300/slab__u300.save/ :
     XML data file, charge density, pseudopotentials, collected wavefunctions

     init_run     :      3.53s CPU      3.70s WALL (       1 calls)
     electrons    :     93.51s CPU     94.78s WALL (       1 calls)
     forces       :      1.77s CPU      1.80s WALL (       1 calls)

     Called by init_run:
     wfcinit      :      1.63s CPU      1.72s WALL (       1 calls)
     potinit      :      0.71s CPU      0.73s WALL (       1 calls)
     hinit0       :      0.51s CPU      0.54s WALL (       1 calls)

     Called by electrons:
     c_bands      :     76.09s CPU     77.01s WALL (      19 calls)
     sum_band     :     12.15s CPU     12.36s WALL (      19 calls)
     v_of_rho     :      1.17s CPU      1.19s WALL (      20 calls)
     newd         :      1.03s CPU      1.04s WALL (      20 calls)
     PAW_pot      :      0.70s CPU      0.70s WALL (      20 calls)
     mix_rho      :      2.29s CPU      2.34s WALL (      19 calls)

     Called by c_bands:
     init_us_2    :      1.60s CPU      1.63s WALL (     336 calls)
     cegterg      :     68.36s CPU     69.14s WALL (     152 calls)

     Called by *egterg:
     cdiaghg      :     10.91s CPU     10.97s WALL (    1271 calls)
     h_psi        :     43.71s CPU     44.36s WALL (    1279 calls)
     s_psi        :      2.97s CPU      3.00s WALL (    1295 calls)
     g_psi        :      0.18s CPU      0.18s WALL (    1119 calls)

     Called by h_psi:
     h_psi:calbec :      4.40s CPU      4.44s WALL (    1279 calls)
     vloc_psi     :     34.13s CPU     34.66s WALL (    1279 calls)
                                        0.00s GPU  (    1279 calls)
     add_vuspsi   :      3.07s CPU      3.10s WALL (    1279 calls)
     vhpsi        :      1.73s CPU      1.76s WALL (    1279 calls)

     General routines
     calbec       :      8.65s CPU      8.76s WALL (    4646 calls)
     fft          :      1.34s CPU      1.37s WALL (     269 calls)
     ffts         :      2.11s CPU      2.14s WALL (    2253 calls)
     fftw         :     39.00s CPU     39.58s WALL (   81852 calls)
     interpolate  :      0.58s CPU      0.59s WALL (      20 calls)

     Parallel routines

     Hubbard U routines
     new_ns       :      0.50s CPU      0.52s WALL (      19 calls)
     vhpsi        :      1.73s CPU      1.76s WALL (    1279 calls)
     force_hub    :      1.07s CPU      1.09s WALL (       1 calls)

     PWSCF        :   1m39.46s CPU   2m12.94s WALL


   This run was terminated on:   8:42:46  28Aug2026            

=------------------------------------------------------------------------------=
   JOB DONE.
=------------------------------------------------------------------------------=
