
     Program PWSCF v.7.5 starts on  7Aug2026 at 21:11:10 

     This program is part of the open-source Quantum ESPRESSO suite
     for quantum simulation of materials; please cite
         "P. Giannozzi et al., J. Phys.:Condens. Matter 21 395502 (2009);
         "P. Giannozzi et al., J. Phys.:Condens. Matter 29 465901 (2017);
         "P. Giannozzi et al., J. Chem. Phys. 152 154105 (2020);
          URL http://www.quantum-espresso.org", 
     in publications or presentations arising from this work. More details at
     http://www.quantum-espresso.org/quote

     Parallel version (MPI & OpenMP), running on       4 processor cores
     Number of MPI processes:                 4
     Threads/MPI process:                     1

     MPI processes distributed on     1 nodes
     46723 MiB available memory on the printing compute node when the environment starts

     Reading input from s0_OH__base.run.in

     Current dimensions of program PWSCF are:
     Max number of different atomic species (ntypx) = 10
     Max number of k-points (npk) =  40000
     Max angular momentum in pseudopotentials (lmaxx) =  4
     file O.pbe-n-kjpaw_psl.0.1.UPF: wavefunction(s)  2P renormalized
     Message from routine setup:
     using ibrav=0 with symmetry is DISCOURAGED, use correct ibrav instead

     K-points division:     npool     =       4
     Subspace diagonalization in iterative solution of the eigenvalue problem:
     a serial algorithm will be used


     G-vector sticks info
     --------------------
     sticks:   dense  smooth     PW     G-vecs:    dense   smooth      PW
     Sum        3587    1793    513               925697   327113   49625

     Using Slab Decomposition



     bravais-lattice index     =            0
     lattice parameter (alat)  =       5.8714  a.u.
     unit-cell volume          =    3384.5999 (a.u.)^3
     number of atoms/cell      =           20
     number of atomic types    =            3
     number of electrons       =       175.00
     number of Kohn-Sham states=          106
     kinetic-energy cutoff     =      80.0000  Ry
     charge density cutoff     =     640.0000  Ry
     scf convergence threshold =      1.0E-06
     mixing beta               =       0.3000
     number of iterations used =            8  local-TF  mixing
     Exchange-correlation= SLA  PW   PBX  PBC
                           (   1   4   3   4   0   0   0)

     celldm(1)=   5.871379  celldm(2)=   0.000000  celldm(3)=   0.000000
     celldm(4)=   0.000000  celldm(5)=   0.000000  celldm(6)=   0.000000

     crystal axes: (cart. coord. in units of alat)
               a(1) = (   1.000000   0.000000   0.000000 )  
               a(2) = (   0.000000   2.044624   0.000000 )  
               a(3) = (   0.000000   0.000000   8.178497 )  

     reciprocal axes: (cart. coord. in units 2 pi/alat)
               b(1) = (  1.000000  0.000000  0.000000 )  
               b(2) = (  0.000000  0.489087  0.000000 )  
               b(3) = (  0.000000  0.000000  0.122272 )  


     PseudoPot. # 1 for H  read from file:
     /usr/share/espresso/pseudo/H.pbe-rrkjus_psl.1.0.0.UPF
     MD5 check sum: f52b6d4d1c606e5624b1dc7b2218f220
     Pseudo is Ultrasoft, Zval =  1.0
     Generated using "atomic" code by A. Dal Corso  v.5.1
     Using radial grid of  929 points,  2 beta functions with: 
                l(1) =   0
                l(2) =   0
     Q(r) pseudized with 0 coefficients 


     PseudoPot. # 2 for Ru read from file:
     /usr/share/espresso/pseudo/Ru_ONCV_PBE-1.0.oncvpsp.upf
     MD5 check sum: be037bb81c227cfb9b1461a9f099f4bd
     Pseudo is Norm-conserving, Zval = 16.0
     Generated using ONCVPSP code by D. R. Hamann
     Using radial grid of 1458 points,  6 beta functions with: 
                l(1) =   0
                l(2) =   0
                l(3) =   1
                l(4) =   1
                l(5) =   2
                l(6) =   2

     PseudoPot. # 3 for O  read from file:
     /usr/share/espresso/pseudo/O.pbe-n-kjpaw_psl.0.1.UPF
     MD5 check sum: 0234752ac141de4415c5fc33072bef88
     Pseudo is Projector augmented-wave + core cor, Zval =  6.0
     Generated using "atomic" code by A. Dal Corso  v.5.0.99 svn rev. 10869
     Shape of augmentation charge: BESSEL
     Using radial grid of 1095 points,  4 beta functions with: 
                l(1) =   0
                l(2) =   0
                l(3) =   1
                l(4) =   1
     Q(r) pseudized with 0 coefficients 


     atomic species   valence    mass     pseudopotential
     H                 1.00     1.00800     H ( 1.00)
     Ru               16.00   101.07000     Ru( 1.00)
     O                 6.00    15.99900     O ( 1.00)

      2 Sym. Ops. (no inversion) found ( 1 have fractional translation)



   Cartesian axes

     site n.     atom                  positions (alat units)
         1        Ru     tau(   1) = (   0.0000000   0.5111560   3.0669363  )
         2        Ru     tau(   2) = (   0.5000000   1.5334681   3.0669363  )
         3        Ru     tau(   3) = (  -0.0006221   1.5334681   4.1058017  )
         4        Ru     tau(   4) = (   0.4990454   0.5111560   4.0846743  )
         5        Ru     tau(   5) = (  -0.0030127   0.5111560   5.1199908  )
         6        Ru     tau(   6) = (   0.4953194   1.5334681   5.1556333  )
         7        O      tau(   7) = (   0.0000000   1.5334681   3.4656380  )
         8        O      tau(   8) = (   0.0000000   1.5334681   2.6682346  )
         9        O      tau(   9) = (   0.5000000   0.1124543   3.0669363  )
        10        O      tau(  10) = (   0.5000000   0.9098578   3.0669363  )
        11        O      tau(  11) = (  -0.0020184   0.5111560   4.4919854  )
        12        O      tau(  12) = (   0.0000000   0.5111560   3.6905466  )
        13        O      tau(  13) = (   0.4993872   1.1375269   4.0986622  )
        14        O      tau(  14) = (   0.4993872   1.9294094   4.0986622  )
        15        O      tau(  15) = (  -0.0048095   1.5334681   5.5072493  )
        16        O      tau(  16) = (  -0.0034309   1.5334681   4.7292681  )
        17        O      tau(  17) = (   0.4957213   0.1173129   5.1226215  )
        18        O      tau(  18) = (   0.4957213   0.9049992   5.1226215  )
        19        O      tau(  19) = (  -0.0263874   0.5111560   5.7402711  )
        20        H      tau(  20) = (   0.2647104   0.5111560   5.8625747  )

     number of k points=    15  Marzari-Vanderbilt smearing, width (Ry)=  0.0100
                       cart. coord. in units 2pi/alat
        k(    1) = (   0.0000000   0.0000000   0.0000000), wk =   0.0625000
        k(    2) = (   0.0000000   0.1222719   0.0000000), wk =   0.1250000
        k(    3) = (   0.0000000  -0.2445437   0.0000000), wk =   0.0625000
        k(    4) = (   0.1250000   0.0000000   0.0000000), wk =   0.1250000
        k(    5) = (   0.1250000   0.1222719   0.0000000), wk =   0.2500000
        k(    6) = (   0.1250000  -0.2445437   0.0000000), wk =   0.1250000
        k(    7) = (   0.2500000   0.0000000   0.0000000), wk =   0.1250000
        k(    8) = (   0.2500000   0.1222719   0.0000000), wk =   0.2500000
        k(    9) = (   0.2500000  -0.2445437   0.0000000), wk =   0.1250000
        k(   10) = (   0.3750000   0.0000000   0.0000000), wk =   0.1250000
        k(   11) = (   0.3750000   0.1222719   0.0000000), wk =   0.2500000
        k(   12) = (   0.3750000  -0.2445437   0.0000000), wk =   0.1250000
        k(   13) = (  -0.5000000   0.0000000   0.0000000), wk =   0.0625000
        k(   14) = (  -0.5000000   0.1222719   0.0000000), wk =   0.1250000
        k(   15) = (  -0.5000000  -0.2445437   0.0000000), wk =   0.0625000

     Dense  grid:   925697 G-vectors     FFT dimensions: (  48, 100, 400)

     Smooth grid:   327113 G-vectors     FFT dimensions: (  36,  72, 288)

     Estimated max dynamical RAM per process >       1.40 GB

     Estimated total dynamical RAM >       4.96 GB

     Initial potential from superposition of free atoms

     starting charge     174.9967, renormalised to     175.0000

     negative rho (up, down):  8.199E-05 0.000E+00
     Starting wfcs are  113 randomized atomic wfcs
     Checking if some PAW data can be deallocated... 

     total cpu time spent up to now is       22.0 secs

     per-process dynamical memory:   876.3 Mb

     Self-consistent Calculation

     iteration #  1     ecut=    80.00 Ry     beta= 0.30
     Davidson diagonalization with overlap
     ethr =  1.00E-02,  avg # of iterations =  2.0

     negative rho (up, down):  4.788E-07 0.000E+00

     total cpu time spent up to now is       71.8 secs

     total energy              =   -1673.37874252 Ry
     estimated scf accuracy    <       4.55901642 Ry

     iteration #  2     ecut=    80.00 Ry     beta= 0.30
     Davidson diagonalization with overlap
     ethr =  2.61E-03,  avg # of iterations =  1.1

     negative rho (up, down):  3.733E-06 0.000E+00

     total cpu time spent up to now is      113.0 secs

     total energy              =   -1673.46065709 Ry
     estimated scf accuracy    <       1.37956180 Ry

     iteration #  3     ecut=    80.00 Ry     beta= 0.30
     Davidson diagonalization with overlap
     ethr =  7.88E-04,  avg # of iterations =  1.2

     negative rho (up, down):  4.092E-08 0.000E+00

     total cpu time spent up to now is      155.1 secs

     total energy              =   -1673.51622923 Ry
     estimated scf accuracy    <       0.46002550 Ry

     iteration #  4     ecut=    80.00 Ry     beta= 0.30
     Davidson diagonalization with overlap
     ethr =  2.63E-04,  avg # of iterations =  1.2

     total cpu time spent up to now is      197.0 secs

     total energy              =   -1673.53680380 Ry
     estimated scf accuracy    <       0.14686957 Ry

     iteration #  5     ecut=    80.00 Ry     beta= 0.30
     Davidson diagonalization with overlap
     ethr =  8.39E-05,  avg # of iterations =  1.7

     total cpu time spent up to now is      240.3 secs

     total energy              =   -1673.53268111 Ry
     estimated scf accuracy    <       0.07777599 Ry

     iteration #  6     ecut=    80.00 Ry     beta= 0.30
     Davidson diagonalization with overlap
     ethr =  4.44E-05,  avg # of iterations =  2.1

     total cpu time spent up to now is      285.1 secs

     total energy              =   -1673.53162833 Ry
     estimated scf accuracy    <       0.03261732 Ry

     iteration #  7     ecut=    80.00 Ry     beta= 0.30
     Davidson diagonalization with overlap
     ethr =  1.86E-05,  avg # of iterations =  2.7

     total cpu time spent up to now is      329.7 secs

     total energy              =   -1673.53198506 Ry
     estimated scf accuracy    <       0.01640549 Ry

     iteration #  8     ecut=    80.00 Ry     beta= 0.30
     Davidson diagonalization with overlap
     ethr =  9.37E-06,  avg # of iterations =  1.3

     total cpu time spent up to now is      372.7 secs

     total energy              =   -1673.53037183 Ry
     estimated scf accuracy    <       0.01474147 Ry

     iteration #  9     ecut=    80.00 Ry     beta= 0.30
     Davidson diagonalization with overlap
     ethr =  8.42E-06,  avg # of iterations =  3.3

     total cpu time spent up to now is      417.9 secs

     total energy              =   -1673.52984644 Ry
     estimated scf accuracy    <       0.00651707 Ry

     iteration # 10     ecut=    80.00 Ry     beta= 0.30
     Davidson diagonalization with overlap
     ethr =  3.72E-06,  avg # of iterations =  3.6

     negative rho (up, down):  8.561E-05 0.000E+00

     total cpu time spent up to now is      463.8 secs

     total energy              =   -1673.52950113 Ry
     estimated scf accuracy    <       0.00385831 Ry

     iteration # 11     ecut=    80.00 Ry     beta= 0.30
     Davidson diagonalization with overlap
     ethr =  2.20E-06,  avg # of iterations =  2.6

     negative rho (up, down):  3.850E-03 0.000E+00

     total cpu time spent up to now is      509.0 secs

     total energy              =   -1673.52921488 Ry
     estimated scf accuracy    <       0.00217780 Ry

     iteration # 12     ecut=    80.00 Ry     beta= 0.30
     Davidson diagonalization with overlap
     ethr =  1.24E-06,  avg # of iterations =  4.2

     negative rho (up, down):  5.264E-03 0.000E+00

     total cpu time spent up to now is      556.8 secs

     total energy              =   -1673.52913473 Ry
     estimated scf accuracy    <       0.00132105 Ry

     iteration # 13     ecut=    80.00 Ry     beta= 0.30
     Davidson diagonalization with overlap
     ethr =  7.55E-07,  avg # of iterations =  1.5

     negative rho (up, down):  5.768E-03 0.000E+00

     total cpu time spent up to now is      600.1 secs

     total energy              =   -1673.52906286 Ry
     estimated scf accuracy    <       0.00069944 Ry

     iteration # 14     ecut=    80.00 Ry     beta= 0.30
     Davidson diagonalization with overlap
     ethr =  4.00E-07,  avg # of iterations =  2.9

     negative rho (up, down):  5.476E-03 0.000E+00

     total cpu time spent up to now is      645.5 secs

     total energy              =   -1673.52905752 Ry
     estimated scf accuracy    <       0.00035251 Ry

     iteration # 15     ecut=    80.00 Ry     beta= 0.30
     Davidson diagonalization with overlap
     ethr =  2.01E-07,  avg # of iterations =  1.3

     negative rho (up, down):  4.339E-03 0.000E+00

     total cpu time spent up to now is      688.1 secs

     total energy              =   -1673.52909047 Ry
     estimated scf accuracy    <       0.00025117 Ry

     iteration # 16     ecut=    80.00 Ry     beta= 0.30
     Davidson diagonalization with overlap
     ethr =  1.44E-07,  avg # of iterations =  1.3

     negative rho (up, down):  2.453E-03 0.000E+00

     total cpu time spent up to now is      730.7 secs

     total energy              =   -1673.52912488 Ry
     estimated scf accuracy    <       0.00009120 Ry

     iteration # 17     ecut=    80.00 Ry     beta= 0.30
     Davidson diagonalization with overlap
     ethr =  5.21E-08,  avg # of iterations =  1.2

     negative rho (up, down):  1.761E-03 0.000E+00

     total cpu time spent up to now is      773.2 secs

     total energy              =   -1673.52914129 Ry
     estimated scf accuracy    <       0.00001923 Ry

     iteration # 18     ecut=    80.00 Ry     beta= 0.30
     Davidson diagonalization with overlap
     ethr =  1.10E-08,  avg # of iterations =  2.1

     negative rho (up, down):  1.021E-03 0.000E+00

     total cpu time spent up to now is      817.8 secs

     total energy              =   -1673.52913887 Ry
     estimated scf accuracy    <       0.00000825 Ry

     iteration # 19     ecut=    80.00 Ry     beta= 0.30
     Davidson diagonalization with overlap
     ethr =  4.71E-09,  avg # of iterations =  1.4

     negative rho (up, down):  6.152E-04 0.000E+00

     total cpu time spent up to now is      861.4 secs

     total energy              =   -1673.52913949 Ry
     estimated scf accuracy    <       0.00000323 Ry

     iteration # 20     ecut=    80.00 Ry     beta= 0.30
     Davidson diagonalization with overlap
     ethr =  1.84E-09,  avg # of iterations =  2.2

     negative rho (up, down):  2.509E-04 0.000E+00

     total cpu time spent up to now is      906.1 secs

     total energy              =   -1673.52913819 Ry
     estimated scf accuracy    <       0.00000108 Ry

     iteration # 21     ecut=    80.00 Ry     beta= 0.30
     Davidson diagonalization with overlap
     ethr =  6.17E-10,  avg # of iterations =  2.0

     negative rho (up, down):  1.032E-04 0.000E+00

     total cpu time spent up to now is      946.2 secs

     End of self-consistent calculation

          k = 0.0000 0.0000 0.0000 ( 40831 PWs)   bands (ev):

   -72.6232 -72.3627 -72.2290 -72.1658 -72.1224 -71.8408 -42.6830 -42.5794
   -42.5296 -42.5150 -42.4643 -42.4213 -42.3593 -42.2257 -42.2244 -42.1238
   -42.0618 -42.0270 -42.0234 -42.0051 -41.9845 -41.9630 -41.7414 -41.7012
   -18.7191 -18.4348 -18.2813 -18.0795 -17.7430 -17.5823 -17.4131 -17.1075
   -16.9810 -16.9091 -16.8175 -16.6360 -15.9292  -7.0435  -7.0312  -7.0100
    -6.5978  -6.1418  -5.5618  -5.5455  -5.5142  -5.5046  -5.4462  -5.4289
    -5.3149  -5.0770  -4.8035  -4.7607  -3.7811  -3.4814  -3.0873  -2.9814
    -2.8897  -2.8280  -2.7656  -2.5869  -2.5398  -2.4211  -2.2720  -2.2349
    -2.0711  -2.0272  -1.7876  -1.7729  -1.4139  -1.2821  -1.1795  -1.0889
    -0.9543  -0.8792  -0.5882  -0.2727  -0.2582  -0.0535  -0.0263  -0.0213
     0.0647   0.0653   0.3205   0.4692   0.6009   0.6954   0.9370   1.1891
     1.3464   1.3667   1.9483   2.3093   2.4216   2.5792   2.9274   3.6071
     4.3783   4.9123   5.4910   5.6059   5.6845   5.9106   5.9386   5.9648
     5.9778   6.3136

          k = 0.0000 0.1223 0.0000 ( 40974 PWs)   bands (ev):

   -72.6232 -72.3627 -72.2290 -72.1658 -72.1225 -71.8408 -42.6817 -42.5794
   -42.5286 -42.5149 -42.4644 -42.4213 -42.3571 -42.2257 -42.2243 -42.1252
   -42.0619 -42.0267 -42.0234 -42.0051 -41.9868 -41.9633 -41.7415 -41.7024
   -18.6067 -18.3034 -18.1488 -18.1196 -17.7644 -17.6247 -17.4011 -17.1401
   -17.1179 -17.0360 -16.9662 -16.6366 -15.9265  -6.6498  -6.5811  -6.5690
    -6.5244  -6.1335  -5.5622  -5.4621  -5.4461  -5.4281  -5.4255  -5.3456
    -5.2004  -5.0753  -4.8015  -4.5689  -3.9615  -3.6998  -3.6308  -3.3797
    -3.3256  -3.0781  -2.9479  -2.8993  -2.6573  -2.6311  -2.5342  -2.4392
    -2.3393  -2.1324  -1.9445  -1.9062  -1.6703  -1.4539  -1.4047  -1.1137
    -1.0611  -0.8568  -0.6955  -0.2820   0.2202   0.2761   0.3669   0.5107
     0.5312   0.5874   0.5902   0.6990   0.7151   0.7858   0.9435   1.1790
     1.3113   1.4575   2.0022   2.0439   2.3149   2.5731   2.7907   4.0001
     4.7656   5.1117   5.4906   5.5980   5.6349   5.6910   5.7294   5.7675
     5.9315   6.3347

          k = 0.0000-0.2445 0.0000 ( 41014 PWs)   bands (ev):

   -72.6232 -72.3627 -72.2290 -72.1658 -72.1225 -71.8408 -42.6803 -42.5793
   -42.5277 -42.5149 -42.4645 -42.4213 -42.3550 -42.2257 -42.2243 -42.1267
   -42.0619 -42.0264 -42.0235 -42.0052 -41.9891 -41.9636 -41.7415 -41.7035
   -18.4211 -18.2489 -18.0524 -17.8902 -17.8893 -17.7486 -17.3749 -17.2882
   -17.2678 -17.1263 -17.0746 -16.6394 -15.9244  -6.6156  -6.1699  -5.8621
    -5.8520  -5.7735  -5.5603  -5.4494  -5.4057  -5.3546  -5.3523  -5.2541
    -5.0698  -4.8347  -4.6906  -4.6392  -4.3584  -4.2898  -4.2183  -4.1017
    -3.8803  -3.5469  -3.0804  -3.0095  -2.9792  -2.9149  -2.8842  -2.5682
    -2.4992  -2.2447  -1.8885  -1.7427  -1.6123  -1.4686  -1.4457  -1.1971
    -0.8904  -0.8574  -0.7777  -0.3077   0.2541   0.3558   0.6690   0.7727
     0.8528   0.8606   0.9407   1.0143   1.0151   1.0762   1.0985   1.2545
     1.3651   1.3987   1.7806   1.8248   2.2661   2.3139   2.9117   4.4652
     4.8893   5.3838   5.4085   5.4335   5.4606   5.4983   5.7185   5.9045
     5.9296   5.9806

          k = 0.1250 0.0000 0.0000 ( 40851 PWs)   bands (ev):

   -72.6216 -72.3612 -72.2274 -72.1643 -72.1209 -71.8392 -42.6807 -42.6079
   -42.5275 -42.5100 -42.4625 -42.4196 -42.3569 -42.2503 -42.2216 -42.1196
   -42.0592 -42.0539 -42.0505 -42.0030 -41.9885 -41.9805 -41.7688 -41.6968
   -18.5896 -18.3161 -18.1691 -17.9855 -17.6562 -17.5041 -17.4021 -17.1399
   -17.0571 -16.9887 -16.9003 -16.7145 -15.9742  -6.8673  -6.8516  -6.8335
    -6.4115  -6.1470  -5.6118  -5.5843  -5.5837  -5.4278  -5.4256  -5.2393
    -4.9935  -4.7993  -4.7589  -4.5804  -3.6543  -3.6381  -3.3132  -3.1856
    -2.9668  -2.9063  -2.8284  -2.7648  -2.7489  -2.5433  -2.5131  -2.4907
    -2.1273  -2.1221  -1.9205  -1.8578  -1.8564  -1.7358  -1.6172  -1.2303
    -1.1666  -0.8610  -0.7625  -0.4176  -0.0066   0.1776   0.2104   0.2781
     0.3740   0.5001   0.6257   0.7039   0.7819   0.8442   1.0406   1.3617
     1.3780   1.5927   1.8020   2.1591   2.4431   2.5674   2.7832   3.7774
     4.4926   4.9767   5.1295   5.2213   5.4978   5.6164   5.6378   5.6643
     5.7086   6.4132

          k = 0.1250 0.1223 0.0000 ( 40932 PWs)   bands (ev):

   -72.6216 -72.3612 -72.2274 -72.1643 -72.1210 -71.8392 -42.6797 -42.6079
   -42.5268 -42.5099 -42.4626 -42.4196 -42.3553 -42.2503 -42.2215 -42.1208
   -42.0592 -42.0535 -42.0504 -42.0032 -41.9904 -41.9807 -41.7687 -41.6977
   -18.4837 -18.1911 -18.0404 -18.0226 -17.6705 -17.5511 -17.3878 -17.1848
   -17.1807 -17.0936 -17.0364 -16.7157 -15.9720  -6.4922  -6.4201  -6.4135
    -6.3550  -6.1365  -5.5797  -5.5180  -5.5081  -5.4460  -5.3330  -5.0732
    -4.9606  -4.8017  -4.7782  -4.4240  -3.8398  -3.7140  -3.6124  -3.4845
    -3.3479  -3.2323  -3.1479  -3.0578  -2.9585  -2.9216  -2.8483  -2.6456
    -2.5307  -2.3398  -2.0146  -1.8468  -1.8058  -1.7646  -1.4738  -1.1850
    -0.9813  -0.8785  -0.7663  -0.3747   0.2087   0.3322   0.4817   0.4978
     0.6060   0.7471   0.8696   0.8895   0.9772   1.0569   1.1005   1.3606
     1.4526   1.5826   1.8873   1.9350   2.2155   2.5333   2.7914   4.1077
     4.7526   5.0164   5.0868   5.1575   5.3777   5.3871   5.5091   5.5289
     5.7666   6.4081

          k = 0.1250-0.2445 0.0000 ( 40974 PWs)   bands (ev):

   -72.6216 -72.3611 -72.2274 -72.1642 -72.1210 -71.8392 -42.6787 -42.6079
   -42.5261 -42.5099 -42.4627 -42.4196 -42.3537 -42.2503 -42.2215 -42.1220
   -42.0592 -42.0530 -42.0504 -42.0033 -41.9922 -41.9809 -41.7687 -41.6986
   -18.3112 -18.1349 -17.9454 -17.7888 -17.7873 -17.6803 -17.3651 -17.3448
   -17.3175 -17.1832 -17.1131 -16.7188 -15.9703  -6.4352  -6.1661  -5.6612
    -5.6518  -5.5660  -5.5444  -5.5436  -5.4791  -5.4757  -5.4372  -5.0086
    -4.8838  -4.8150  -4.5279  -4.4704  -4.1614  -4.0954  -3.9349  -3.9311
    -3.8409  -3.7745  -3.6773  -3.3372  -3.3093  -3.1115  -3.0583  -2.8872
    -2.6597  -2.4121  -2.0469  -1.7507  -1.6048  -1.5295  -1.3516  -1.1723
    -0.9328  -0.8701  -0.7772  -0.3386   0.3275   0.4547   0.4784   0.5884
     0.7266   0.7925   1.0861   1.2712   1.3301   1.3407   1.4027   1.4068
     1.4670   1.6321   1.7632   1.7655   2.1493   2.2085   2.9409   4.5200
     4.7283   4.8014   4.9159   4.9964   5.3213   5.3269   5.5115   5.6423
     5.9687   6.0726

          k = 0.2500 0.0000 0.0000 ( 40947 PWs)   bands (ev):

   -72.6178 -72.3575 -72.2237 -72.1606 -72.1173 -71.8355 -42.6758 -42.6754
   -42.5227 -42.4981 -42.4582 -42.4162 -42.3510 -42.3121 -42.2116 -42.1186
   -42.1159 -42.1094 -42.0647 -42.0403 -41.9947 -41.9708 -41.8343 -41.6860
   -18.2594 -18.0238 -17.8915 -17.7831 -17.5207 -17.4160 -17.2955 -17.2365
   -17.1759 -17.1410 -17.0946 -16.8840 -16.0349  -6.4282  -6.3848  -6.3738
    -5.9635  -5.9494  -5.6549  -5.6500  -5.5206  -5.2808  -5.2713  -5.0019
    -4.7591  -4.5168  -4.3906  -4.1820  -4.0775  -3.9432  -3.8015  -3.6862
    -3.5519  -3.3391  -3.3023  -3.0080  -2.8320  -2.6688  -2.6431  -2.5006
    -2.4211  -2.3972  -2.2256  -2.0841  -2.0498  -1.8438  -1.7201  -1.2303
    -1.1469  -1.0503  -0.9927  -0.6990   0.0737   0.3392   0.5778   0.6273
     0.6914   0.8176   1.0055   1.1646   1.2133   1.3098   1.3415   1.3670
     1.5647   1.6382   1.6593   1.8890   2.1483   2.3896   2.7157   4.0233
     4.3083   4.6243   4.8299   4.9059   5.0144   5.0269   5.0874   5.1572
     5.7109   6.1481

          k = 0.2500 0.1223 0.0000 ( 40905 PWs)   bands (ev):

   -72.6178 -72.3575 -72.2237 -72.1605 -72.1173 -71.8355 -42.6760 -42.6751
   -42.5225 -42.4981 -42.4583 -42.4162 -42.3510 -42.3121 -42.2116 -42.1174
   -42.1156 -42.1100 -42.0651 -42.0406 -41.9947 -41.9713 -41.8340 -41.6864
   -18.1797 -17.9306 -17.8198 -17.7805 -17.5441 -17.4363 -17.3376 -17.2940
   -17.2754 -17.1772 -17.1306 -16.8876 -16.0344  -6.1574  -6.0743  -6.0568
    -5.9684  -5.9064  -5.6490  -5.4830  -5.3924  -5.3258  -5.1537  -5.0801
    -4.6338  -4.4779  -4.3964  -4.2977  -4.2237  -4.1980  -4.1188  -3.8499
    -3.7126  -3.5018  -3.1858  -3.0796  -2.9947  -2.8874  -2.7523  -2.7178
    -2.5754  -2.4737  -2.2159  -2.0274  -1.9868  -1.8278  -1.7572  -1.3268
    -1.0891  -1.0493  -0.8604  -0.7221   0.0149   0.3909   0.6258   0.7224
     0.9414   1.0399   1.0715   1.1601   1.2163   1.2706   1.3800   1.4245
     1.5673   1.7328   1.7609   1.8889   2.0644   2.2673   2.8339   4.1096
     4.2221   4.3985   4.4396   4.5474   4.8323   5.0583   5.3871   5.5970
     5.8358   6.2335

          k = 0.2500-0.2445 0.0000 ( 40892 PWs)   bands (ev):

   -72.6178 -72.3575 -72.2237 -72.1605 -72.1173 -71.8355 -42.6760 -42.6749
   -42.5224 -42.4980 -42.4583 -42.4162 -42.3509 -42.3122 -42.2115 -42.1162
   -42.1151 -42.1107 -42.0656 -42.0410 -41.9948 -41.9718 -41.8336 -41.6869
   -18.0537 -17.8820 -17.7201 -17.6753 -17.5470 -17.5353 -17.5053 -17.3754
   -17.3180 -17.2331 -17.1259 -16.8925 -16.0340  -6.0043  -5.9821  -5.6457
    -5.5897  -5.5807  -5.5603  -5.4098  -5.2208  -5.1571  -5.0478  -4.9983
    -4.8306  -4.8171  -4.7635  -4.5071  -4.4876  -4.2242  -3.9796  -3.9492
    -3.7076  -3.4403  -3.3502  -3.2745  -3.2709  -3.2102  -3.1976  -3.0075
    -2.9108  -2.5217  -2.1300  -1.9212  -1.7290  -1.6736  -1.4566  -1.3888
    -1.1214  -1.0358  -0.9613  -0.5008   0.1206   0.1971   0.5303   0.7010
     0.7510   1.1269   1.2295   1.3016   1.3378   1.4418   1.4694   1.5960
     1.6168   1.8170   1.8732   1.9630   2.0041   2.1314   2.9275   3.8923
     3.9640   4.0407   4.2139   4.5225   4.8316   5.2717   5.4655   5.8847
     6.0476   6.1455

          k = 0.3750 0.0000 0.0000 ( 40852 PWs)   bands (ev):

   -72.6140 -72.3539 -72.2200 -72.1568 -72.1136 -71.8317 -42.7427 -42.6701
   -42.5178 -42.4861 -42.4540 -42.4150 -42.3713 -42.3452 -42.2027 -42.1814
   -42.1804 -42.1214 -42.0992 -42.0392 -41.9878 -41.9610 -41.8989 -41.6751
   -17.9113 -17.7511 -17.6618 -17.5815 -17.4765 -17.4103 -17.4095 -17.3566
   -17.2816 -17.1700 -17.0602 -16.9313 -16.0100  -6.0496  -5.9302  -5.8596
    -5.7968  -5.6857  -5.5782  -5.5439  -5.3608  -5.3408  -5.2047  -5.0335
    -4.9064  -4.6163  -4.5330  -4.4417  -4.2176  -4.0358  -4.0058  -3.7701
    -3.4959  -3.2824  -3.2029  -3.2011  -3.0957  -2.9325  -2.6697  -2.6141
    -2.5466  -2.2827  -2.1923  -2.0646  -2.0377  -1.8686  -1.5444  -1.3534
    -1.3197  -1.1570  -0.9952  -0.7452   0.1826   0.5095   0.6452   0.7480
     0.7536   0.8408   0.9547   0.9748   1.0632   1.1834   1.3533   1.4279
     1.5984   1.7845   1.8663   1.9243   2.2331   2.3031   2.5954   3.4950
     4.1994   4.4261   4.5861   4.6012   4.6926   4.7338   4.9800   5.1326
     5.7471   5.8062

          k = 0.3750 0.1223 0.0000 ( 40842 PWs)   bands (ev):

   -72.6139 -72.3539 -72.2200 -72.1568 -72.1136 -71.8317 -42.7429 -42.6707
   -42.5183 -42.4861 -42.4541 -42.4150 -42.3714 -42.3473 -42.2025 -42.1796
   -42.1790 -42.1220 -42.0993 -42.0393 -41.9878 -41.9608 -41.8982 -41.6751
   -17.8962 -17.7475 -17.7342 -17.6321 -17.5230 -17.4717 -17.3360 -17.2849
   -17.2176 -17.1679 -17.0580 -16.9378 -16.0102  -5.9881  -5.8643  -5.8502
    -5.8123  -5.6934  -5.6176  -5.4581  -5.4405  -5.3405  -5.2871  -5.2003
    -4.8354  -4.5110  -4.4597  -4.3327  -4.2182  -4.0837  -4.0208  -3.5693
    -3.4101  -3.3331  -3.1828  -3.0817  -2.9574  -2.8522  -2.6972  -2.5662
    -2.5396  -2.5035  -2.2776  -2.0942  -1.8859  -1.8040  -1.7346  -1.4502
    -1.3413  -1.1224  -0.9499  -0.9158   0.0566   0.2457   0.3745   0.6684
     0.7667   0.8007   0.8920   0.9355   0.9960   1.0490   1.1302   1.4319
     1.8407   2.0175   2.0696   2.1639   2.2067   2.2574   2.7043   3.4934
     3.8379   3.8595   3.9532   4.2438   4.4492   5.4040   5.6853   5.7850
     5.9053   6.0025

          k = 0.3750-0.2445 0.0000 ( 40856 PWs)   bands (ev):

   -72.6139 -72.3539 -72.2200 -72.1568 -72.1136 -71.8317 -42.7430 -42.6712
   -42.5188 -42.4861 -42.4541 -42.4150 -42.3715 -42.3494 -42.2023 -42.1788
   -42.1767 -42.1225 -42.0994 -42.0393 -41.9878 -41.9605 -41.8975 -41.6752
   -17.8665 -17.8089 -17.7333 -17.6858 -17.5428 -17.5068 -17.2861 -17.2384
   -17.1784 -17.1658 -17.0543 -16.9447 -16.0105  -5.9613  -5.8472  -5.7724
    -5.7138  -5.6556  -5.5923  -5.5806  -5.4886  -5.4125  -5.3584  -5.2877
    -4.8793  -4.5332  -4.3174  -4.2752  -4.0830  -3.9052  -3.8593  -3.5450
    -3.3262  -3.3056  -3.1165  -3.0107  -2.9441  -2.9123  -2.8080  -2.7193
    -2.6578  -2.5655  -2.1973  -2.0929  -1.9036  -1.8198  -1.5733  -1.4633
    -1.2999  -1.1313  -1.1047  -0.8166  -0.2220  -0.0852   0.0018   0.4275
     0.7853   0.8327   0.9359   1.0021   1.0233   1.0687   1.2174   1.3242
     1.7814   2.0561   2.1194   2.3133   2.3746   2.4091   2.8021   3.3207
     3.4272   3.5260   3.6348   4.2690   4.4506   5.6859   5.7912   6.1557
     6.1882   6.2835

          k =-0.5000 0.0000 0.0000 ( 40876 PWs)   bands (ev):

   -72.6124 -72.3524 -72.2185 -72.1553 -72.1121 -71.8302 -42.7702 -42.6680
   -42.5158 -42.4811 -42.4523 -42.4187 -42.3915 -42.3429 -42.2116 -42.2069
   -42.1945 -42.1471 -42.0950 -42.0365 -41.9851 -41.9569 -41.9252 -41.6706
   -17.8431 -17.5907 -17.5492 -17.5213 -17.4808 -17.4364 -17.4297 -17.4154
   -17.3571 -17.1987 -17.0197 -16.8563 -15.9723  -6.0980  -5.9141  -5.8408
    -5.6506  -5.5203  -5.5000  -5.4147  -5.2783  -5.2626  -5.2227  -5.0777
    -4.8759  -4.8723  -4.7254  -4.5465  -4.3879  -4.0143  -3.5095  -3.4857
    -3.4725  -3.4448  -3.4227  -3.2311  -3.0428  -2.9577  -2.8376  -2.4615
    -2.3760  -2.1675  -2.1488  -2.0433  -2.0403  -1.6500  -1.6250  -1.5401
    -1.3670  -1.2699  -0.9260  -0.6853   0.2602   0.2793   0.6447   0.7176
     0.7612   0.7916   0.8083   0.8831   0.9354   0.9893   1.2249   1.2675
     1.5617   1.7541   2.0726   2.1092   2.4019   2.4784   2.4788   3.2575
     4.1517   4.3709   4.4517   4.4739   4.5758   4.7397   4.9529   5.1028
     5.7374   5.8307

          k =-0.5000 0.1223 0.0000 ( 40858 PWs)   bands (ev):

   -72.6124 -72.3524 -72.2185 -72.1553 -72.1121 -71.8302 -42.7704 -42.6688
   -42.5165 -42.4811 -42.4523 -42.4188 -42.3916 -42.3462 -42.2087 -42.2059
   -42.1940 -42.1476 -42.0948 -42.0366 -41.9851 -41.9564 -41.9243 -41.6705
   -17.8398 -17.7589 -17.7146 -17.6308 -17.5426 -17.4297 -17.2714 -17.2401
   -17.1981 -17.1692 -17.0198 -16.8601 -15.9718  -6.1025  -5.9215  -5.8880
    -5.8461  -5.7797  -5.7707  -5.4534  -5.4022  -5.3356  -5.3133  -4.9801
    -4.8982  -4.6096  -4.3100  -4.1776  -4.1406  -3.6701  -3.6374  -3.5442
    -3.4591  -3.4472  -3.3966  -3.1585  -2.8219  -2.7785  -2.5160  -2.4530
    -2.3932  -2.2815  -2.2561  -2.0420  -1.9085  -1.7989  -1.6602  -1.5311
    -1.4350  -1.2270  -1.1158  -0.7836   0.1153   0.1969   0.2443   0.2935
     0.6204   0.6635   0.7100   0.7564   0.7735   0.7929   0.9576   1.2368
     2.0073   2.1772   2.2521   2.2704   2.3451   2.4422   2.6112   3.3110
     3.6136   3.6735   3.7822   4.1852   4.3756   5.7159   5.8142   5.8300
     5.8896   5.9337

          k =-0.5000-0.2445 0.0000 ( 40872 PWs)   bands (ev):

   -72.6124 -72.3524 -72.2185 -72.1553 -72.1121 -71.8302 -42.7705 -42.6697
   -42.5173 -42.4811 -42.4523 -42.4188 -42.3917 -42.3494 -42.2061 -42.2049
   -42.1933 -42.1481 -42.0947 -42.0366 -41.9850 -41.9558 -41.9235 -41.6703
   -17.8494 -17.8365 -17.8043 -17.7197 -17.5355 -17.4365 -17.1974 -17.1716
   -17.1432 -17.0772 -17.0166 -16.8641 -15.9713  -6.1311  -6.1022  -6.0465
    -5.9926  -5.8111  -5.6877  -5.5129  -5.3816  -5.3749  -5.3191  -4.9928
    -4.9319  -4.6939  -4.3654  -3.7413  -3.7230  -3.6430  -3.4522  -3.4457
    -3.2560  -3.2039  -3.1132  -3.0038  -2.8686  -2.7143  -2.7001  -2.4753
    -2.4429  -2.3899  -2.2182  -2.0352  -1.8585  -1.6751  -1.5769  -1.5752
    -1.5158  -1.3286  -1.0720  -1.0338  -0.4102  -0.1498  -0.0675   0.1442
     0.2976   0.6330   0.6519   0.7490   0.7814   0.7924   0.9718   1.2230
     1.9505   2.1630   2.2829   2.5166   2.5572   2.5976   2.6709   3.2271
     3.2839   3.3500   3.3954   4.2156   4.3794   5.9000   5.9377   6.2305
     6.2778   6.4024

     the Fermi energy is     1.3953 ev

!    total energy              =   -1673.52913817 Ry
     estimated scf accuracy    <       0.00000039 Ry
     smearing contrib. (-TS)   =      -0.00093223 Ry
     internal energy E=F+TS    =   -1673.52820594 Ry

     The total energy is F=E-TS. E is the sum of the following terms:
     one-electron contribution =  -16974.23948846 Ry
     hartree contribution      =    8511.41151007 Ry
     xc contribution           =    -214.90938515 Ry
     ewald contribution        =    7127.96989477 Ry
     one-center paw contrib.   =    -123.76073717 Ry

     convergence has been achieved in  21 iterations

     negative rho (up, down):  1.032E-04 0.000E+00

     Forces acting on atoms (cartesian axes, Ry/au):

     atom    1 type  2   force =    -0.00000625    0.00000000    0.06382344
     atom    2 type  2   force =    -0.00004004    0.00000000   -0.08481121
     atom    3 type  2   force =    -0.00055325    0.00000000   -0.00076583
     atom    4 type  2   force =     0.00064502    0.00000000   -0.00017605
     atom    5 type  2   force =    -0.00036376    0.00000000    0.00065202
     atom    6 type  2   force =     0.00086335    0.00000000   -0.00060472
     atom    7 type  3   force =    -0.00001465    0.00000000    0.02948447
     atom    8 type  3   force =    -0.00002752    0.00000000    0.06181762
     atom    9 type  3   force =    -0.00000696    0.02451468   -0.02441525
     atom   10 type  3   force =    -0.00000696   -0.02451468   -0.02441525
     atom   11 type  3   force =     0.00071904    0.00000000    0.00044851
     atom   12 type  3   force =    -0.00188817    0.00000000   -0.01628290
     atom   13 type  3   force =    -0.00037389   -0.00024185   -0.00183816
     atom   14 type  3   force =    -0.00037389    0.00024185   -0.00183816
     atom   15 type  3   force =     0.00054207    0.00000000    0.00066708
     atom   16 type  3   force =     0.00011561    0.00000000   -0.00161792
     atom   17 type  3   force =    -0.00041205    0.00136704    0.00013327
     atom   18 type  3   force =    -0.00041205   -0.00136704    0.00013327
     atom   19 type  3   force =     0.00098398    0.00000000   -0.00141439
     atom   20 type  1   force =     0.00061036    0.00000000    0.00102014

     Total force =     0.004769     Total SCF correction =     0.002832
     SCF correction compared to forces is large: reduce conv_thr to get better values

     Writing all to output data dir ./tmp_s0_OH__base/s0_OH__base.save/ :
     XML data file, charge density, pseudopotentials, collected wavefunctions

     init_run     :     20.66s CPU     21.92s WALL (       1 calls)
     electrons    :    896.69s CPU    924.25s WALL (       1 calls)
     forces       :      8.54s CPU      9.07s WALL (       1 calls)

     Called by init_run:
     wfcinit      :     15.18s CPU     15.74s WALL (       1 calls)
     potinit      :      2.40s CPU      2.77s WALL (       1 calls)
     hinit0       :      2.36s CPU      2.48s WALL (       1 calls)

     Called by electrons:
     c_bands      :    646.52s CPU    665.02s WALL (      21 calls)
     sum_band     :    131.44s CPU    134.32s WALL (      21 calls)
     v_of_rho     :     23.30s CPU     26.04s WALL (      22 calls)
     newd         :      7.61s CPU      9.72s WALL (      22 calls)
     PAW_pot      :      7.44s CPU      7.45s WALL (      22 calls)
     mix_rho      :     79.73s CPU     81.21s WALL (      21 calls)

     Called by c_bands:
     init_us_2    :     11.56s CPU     11.65s WALL (     176 calls)
     cegterg      :    613.60s CPU    632.06s WALL (      84 calls)

     Called by *egterg:
     cdiaghg      :      5.19s CPU      5.19s WALL (     381 calls)
     h_psi        :    432.49s CPU    438.19s WALL (     385 calls)
     s_psi        :     37.97s CPU     37.99s WALL (     385 calls)
     g_psi        :      5.04s CPU      5.04s WALL (     297 calls)

     Called by h_psi:
     h_psi:calbec :     40.29s CPU     40.30s WALL (     385 calls)
     vloc_psi     :    349.12s CPU    349.50s WALL (     385 calls)
                                        0.00s GPU  (     385 calls)
     add_vuspsi   :     40.13s CPU     40.15s WALL (     385 calls)

     General routines
     calbec       :     61.58s CPU     61.60s WALL (     485 calls)
     fft          :     10.64s CPU     10.66s WALL (     295 calls)
     ffts         :     31.29s CPU     31.33s WALL (    2499 calls)
     fftw         :    353.03s CPU    353.34s WALL (   46412 calls)
     interpolate  :      2.11s CPU      2.15s WALL (      22 calls)

     Parallel routines

     PWSCF        :  15m26.16s CPU  15m55.75s WALL


   This run was terminated on:  21:27: 6   7Aug2026            

=------------------------------------------------------------------------------=
   JOB DONE.
=------------------------------------------------------------------------------=
