
     Program PWSCF v.7.5 starts on  8Aug2026 at 17: 0:23 

     This program is part of the open-source Quantum ESPRESSO suite
     for quantum simulation of materials; please cite
         "P. Giannozzi et al., J. Phys.:Condens. Matter 21 395502 (2009);
         "P. Giannozzi et al., J. Phys.:Condens. Matter 29 465901 (2017);
         "P. Giannozzi et al., J. Chem. Phys. 152 154105 (2020);
          URL http://www.quantum-espresso.org", 
     in publications or presentations arising from this work. More details at
     http://www.quantum-espresso.org/quote

     Parallel version (MPI & OpenMP), running on       4 processor cores
     Number of MPI processes:                 4
     Threads/MPI process:                     1

     MPI processes distributed on     1 nodes
     21461 MiB available memory on the printing compute node when the environment starts

     Reading input from slab__dipole.run.in

     Current dimensions of program PWSCF are:
     Max number of different atomic species (ntypx) = 10
     Max number of k-points (npk) =  40000
     Max angular momentum in pseudopotentials (lmaxx) =  4
     file O.pbe-n-kjpaw_psl.0.1.UPF: wavefunction(s)  2P renormalized

     K-points division:     npool     =       4
     Subspace diagonalization in iterative solution of the eigenvalue problem:
     a serial algorithm will be used


     G-vector sticks info
     --------------------
     sticks:   dense  smooth     PW     G-vecs:    dense   smooth      PW
     Sum        3587    1793    513               925697   327113   49625

     Using Slab Decomposition



     bravais-lattice index     =            0
     lattice parameter (alat)  =       5.8714  a.u.
     unit-cell volume          =    3384.5999 (a.u.)^3
     number of atoms/cell      =           18
     number of atomic types    =            2
     number of electrons       =       168.00
     number of Kohn-Sham states=          101
     kinetic-energy cutoff     =      80.0000  Ry
     charge density cutoff     =     640.0000  Ry
     scf convergence threshold =      1.0E-06
     mixing beta               =       0.3000
     number of iterations used =            8  local-TF  mixing
     Exchange-correlation= SLA  PW   PBX  PBC
                           (   1   4   3   4   0   0   0)

     celldm(1)=   5.871379  celldm(2)=   0.000000  celldm(3)=   0.000000
     celldm(4)=   0.000000  celldm(5)=   0.000000  celldm(6)=   0.000000

     crystal axes: (cart. coord. in units of alat)
               a(1) = (   1.000000   0.000000   0.000000 )  
               a(2) = (   0.000000   2.044624   0.000000 )  
               a(3) = (   0.000000   0.000000   8.178497 )  

     reciprocal axes: (cart. coord. in units 2 pi/alat)
               b(1) = (  1.000000  0.000000  0.000000 )  
               b(2) = (  0.000000  0.489087  0.000000 )  
               b(3) = (  0.000000  0.000000  0.122272 )  


     PseudoPot. # 1 for Ru read from file:
     /usr/share/espresso/pseudo/Ru_ONCV_PBE-1.0.oncvpsp.upf
     MD5 check sum: be037bb81c227cfb9b1461a9f099f4bd
     Pseudo is Norm-conserving, Zval = 16.0
     Generated using ONCVPSP code by D. R. Hamann
     Using radial grid of 1458 points,  6 beta functions with: 
                l(1) =   0
                l(2) =   0
                l(3) =   1
                l(4) =   1
                l(5) =   2
                l(6) =   2

     PseudoPot. # 2 for O  read from file:
     /usr/share/espresso/pseudo/O.pbe-n-kjpaw_psl.0.1.UPF
     MD5 check sum: 0234752ac141de4415c5fc33072bef88
     Pseudo is Projector augmented-wave + core cor, Zval =  6.0
     Generated using "atomic" code by A. Dal Corso  v.5.0.99 svn rev. 10869
     Shape of augmentation charge: BESSEL
     Using radial grid of 1095 points,  4 beta functions with: 
                l(1) =   0
                l(2) =   0
                l(3) =   1
                l(4) =   1
     Q(r) pseudized with 0 coefficients 


     atomic species   valence    mass     pseudopotential
     Ru               16.00   101.07000     Ru( 1.00)
     O                 6.00    15.99900     O ( 1.00)

     No symmetry found



   Cartesian axes

     site n.     atom                  positions (alat units)
         1        Ru     tau(   1) = (   0.0000000   0.5111560   3.0669363  )
         2        Ru     tau(   2) = (   0.5000000   1.5334681   3.0669363  )
         3        Ru     tau(   3) = (  -0.0000000   1.5334682   4.1031648  )
         4        Ru     tau(   4) = (   0.4999999   0.5111560   4.0810147  )
         5        Ru     tau(   5) = (  -0.0000001   0.5111559   5.0865401  )
         6        Ru     tau(   6) = (   0.5000000   1.5334681   5.1601732  )
         7        O      tau(   7) = (   0.0000000   1.5334681   3.4656380  )
         8        O      tau(   8) = (   0.0000000   1.5334681   2.6682346  )
         9        O      tau(   9) = (   0.5000000   0.1124543   3.0669363  )
        10        O      tau(  10) = (   0.5000000   0.9098578   3.0669363  )
        11        O      tau(  11) = (  -0.0000002   0.5111559   4.4808233  )
        12        O      tau(  12) = (   0.0000000   0.5111560   3.6905466  )
        13        O      tau(  13) = (   0.5000000   1.1379671   4.0944546  )
        14        O      tau(  14) = (   0.4999999   1.9289692   4.0944546  )
        15        O      tau(  15) = (  -0.0000000   1.5334681   5.5138311  )
        16        O      tau(  16) = (   0.0000001   1.5334681   4.7285026  )
        17        O      tau(  17) = (   0.4999999   0.1221419   5.1394925  )
        18        O      tau(  18) = (   0.4999999   0.9001701   5.1394925  )

     number of k points=    32  Marzari-Vanderbilt smearing, width (Ry)=  0.0100
                       cart. coord. in units 2pi/alat
        k(    1) = (   0.0000000   0.0000000   0.0000000), wk =   0.0625000
        k(    2) = (   0.0000000   0.1222719   0.0000000), wk =   0.0625000
        k(    3) = (   0.0000000  -0.2445437   0.0000000), wk =   0.0625000
        k(    4) = (   0.0000000  -0.1222719   0.0000000), wk =   0.0625000
        k(    5) = (   0.1250000   0.0000000   0.0000000), wk =   0.0625000
        k(    6) = (   0.1250000   0.1222719   0.0000000), wk =   0.0625000
        k(    7) = (   0.1250000  -0.2445437   0.0000000), wk =   0.0625000
        k(    8) = (   0.1250000  -0.1222719   0.0000000), wk =   0.0625000
        k(    9) = (   0.2500000   0.0000000   0.0000000), wk =   0.0625000
        k(   10) = (   0.2500000   0.1222719   0.0000000), wk =   0.0625000
        k(   11) = (   0.2500000  -0.2445437   0.0000000), wk =   0.0625000
        k(   12) = (   0.2500000  -0.1222719   0.0000000), wk =   0.0625000
        k(   13) = (   0.3750000   0.0000000   0.0000000), wk =   0.0625000
        k(   14) = (   0.3750000   0.1222719   0.0000000), wk =   0.0625000
        k(   15) = (   0.3750000  -0.2445437   0.0000000), wk =   0.0625000
        k(   16) = (   0.3750000  -0.1222719   0.0000000), wk =   0.0625000
        k(   17) = (  -0.5000000   0.0000000   0.0000000), wk =   0.0625000
        k(   18) = (  -0.5000000   0.1222719   0.0000000), wk =   0.0625000
        k(   19) = (  -0.5000000  -0.2445437   0.0000000), wk =   0.0625000
        k(   20) = (  -0.5000000  -0.1222719   0.0000000), wk =   0.0625000
        k(   21) = (  -0.3750000   0.0000000   0.0000000), wk =   0.0625000
        k(   22) = (  -0.3750000   0.1222719   0.0000000), wk =   0.0625000
        k(   23) = (  -0.3750000  -0.2445437   0.0000000), wk =   0.0625000
        k(   24) = (  -0.3750000  -0.1222719   0.0000000), wk =   0.0625000
        k(   25) = (  -0.2500000   0.0000000   0.0000000), wk =   0.0625000
        k(   26) = (  -0.2500000   0.1222719   0.0000000), wk =   0.0625000
        k(   27) = (  -0.2500000  -0.2445437   0.0000000), wk =   0.0625000
        k(   28) = (  -0.2500000  -0.1222719   0.0000000), wk =   0.0625000
        k(   29) = (  -0.1250000   0.0000000   0.0000000), wk =   0.0625000
        k(   30) = (  -0.1250000   0.1222719   0.0000000), wk =   0.0625000
        k(   31) = (  -0.1250000  -0.2445437   0.0000000), wk =   0.0625000
        k(   32) = (  -0.1250000  -0.1222719   0.0000000), wk =   0.0625000

     Dense  grid:   925697 G-vectors     FFT dimensions: (  48, 100, 400)

     Smooth grid:   327113 G-vectors     FFT dimensions: (  36,  72, 288)

     Estimated max dynamical RAM per process >       1.59 GB

     Estimated total dynamical RAM >       5.69 GB

     Initial potential from superposition of free atoms

     starting charge     167.9967, renormalised to     168.0000

     negative rho (up, down):  9.081E-05 0.000E+00

     Adding external electric field

     Computed dipole along edir(3) : 
        Dipole               -0.0000 Ry au,         -0.0000 Debye
        Dipole field         -0.0000 Ry au, 

        Potential amp.        0.0000 Ry
        Total length         43.2171 bohr

     Starting wfcs are  108 randomized atomic wfcs
     Checking if some PAW data can be deallocated... 

     total cpu time spent up to now is       47.3 secs

     per-process dynamical memory:  1076.2 Mb

     Self-consistent Calculation

     iteration #  1     ecut=    80.00 Ry     beta= 0.30
     Davidson diagonalization with overlap
     ethr =  1.00E-02,  avg # of iterations =  2.0

     negative rho (up, down):  4.603E-05 0.000E+00

     Adding external electric field

     Computed dipole along edir(3) : 
        Dipole                0.0012 Ry au,          0.0031 Debye
        Dipole field          0.0000 Ry au, 

        Potential amp.       -0.0004 Ry
        Total length         43.2171 bohr


     total cpu time spent up to now is      164.0 secs

     total energy              =   -1630.54444050 Ry
     estimated scf accuracy    <       4.81185363 Ry

     iteration #  2     ecut=    80.00 Ry     beta= 0.30
     Davidson diagonalization with overlap
     ethr =  2.86E-03,  avg # of iterations =  1.0

     negative rho (up, down):  1.858E-08 0.000E+00

     Adding external electric field

     Computed dipole along edir(3) : 
        Dipole               -0.0204 Ry au,         -0.0518 Debye
        Dipole field         -0.0001 Ry au, 

        Potential amp.        0.0065 Ry
        Total length         43.2171 bohr


     total cpu time spent up to now is      260.5 secs

     total energy              =   -1630.63031776 Ry
     estimated scf accuracy    <       1.28583093 Ry

     iteration #  3     ecut=    80.00 Ry     beta= 0.30
     Davidson diagonalization with overlap
     ethr =  7.65E-04,  avg # of iterations =  1.7

     Adding external electric field

     Computed dipole along edir(3) : 
        Dipole               -0.0294 Ry au,         -0.0746 Debye
        Dipole field         -0.0001 Ry au, 

        Potential amp.        0.0094 Ry
        Total length         43.2171 bohr


     total cpu time spent up to now is      363.7 secs

     total energy              =   -1630.64932620 Ry
     estimated scf accuracy    <       0.85594318 Ry

     iteration #  4     ecut=    80.00 Ry     beta= 0.30
     Davidson diagonalization with overlap
     ethr =  5.09E-04,  avg # of iterations =  1.9

     Adding external electric field

     Computed dipole along edir(3) : 
        Dipole               -0.0377 Ry au,         -0.0958 Debye
        Dipole field         -0.0001 Ry au, 

        Potential amp.        0.0121 Ry
        Total length         43.2171 bohr


     total cpu time spent up to now is      467.5 secs

     total energy              =   -1630.67580370 Ry
     estimated scf accuracy    <       0.14591522 Ry

     iteration #  5     ecut=    80.00 Ry     beta= 0.30
     Davidson diagonalization with overlap
     ethr =  8.69E-05,  avg # of iterations =  2.6

     negative rho (up, down):  1.146E-08 0.000E+00

     Adding external electric field

     Computed dipole along edir(3) : 
        Dipole               -0.0568 Ry au,         -0.1443 Debye
        Dipole field         -0.0002 Ry au, 

        Potential amp.        0.0182 Ry
        Total length         43.2171 bohr


     total cpu time spent up to now is      574.5 secs

     total energy              =   -1630.67330981 Ry
     estimated scf accuracy    <       0.12453160 Ry

     iteration #  6     ecut=    80.00 Ry     beta= 0.30
     Davidson diagonalization with overlap
     ethr =  7.41E-05,  avg # of iterations =  1.0

     negative rho (up, down):  1.765E-08 0.000E+00

     Adding external electric field

     Computed dipole along edir(3) : 
        Dipole               -0.0735 Ry au,         -0.1868 Debye
        Dipole field         -0.0003 Ry au, 

        Potential amp.        0.0236 Ry
        Total length         43.2171 bohr


     total cpu time spent up to now is      673.0 secs

     total energy              =   -1630.67193641 Ry
     estimated scf accuracy    <       0.05660340 Ry

     iteration #  7     ecut=    80.00 Ry     beta= 0.30
     Davidson diagonalization with overlap
     ethr =  3.37E-05,  avg # of iterations =  1.4

     negative rho (up, down):  1.266E-08 0.000E+00

     Adding external electric field

     Computed dipole along edir(3) : 
        Dipole               -0.0886 Ry au,         -0.2253 Debye
        Dipole field         -0.0003 Ry au, 

        Potential amp.        0.0284 Ry
        Total length         43.2171 bohr


     total cpu time spent up to now is      773.2 secs

     total energy              =   -1630.67153412 Ry
     estimated scf accuracy    <       0.03037597 Ry

     iteration #  8     ecut=    80.00 Ry     beta= 0.30
     Davidson diagonalization with overlap
     ethr =  1.81E-05,  avg # of iterations =  1.2

     negative rho (up, down):  2.807E-08 0.000E+00

     Adding external electric field

     Computed dipole along edir(3) : 
        Dipole               -0.1422 Ry au,         -0.3615 Debye
        Dipole field         -0.0005 Ry au, 

        Potential amp.        0.0456 Ry
        Total length         43.2171 bohr


     total cpu time spent up to now is      873.5 secs

     total energy              =   -1630.66925000 Ry
     estimated scf accuracy    <       0.03086801 Ry

     iteration #  9     ecut=    80.00 Ry     beta= 0.30
     Davidson diagonalization with overlap
     ethr =  1.81E-05,  avg # of iterations =  1.7

     negative rho (up, down):  1.898E-08 0.000E+00

     Adding external electric field

     Computed dipole along edir(3) : 
        Dipole               -0.1616 Ry au,         -0.4106 Debye
        Dipole field         -0.0006 Ry au, 

        Potential amp.        0.0518 Ry
        Total length         43.2171 bohr


     total cpu time spent up to now is      976.3 secs

     total energy              =   -1630.66931938 Ry
     estimated scf accuracy    <       0.01784079 Ry

     iteration # 10     ecut=    80.00 Ry     beta= 0.30
     Davidson diagonalization with overlap
     ethr =  1.06E-05,  avg # of iterations =  1.4

     negative rho (up, down):  1.423E-03 0.000E+00

     Adding external electric field

     Computed dipole along edir(3) : 
        Dipole               -0.1916 Ry au,         -0.4870 Debye
        Dipole field         -0.0007 Ry au, 

        Potential amp.        0.0615 Ry
        Total length         43.2171 bohr


     total cpu time spent up to now is     1078.6 secs

     total energy              =   -1630.66869831 Ry
     estimated scf accuracy    <       0.01543619 Ry

     iteration # 11     ecut=    80.00 Ry     beta= 0.30
     Davidson diagonalization with overlap
     ethr =  9.19E-06,  avg # of iterations =  1.2

     negative rho (up, down):  4.935E-03 0.000E+00

     Adding external electric field

     Computed dipole along edir(3) : 
        Dipole               -0.1943 Ry au,         -0.4939 Debye
        Dipole field         -0.0007 Ry au, 

        Potential amp.        0.0624 Ry
        Total length         43.2171 bohr


     total cpu time spent up to now is     1178.8 secs

     total energy              =   -1630.66852698 Ry
     estimated scf accuracy    <       0.00441839 Ry

     iteration # 12     ecut=    80.00 Ry     beta= 0.30
     Davidson diagonalization with overlap
     ethr =  2.63E-06,  avg # of iterations =  5.1

     negative rho (up, down):  2.578E-03 0.000E+00

     Adding external electric field

     Computed dipole along edir(3) : 
        Dipole               -0.1822 Ry au,         -0.4631 Debye
        Dipole field         -0.0007 Ry au, 

        Potential amp.        0.0585 Ry
        Total length         43.2171 bohr


     total cpu time spent up to now is     1293.5 secs

     total energy              =   -1630.66857145 Ry
     estimated scf accuracy    <       0.00467940 Ry

     iteration # 13     ecut=    80.00 Ry     beta= 0.30
     Davidson diagonalization with overlap
     ethr =  2.63E-06,  avg # of iterations =  1.0

     negative rho (up, down):  2.047E-03 0.000E+00

     Adding external electric field

     Computed dipole along edir(3) : 
        Dipole               -0.1825 Ry au,         -0.4639 Debye
        Dipole field         -0.0007 Ry au, 

        Potential amp.        0.0586 Ry
        Total length         43.2171 bohr


     total cpu time spent up to now is     1389.6 secs

     total energy              =   -1630.66859161 Ry
     estimated scf accuracy    <       0.00520914 Ry

     iteration # 14     ecut=    80.00 Ry     beta= 0.30
     Davidson diagonalization with overlap
     ethr =  2.63E-06,  avg # of iterations =  1.0

     negative rho (up, down):  1.823E-03 0.000E+00

     Adding external electric field

     Computed dipole along edir(3) : 
        Dipole               -0.1702 Ry au,         -0.4327 Debye
        Dipole field         -0.0006 Ry au, 

        Potential amp.        0.0546 Ry
        Total length         43.2171 bohr


     total cpu time spent up to now is     1485.5 secs

     total energy              =   -1630.66850902 Ry
     estimated scf accuracy    <       0.00336477 Ry

     iteration # 15     ecut=    80.00 Ry     beta= 0.30
     Davidson diagonalization with overlap
     ethr =  2.00E-06,  avg # of iterations =  1.6

     negative rho (up, down):  1.215E-03 0.000E+00

     Adding external electric field

     Computed dipole along edir(3) : 
        Dipole               -0.1708 Ry au,         -0.4342 Debye
        Dipole field         -0.0006 Ry au, 

        Potential amp.        0.0548 Ry
        Total length         43.2171 bohr


     total cpu time spent up to now is     1584.4 secs

     total energy              =   -1630.66853913 Ry
     estimated scf accuracy    <       0.00456759 Ry

     iteration # 16     ecut=    80.00 Ry     beta= 0.30
     Davidson diagonalization with overlap
     ethr =  2.00E-06,  avg # of iterations =  1.0

     negative rho (up, down):  1.524E-03 0.000E+00

     Adding external electric field

     Computed dipole along edir(3) : 
        Dipole               -0.1266 Ry au,         -0.3217 Debye
        Dipole field         -0.0005 Ry au, 

        Potential amp.        0.0406 Ry
        Total length         43.2171 bohr


     total cpu time spent up to now is     1681.5 secs

     total energy              =   -1630.66828192 Ry
     estimated scf accuracy    <       0.00367453 Ry

     iteration # 17     ecut=    80.00 Ry     beta= 0.30
     Davidson diagonalization with overlap
     ethr =  2.00E-06,  avg # of iterations =  1.3

     negative rho (up, down):  1.567E-03 0.000E+00

     Adding external electric field

     Computed dipole along edir(3) : 
        Dipole               -0.0694 Ry au,         -0.1764 Debye
        Dipole field         -0.0003 Ry au, 

        Potential amp.        0.0223 Ry
        Total length         43.2171 bohr


     total cpu time spent up to now is     1778.6 secs

     total energy              =   -1630.66809900 Ry
     estimated scf accuracy    <       0.00741314 Ry

     iteration # 18     ecut=    80.00 Ry     beta= 0.30
     Davidson diagonalization with overlap
     ethr =  2.00E-06,  avg # of iterations =  1.0

     negative rho (up, down):  4.082E-03 0.000E+00

     Adding external electric field

     Computed dipole along edir(3) : 
        Dipole               -0.0160 Ry au,         -0.0406 Debye
        Dipole field         -0.0001 Ry au, 

        Potential amp.        0.0051 Ry
        Total length         43.2171 bohr


     total cpu time spent up to now is     1875.7 secs

     total energy              =   -1630.66794527 Ry
     estimated scf accuracy    <       0.00309177 Ry

     iteration # 19     ecut=    80.00 Ry     beta= 0.30
     Davidson diagonalization with overlap
     ethr =  1.84E-06,  avg # of iterations =  1.3

     negative rho (up, down):  9.006E-03 0.000E+00

     Adding external electric field

     Computed dipole along edir(3) : 
        Dipole                0.0920 Ry au,          0.2338 Debye
        Dipole field          0.0003 Ry au, 

        Potential amp.       -0.0295 Ry
        Total length         43.2171 bohr


     total cpu time spent up to now is     1973.3 secs

     total energy              =   -1630.66764589 Ry
     estimated scf accuracy    <       0.00152130 Ry

     iteration # 20     ecut=    80.00 Ry     beta= 0.30
     Davidson diagonalization with overlap
     ethr =  9.06E-07,  avg # of iterations =  3.6

     negative rho (up, down):  6.870E-03 0.000E+00

     Adding external electric field

     Computed dipole along edir(3) : 
        Dipole                0.1046 Ry au,          0.2660 Debye
        Dipole field          0.0004 Ry au, 

        Potential amp.       -0.0336 Ry
        Total length         43.2171 bohr


     total cpu time spent up to now is     2086.4 secs

     total energy              =   -1630.66765232 Ry
     estimated scf accuracy    <       0.00033566 Ry

     iteration # 21     ecut=    80.00 Ry     beta= 0.30
     Davidson diagonalization with overlap
     ethr =  2.00E-07,  avg # of iterations =  1.3

     negative rho (up, down):  3.708E-03 0.000E+00

     Adding external electric field

     Computed dipole along edir(3) : 
        Dipole                0.0999 Ry au,          0.2540 Debye
        Dipole field          0.0004 Ry au, 

        Potential amp.       -0.0321 Ry
        Total length         43.2171 bohr


     total cpu time spent up to now is     2186.0 secs

     total energy              =   -1630.66764270 Ry
     estimated scf accuracy    <       0.00019405 Ry

     iteration # 22     ecut=    80.00 Ry     beta= 0.30
     Davidson diagonalization with overlap
     ethr =  1.16E-07,  avg # of iterations =  1.7

     negative rho (up, down):  3.021E-03 0.000E+00

     Adding external electric field

     Computed dipole along edir(3) : 
        Dipole                0.0919 Ry au,          0.2336 Debye
        Dipole field          0.0003 Ry au, 

        Potential amp.       -0.0295 Ry
        Total length         43.2171 bohr


     total cpu time spent up to now is     2287.2 secs

     total energy              =   -1630.66765769 Ry
     estimated scf accuracy    <       0.00011669 Ry

     iteration # 23     ecut=    80.00 Ry     beta= 0.30
     Davidson diagonalization with overlap
     ethr =  6.95E-08,  avg # of iterations =  1.1

     negative rho (up, down):  1.750E-03 0.000E+00

     Adding external electric field

     Computed dipole along edir(3) : 
        Dipole                0.0801 Ry au,          0.2035 Debye
        Dipole field          0.0003 Ry au, 

        Potential amp.       -0.0257 Ry
        Total length         43.2171 bohr


     total cpu time spent up to now is     2385.3 secs

     total energy              =   -1630.66765627 Ry
     estimated scf accuracy    <       0.00007907 Ry

     iteration # 24     ecut=    80.00 Ry     beta= 0.30
     Davidson diagonalization with overlap
     ethr =  4.71E-08,  avg # of iterations =  2.0

     negative rho (up, down):  1.627E-03 0.000E+00

     Adding external electric field

     Computed dipole along edir(3) : 
        Dipole                0.0803 Ry au,          0.2041 Debye
        Dipole field          0.0003 Ry au, 

        Potential amp.       -0.0258 Ry
        Total length         43.2171 bohr


     total cpu time spent up to now is     2489.2 secs

     total energy              =   -1630.66767579 Ry
     estimated scf accuracy    <       0.00007700 Ry

     iteration # 25     ecut=    80.00 Ry     beta= 0.30
     Davidson diagonalization with overlap
     ethr =  4.58E-08,  avg # of iterations =  1.6

     negative rho (up, down):  7.662E-04 0.000E+00

     Adding external electric field

     Computed dipole along edir(3) : 
        Dipole                0.0802 Ry au,          0.2040 Debye
        Dipole field          0.0003 Ry au, 

        Potential amp.       -0.0258 Ry
        Total length         43.2171 bohr


     total cpu time spent up to now is     2590.6 secs

     total energy              =   -1630.66768313 Ry
     estimated scf accuracy    <       0.00002638 Ry

     iteration # 26     ecut=    80.00 Ry     beta= 0.30
     Davidson diagonalization with overlap
     ethr =  1.57E-08,  avg # of iterations =  1.3

     negative rho (up, down):  2.569E-04 0.000E+00

     Adding external electric field

     Computed dipole along edir(3) : 
        Dipole                0.0800 Ry au,          0.2033 Debye
        Dipole field          0.0003 Ry au, 

        Potential amp.       -0.0257 Ry
        Total length         43.2171 bohr


     total cpu time spent up to now is     2689.8 secs

     total energy              =   -1630.66768639 Ry
     estimated scf accuracy    <       0.00000687 Ry

     iteration # 27     ecut=    80.00 Ry     beta= 0.30
     Davidson diagonalization with overlap
     ethr =  4.09E-09,  avg # of iterations =  1.9

     negative rho (up, down):  3.162E-04 0.000E+00

     Adding external electric field

     Computed dipole along edir(3) : 
        Dipole                0.0807 Ry au,          0.2051 Debye
        Dipole field          0.0003 Ry au, 

        Potential amp.       -0.0259 Ry
        Total length         43.2171 bohr


     total cpu time spent up to now is     2794.2 secs

     total energy              =   -1630.66768910 Ry
     estimated scf accuracy    <       0.00000686 Ry

     iteration # 28     ecut=    80.00 Ry     beta= 0.30
     Davidson diagonalization with overlap
     ethr =  4.08E-09,  avg # of iterations =  1.0

     negative rho (up, down):  1.032E-04 0.000E+00

     Adding external electric field

     Computed dipole along edir(3) : 
        Dipole                0.0763 Ry au,          0.1940 Debye
        Dipole field          0.0003 Ry au, 

        Potential amp.       -0.0245 Ry
        Total length         43.2171 bohr


     total cpu time spent up to now is     2885.7 secs

     End of self-consistent calculation

          k = 0.0000 0.0000 0.0000 ( 40831 PWs)   bands (ev):

   -72.3318 -72.2034 -72.1389 -72.0145 -71.9146 -71.6839 -42.3660 -42.3625
   -42.3438 -42.3197 -42.2805 -42.2097 -42.1615 -42.0796 -42.0589 -42.0491
   -42.0430 -41.8931 -41.8732 -41.8615 -41.8336 -41.7455 -41.5929 -41.5388
   -18.7540 -18.3826 -18.2225 -18.0980 -17.5970 -17.4678 -17.4385 -16.8967
   -16.8276 -16.7464 -16.5028 -15.7833  -6.9956  -6.9281  -6.8889  -6.8094
    -5.9786  -5.7315  -5.4857  -5.4549  -5.3884  -5.3142  -5.2798  -5.1630
    -4.9362  -4.6830  -3.8920  -3.6054  -3.0599  -3.0530  -2.9901  -2.9039
    -2.6600  -2.6515  -2.5144  -2.4578  -2.2047  -2.1648  -2.0778  -1.9238
    -1.8227  -1.5166  -1.2605  -1.1254  -0.9716  -0.8427  -0.6445  -0.4571
    -0.0472  -0.0362   0.0507   0.1256   0.1273   0.2211   0.3038   0.3697
     0.5058   0.8299   0.9154   1.3301   1.3316   1.4731   1.9793   2.3923
     2.4259   2.7070   2.9621   3.0591   4.1457   4.9144   5.1026   5.5326
     5.8072   5.8988   6.0175   6.0322   6.0856

          k = 0.0000 0.1223 0.0000 ( 40974 PWs)   bands (ev):

   -72.3318 -72.2034 -72.1389 -72.0145 -71.9146 -71.6839 -42.3651 -42.3614
   -42.3438 -42.3181 -42.2804 -42.2097 -42.1615 -42.0795 -42.0588 -42.0491
   -42.0429 -41.8932 -41.8733 -41.8615 -41.8354 -41.7469 -41.5929 -41.5399
   -18.6832 -18.2570 -18.1349 -18.0363 -17.6280 -17.5081 -17.4423 -17.0147
   -16.9640 -16.9240 -16.5007 -15.7805  -6.8487  -6.5413  -6.4601  -6.4209
    -5.9713  -5.7311  -5.4112  -5.3378  -5.3142  -5.3096  -5.1963  -5.0820
    -4.9336  -4.5155  -3.9180  -3.8932  -3.5961  -3.4754  -3.2419  -3.0485
    -3.0000  -2.8659  -2.7173  -2.5302  -2.4537  -2.3630  -2.3561  -2.0074
    -1.9922  -1.8274  -1.5450  -1.2880  -1.2687  -0.8787  -0.8047  -0.5596
     0.0760   0.1194   0.4865   0.6011   0.6576   0.6634   0.7449   0.7688
     0.8215   0.8518   0.9954   1.3222   1.4466   1.4608   2.0343   2.1195
     2.3977   2.6424   2.8030   3.2161   4.4286   5.1543   5.3504   5.5317
     5.7362   5.8373   5.8591   5.8927   6.0425

          k = 0.0000-0.2445 0.0000 ( 41014 PWs)   bands (ev):

   -72.3318 -72.2034 -72.1389 -72.0145 -71.9146 -71.6839 -42.3641 -42.3602
   -42.3437 -42.3165 -42.2804 -42.2096 -42.1615 -42.0795 -42.0588 -42.0491
   -42.0428 -41.8932 -41.8734 -41.8615 -41.8372 -41.7482 -41.5930 -41.5411
   -18.6058 -18.0956 -18.0375 -17.8551 -17.7393 -17.6053 -17.4317 -17.1459
   -17.1366 -17.0945 -16.5003 -15.7783  -6.8435  -6.0099  -5.8620  -5.7473
    -5.7306  -5.6348  -5.3331  -5.3078  -5.2759  -5.2202  -5.1050  -4.9268
    -4.6507  -4.5961  -4.2042  -4.1980  -4.1327  -4.1295  -3.8533  -3.7891
    -3.1840  -3.0117  -2.9284  -2.8115  -2.7693  -2.6985  -2.4241  -2.0775
    -1.7600  -1.7352  -1.4184  -1.4032  -1.3240  -0.9935  -0.8151  -0.6853
     0.1116   0.1554   0.6422   0.8200   0.9963   1.0539   1.0934   1.1239
     1.1372   1.1958   1.2306   1.3496   1.4381   1.4874   1.8359   1.8995
     2.3203   2.4071   2.8752   3.4064   4.5789   5.4562   5.5233   5.5253
     5.5817   5.6052   5.6113   5.8394   6.0429

          k = 0.0000-0.1223 0.0000 ( 40974 PWs)   bands (ev):

   -72.3318 -72.2034 -72.1389 -72.0145 -71.9146 -71.6839 -42.3651 -42.3614
   -42.3438 -42.3181 -42.2804 -42.2097 -42.1615 -42.0795 -42.0588 -42.0491
   -42.0429 -41.8932 -41.8733 -41.8615 -41.8354 -41.7469 -41.5929 -41.5399
   -18.6832 -18.2570 -18.1349 -18.0363 -17.6280 -17.5081 -17.4423 -17.0147
   -16.9640 -16.9240 -16.5007 -15.7805  -6.8487  -6.5413  -6.4601  -6.4209
    -5.9713  -5.7311  -5.4112  -5.3378  -5.3142  -5.3096  -5.1963  -5.0820
    -4.9336  -4.5155  -3.9180  -3.8932  -3.5961  -3.4754  -3.2419  -3.0485
    -3.0000  -2.8659  -2.7173  -2.5302  -2.4537  -2.3630  -2.3561  -2.0074
    -1.9922  -1.8274  -1.5450  -1.2880  -1.2687  -0.8787  -0.8047  -0.5596
     0.0760   0.1194   0.4865   0.6011   0.6576   0.6634   0.7449   0.7688
     0.8215   0.8518   0.9954   1.3222   1.4466   1.4608   2.0343   2.1195
     2.3977   2.6424   2.8030   3.2161   4.4286   5.1543   5.3504   5.5317
     5.7362   5.8373   5.8591   5.8927   6.0425

          k = 0.1250 0.0000 0.0000 ( 40851 PWs)   bands (ev):

   -72.3303 -72.2019 -72.1373 -72.0130 -71.9131 -71.6823 -42.3722 -42.3640
   -42.3603 -42.3174 -42.2780 -42.2055 -42.1592 -42.1055 -42.0707 -42.0547
   -42.0446 -41.9004 -41.8917 -41.8893 -41.8294 -41.7411 -41.6203 -41.5343
   -18.6242 -18.2651 -18.1166 -17.9957 -17.5358 -17.5064 -17.3572 -16.9771
   -16.9041 -16.8272 -16.5793 -15.8277  -6.8179  -6.7537  -6.7111  -6.6052
    -5.9686  -5.7564  -5.5102  -5.4766  -5.3706  -5.2808  -5.1579  -4.8133
    -4.6596  -4.4306  -3.8899  -3.6500  -3.4534  -3.0946  -3.0095  -2.9028
    -2.8719  -2.7607  -2.6261  -2.4689  -2.4650  -2.3862  -2.2230  -2.0309
    -1.7907  -1.7565  -1.7157  -1.5555  -1.5213  -1.0058  -0.7435  -0.5340
     0.0069   0.0496   0.2793   0.3344   0.4434   0.5736   0.6228   0.6718
     0.8982   0.9151   1.1308   1.2719   1.5175   1.7396   1.8203   2.2464
     2.5625   2.6053   2.9086   2.9813   4.2686   4.9066   5.0964   5.3014
     5.4050   5.6145   5.7028   5.7604   5.8169

          k = 0.1250 0.1223 0.0000 ( 40932 PWs)   bands (ev):

   -72.3302 -72.2019 -72.1373 -72.0130 -71.9131 -71.6823 -42.3722 -42.3633
   -42.3595 -42.3162 -42.2779 -42.2054 -42.1592 -42.1055 -42.0707 -42.0547
   -42.0446 -41.9003 -41.8917 -41.8892 -41.8309 -41.7422 -41.6202 -41.5353
   -18.5596 -18.1449 -18.0361 -17.9290 -17.5381 -17.5311 -17.4041 -17.0811
   -17.0271 -16.9943 -16.5774 -15.8254  -6.6618  -6.3737  -6.2986  -6.2685
    -5.9620  -5.7602  -5.4139  -5.3779  -5.3700  -5.2228  -4.9653  -4.7941
    -4.6609  -4.3869  -3.9341  -3.7269  -3.6535  -3.4900  -3.4099  -3.2262
    -3.1045  -2.9919  -2.8809  -2.8312  -2.7363  -2.6401  -2.4401  -2.2800
    -1.9489  -1.7918  -1.6672  -1.6125  -1.3395  -0.8785  -0.7753  -0.6607
     0.0751   0.2133   0.4824   0.5714   0.6565   0.7583   0.9385   0.9931
     1.0376   1.1846   1.2775   1.4224   1.5288   1.7322   1.9107   2.0093
     2.3083   2.6346   2.8021   3.1833   4.4997   4.9817   5.1425   5.2544
     5.3426   5.4935   5.6099   5.6312   5.7181

          k = 0.1250-0.2445 0.0000 ( 40974 PWs)   bands (ev):

   -72.3302 -72.2019 -72.1373 -72.0130 -71.9131 -71.6823 -42.3721 -42.3626
   -42.3586 -42.3150 -42.2779 -42.2054 -42.1593 -42.1055 -42.0707 -42.0547
   -42.0446 -41.9002 -41.8917 -41.8891 -41.8323 -41.7433 -41.6202 -41.5362
   -18.4898 -17.9841 -17.9305 -17.7625 -17.6542 -17.5367 -17.4775 -17.2090
   -17.2010 -17.1310 -16.5770 -15.8236  -6.6518  -5.9878  -5.7639  -5.6386
    -5.5530  -5.4251  -5.4245  -5.3873  -5.3488  -5.2873  -4.8266  -4.6749
    -4.5107  -4.4819  -4.2693  -4.0421  -3.8441  -3.8183  -3.7796  -3.7592
    -3.5905  -3.5752  -3.1974  -3.1080  -3.0560  -2.9095  -2.5097  -2.2508
    -1.9287  -1.5917  -1.5066  -1.3053  -1.3036  -1.0676  -0.7715  -0.6995
     0.0811   0.3666   0.5582   0.7009   0.7745   0.8119   1.1115   1.3468
     1.4327   1.4399   1.5054   1.5892   1.6002   1.7549   1.7969   1.9011
     2.1967   2.2782   2.9612   3.3384   4.6428   4.9193   4.9542   5.0643
     5.2500   5.4091   5.6109   5.7413   5.7806

          k = 0.1250-0.1223 0.0000 ( 40932 PWs)   bands (ev):

   -72.3302 -72.2019 -72.1373 -72.0130 -71.9131 -71.6823 -42.3722 -42.3633
   -42.3595 -42.3162 -42.2779 -42.2054 -42.1592 -42.1055 -42.0707 -42.0547
   -42.0446 -41.9003 -41.8917 -41.8892 -41.8309 -41.7422 -41.6202 -41.5353
   -18.5596 -18.1449 -18.0361 -17.9290 -17.5381 -17.5311 -17.4041 -17.0811
   -17.0271 -16.9943 -16.5774 -15.8254  -6.6618  -6.3737  -6.2986  -6.2685
    -5.9620  -5.7602  -5.4139  -5.3779  -5.3700  -5.2228  -4.9653  -4.7941
    -4.6609  -4.3869  -3.9341  -3.7269  -3.6535  -3.4900  -3.4099  -3.2262
    -3.1045  -2.9919  -2.8809  -2.8312  -2.7363  -2.6401  -2.4401  -2.2800
    -1.9489  -1.7918  -1.6672  -1.6125  -1.3395  -0.8785  -0.7753  -0.6607
     0.0751   0.2133   0.4824   0.5714   0.6565   0.7583   0.9385   0.9931
     1.0376   1.1846   1.2775   1.4224   1.5288   1.7322   1.9107   2.0093
     2.3083   2.6346   2.8021   3.1833   4.4996   4.9817   5.1425   5.2543
     5.3425   5.4934   5.6099   5.6312   5.7180

          k = 0.2500 0.0000 0.0000 ( 40947 PWs)   bands (ev):

   -72.3264 -72.1983 -72.1335 -72.0093 -71.9092 -71.6786 -42.4396 -42.3591
   -42.3551 -42.3119 -42.2725 -42.1956 -42.1672 -42.1601 -42.1298 -42.0447
   -42.0348 -41.9653 -41.9563 -41.8880 -41.8193 -41.7303 -41.6860 -41.5235
   -18.2936 -17.9883 -17.8752 -17.7462 -17.6641 -17.3542 -17.1665 -17.1367
   -17.0845 -17.0168 -16.7508 -15.8871  -6.3710  -6.2955  -6.2449  -6.0721
    -5.7835  -5.7055  -5.5747  -5.4047  -5.2183  -5.0951  -4.8266  -4.7178
    -4.2814  -4.1806  -3.9008  -3.8832  -3.7710  -3.6604  -3.5337  -3.3418
    -3.0929  -2.9071  -2.7860  -2.6266  -2.6225  -2.5069  -2.4659  -2.2676
    -2.0806  -1.9852  -1.9347  -1.9257  -1.5787  -1.0506  -0.9200  -0.7133
     0.1393   0.2313   0.3989   0.6013   0.7735   0.9492   1.1120   1.1573
     1.1685   1.3853   1.4346   1.4861   1.5123   1.6759   1.8163   2.0237
     2.2451   2.4994   2.8119   2.9631   4.2366   4.6215   4.7650   4.9688
     5.1195   5.1574   5.1600   5.2397   5.3621

          k = 0.2500 0.1223 0.0000 ( 40905 PWs)   bands (ev):

   -72.3264 -72.1983 -72.1335 -72.0093 -71.9092 -71.6786 -42.4396 -42.3590
   -42.3550 -42.3118 -42.2724 -42.1956 -42.1673 -42.1601 -42.1298 -42.0447
   -42.0348 -41.9647 -41.9558 -41.8880 -41.8200 -41.7309 -41.6856 -41.5240
   -18.2497 -17.9066 -17.8239 -17.6888 -17.6391 -17.3791 -17.2947 -17.1835
   -17.1320 -17.1013 -16.7499 -15.8866  -6.1954  -5.9805  -5.9362  -5.9255
    -5.7746  -5.7007  -5.4182  -5.2652  -5.2292  -5.0707  -4.8612  -4.5520
    -4.3184  -4.2656  -4.1217  -4.0917  -3.9740  -3.8390  -3.6607  -3.5774
    -3.1737  -3.0093  -2.8512  -2.7620  -2.6925  -2.6314  -2.5798  -2.4175
    -2.1863  -1.9221  -1.8614  -1.8051  -1.5766  -1.0697  -0.9233  -0.7667
    -0.0313   0.3398   0.4328   0.6827   0.9675   1.0524   1.1959   1.2703
     1.2967   1.3629   1.4439   1.5385   1.6684   1.6973   1.8971   1.9837
     2.1405   2.3402   2.9370   3.0946   4.2632   4.4007   4.5147   4.5903
     4.8481   4.9522   5.2448   5.6518   5.8123

          k = 0.2500-0.2445 0.0000 ( 40892 PWs)   bands (ev):

   -72.3264 -72.1983 -72.1335 -72.0093 -71.9092 -71.6786 -42.4397 -42.3589
   -42.3550 -42.3116 -42.2724 -42.1956 -42.1674 -42.1602 -42.1299 -42.0447
   -42.0348 -41.9640 -41.9552 -41.8880 -41.8207 -41.7315 -41.6852 -41.5245
   -18.2033 -17.8067 -17.7434 -17.5835 -17.5780 -17.4397 -17.3950 -17.3812
   -17.2387 -17.1002 -16.7495 -15.8861  -6.1515  -5.8021  -5.7016  -5.4804
    -5.4651  -5.4444  -5.2818  -5.1317  -5.0717  -4.9736  -4.8269  -4.7379
    -4.7084  -4.6160  -4.3530  -4.1880  -4.0526  -3.9159  -3.5998  -3.4448
    -3.3470  -3.3305  -3.2338  -3.1637  -3.0192  -2.9725  -2.8184  -2.3214
    -2.0437  -1.7406  -1.5685  -1.5154  -1.4883  -1.1650  -0.9868  -0.8300
     0.1549   0.2022   0.4519   0.6456   0.6531   1.0805   1.3336   1.4124
     1.4594   1.5301   1.6295   1.7091   1.7274   1.8081   1.8725   2.0240
     2.1123   2.2119   3.0356   3.2018   4.0458   4.0942   4.1938   4.3334
     4.8484   4.9524   5.3783   5.9556   5.9729

          k = 0.2500-0.1223 0.0000 ( 40905 PWs)   bands (ev):

   -72.3264 -72.1983 -72.1335 -72.0093 -71.9092 -71.6786 -42.4396 -42.3590
   -42.3550 -42.3118 -42.2724 -42.1956 -42.1673 -42.1601 -42.1298 -42.0447
   -42.0348 -41.9647 -41.9558 -41.8880 -41.8200 -41.7309 -41.6856 -41.5240
   -18.2497 -17.9066 -17.8239 -17.6888 -17.6391 -17.3791 -17.2947 -17.1835
   -17.1320 -17.1013 -16.7499 -15.8866  -6.1954  -5.9805  -5.9362  -5.9255
    -5.7746  -5.7007  -5.4182  -5.2652  -5.2292  -5.0707  -4.8612  -4.5520
    -4.3184  -4.2656  -4.1217  -4.0917  -3.9740  -3.8390  -3.6607  -3.5774
    -3.1737  -3.0093  -2.8512  -2.7620  -2.6925  -2.6314  -2.5798  -2.4175
    -2.1863  -1.9221  -1.8614  -1.8051  -1.5766  -1.0697  -0.9233  -0.7667
    -0.0312   0.3398   0.4328   0.6827   0.9675   1.0524   1.1959   1.2703
     1.2967   1.3629   1.4439   1.5385   1.6684   1.6973   1.8971   1.9837
     2.1405   2.3402   2.9370   3.0946   4.2632   4.4007   4.5147   4.5904
     4.8481   4.9522   5.2448   5.6518   5.8123

          k = 0.3750 0.0000 0.0000 ( 40852 PWs)   bands (ev):

   -72.3226 -72.1946 -72.1297 -72.0056 -71.9054 -71.6748 -42.5060 -42.3543
   -42.3498 -42.3064 -42.2694 -42.2263 -42.2087 -42.1857 -42.1405 -42.0382
   -42.0316 -42.0260 -42.0154 -41.8847 -41.8091 -41.7509 -41.7195 -41.5126
   -17.9844 -17.8758 -17.6362 -17.5485 -17.4865 -17.3494 -17.3198 -17.2590
   -17.1996 -16.9821 -16.8089 -15.8618  -5.9731  -5.7818  -5.7000  -5.6369
    -5.5541  -5.5401  -5.5139  -5.3214  -5.2313  -5.1377  -4.9765  -4.6904
    -4.4682  -4.3523  -4.2454  -4.0613  -3.9992  -3.8085  -3.3225  -3.1488
    -3.1245  -3.0519  -3.0261  -2.8573  -2.6127  -2.6126  -2.4471  -2.2394
    -2.1944  -2.0444  -1.9270  -1.7541  -1.5814  -1.2082  -1.0356  -0.6548
     0.1317   0.5766   0.6343   0.7023   0.8147   0.8872   0.9627   1.0765
     1.1928   1.2103   1.4440   1.5125   1.6623   1.8477   1.8857   1.9137
     2.3636   2.4029   2.6343   2.8474   3.6589   4.5556   4.6654   4.7061
     4.7369   4.8259   4.8453   5.0968   5.2835

          k = 0.3750 0.1223 0.0000 ( 40842 PWs)   bands (ev):

   -72.3226 -72.1946 -72.1297 -72.0056 -71.9054 -71.6748 -42.5061 -42.3547
   -42.3508 -42.3075 -42.2694 -42.2264 -42.2088 -42.1857 -42.1405 -42.0377
   -42.0310 -42.0251 -42.0148 -41.8847 -41.8092 -41.7501 -41.7196 -41.5127
   -17.9791 -17.8634 -17.6667 -17.6038 -17.5278 -17.3773 -17.3201 -17.1883
   -17.1376 -16.9832 -16.8096 -15.8620  -5.8943  -5.7734  -5.7166  -5.6332
    -5.5743  -5.4925  -5.3979  -5.3328  -5.3268  -5.2155  -5.1119  -4.5569
    -4.3637  -4.3073  -4.1920  -4.1196  -3.9546  -3.5917  -3.4365  -3.2529
    -3.0828  -2.9614  -2.8857  -2.7454  -2.6658  -2.5201  -2.4261  -2.3992
    -2.2643  -2.0150  -1.9023  -1.7067  -1.6125  -1.3412  -1.0138  -0.7883
    -0.0082   0.2671   0.4481   0.6210   0.7446   0.8188   0.9536   1.0101
     1.0757   1.1532   1.2627   1.4728   1.8386   1.9347   2.1545   2.2380
     2.3182   2.3415   2.7866   2.9537   3.6523   3.9467   3.9893   4.1074
     4.5922   4.7281   5.5643   5.8131   5.9827

          k = 0.3750-0.2445 0.0000 ( 40856 PWs)   bands (ev):

   -72.3226 -72.1946 -72.1297 -72.0056 -71.9054 -71.6748 -42.5062 -42.3552
   -42.3517 -42.3087 -42.2694 -42.2265 -42.2090 -42.1857 -42.1405 -42.0373
   -42.0304 -42.0240 -42.0142 -41.8847 -41.8092 -41.7494 -41.7197 -41.5127
   -17.9735 -17.8472 -17.6963 -17.6562 -17.5568 -17.4042 -17.2992 -17.1382
   -17.0983 -16.9837 -16.8104 -15.8623  -5.8081  -5.8049  -5.6945  -5.5690
    -5.5072  -5.4933  -5.4391  -5.3674  -5.3357  -5.2634  -5.2362  -4.5506
    -4.3748  -4.1864  -4.1462  -3.9386  -3.7847  -3.4507  -3.3859  -3.2590
    -3.0122  -3.0073  -2.8981  -2.8717  -2.7431  -2.6949  -2.6314  -2.4226
    -2.0590  -2.0316  -1.7513  -1.6852  -1.4210  -1.2883  -1.0298  -1.0014
    -0.1909  -0.0359   0.1161   0.2100   0.6477   0.9443   1.0834   1.1107
     1.1173   1.1799   1.2164   1.3608   1.9089   2.0091   2.0583   2.3161
     2.4574   2.5237   2.9088   3.0561   3.4894   3.5525   3.6783   3.7689
     4.5953   4.7482   5.8159   6.2243   6.2274

          k = 0.3750-0.1223 0.0000 ( 40842 PWs)   bands (ev):

   -72.3226 -72.1946 -72.1297 -72.0056 -71.9054 -71.6748 -42.5061 -42.3547
   -42.3508 -42.3075 -42.2694 -42.2264 -42.2088 -42.1857 -42.1405 -42.0377
   -42.0310 -42.0251 -42.0148 -41.8847 -41.8092 -41.7501 -41.7196 -41.5127
   -17.9791 -17.8634 -17.6667 -17.6038 -17.5278 -17.3773 -17.3201 -17.1883
   -17.1376 -16.9832 -16.8096 -15.8620  -5.8943  -5.7734  -5.7166  -5.6332
    -5.5743  -5.4925  -5.3979  -5.3328  -5.3268  -5.2155  -5.1119  -4.5569
    -4.3637  -4.3073  -4.1920  -4.1196  -3.9546  -3.5917  -3.4365  -3.2529
    -3.0828  -2.9614  -2.8857  -2.7454  -2.6658  -2.5201  -2.4261  -2.3992
    -2.2643  -2.0150  -1.9023  -1.7067  -1.6125  -1.3412  -1.0138  -0.7883
    -0.0082   0.2671   0.4481   0.6210   0.7446   0.8188   0.9536   1.0101
     1.0757   1.1532   1.2627   1.4728   1.8386   1.9347   2.1545   2.2380
     2.3182   2.3415   2.7866   2.9537   3.6523   3.9467   3.9893   4.1074
     4.5922   4.7281   5.5643   5.8131   5.9831

          k =-0.5000 0.0000 0.0000 ( 40876 PWs)   bands (ev):

   -72.3210 -72.1931 -72.1281 -72.0040 -71.9038 -71.6732 -42.5333 -42.3522
   -42.3477 -42.3041 -42.2730 -42.2457 -42.2347 -42.1817 -42.1388 -42.0578
   -42.0529 -42.0286 -42.0169 -41.8834 -41.8049 -41.7775 -41.7150 -41.5081
   -18.0133 -17.7147 -17.5153 -17.4392 -17.4235 -17.3708 -17.3643 -17.3298
   -17.2734 -17.0211 -16.7211 -15.8243  -6.0233  -5.7029  -5.6321  -5.5026
    -5.4901  -5.3753  -5.2759  -5.2627  -5.1350  -5.1221  -4.8221  -4.7653
    -4.7522  -4.7257  -4.3743  -4.2967  -3.4050  -3.3714  -3.3360  -3.3253
    -3.2716  -3.1580  -3.1412  -2.9908  -2.7662  -2.4092  -2.3795  -2.0691
    -2.0543  -1.9775  -1.8923  -1.5269  -1.5076  -1.3491  -1.3074  -0.6255
     0.3555   0.4587   0.4919   0.6491   0.7997   0.8001   0.9055   0.9736
     1.0812   1.1023   1.2423   1.3272   1.7155   1.8439   2.0289   2.2046
     2.3339   2.5392   2.5845   2.7596   3.4255   4.5187   4.5745   4.6114
     4.7288   4.7332   4.7539   5.0322   5.2289

          k =-0.5000 0.1223 0.0000 ( 40858 PWs)   bands (ev):

   -72.3210 -72.1931 -72.1281 -72.0040 -71.9038 -71.6732 -42.5334 -42.3530
   -42.3491 -42.3059 -42.2730 -42.2458 -42.2350 -42.1817 -42.1388 -42.0560
   -42.0515 -42.0285 -42.0168 -41.8834 -41.8047 -41.7766 -41.7149 -41.5080
   -18.0122 -17.7091 -17.6673 -17.6081 -17.5734 -17.3764 -17.2560 -17.1208
   -17.0995 -17.0225 -16.7209 -15.8238  -6.0007  -5.9006  -5.7980  -5.6791
    -5.6358  -5.4150  -5.3145  -5.2661  -5.2283  -5.1681  -4.9220  -4.8954
    -4.4569  -4.0928  -4.0803  -3.6258  -3.6182  -3.5554  -3.4139  -3.3246
    -3.2627  -3.1885  -2.8040  -2.7142  -2.5839  -2.3939  -2.3020  -2.1776
    -2.1520  -1.9856  -1.7689  -1.7638  -1.5329  -1.3588  -1.2106  -0.8412
     0.1594   0.2158   0.3589   0.5000   0.5476   0.6548   0.7196   0.8069
     0.8253   0.9185   1.1043   1.1182   2.0079   2.2808   2.3104   2.3560
     2.3642   2.5551   2.5913   2.8707   3.4692   3.7282   3.8045   3.9360
     4.5247   4.7522   5.7635   5.9139   5.9954

          k =-0.5000-0.2445 0.0000 ( 40872 PWs)   bands (ev):

   -72.3210 -72.1931 -72.1281 -72.0040 -71.9038 -71.6732 -42.5335 -42.3538
   -42.3505 -42.3077 -42.2730 -42.2459 -42.2352 -42.1817 -42.1388 -42.0542
   -42.0501 -42.0284 -42.0167 -41.8834 -41.8044 -41.7757 -41.7148 -41.5078
   -18.0110 -17.7457 -17.7034 -17.6982 -17.6637 -17.3821 -17.1735 -17.0238
   -17.0211 -17.0026 -16.7207 -15.8233  -6.0807  -5.9944  -5.9797  -5.8472
    -5.6511  -5.3521  -5.2296  -5.2259  -5.2254  -5.2216  -5.0399  -4.9178
    -4.5385  -3.8513  -3.6251  -3.6151  -3.5045  -3.3095  -3.1714  -3.1638
    -3.0229  -2.9420  -2.9017  -2.7352  -2.5862  -2.5556  -2.4502  -2.2824
    -2.0942  -1.9357  -1.7023  -1.5673  -1.5587  -1.4336  -1.2491  -0.9021
    -0.3294  -0.0949  -0.0761   0.0067   0.5203   0.6569   0.7501   0.8018
     0.8417   0.8846   0.9286   1.1195   2.0779   2.1430   2.3041   2.5653
     2.6070   2.6729   2.7394   2.9435   3.3832   3.4112   3.5029   3.5512
     4.5301   4.7710   6.0565   6.2760   6.3706

          k =-0.5000-0.1223 0.0000 ( 40858 PWs)   bands (ev):

   -72.3210 -72.1931 -72.1281 -72.0040 -71.9038 -71.6732 -42.5334 -42.3530
   -42.3491 -42.3059 -42.2730 -42.2458 -42.2350 -42.1817 -42.1388 -42.0560
   -42.0515 -42.0285 -42.0168 -41.8834 -41.8047 -41.7766 -41.7149 -41.5080
   -18.0122 -17.7091 -17.6673 -17.6081 -17.5734 -17.3764 -17.2560 -17.1208
   -17.0995 -17.0225 -16.7209 -15.8238  -6.0007  -5.9006  -5.7980  -5.6791
    -5.6358  -5.4150  -5.3145  -5.2661  -5.2283  -5.1681  -4.9220  -4.8954
    -4.4569  -4.0928  -4.0803  -3.6258  -3.6182  -3.5554  -3.4139  -3.3246
    -3.2627  -3.1885  -2.8040  -2.7142  -2.5839  -2.3939  -2.3020  -2.1776
    -2.1520  -1.9856  -1.7689  -1.7638  -1.5329  -1.3588  -1.2106  -0.8412
     0.1594   0.2158   0.3589   0.5000   0.5476   0.6548   0.7196   0.8069
     0.8253   0.9185   1.1043   1.1182   2.0079   2.2808   2.3104   2.3560
     2.3642   2.5551   2.5913   2.8707   3.4692   3.7282   3.8045   3.9360
     4.5247   4.7522   5.7635   5.9151   5.9955

          k =-0.3750 0.0000 0.0000 ( 40852 PWs)   bands (ev):

   -72.3226 -72.1946 -72.1297 -72.0056 -71.9054 -71.6748 -42.5060 -42.3543
   -42.3498 -42.3064 -42.2694 -42.2263 -42.2087 -42.1857 -42.1405 -42.0382
   -42.0316 -42.0260 -42.0154 -41.8847 -41.8091 -41.7509 -41.7195 -41.5126
   -17.9844 -17.8758 -17.6362 -17.5485 -17.4865 -17.3494 -17.3198 -17.2590
   -17.1996 -16.9821 -16.8089 -15.8618  -5.9731  -5.7818  -5.7000  -5.6369
    -5.5541  -5.5401  -5.5139  -5.3214  -5.2313  -5.1377  -4.9765  -4.6904
    -4.4682  -4.3523  -4.2454  -4.0613  -3.9992  -3.8085  -3.3225  -3.1488
    -3.1245  -3.0519  -3.0261  -2.8573  -2.6127  -2.6126  -2.4471  -2.2394
    -2.1944  -2.0444  -1.9270  -1.7541  -1.5814  -1.2082  -1.0356  -0.6548
     0.1317   0.5766   0.6343   0.7023   0.8147   0.8872   0.9627   1.0765
     1.1928   1.2103   1.4440   1.5125   1.6623   1.8477   1.8857   1.9137
     2.3636   2.4029   2.6343   2.8474   3.6589   4.5556   4.6654   4.7061
     4.7369   4.8259   4.8453   5.0968   5.2835

          k =-0.3750 0.1223 0.0000 ( 40842 PWs)   bands (ev):

   -72.3226 -72.1946 -72.1297 -72.0056 -71.9054 -71.6748 -42.5061 -42.3547
   -42.3508 -42.3075 -42.2694 -42.2264 -42.2088 -42.1857 -42.1405 -42.0377
   -42.0310 -42.0251 -42.0148 -41.8847 -41.8092 -41.7501 -41.7196 -41.5127
   -17.9791 -17.8634 -17.6667 -17.6038 -17.5278 -17.3773 -17.3201 -17.1883
   -17.1376 -16.9832 -16.8096 -15.8620  -5.8943  -5.7734  -5.7166  -5.6332
    -5.5743  -5.4925  -5.3979  -5.3328  -5.3268  -5.2155  -5.1119  -4.5569
    -4.3637  -4.3073  -4.1920  -4.1196  -3.9546  -3.5917  -3.4365  -3.2529
    -3.0828  -2.9614  -2.8857  -2.7454  -2.6658  -2.5201  -2.4261  -2.3992
    -2.2643  -2.0150  -1.9023  -1.7067  -1.6125  -1.3412  -1.0138  -0.7883
    -0.0082   0.2671   0.4481   0.6210   0.7446   0.8188   0.9536   1.0101
     1.0757   1.1532   1.2627   1.4728   1.8386   1.9347   2.1545   2.2380
     2.3182   2.3415   2.7866   2.9537   3.6523   3.9467   3.9893   4.1074
     4.5922   4.7281   5.5643   5.8129   5.9828

          k =-0.3750-0.2445 0.0000 ( 40856 PWs)   bands (ev):

   -72.3226 -72.1946 -72.1297 -72.0056 -71.9054 -71.6748 -42.5062 -42.3552
   -42.3517 -42.3087 -42.2694 -42.2265 -42.2090 -42.1857 -42.1405 -42.0373
   -42.0304 -42.0240 -42.0142 -41.8847 -41.8092 -41.7494 -41.7197 -41.5127
   -17.9735 -17.8472 -17.6963 -17.6562 -17.5568 -17.4042 -17.2992 -17.1382
   -17.0983 -16.9837 -16.8104 -15.8623  -5.8081  -5.8049  -5.6945  -5.5690
    -5.5072  -5.4933  -5.4391  -5.3674  -5.3357  -5.2634  -5.2362  -4.5506
    -4.3748  -4.1864  -4.1462  -3.9386  -3.7847  -3.4507  -3.3859  -3.2590
    -3.0122  -3.0073  -2.8981  -2.8717  -2.7431  -2.6949  -2.6314  -2.4226
    -2.0590  -2.0316  -1.7513  -1.6852  -1.4210  -1.2883  -1.0298  -1.0014
    -0.1909  -0.0359   0.1161   0.2100   0.6477   0.9443   1.0834   1.1107
     1.1173   1.1799   1.2164   1.3608   1.9089   2.0091   2.0583   2.3161
     2.4574   2.5237   2.9088   3.0561   3.4894   3.5525   3.6783   3.7689
     4.5953   4.7482   5.8159   6.2253   6.2273

          k =-0.3750-0.1223 0.0000 ( 40842 PWs)   bands (ev):

   -72.3226 -72.1946 -72.1297 -72.0056 -71.9054 -71.6748 -42.5061 -42.3547
   -42.3508 -42.3075 -42.2694 -42.2264 -42.2088 -42.1857 -42.1405 -42.0377
   -42.0310 -42.0251 -42.0148 -41.8847 -41.8092 -41.7501 -41.7196 -41.5127
   -17.9791 -17.8634 -17.6667 -17.6038 -17.5278 -17.3773 -17.3201 -17.1883
   -17.1376 -16.9832 -16.8096 -15.8620  -5.8943  -5.7734  -5.7166  -5.6332
    -5.5743  -5.4925  -5.3979  -5.3328  -5.3268  -5.2155  -5.1119  -4.5569
    -4.3637  -4.3073  -4.1920  -4.1196  -3.9546  -3.5917  -3.4365  -3.2529
    -3.0828  -2.9614  -2.8857  -2.7454  -2.6658  -2.5201  -2.4261  -2.3992
    -2.2643  -2.0150  -1.9023  -1.7067  -1.6125  -1.3412  -1.0138  -0.7883
    -0.0082   0.2671   0.4481   0.6210   0.7446   0.8188   0.9536   1.0101
     1.0757   1.1532   1.2627   1.4728   1.8386   1.9347   2.1545   2.2380
     2.3182   2.3415   2.7866   2.9537   3.6523   3.9467   3.9893   4.1074
     4.5922   4.7281   5.5643   5.8130   5.9827

          k =-0.2500 0.0000 0.0000 ( 40947 PWs)   bands (ev):

   -72.3264 -72.1983 -72.1335 -72.0093 -71.9092 -71.6786 -42.4396 -42.3591
   -42.3551 -42.3119 -42.2725 -42.1956 -42.1672 -42.1601 -42.1298 -42.0447
   -42.0348 -41.9653 -41.9563 -41.8880 -41.8193 -41.7303 -41.6860 -41.5235
   -18.2936 -17.9883 -17.8752 -17.7462 -17.6641 -17.3542 -17.1665 -17.1367
   -17.0845 -17.0168 -16.7508 -15.8871  -6.3710  -6.2955  -6.2449  -6.0721
    -5.7835  -5.7055  -5.5747  -5.4047  -5.2183  -5.0951  -4.8266  -4.7178
    -4.2814  -4.1806  -3.9008  -3.8832  -3.7710  -3.6604  -3.5337  -3.3418
    -3.0929  -2.9071  -2.7860  -2.6266  -2.6225  -2.5069  -2.4659  -2.2676
    -2.0806  -1.9852  -1.9347  -1.9257  -1.5787  -1.0506  -0.9200  -0.7133
     0.1393   0.2313   0.3989   0.6013   0.7735   0.9492   1.1120   1.1573
     1.1685   1.3853   1.4346   1.4861   1.5123   1.6759   1.8163   2.0237
     2.2451   2.4994   2.8119   2.9631   4.2366   4.6215   4.7650   4.9688
     5.1195   5.1574   5.1600   5.2397   5.3621

          k =-0.2500 0.1223 0.0000 ( 40905 PWs)   bands (ev):

   -72.3264 -72.1983 -72.1335 -72.0093 -71.9092 -71.6786 -42.4396 -42.3590
   -42.3550 -42.3118 -42.2724 -42.1956 -42.1673 -42.1601 -42.1298 -42.0447
   -42.0348 -41.9647 -41.9558 -41.8880 -41.8200 -41.7309 -41.6856 -41.5240
   -18.2497 -17.9066 -17.8239 -17.6888 -17.6391 -17.3791 -17.2947 -17.1835
   -17.1320 -17.1013 -16.7499 -15.8866  -6.1954  -5.9805  -5.9362  -5.9255
    -5.7746  -5.7007  -5.4182  -5.2652  -5.2292  -5.0707  -4.8612  -4.5520
    -4.3184  -4.2656  -4.1217  -4.0917  -3.9740  -3.8390  -3.6607  -3.5774
    -3.1737  -3.0093  -2.8512  -2.7620  -2.6925  -2.6314  -2.5798  -2.4175
    -2.1863  -1.9221  -1.8614  -1.8051  -1.5766  -1.0697  -0.9233  -0.7667
    -0.0312   0.3398   0.4328   0.6827   0.9675   1.0524   1.1959   1.2703
     1.2967   1.3629   1.4439   1.5385   1.6684   1.6973   1.8971   1.9837
     2.1405   2.3402   2.9370   3.0946   4.2632   4.4007   4.5147   4.5904
     4.8481   4.9522   5.2448   5.6518   5.8123

          k =-0.2500-0.2445 0.0000 ( 40892 PWs)   bands (ev):

   -72.3264 -72.1983 -72.1335 -72.0093 -71.9092 -71.6786 -42.4397 -42.3589
   -42.3550 -42.3116 -42.2724 -42.1956 -42.1674 -42.1602 -42.1299 -42.0447
   -42.0348 -41.9640 -41.9552 -41.8880 -41.8207 -41.7315 -41.6852 -41.5245
   -18.2033 -17.8067 -17.7434 -17.5835 -17.5780 -17.4397 -17.3950 -17.3812
   -17.2387 -17.1002 -16.7495 -15.8861  -6.1515  -5.8021  -5.7016  -5.4804
    -5.4651  -5.4444  -5.2818  -5.1317  -5.0717  -4.9736  -4.8269  -4.7379
    -4.7084  -4.6160  -4.3530  -4.1880  -4.0526  -3.9159  -3.5998  -3.4448
    -3.3470  -3.3305  -3.2338  -3.1637  -3.0192  -2.9725  -2.8184  -2.3214
    -2.0437  -1.7406  -1.5685  -1.5154  -1.4883  -1.1650  -0.9868  -0.8300
     0.1549   0.2022   0.4519   0.6456   0.6531   1.0805   1.3336   1.4124
     1.4594   1.5301   1.6295   1.7091   1.7274   1.8081   1.8725   2.0240
     2.1123   2.2119   3.0356   3.2018   4.0458   4.0942   4.1938   4.3334
     4.8484   4.9524   5.3783   5.9556   5.9729

          k =-0.2500-0.1223 0.0000 ( 40905 PWs)   bands (ev):

   -72.3264 -72.1983 -72.1335 -72.0093 -71.9092 -71.6786 -42.4396 -42.3590
   -42.3550 -42.3118 -42.2724 -42.1956 -42.1673 -42.1601 -42.1298 -42.0447
   -42.0348 -41.9647 -41.9558 -41.8880 -41.8200 -41.7309 -41.6856 -41.5240
   -18.2497 -17.9066 -17.8239 -17.6888 -17.6391 -17.3791 -17.2947 -17.1835
   -17.1320 -17.1013 -16.7499 -15.8866  -6.1954  -5.9805  -5.9362  -5.9255
    -5.7746  -5.7007  -5.4182  -5.2652  -5.2292  -5.0707  -4.8612  -4.5520
    -4.3184  -4.2656  -4.1217  -4.0917  -3.9740  -3.8390  -3.6607  -3.5774
    -3.1737  -3.0093  -2.8512  -2.7620  -2.6925  -2.6314  -2.5798  -2.4175
    -2.1863  -1.9221  -1.8614  -1.8051  -1.5766  -1.0697  -0.9233  -0.7667
    -0.0313   0.3398   0.4328   0.6827   0.9675   1.0524   1.1959   1.2703
     1.2967   1.3629   1.4439   1.5385   1.6684   1.6973   1.8971   1.9837
     2.1405   2.3402   2.9370   3.0946   4.2632   4.4007   4.5147   4.5903
     4.8481   4.9522   5.2448   5.6518   5.8123

          k =-0.1250 0.0000 0.0000 ( 40851 PWs)   bands (ev):

   -72.3303 -72.2019 -72.1373 -72.0130 -71.9131 -71.6823 -42.3722 -42.3640
   -42.3603 -42.3174 -42.2780 -42.2055 -42.1592 -42.1055 -42.0707 -42.0547
   -42.0446 -41.9004 -41.8917 -41.8893 -41.8294 -41.7411 -41.6203 -41.5343
   -18.6242 -18.2651 -18.1166 -17.9957 -17.5358 -17.5064 -17.3572 -16.9771
   -16.9041 -16.8272 -16.5793 -15.8277  -6.8179  -6.7537  -6.7111  -6.6052
    -5.9686  -5.7564  -5.5102  -5.4766  -5.3706  -5.2808  -5.1579  -4.8133
    -4.6596  -4.4306  -3.8899  -3.6500  -3.4534  -3.0946  -3.0095  -2.9028
    -2.8719  -2.7607  -2.6261  -2.4689  -2.4650  -2.3862  -2.2230  -2.0309
    -1.7907  -1.7565  -1.7157  -1.5555  -1.5213  -1.0058  -0.7435  -0.5340
     0.0069   0.0496   0.2793   0.3344   0.4434   0.5736   0.6228   0.6718
     0.8982   0.9151   1.1308   1.2719   1.5175   1.7396   1.8203   2.2464
     2.5625   2.6053   2.9086   2.9813   4.2686   4.9066   5.0964   5.3014
     5.4050   5.6145   5.7028   5.7604   5.8169

          k =-0.1250 0.1223 0.0000 ( 40932 PWs)   bands (ev):

   -72.3302 -72.2019 -72.1373 -72.0130 -71.9131 -71.6823 -42.3722 -42.3633
   -42.3595 -42.3162 -42.2779 -42.2054 -42.1592 -42.1055 -42.0707 -42.0547
   -42.0446 -41.9003 -41.8917 -41.8892 -41.8309 -41.7422 -41.6202 -41.5353
   -18.5596 -18.1449 -18.0361 -17.9290 -17.5381 -17.5311 -17.4041 -17.0811
   -17.0271 -16.9943 -16.5774 -15.8254  -6.6618  -6.3737  -6.2986  -6.2685
    -5.9620  -5.7602  -5.4139  -5.3779  -5.3700  -5.2228  -4.9653  -4.7941
    -4.6609  -4.3869  -3.9341  -3.7269  -3.6535  -3.4900  -3.4099  -3.2262
    -3.1045  -2.9919  -2.8809  -2.8312  -2.7363  -2.6401  -2.4401  -2.2800
    -1.9489  -1.7918  -1.6672  -1.6125  -1.3395  -0.8785  -0.7753  -0.6607
     0.0751   0.2133   0.4824   0.5714   0.6565   0.7583   0.9385   0.9931
     1.0376   1.1846   1.2775   1.4224   1.5288   1.7322   1.9107   2.0093
     2.3083   2.6346   2.8021   3.1833   4.4996   4.9817   5.1425   5.2543
     5.3425   5.4934   5.6099   5.6312   5.7180

          k =-0.1250-0.2445 0.0000 ( 40974 PWs)   bands (ev):

   -72.3302 -72.2019 -72.1373 -72.0130 -71.9131 -71.6823 -42.3721 -42.3626
   -42.3586 -42.3150 -42.2779 -42.2054 -42.1593 -42.1055 -42.0707 -42.0547
   -42.0446 -41.9002 -41.8917 -41.8891 -41.8323 -41.7433 -41.6202 -41.5362
   -18.4898 -17.9841 -17.9305 -17.7625 -17.6542 -17.5367 -17.4775 -17.2090
   -17.2010 -17.1310 -16.5770 -15.8236  -6.6518  -5.9878  -5.7639  -5.6386
    -5.5530  -5.4251  -5.4245  -5.3873  -5.3488  -5.2873  -4.8266  -4.6749
    -4.5107  -4.4819  -4.2693  -4.0421  -3.8441  -3.8183  -3.7796  -3.7592
    -3.5905  -3.5752  -3.1974  -3.1080  -3.0560  -2.9095  -2.5097  -2.2508
    -1.9287  -1.5917  -1.5066  -1.3053  -1.3036  -1.0676  -0.7715  -0.6995
     0.0811   0.3666   0.5582   0.7009   0.7745   0.8119   1.1115   1.3468
     1.4327   1.4399   1.5054   1.5892   1.6002   1.7549   1.7969   1.9011
     2.1967   2.2782   2.9612   3.3384   4.6428   4.9193   4.9542   5.0643
     5.2500   5.4091   5.6109   5.7413   5.7806

          k =-0.1250-0.1223 0.0000 ( 40932 PWs)   bands (ev):

   -72.3302 -72.2019 -72.1373 -72.0130 -71.9131 -71.6823 -42.3722 -42.3633
   -42.3595 -42.3162 -42.2779 -42.2054 -42.1592 -42.1055 -42.0707 -42.0547
   -42.0446 -41.9003 -41.8917 -41.8892 -41.8309 -41.7422 -41.6202 -41.5353
   -18.5596 -18.1449 -18.0361 -17.9290 -17.5381 -17.5311 -17.4041 -17.0811
   -17.0271 -16.9943 -16.5774 -15.8254  -6.6618  -6.3737  -6.2986  -6.2685
    -5.9620  -5.7602  -5.4139  -5.3779  -5.3700  -5.2228  -4.9653  -4.7941
    -4.6609  -4.3869  -3.9341  -3.7269  -3.6535  -3.4900  -3.4099  -3.2262
    -3.1045  -2.9919  -2.8809  -2.8312  -2.7363  -2.6401  -2.4401  -2.2800
    -1.9489  -1.7918  -1.6672  -1.6125  -1.3395  -0.8785  -0.7753  -0.6607
     0.0751   0.2133   0.4824   0.5714   0.6565   0.7583   0.9385   0.9931
     1.0376   1.1846   1.2775   1.4224   1.5288   1.7322   1.9107   2.0093
     2.3083   2.6346   2.8021   3.1833   4.4997   4.9817   5.1425   5.2544
     5.3426   5.4935   5.6099   5.6312   5.7181

     the Fermi energy is     1.5385 ev

!    total energy              =   -1630.66768882 Ry
     estimated scf accuracy    <       0.00000047 Ry
     smearing contrib. (-TS)   =       0.00060288 Ry
     internal energy E=F+TS    =   -1630.66829170 Ry

     The total energy is F=E-TS. E is the sum of the following terms:
     one-electron contribution =  -16603.48674877 Ry
     hartree contribution      =    8323.20776785 Ry
     xc contribution           =    -206.90583476 Ry
     ewald contribution        =    6970.75708749 Ry
     electric field correction =       0.00002163 Ry
     one-center paw contrib.   =    -114.24058514 Ry

     convergence has been achieved in  28 iterations

     negative rho (up, down):  1.032E-04 0.000E+00

     Forces acting on atoms (cartesian axes, Ry/au):

     atom    1 type  1   force =    -0.00000018   -0.00000158    0.06152387
     atom    2 type  1   force =     0.00000001   -0.00000053   -0.08862211
     atom    3 type  1   force =    -0.00000004    0.00000008   -0.00006831
     atom    4 type  1   force =     0.00000029    0.00000016    0.00131236
     atom    5 type  1   force =     0.00000022   -0.00000143    0.00101366
     atom    6 type  1   force =     0.00000006    0.00000018   -0.00117692
     atom    7 type  2   force =     0.00000053   -0.00000077    0.03044359
     atom    8 type  2   force =     0.00000034   -0.00000099    0.06328349
     atom    9 type  2   force =     0.00000210    0.02275497   -0.02421152
     atom   10 type  2   force =    -0.00000136   -0.02275326   -0.02421262
     atom   11 type  2   force =    -0.00000082    0.00000165    0.00108462
     atom   12 type  2   force =    -0.00000298   -0.00000049   -0.02446996
     atom   13 type  2   force =     0.00000112    0.00017262    0.00130725
     atom   14 type  2   force =    -0.00000093   -0.00017185    0.00130790
     atom   15 type  2   force =     0.00000133    0.00000029   -0.00089358
     atom   16 type  2   force =     0.00000136    0.00000021    0.00075904
     atom   17 type  2   force =    -0.00000067    0.00070254    0.00080916
     atom   18 type  2   force =    -0.00000039   -0.00070179    0.00081008

     Total force =     0.003531     Total SCF correction =     0.002838
     SCF correction compared to forces is large: reduce conv_thr to get better values

     Writing all to output data dir ./tmp_slab__dipole/slab__dipole.save/ :
     XML data file, charge density, pseudopotentials, collected wavefunctions

     init_run     :     45.37s CPU     47.18s WALL (       1 calls)
     electrons    :   2768.96s CPU   2838.48s WALL (       1 calls)
     forces       :     13.48s CPU     14.02s WALL (       1 calls)

     Called by init_run:
     wfcinit      :     38.29s CPU     39.37s WALL (       1 calls)
     potinit      :      2.88s CPU      3.24s WALL (       1 calls)
     hinit0       :      2.43s CPU      2.61s WALL (       1 calls)

     Called by electrons:
     c_bands      :   2104.16s CPU   2159.90s WALL (      28 calls)
     sum_band     :    451.16s CPU    455.54s WALL (      28 calls)
     v_of_rho     :     44.64s CPU     48.38s WALL (      29 calls)
     newd         :     10.99s CPU     14.01s WALL (      29 calls)
     PAW_pot      :      7.01s CPU      7.01s WALL (      29 calls)
     mix_rho      :    149.02s CPU    151.99s WALL (      28 calls)

     Called by c_bands:
     init_us_2    :     39.40s CPU     39.63s WALL (     464 calls)
     cegterg      :   2003.27s CPU   2058.65s WALL (     224 calls)

     Called by *egterg:
     cdiaghg      :     10.04s CPU     10.06s WALL (     694 calls)
     h_psi        :   1575.89s CPU   1592.82s WALL (     702 calls)
     s_psi        :     96.51s CPU     96.54s WALL (     702 calls)
     g_psi        :     12.96s CPU     12.98s WALL (     470 calls)

     Called by h_psi:
     h_psi:calbec :    105.21s CPU    105.36s WALL (     702 calls)
     vloc_psi     :   1363.15s CPU   1365.03s WALL (     702 calls)
                                        0.00s GPU  (     702 calls)
     add_vuspsi   :     98.32s CPU     98.42s WALL (     702 calls)

     General routines
     calbec       :    160.07s CPU    160.24s WALL (     958 calls)
     fft          :     17.43s CPU     17.50s WALL (     386 calls)
     ffts         :     51.03s CPU     51.07s WALL (    3378 calls)
     fftw         :   1285.84s CPU   1287.01s WALL (  116710 calls)
     interpolate  :      3.06s CPU      3.10s WALL (      29 calls)

     Parallel routines

     PWSCF        :  47m 8.29s CPU  48m20.50s WALL


   This run was terminated on:  17:48:44   8Aug2026            

=------------------------------------------------------------------------------=
   JOB DONE.
=------------------------------------------------------------------------------=
