
     Program PWSCF v.7.5 starts on  1Sep2026 at  3: 1:22 

     This program is part of the open-source Quantum ESPRESSO suite
     for quantum simulation of materials; please cite
         "P. Giannozzi et al., J. Phys.:Condens. Matter 21 395502 (2009);
         "P. Giannozzi et al., J. Phys.:Condens. Matter 29 465901 (2017);
         "P. Giannozzi et al., J. Chem. Phys. 152 154105 (2020);
          URL http://www.quantum-espresso.org", 
     in publications or presentations arising from this work. More details at
     http://www.quantum-espresso.org/quote

     Parallel version (MPI & OpenMP), running on     128 processor cores
     Number of MPI processes:               128
     Threads/MPI process:                     1

     MPI processes distributed on     1 nodes
     229189 MiB available memory on the printing compute node when the environment starts

     Reading input from s0_OOH__u000__sp2m010.run.in

     Current dimensions of program PWSCF are:
     Max number of different atomic species (ntypx) = 10
     Max number of k-points (npk) =  40000
     Max angular momentum in pseudopotentials (lmaxx) =  4
     file O.pbe-n-kjpaw_psl.0.1.UPF: wavefunction(s)  2P renormalized
     Message from routine setup:
     using ibrav=0 with symmetry is DISCOURAGED, use correct ibrav instead

     K-points division:     npool     =       4
     R & G space division:  proc/nbgrp/npool/nimage =      32
     Subspace diagonalization in iterative solution of the eigenvalue problem:
     a serial algorithm will be used


     Parallelization info
     --------------------
     sticks:   dense  smooth     PW     G-vecs:    dense   smooth      PW
     Min         103      51     14                26275     9281    1388
     Max         104      52     15                26300     9316    1415
     Sum        3323    1653    471               841263   297421   44917

     Using Slab Decomposition



     bravais-lattice index     =            0
     lattice parameter (alat)  =       5.5104  a.u.
     unit-cell volume          =    3076.9124 (a.u.)^3
     number of atoms/cell      =           21
     number of atomic types    =            3
     number of electrons       =       169.00
     number of Kohn-Sham states=          102
     kinetic-energy cutoff     =      80.0000  Ry
     charge density cutoff     =     640.0000  Ry
     scf convergence threshold =      1.0E-06
     mixing beta               =       0.3000
     number of iterations used =            8  local-TF  mixing
     Exchange-correlation= SLA  PW   PBX  PBC
                           (   1   4   3   4   0   0   0)

     celldm(1)=   5.510441  celldm(2)=   0.000000  celldm(3)=   0.000000
     celldm(4)=   0.000000  celldm(5)=   0.000000  celldm(6)=   0.000000

     crystal axes: (cart. coord. in units of alat)
               a(1) = (   1.000000   0.000000   0.000000 )  
               a(2) = (   0.000000   2.144115   0.000000 )  
               a(3) = (   0.000000   0.000000   8.576458 )  

     reciprocal axes: (cart. coord. in units 2 pi/alat)
               b(1) = (  1.000000  0.000000  0.000000 )  
               b(2) = (  0.000000  0.466393  0.000000 )  
               b(3) = (  0.000000  0.000000  0.116598 )  


     PseudoPot. # 1 for Cr read from file:
     /anvil/projects/x-che260157/pseudo/cr_pbe_v1.5.uspp.F.UPF
     MD5 check sum: 0d52af634a40206e4dee301ad30da4bf
     Pseudo is Ultrasoft + core correction, Zval = 14.0
     Generated by new atomic code, or converted to UPF format
     Using radial grid of  857 points,  6 beta functions with: 
                l(1) =   0
                l(2) =   0
                l(3) =   1
                l(4) =   1
                l(5) =   2
                l(6) =   2
     Q(r) pseudized with  8 coefficients,  rinner =    0.950   0.950   0.950
                                                       0.950   0.950

     PseudoPot. # 2 for H  read from file:
     /anvil/projects/x-che260157/pseudo/H.pbe-rrkjus_psl.1.0.0.UPF
     MD5 check sum: f52b6d4d1c606e5624b1dc7b2218f220
     Pseudo is Ultrasoft, Zval =  1.0
     Generated using "atomic" code by A. Dal Corso  v.5.1
     Using radial grid of  929 points,  2 beta functions with: 
                l(1) =   0
                l(2) =   0
     Q(r) pseudized with 0 coefficients 


     PseudoPot. # 3 for O  read from file:
     /anvil/projects/x-che260157/pseudo/O.pbe-n-kjpaw_psl.0.1.UPF
     MD5 check sum: 0234752ac141de4415c5fc33072bef88
     Pseudo is Projector augmented-wave + core cor, Zval =  6.0
     Generated using "atomic" code by A. Dal Corso  v.5.0.99 svn rev. 10869
     Shape of augmentation charge: BESSEL
     Using radial grid of 1095 points,  4 beta functions with: 
                l(1) =   0
                l(2) =   0
                l(3) =   1
                l(4) =   1
     Q(r) pseudized with 0 coefficients 


     atomic species   valence    mass     pseudopotential
     Cr               14.00    51.99600     Cr( 1.00)
     H                 1.00     1.00800     H ( 1.00)
     O                 6.00    15.99900     O ( 1.00)

     Starting magnetic structure 
     atomic species   magnetization
     Cr              0.100
     H               0.000
     O               0.000

      2 Sym. Ops. (no inversion) found ( 1 have fractional translation)



   Cartesian axes

     site n.     atom                  positions (alat units)
         1        Cr     tau(   1) = (   0.0000000   0.5360286   3.2161719  )
         2        Cr     tau(   2) = (   0.5000000   1.6080859   3.2161719  )
         3        Cr     tau(   3) = (   0.0011527   1.6080859   4.3089263  )
         4        Cr     tau(   4) = (   0.4993817   0.5360286   4.2961656  )
         5        Cr     tau(   5) = (  -0.0085889   0.5360286   5.3745755  )
         6        Cr     tau(   6) = (   0.5028693   1.6080859   5.4254587  )
         7        O      tau(   7) = (   0.0000000   1.6080859   3.6342742  )
         8        O      tau(   8) = (   0.0000000   1.6080859   2.7980695  )
         9        O      tau(   9) = (   0.5000000   0.1179263   3.2161719  )
        10        O      tau(  10) = (   0.5000000   0.9541310   3.2161719  )
        11        O      tau(  11) = (  -0.0015627   0.5360286   4.7288986  )
        12        O      tau(  12) = (   0.0000000   0.5360286   3.8701268  )
        13        O      tau(  13) = (   0.5010389   1.1848813   4.3017892  )
        14        O      tau(  14) = (   0.5010389   2.0312906   4.3017892  )
        15        O      tau(  15) = (  -0.0029502   1.6080859   5.8123958  )
        16        O      tau(  16) = (   0.0026206   1.6080859   4.9663566  )
        17        O      tau(  17) = (   0.4972029   0.1158953   5.4026833  )
        18        O      tau(  18) = (   0.4972029   0.9561620   5.4026833  )
        19        O      tau(  19) = (   0.0860179   0.5360286   6.0803268  )
        20        O      tau(  20) = (  -0.1886167   0.5360286   6.4573034  )
        21        H      tau(  21) = (  -0.5167581   0.5360286   6.3029246  )

     number of k points=    15  Marzari-Vanderbilt smearing, width (Ry)=  0.0100
                       cart. coord. in units 2pi/alat
        k(    1) = (   0.0000000   0.0000000   0.0000000), wk =   0.0277778
        k(    2) = (   0.0000000   0.1165982   0.0000000), wk =   0.0555556
        k(    3) = (   0.0000000  -0.2331965   0.0000000), wk =   0.0277778
        k(    4) = (   0.1111111   0.0000000   0.0000000), wk =   0.0555556
        k(    5) = (   0.1111111   0.1165982   0.0000000), wk =   0.1111111
        k(    6) = (   0.1111111  -0.2331965   0.0000000), wk =   0.0555556
        k(    7) = (   0.2222222   0.0000000   0.0000000), wk =   0.0555556
        k(    8) = (   0.2222222   0.1165982   0.0000000), wk =   0.1111111
        k(    9) = (   0.2222222  -0.2331965   0.0000000), wk =   0.0555556
        k(   10) = (   0.3333333   0.0000000   0.0000000), wk =   0.0555556
        k(   11) = (   0.3333333   0.1165982   0.0000000), wk =   0.1111111
        k(   12) = (   0.3333333  -0.2331965   0.0000000), wk =   0.0555556
        k(   13) = (   0.4444444   0.0000000   0.0000000), wk =   0.0555556
        k(   14) = (   0.4444444   0.1165982   0.0000000), wk =   0.1111111
        k(   15) = (   0.4444444  -0.2331965   0.0000000), wk =   0.0555556

     Dense  grid:   841263 G-vectors     FFT dimensions: (  45,  96, 384)

     Smooth grid:   297421 G-vectors     FFT dimensions: (  32,  72, 270)

     Estimated max dynamical RAM per process >      75.44 MB

     Estimated total dynamical RAM >       8.23 GB

     Check: negative core charge=   -0.000001
     Generating pointlists ...
     new r_m :   0.2589 (alat units)  1.4267 (a.u.) for type    1
     new r_m :   0.1496 (alat units)  0.8243 (a.u.) for type    2
     new r_m :   0.1496 (alat units)  0.8243 (a.u.) for type    3

     Initial potential from superposition of free atoms

     starting charge     162.9999, renormalised to     169.0000

     negative rho (up, down):  2.907E-03 2.371E-03
     Starting wfcs are  117 randomized atomic wfcs
     Checking if some PAW data can be deallocated... 

     total cpu time spent up to now is        3.1 secs

     per-process dynamical memory:   104.7 Mb

     Self-consistent Calculation

     iteration #  1     ecut=    80.00 Ry     beta= 0.30
     Davidson diagonalization with overlap
     ethr =  1.00E-02,  avg # of iterations =  4.8

     negative rho (up, down):  6.364E-03 6.134E-03

     total cpu time spent up to now is        7.7 secs

     total energy              =   -1635.96610673 Ry
     estimated scf accuracy    <     458.11886474 Ry

     total magnetization       =     3.46 Bohr mag/cell
     absolute magnetization    =     3.98 Bohr mag/cell

     iteration #  2     ecut=    80.00 Ry     beta= 0.30
     Davidson diagonalization with overlap
     ethr =  1.00E-02,  avg # of iterations =  2.0

     negative rho (up, down):  1.563E-02 1.682E-02

     total cpu time spent up to now is       11.0 secs

     total energy              =   -1637.06847182 Ry
     estimated scf accuracy    <      59.84662480 Ry

     total magnetization       =     5.59 Bohr mag/cell
     absolute magnetization    =     6.40 Bohr mag/cell

     iteration #  3     ecut=    80.00 Ry     beta= 0.30
     Davidson diagonalization with overlap
     ethr =  1.00E-02,  avg # of iterations =  3.1

     negative rho (up, down):  1.850E-02 1.981E-02

     total cpu time spent up to now is       14.7 secs

     total energy              =   -1637.80245425 Ry
     estimated scf accuracy    <      34.89915148 Ry

     total magnetization       =     1.71 Bohr mag/cell
     absolute magnetization    =     3.16 Bohr mag/cell

     iteration #  4     ecut=    80.00 Ry     beta= 0.30
     Davidson diagonalization with overlap
     ethr =  1.00E-02,  avg # of iterations =  1.5

     negative rho (up, down):  2.057E-02 2.393E-02

     total cpu time spent up to now is       18.1 secs

     total energy              =   -1637.86796758 Ry
     estimated scf accuracy    <      18.17028981 Ry

     total magnetization       =     8.18 Bohr mag/cell
     absolute magnetization    =     8.93 Bohr mag/cell

     iteration #  5     ecut=    80.00 Ry     beta= 0.30
     Davidson diagonalization with overlap
     ethr =  1.00E-02,  avg # of iterations =  1.1

     negative rho (up, down):  2.680E-02 3.424E-02

     total cpu time spent up to now is       21.2 secs

     total energy              =   -1637.17896925 Ry
     estimated scf accuracy    <      27.12764296 Ry

     total magnetization       =     7.78 Bohr mag/cell
     absolute magnetization    =     8.72 Bohr mag/cell

     iteration #  6     ecut=    80.00 Ry     beta= 0.30
     Davidson diagonalization with overlap
     ethr =  1.00E-02,  avg # of iterations =  2.5

     negative rho (up, down):  2.999E-02 3.971E-02

     total cpu time spent up to now is       24.8 secs

     total energy              =   -1637.40665313 Ry
     estimated scf accuracy    <       7.47035118 Ry

     total magnetization       =     7.74 Bohr mag/cell
     absolute magnetization    =     9.05 Bohr mag/cell

     iteration #  7     ecut=    80.00 Ry     beta= 0.30
     Davidson diagonalization with overlap
     ethr =  4.42E-03,  avg # of iterations =  4.6

     negative rho (up, down):  2.840E-02 3.769E-02

     total cpu time spent up to now is       29.1 secs

     total energy              =   -1638.11076530 Ry
     estimated scf accuracy    <       5.79904742 Ry

     total magnetization       =     7.56 Bohr mag/cell
     absolute magnetization    =     9.07 Bohr mag/cell

     iteration #  8     ecut=    80.00 Ry     beta= 0.30
     Davidson diagonalization with overlap
     ethr =  3.43E-03,  avg # of iterations =  1.2

     negative rho (up, down):  2.795E-02 3.822E-02

     total cpu time spent up to now is       32.3 secs

     total energy              =   -1638.10602319 Ry
     estimated scf accuracy    <       1.33175948 Ry

     total magnetization       =    10.09 Bohr mag/cell
     absolute magnetization    =    10.78 Bohr mag/cell

     iteration #  9     ecut=    80.00 Ry     beta= 0.30
     Davidson diagonalization with overlap
     ethr =  7.88E-04,  avg # of iterations =  4.8

     negative rho (up, down):  2.322E-02 3.648E-02

     total cpu time spent up to now is       36.8 secs

     total energy              =   -1637.83550477 Ry
     estimated scf accuracy    <       1.61215163 Ry

     total magnetization       =    10.24 Bohr mag/cell
     absolute magnetization    =    10.95 Bohr mag/cell

     iteration # 10     ecut=    80.00 Ry     beta= 0.30
     Davidson diagonalization with overlap
     ethr =  7.88E-04,  avg # of iterations =  5.3

     negative rho (up, down):  2.177E-02 3.911E-02

     total cpu time spent up to now is       40.6 secs

     total energy              =   -1637.96769806 Ry
     estimated scf accuracy    <       2.25502416 Ry

     total magnetization       =    11.44 Bohr mag/cell
     absolute magnetization    =    12.37 Bohr mag/cell

     iteration # 11     ecut=    80.00 Ry     beta= 0.30
     Davidson diagonalization with overlap
     ethr =  7.88E-04,  avg # of iterations =  2.2

     negative rho (up, down):  2.281E-02 4.092E-02

     total cpu time spent up to now is       44.0 secs

     total energy              =   -1637.90140685 Ry
     estimated scf accuracy    <       3.95237720 Ry

     total magnetization       =    12.97 Bohr mag/cell
     absolute magnetization    =    13.64 Bohr mag/cell

     iteration # 12     ecut=    80.00 Ry     beta= 0.30
     Davidson diagonalization with overlap
     ethr =  7.88E-04,  avg # of iterations =  1.3

     negative rho (up, down):  2.146E-02 3.947E-02

     total cpu time spent up to now is       47.2 secs

     total energy              =   -1637.90539431 Ry
     estimated scf accuracy    <       0.86632107 Ry

     total magnetization       =    11.81 Bohr mag/cell
     absolute magnetization    =    13.29 Bohr mag/cell

     iteration # 13     ecut=    80.00 Ry     beta= 0.30
     Davidson diagonalization with overlap
     ethr =  5.13E-04,  avg # of iterations =  1.0

     negative rho (up, down):  1.769E-02 3.611E-02

     total cpu time spent up to now is       50.3 secs

     total energy              =   -1637.90172366 Ry
     estimated scf accuracy    <       0.17455117 Ry

     total magnetization       =    11.00 Bohr mag/cell
     absolute magnetization    =    13.15 Bohr mag/cell

     iteration # 14     ecut=    80.00 Ry     beta= 0.30
     Davidson diagonalization with overlap
     ethr =  1.03E-04,  avg # of iterations =  3.0

     negative rho (up, down):  1.447E-02 3.323E-02

     total cpu time spent up to now is       54.0 secs

     total energy              =   -1637.89033183 Ry
     estimated scf accuracy    <       1.72074534 Ry

     total magnetization       =    12.39 Bohr mag/cell
     absolute magnetization    =    13.82 Bohr mag/cell

     iteration # 15     ecut=    80.00 Ry     beta= 0.30
     Davidson diagonalization with overlap
     ethr =  1.03E-04,  avg # of iterations =  1.7

     negative rho (up, down):  1.261E-02 3.184E-02

     total cpu time spent up to now is       57.3 secs

     total energy              =   -1637.91561964 Ry
     estimated scf accuracy    <       0.10362059 Ry

     total magnetization       =    10.99 Bohr mag/cell
     absolute magnetization    =    14.19 Bohr mag/cell

     iteration # 16     ecut=    80.00 Ry     beta= 0.30
     Davidson diagonalization with overlap
     ethr =  6.13E-05,  avg # of iterations =  2.2

     negative rho (up, down):  1.093E-02 2.978E-02

     total cpu time spent up to now is       60.7 secs

     total energy              =   -1637.91265521 Ry
     estimated scf accuracy    <       0.15247851 Ry

     total magnetization       =    10.97 Bohr mag/cell
     absolute magnetization    =    14.56 Bohr mag/cell

     iteration # 17     ecut=    80.00 Ry     beta= 0.30
     Davidson diagonalization with overlap
     ethr =  6.13E-05,  avg # of iterations =  1.6

     negative rho (up, down):  5.773E-03 2.483E-02

     total cpu time spent up to now is       64.3 secs

     total energy              =   -1637.90781642 Ry
     estimated scf accuracy    <       0.06391027 Ry

     total magnetization       =    11.00 Bohr mag/cell
     absolute magnetization    =    14.39 Bohr mag/cell

     iteration # 18     ecut=    80.00 Ry     beta= 0.30
     Davidson diagonalization with overlap
     ethr =  3.78E-05,  avg # of iterations =  5.5

     negative rho (up, down):  1.363E-03 2.007E-02

     total cpu time spent up to now is       68.5 secs

     total energy              =   -1637.90795315 Ry
     estimated scf accuracy    <       0.17567546 Ry

     total magnetization       =    11.00 Bohr mag/cell
     absolute magnetization    =    14.92 Bohr mag/cell

     iteration # 19     ecut=    80.00 Ry     beta= 0.30
     Davidson diagonalization with overlap
     ethr =  3.78E-05,  avg # of iterations =  2.2

     negative rho (up, down):  5.478E-04 1.954E-02

     total cpu time spent up to now is       72.1 secs

     total energy              =   -1637.89466326 Ry
     estimated scf accuracy    <       0.16527391 Ry

     total magnetization       =    11.00 Bohr mag/cell
     absolute magnetization    =    15.09 Bohr mag/cell

     iteration # 20     ecut=    80.00 Ry     beta= 0.30
     Davidson diagonalization with overlap
     ethr =  3.78E-05,  avg # of iterations =  1.7

     negative rho (up, down):  6.337E-04 1.969E-02

     total cpu time spent up to now is       75.4 secs

     total energy              =   -1637.89373389 Ry
     estimated scf accuracy    <       0.09705939 Ry

     total magnetization       =    11.00 Bohr mag/cell
     absolute magnetization    =    15.14 Bohr mag/cell

     iteration # 21     ecut=    80.00 Ry     beta= 0.30
     Davidson diagonalization with overlap
     ethr =  3.78E-05,  avg # of iterations =  1.0

     negative rho (up, down):  3.263E-03 2.249E-02

     total cpu time spent up to now is       78.7 secs

     total energy              =   -1637.88843212 Ry
     estimated scf accuracy    <       0.07781500 Ry

     total magnetization       =    11.00 Bohr mag/cell
     absolute magnetization    =    15.11 Bohr mag/cell

     iteration # 22     ecut=    80.00 Ry     beta= 0.30
     Davidson diagonalization with overlap
     ethr =  3.78E-05,  avg # of iterations =  1.4

     negative rho (up, down):  6.143E-04 1.986E-02

     total cpu time spent up to now is       82.1 secs

     total energy              =   -1637.89505575 Ry
     estimated scf accuracy    <       0.01790411 Ry

     total magnetization       =    11.00 Bohr mag/cell
     absolute magnetization    =    14.72 Bohr mag/cell

     iteration # 23     ecut=    80.00 Ry     beta= 0.30
     Davidson diagonalization with overlap
     ethr =  1.06E-05,  avg # of iterations =  5.0

     negative rho (up, down):  1.720E-03 2.091E-02

     total cpu time spent up to now is       86.1 secs

     total energy              =   -1637.89611919 Ry
     estimated scf accuracy    <       0.00864526 Ry

     total magnetization       =    11.00 Bohr mag/cell
     absolute magnetization    =    14.74 Bohr mag/cell

     iteration # 24     ecut=    80.00 Ry     beta= 0.30
     Davidson diagonalization with overlap
     c_bands:  1 eigenvalues not converged
     ethr =  5.12E-06,  avg # of iterations =  7.0

     negative rho (up, down):  2.615E-03 2.160E-02

     total cpu time spent up to now is       90.5 secs

     total energy              =   -1637.89600292 Ry
     estimated scf accuracy    <       0.00558772 Ry

     total magnetization       =    11.00 Bohr mag/cell
     absolute magnetization    =    14.67 Bohr mag/cell

     iteration # 25     ecut=    80.00 Ry     beta= 0.30
     Davidson diagonalization with overlap
     ethr =  3.31E-06,  avg # of iterations =  4.2

     negative rho (up, down):  4.956E-03 2.395E-02

     total cpu time spent up to now is       94.5 secs

     total energy              =   -1637.89590718 Ry
     estimated scf accuracy    <       0.00361826 Ry

     total magnetization       =    11.00 Bohr mag/cell
     absolute magnetization    =    14.64 Bohr mag/cell

     iteration # 26     ecut=    80.00 Ry     beta= 0.30
     Davidson diagonalization with overlap
     ethr =  2.14E-06,  avg # of iterations =  3.7

     negative rho (up, down):  1.693E-03 2.048E-02

     total cpu time spent up to now is       98.4 secs

     total energy              =   -1637.89470026 Ry
     estimated scf accuracy    <       0.01793792 Ry

     total magnetization       =    11.00 Bohr mag/cell
     absolute magnetization    =    14.46 Bohr mag/cell

     iteration # 27     ecut=    80.00 Ry     beta= 0.30
     Davidson diagonalization with overlap
     ethr =  2.14E-06,  avg # of iterations =  2.1

     negative rho (up, down):  2.440E-03 2.125E-02

     total cpu time spent up to now is      101.7 secs

     total energy              =   -1637.89527529 Ry
     estimated scf accuracy    <       0.00888014 Ry

     total magnetization       =    11.00 Bohr mag/cell
     absolute magnetization    =    14.66 Bohr mag/cell

     iteration # 28     ecut=    80.00 Ry     beta= 0.30
     Davidson diagonalization with overlap
     ethr =  2.14E-06,  avg # of iterations =  1.1

     negative rho (up, down):  4.776E-03 2.365E-02

     total cpu time spent up to now is      104.9 secs

     total energy              =   -1637.89523535 Ry
     estimated scf accuracy    <       0.00635583 Ry

     total magnetization       =    11.00 Bohr mag/cell
     absolute magnetization    =    14.60 Bohr mag/cell

     iteration # 29     ecut=    80.00 Ry     beta= 0.30
     Davidson diagonalization with overlap
     ethr =  2.14E-06,  avg # of iterations =  1.0

     negative rho (up, down):  3.619E-03 2.245E-02

     total cpu time spent up to now is      107.9 secs

     total energy              =   -1637.89524658 Ry
     estimated scf accuracy    <       0.00188624 Ry

     total magnetization       =    11.00 Bohr mag/cell
     absolute magnetization    =    14.57 Bohr mag/cell

     iteration # 30     ecut=    80.00 Ry     beta= 0.30
     Davidson diagonalization with overlap
     ethr =  1.12E-06,  avg # of iterations =  1.0

     negative rho (up, down):  4.147E-03 2.293E-02

     total cpu time spent up to now is      111.0 secs

     total energy              =   -1637.89535966 Ry
     estimated scf accuracy    <       0.00134446 Ry

     total magnetization       =    11.00 Bohr mag/cell
     absolute magnetization    =    14.56 Bohr mag/cell

     iteration # 31     ecut=    80.00 Ry     beta= 0.30
     Davidson diagonalization with overlap
     ethr =  7.96E-07,  avg # of iterations =  1.5

     negative rho (up, down):  2.918E-03 2.134E-02

     total cpu time spent up to now is      114.3 secs

     total energy              =   -1637.89542555 Ry
     estimated scf accuracy    <       0.00021420 Ry

     total magnetization       =    11.00 Bohr mag/cell
     absolute magnetization    =    14.55 Bohr mag/cell

     iteration # 32     ecut=    80.00 Ry     beta= 0.30
     Davidson diagonalization with overlap
     ethr =  1.27E-07,  avg # of iterations =  2.3

     negative rho (up, down):  2.653E-03 2.075E-02

     total cpu time spent up to now is      117.7 secs

     total energy              =   -1637.89543945 Ry
     estimated scf accuracy    <       0.00013321 Ry

     total magnetization       =    11.00 Bohr mag/cell
     absolute magnetization    =    14.58 Bohr mag/cell

     iteration # 33     ecut=    80.00 Ry     beta= 0.30
     Davidson diagonalization with overlap
     ethr =  7.88E-08,  avg # of iterations =  2.1

     negative rho (up, down):  2.244E-03 2.007E-02

     total cpu time spent up to now is      121.1 secs

     total energy              =   -1637.89545599 Ry
     estimated scf accuracy    <       0.00002093 Ry

     total magnetization       =    11.00 Bohr mag/cell
     absolute magnetization    =    14.58 Bohr mag/cell

     iteration # 34     ecut=    80.00 Ry     beta= 0.30
     Davidson diagonalization with overlap
     ethr =  1.24E-08,  avg # of iterations =  3.9

     negative rho (up, down):  2.065E-03 1.976E-02

     total cpu time spent up to now is      124.8 secs

     total energy              =   -1637.89546073 Ry
     estimated scf accuracy    <       0.00002287 Ry

     total magnetization       =    11.00 Bohr mag/cell
     absolute magnetization    =    14.58 Bohr mag/cell

     iteration # 35     ecut=    80.00 Ry     beta= 0.30
     Davidson diagonalization with overlap
     ethr =  1.24E-08,  avg # of iterations =  1.3

     negative rho (up, down):  2.051E-03 1.974E-02

     total cpu time spent up to now is      128.0 secs

     total energy              =   -1637.89546131 Ry
     estimated scf accuracy    <       0.00000474 Ry

     total magnetization       =    11.00 Bohr mag/cell
     absolute magnetization    =    14.58 Bohr mag/cell

     iteration # 36     ecut=    80.00 Ry     beta= 0.30
     Davidson diagonalization with overlap
     ethr =  2.81E-09,  avg # of iterations =  2.9

     negative rho (up, down):  2.034E-03 1.968E-02

     total cpu time spent up to now is      131.7 secs

     total energy              =   -1637.89546303 Ry
     estimated scf accuracy    <       0.00000128 Ry

     total magnetization       =    11.00 Bohr mag/cell
     absolute magnetization    =    14.58 Bohr mag/cell

     iteration # 37     ecut=    80.00 Ry     beta= 0.30
     Davidson diagonalization with overlap
     ethr =  7.55E-10,  avg # of iterations =  3.6

     negative rho (up, down):  2.006E-03 1.960E-02

     Magnetic moment per site  (integrated on atomic sphere of radius R)
     atom   1 (R=0.259)  charge= 10.4298  magn=  1.9387
     atom   2 (R=0.259)  charge= 10.3523  magn=  1.4656
     atom   3 (R=0.259)  charge= 10.3736  magn=  1.7113
     atom   4 (R=0.259)  charge= 10.3794  magn=  1.7343
     atom   5 (R=0.259)  charge= 10.3902  magn=  1.7618
     atom   6 (R=0.259)  charge= 10.3531  magn=  1.4346
     atom   7 (R=0.150)  charge=  2.2815  magn= -0.0464
     atom   8 (R=0.150)  charge=  2.2548  magn= -0.0761
     atom   9 (R=0.150)  charge=  2.2865  magn= -0.0315
     atom  10 (R=0.150)  charge=  2.2865  magn= -0.0315
     atom  11 (R=0.150)  charge=  2.2814  magn= -0.0385
     atom  12 (R=0.150)  charge=  2.2795  magn= -0.0451
     atom  13 (R=0.150)  charge=  2.2872  magn= -0.0363
     atom  14 (R=0.150)  charge=  2.2872  magn= -0.0363
     atom  15 (R=0.150)  charge=  2.2623  magn= -0.0705
     atom  16 (R=0.150)  charge=  2.2743  magn= -0.0465
     atom  17 (R=0.150)  charge=  2.2863  magn= -0.0322
     atom  18 (R=0.150)  charge=  2.2863  magn= -0.0322
     atom  19 (R=0.150)  charge=  2.2633  magn= -0.1481
     atom  20 (R=0.150)  charge=  2.2683  magn= -0.1298
     atom  21 (R=0.150)  charge=  0.4284  magn=  0.0016

     total cpu time spent up to now is      135.3 secs

     End of self-consistent calculation

 ------ SPIN UP ------------


          k = 0.0000 0.0000 0.0000 ( 37133 PWs)   bands (ev):

   -73.0838 -73.0449 -72.9611 -72.9514 -72.9493 -72.9449 -44.4192 -44.4091
   -44.3905 -44.3769 -44.3414 -44.3364 -44.3168 -44.3027 -44.2852 -44.2365
   -44.2198 -44.2162 -44.2048 -44.1925 -44.1719 -44.1691 -44.1344 -44.1128
   -23.5368 -19.0494 -18.7073 -18.4407 -18.0538 -17.5588 -17.4492 -17.3449
   -17.3047 -17.2209 -17.1466 -16.6381 -16.2138 -14.3280  -7.7299  -6.9001
    -6.8030  -6.7319  -6.3774  -5.7171  -5.6034  -5.2763  -5.1089  -4.9814
    -4.8781  -4.8397  -4.8089  -4.5513  -4.5175  -4.4615  -4.4573  -3.9341
    -3.6695  -3.5936  -3.2829  -3.1912  -3.1177  -3.0066  -2.8389  -2.6567
    -2.5341  -2.4756  -2.3944  -2.2258  -1.9901  -1.9101  -1.8281  -1.6616
    -1.3738  -1.1734  -1.1061  -1.0123  -0.9406  -0.8818  -0.8033  -0.6623
    -0.6561  -0.6511  -0.6181  -0.5737  -0.5262  -0.4950  -0.0951   0.0717
     0.1973   0.3093   0.4636   0.6719   0.9605   1.2562   1.3461   1.4398
     1.5290   1.6432   2.1459   2.7641   3.3849   3.8475

          k = 0.0000 0.1166 0.0000 ( 37130 PWs)   bands (ev):

   -73.0838 -73.0449 -72.9611 -72.9513 -72.9493 -72.9451 -44.4175 -44.4090
   -44.3886 -44.3769 -44.3390 -44.3363 -44.3169 -44.3026 -44.2852 -44.2365
   -44.2218 -44.2180 -44.2048 -44.1949 -44.1720 -44.1692 -44.1341 -44.1131
   -23.5367 -18.9324 -18.5871 -18.3278 -18.2094 -17.7793 -17.6163 -17.3488
   -17.2488 -17.2124 -17.1126 -16.6342 -16.2046 -14.3273  -7.7214  -6.6229
    -6.5186  -6.4392  -6.3302  -5.7247  -5.4530  -5.2573  -4.9377  -4.9240
    -4.8091  -4.8061  -4.7774  -4.5616  -4.5221  -4.4566  -4.3514  -4.0422
    -3.9279  -3.7939  -3.7066  -3.5240  -3.3453  -3.2139  -2.9896  -2.8622
    -2.6483  -2.5529  -2.4522  -2.3728  -2.2444  -1.9918  -1.8460  -1.8060
    -1.5697  -1.2940  -1.2892  -1.0815  -0.9789  -0.8796  -0.6758  -0.6284
    -0.4230  -0.3563  -0.2978  -0.2766  -0.1678  -0.1264   0.0190   0.1070
     0.2631   0.3080   0.4749   0.6725   0.9256   1.1927   1.2500   1.3345
     1.4683   1.6345   2.4593   3.0112   3.5389   3.8659

          k = 0.0000-0.2332 0.0000 ( 37126 PWs)   bands (ev):

   -73.0838 -73.0449 -72.9612 -72.9512 -72.9493 -72.9452 -44.4158 -44.4090
   -44.3866 -44.3769 -44.3366 -44.3362 -44.3169 -44.3026 -44.2852 -44.2364
   -44.2238 -44.2198 -44.2048 -44.1974 -44.1720 -44.1692 -44.1338 -44.1134
   -23.5366 -18.7078 -18.4924 -18.3669 -18.0814 -18.0705 -17.8785 -17.3435
   -17.2445 -17.2106 -17.0738 -16.6317 -16.1964 -14.3266  -7.7164  -6.4730
    -6.1284  -6.0658  -6.0089  -5.7317  -5.4110  -4.9632  -4.8602  -4.8065
    -4.7374  -4.7250  -4.7122  -4.5726  -4.5250  -4.5168  -4.4548  -4.2178
    -4.1179  -4.0864  -4.0629  -3.8958  -3.7584  -3.5798  -3.0460  -2.9257
    -2.8400  -2.7961  -2.7259  -2.4884  -2.4153  -1.9276  -1.8264  -1.6434
    -1.5872  -1.3603  -1.2664  -1.1249  -0.9148  -0.8244  -0.7734  -0.6376
    -0.2202  -0.2153  -0.1834  -0.1569   0.0117   0.2127   0.2290   0.2887
     0.2999   0.4690   0.6483   0.7129   0.7478   0.8999   1.0936   1.2469
     1.3473   1.8012   2.8230   3.0333   3.8597   3.9809

          k = 0.1111 0.0000 0.0000 ( 37175 PWs)   bands (ev):

   -73.0823 -73.0433 -72.9596 -72.9499 -72.9478 -72.9434 -44.4174 -44.4069
   -44.3886 -44.3743 -44.3394 -44.3358 -44.3206 -44.3139 -44.2842 -44.2550
   -44.2170 -44.2134 -44.2019 -44.1912 -44.1897 -44.1881 -44.1541 -44.1319
   -23.4506 -18.9375 -18.6076 -18.3506 -17.9785 -17.5023 -17.4191 -17.3384
   -17.3306 -17.2457 -17.1736 -16.6648 -16.2282 -14.4968  -7.9293  -6.7525
    -6.6715  -6.6076  -6.2532  -5.6412  -5.5073  -5.2720  -5.2372  -5.1289
    -5.0932  -5.0588  -4.9312  -4.7612  -4.4749  -4.4189  -4.2541  -3.5570
    -3.5346  -3.4951  -3.1048  -3.0827  -3.0148  -2.9900  -2.9005  -2.8064
    -2.7040  -2.6791  -2.4503  -2.3956  -2.3911  -2.0370  -1.9226  -1.8915
    -1.7308  -1.6423  -1.5103  -1.2584  -0.9047  -0.8924  -0.7528  -0.6307
    -0.5663  -0.4479  -0.3532  -0.3044  -0.2499  -0.0561   0.0465   0.1204
     0.2842   0.5404   0.5782   0.7304   0.9014   1.1760   1.3443   1.4525
     1.4605   1.5681   2.2221   2.8580   3.4335   3.5357

          k = 0.1111 0.1166 0.0000 ( 37124 PWs)   bands (ev):

   -73.0823 -73.0433 -72.9596 -72.9497 -72.9478 -72.9435 -44.4160 -44.4069
   -44.3870 -44.3743 -44.3374 -44.3358 -44.3206 -44.3140 -44.2842 -44.2550
   -44.2186 -44.2149 -44.2019 -44.1919 -44.1912 -44.1880 -44.1537 -44.1321
   -23.4505 -18.8252 -18.4921 -18.2410 -18.1303 -17.7220 -17.5697 -17.3672
   -17.2666 -17.2380 -17.1237 -16.6611 -16.2201 -14.4961  -7.9243  -6.4766
    -6.3809  -6.3073  -6.2050  -5.6486  -5.3967  -5.2441  -5.1454  -5.1027
    -5.0476  -4.9886  -4.9027  -4.6743  -4.4696  -4.4083  -4.2134  -3.8155
    -3.6642  -3.6121  -3.4797  -3.4620  -3.2169  -3.0984  -3.0783  -3.0223
    -2.9916  -2.8658  -2.6394  -2.5166  -2.4560  -2.2655  -1.9704  -1.8490
    -1.7046  -1.6461  -1.4222  -1.1685  -1.0440  -0.8090  -0.6833  -0.3831
    -0.3008  -0.2259  -0.1159  -0.0754  -0.0335  -0.0078   0.0900   0.2192
     0.2955   0.5512   0.5755   0.7463   0.8683   1.1175   1.1772   1.2750
     1.4180   1.6854   2.4822   3.0458   3.4908   3.5438

          k = 0.1111-0.2332 0.0000 ( 37144 PWs)   bands (ev):

   -73.0823 -73.0433 -72.9596 -72.9496 -72.9477 -72.9437 -44.4146 -44.4069
   -44.3854 -44.3743 -44.3357 -44.3354 -44.3206 -44.3140 -44.2842 -44.2551
   -44.2203 -44.2164 -44.2019 -44.1942 -44.1911 -44.1880 -44.1534 -44.1323
   -23.4504 -18.6105 -18.3979 -18.2789 -18.0062 -18.0040 -17.8215 -17.3640
   -17.2702 -17.2283 -17.0827 -16.6586 -16.2127 -14.4955  -7.9211  -6.3409
    -5.9664  -5.9219  -5.8553  -5.6574  -5.3898  -5.1598  -5.0492  -5.0033
    -4.9704  -4.9510  -4.8634  -4.5140  -4.4311  -4.3999  -4.3119  -4.1980
    -3.9079  -3.8452  -3.7860  -3.6853  -3.6508  -3.4590  -3.3787  -3.2128
    -3.1418  -2.9961  -2.9160  -2.5531  -2.4998  -2.3402  -1.9424  -1.7326
    -1.4824  -1.4231  -1.3049  -1.2288  -1.0685  -0.8251  -0.6646  -0.2697
    -0.2332  -0.1622  -0.1379  -0.1167   0.0465   0.3643   0.4195   0.4628
     0.5623   0.5831   0.6226   0.6994   0.7860   0.8675   1.0291   1.1880
     1.2644   1.8418   2.7737   3.0770   3.4949   3.4973

          k = 0.2222 0.0000 0.0000 ( 37192 PWs)   bands (ev):

   -73.0785 -73.0394 -72.9557 -72.9459 -72.9439 -72.9395 -44.4128 -44.4023
   -44.3838 -44.3706 -44.3648 -44.3344 -44.3318 -44.3139 -44.2969 -44.2790
   -44.2398 -44.2362 -44.2099 -44.2063 -44.2038 -44.1939 -44.1826 -44.1801
   -23.2170 -18.6317 -18.3426 -18.1150 -17.7897 -17.4556 -17.3977 -17.3769
   -17.3089 -17.2422 -17.2201 -16.7300 -16.2494 -14.9653  -8.2519  -6.3603
    -6.3244  -6.2734  -5.9536  -5.5856  -5.5323  -5.4654  -5.4278  -5.3317
    -5.2664  -5.0175  -4.9649  -4.5022  -4.4757  -4.2935  -4.1458  -3.9088
    -3.7810  -3.7012  -3.5570  -3.5299  -3.3143  -3.2436  -2.9858  -2.8344
    -2.7249  -2.6118  -2.5509  -2.4788  -2.3420  -2.2674  -2.1560  -2.1039
    -1.9561  -1.9026  -1.5404  -1.2439  -1.1878  -0.7394  -0.6612  -0.3923
    -0.3092  -0.2902  -0.2361  -0.2062   0.0417   0.2797   0.3129   0.3648
     0.5323   0.6502   0.6797   0.8736   0.8961   1.0073   1.1049   1.2602
     1.3582   1.5981   2.3270   2.9216   3.2485   3.4239

          k = 0.2222 0.1166 0.0000 ( 37137 PWs)   bands (ev):

   -73.0785 -73.0394 -72.9557 -72.9458 -72.9439 -72.9396 -44.4122 -44.4023
   -44.3832 -44.3706 -44.3649 -44.3336 -44.3318 -44.3139 -44.2970 -44.2791
   -44.2394 -44.2359 -44.2109 -44.2071 -44.2031 -44.1939 -44.1867 -44.1775
   -23.2169 -18.5342 -18.2426 -18.0177 -17.9281 -17.6102 -17.4903 -17.4045
   -17.3130 -17.2878 -17.1219 -16.7269 -16.2445 -14.9647  -8.2497  -6.1027
    -6.0297  -5.9776  -5.8970  -5.5408  -5.4851  -5.4540  -5.3399  -5.3002
    -5.2346  -5.1565  -4.7222  -4.5415  -4.4059  -4.3239  -4.1780  -4.0690
    -3.9600  -3.8925  -3.7461  -3.6242  -3.4154  -3.2736  -3.0939  -3.0695
    -3.0156  -2.9027  -2.8338  -2.7232  -2.6305  -2.1939  -1.9876  -1.9047
    -1.8081  -1.7507  -1.5461  -1.3305  -1.1844  -0.8800  -0.5837  -0.3421
    -0.1957  -0.0629   0.0720   0.0978   0.1495   0.2533   0.3905   0.4180
     0.5311   0.5685   0.6626   0.8308   0.8702   0.9832   1.0253   1.1493
     1.2456   1.7345   2.4858   2.9519   3.0930   3.1527

          k = 0.2222-0.2332 0.0000 ( 37166 PWs)   bands (ev):

   -73.0785 -73.0394 -72.9557 -72.9457 -72.9439 -72.9397 -44.4117 -44.4023
   -44.3826 -44.3706 -44.3649 -44.3328 -44.3317 -44.3140 -44.2970 -44.2791
   -44.2389 -44.2355 -44.2119 -44.2081 -44.2024 -44.1939 -44.1893 -44.1765
   -23.2168 -18.3510 -18.1508 -18.0512 -17.8539 -17.8156 -17.6967 -17.4154
   -17.3369 -17.2616 -17.0851 -16.7246 -16.2401 -14.9642  -8.2480  -6.0154
    -5.6196  -5.6155  -5.5524  -5.4567  -5.4432  -5.3761  -5.2394  -5.2071
    -5.1387  -5.1133  -4.6481  -4.5662  -4.5075  -4.5057  -4.4319  -4.3260
    -4.1054  -4.0481  -3.9675  -3.6248  -3.5917  -3.4442  -3.2868  -3.2738
    -3.2228  -3.1606  -3.1162  -2.9297  -2.6424  -2.0837  -1.9028  -1.7137
    -1.5874  -1.5379  -1.4551  -1.4324  -1.2648  -1.1163  -0.3014  -0.2985
    -0.1930  -0.1083   0.0823   0.2223   0.3613   0.3938   0.4843   0.5607
     0.5829   0.6405   0.6868   0.7782   0.8161   0.9844   0.9968   1.0706
     1.0755   1.8301   2.6347   2.8353   2.8440   2.8848

          k = 0.3333 0.0000 0.0000 ( 37184 PWs)   bands (ev):

   -73.0741 -73.0350 -72.9512 -72.9413 -72.9395 -72.9350 -44.4238 -44.4076
   -44.3938 -44.3785 -44.3613 -44.3585 -44.3297 -44.3287 -44.2950 -44.2939
   -44.2893 -44.2769 -44.2599 -44.2339 -44.2017 -44.1980 -44.1851 -44.1744
   -22.9178 -18.2179 -18.0091 -17.8318 -17.5954 -17.5141 -17.4761 -17.3810
   -17.3231 -17.3208 -17.0687 -16.7861 -16.2370 -15.5612  -8.3716  -6.0922
    -5.9661  -5.8821  -5.7985  -5.7088  -5.5847  -5.4996  -5.4520  -5.3261
    -5.2179  -5.1312  -4.9660  -4.7053  -4.5361  -4.4388  -4.3166  -4.1815
    -4.0593  -3.9854  -3.8757  -3.4824  -3.4697  -3.2763  -3.1262  -3.0872
    -2.9967  -2.8249  -2.7912  -2.7235  -2.3928  -2.2475  -2.2165  -1.9097
    -1.7860  -1.6486  -1.3786  -1.3647  -0.8893  -0.8714  -0.6848  -0.3308
    -0.2766  -0.1544  -0.1500  -0.0686   0.1167   0.3348   0.4176   0.5025
     0.5187   0.6090   0.6656   0.7591   0.8797   0.9518   1.0341   1.2484
     1.2795   1.5121   2.3350   2.6638   3.2180   3.3455

          k = 0.3333 0.1166 0.0000 ( 37206 PWs)   bands (ev):

   -73.0741 -73.0350 -72.9512 -72.9412 -72.9395 -72.9351 -44.4239 -44.4083
   -44.3938 -44.3795 -44.3614 -44.3585 -44.3301 -44.3296 -44.2944 -44.2928
   -44.2884 -44.2769 -44.2580 -44.2345 -44.2020 -44.1983 -44.1851 -44.1745
   -22.9177 -18.1484 -17.9411 -17.7777 -17.6908 -17.5704 -17.4912 -17.4126
   -17.3978 -17.2907 -17.0538 -16.7850 -16.2363 -15.5606  -8.3714  -6.0729
    -5.7676  -5.6977  -5.6571  -5.6321  -5.5677  -5.5028  -5.4062  -5.3596
    -5.2274  -5.1702  -5.0021  -4.7025  -4.5470  -4.4025  -4.3303  -4.1984
    -4.1482  -4.0428  -3.7447  -3.6299  -3.4693  -3.3925  -3.1752  -3.1039
    -3.0208  -2.8460  -2.8033  -2.6843  -2.5580  -2.3367  -2.1443  -1.9291
    -1.7983  -1.7418  -1.3207  -1.2864  -1.1024  -0.8801  -0.6037  -0.5464
    -0.2159  -0.0979   0.0132   0.0186   0.0531   0.1515   0.2249   0.4108
     0.5062   0.5735   0.6955   0.9399   0.9636   1.0006   1.1482   1.1846
     1.2404   1.6090   2.4444   2.6011   2.7019   2.7572

          k = 0.3333-0.2332 0.0000 ( 37216 PWs)   bands (ev):

   -73.0741 -73.0350 -72.9512 -72.9412 -72.9395 -72.9351 -44.4241 -44.4089
   -44.3938 -44.3805 -44.3616 -44.3584 -44.3312 -44.3295 -44.2942 -44.2915
   -44.2875 -44.2769 -44.2562 -44.2350 -44.2023 -44.1986 -44.1851 -44.1746
   -22.9177 -18.0204 -17.8741 -17.7892 -17.7282 -17.6070 -17.5886 -17.4702
   -17.4131 -17.2771 -17.0432 -16.7840 -16.2355 -15.5600  -8.3713  -6.0727
    -5.6719  -5.6211  -5.5659  -5.4767  -5.4199  -5.4087  -5.3711  -5.2288
    -5.2240  -5.0580  -5.0511  -4.7192  -4.6914  -4.5400  -4.3450  -4.2308
    -4.1577  -4.0104  -3.8695  -3.7120  -3.5735  -3.2921  -3.2296  -3.1887
    -2.9951  -2.9811  -2.9800  -2.7977  -2.5556  -2.1590  -2.0727  -1.9699
    -1.9125  -1.5915  -1.5392  -1.1529  -1.0433  -0.8739  -0.7282  -0.6361
    -0.3690  -0.2213  -0.1230   0.1708   0.1849   0.2167   0.2366   0.4305
     0.5111   0.5493   0.6390   0.9409   0.9900   1.0412   1.1600   1.2765
     1.2871   1.6833   2.3287   2.3449   2.4199   2.5898

          k = 0.4444 0.0000 0.0000 ( 37180 PWs)   bands (ev):

   -73.0712 -73.0321 -72.9483 -72.9383 -72.9367 -72.9321 -44.4573 -44.4043
   -44.3961 -44.3910 -44.3750 -44.3531 -44.3337 -44.3258 -44.3251 -44.3240
   -44.2962 -44.2867 -44.2797 -44.2648 -44.1964 -44.1926 -44.1793 -44.1690
   -22.6969 -17.8332 -17.7328 -17.6495 -17.5991 -17.5283 -17.5231 -17.4283
   -17.3723 -17.3452 -17.0092 -16.7837 -16.2035 -15.9828  -8.3269  -6.3689
    -5.9473  -5.7331  -5.7037  -5.5997  -5.5664  -5.5433  -5.4112  -5.3590
    -5.2549  -5.2120  -5.0502  -4.8383  -4.6472  -4.4808  -4.4572  -4.3770
    -4.0232  -3.7810  -3.6001  -3.5844  -3.5576  -3.4551  -3.4125  -3.2473
    -2.8912  -2.7539  -2.5714  -2.5060  -2.4563  -2.2374  -2.2155  -2.0132
    -1.9576  -1.6021  -1.5350  -1.4274  -1.0713  -0.5608  -0.5033  -0.2788
    -0.2431  -0.1448  -0.1241  -0.1080   0.0360   0.0986   0.1272   0.3352
     0.3922   0.5463   0.6680   0.6708   0.8566   1.0606   1.1266   1.3605
     1.4051   1.4895   2.2413   2.5482   3.1181   3.3744

          k = 0.4444 0.1166 0.0000 ( 37248 PWs)   bands (ev):

   -73.0712 -73.0321 -72.9483 -72.9383 -72.9367 -72.9321 -44.4574 -44.4062
   -44.3963 -44.3910 -44.3784 -44.3529 -44.3318 -44.3299 -44.3237 -44.3227
   -44.2913 -44.2867 -44.2798 -44.2651 -44.1962 -44.1925 -44.1793 -44.1687
   -22.6969 -17.8123 -17.7237 -17.6728 -17.6163 -17.5319 -17.5118 -17.4330
   -17.3956 -17.3243 -17.0125 -16.7833 -16.2032 -15.9820  -8.3298  -6.3635
    -6.0318  -5.8856  -5.8361  -5.7507  -5.6625  -5.4216  -5.3803  -5.2358
    -5.1848  -5.0406  -4.9190  -4.6253  -4.5875  -4.5035  -4.3059  -4.1271
    -3.9758  -3.9228  -3.7719  -3.7221  -3.5738  -3.3488  -3.2934  -3.0941
    -2.9557  -2.7290  -2.5360  -2.4931  -2.3074  -2.2792  -2.1851  -2.1036
    -1.8629  -1.8160  -1.5514  -1.3592  -1.1416  -0.7264  -0.5583  -0.3840
    -0.2514  -0.2294  -0.1585  -0.1212  -0.0970  -0.0945  -0.0794   0.0552
     0.1006   0.3264   0.5947   1.0641   1.1687   1.2304   1.3170   1.3368
     1.4358   1.4973   2.3255   2.4356   2.5589   2.5706

          k = 0.4444-0.2332 0.0000 ( 37264 PWs)   bands (ev):

   -73.0712 -73.0321 -72.9483 -72.9383 -72.9367 -72.9321 -44.4576 -44.4081
   -44.3965 -44.3910 -44.3813 -44.3528 -44.3337 -44.3305 -44.3218 -44.3210
   -44.2873 -44.2867 -44.2800 -44.2653 -44.1961 -44.1924 -44.1793 -44.1684
   -22.6968 -17.7724 -17.7449 -17.6662 -17.6491 -17.5410 -17.4955 -17.4391
   -17.4107 -17.3123 -17.0158 -16.7828 -16.2030 -15.9812  -8.3328  -6.3625
    -6.1148  -6.0789  -5.9625  -5.7845  -5.6312  -5.2156  -5.1541  -5.1470
    -5.0796  -5.0008  -4.9899  -4.8408  -4.5348  -4.2439  -4.1823  -4.0397
    -4.0333  -3.9391  -3.8122  -3.5658  -3.4693  -3.3531  -3.1335  -3.1089
    -2.8175  -2.7432  -2.7073  -2.6478  -2.4336  -2.3437  -2.1225  -2.0010
    -1.8919  -1.4879  -1.4390  -1.4276  -1.2430  -0.8249  -0.7953  -0.6981
    -0.6946  -0.4916  -0.2144  -0.1043  -0.0969  -0.0826  -0.0648   0.0591
     0.0995   0.1566   0.6036   1.1001   1.2059   1.3455   1.4225   1.4718
     1.4863   1.5537   2.1371   2.1604   2.2301   2.4186

 ------ SPIN DOWN ----------


          k = 0.0000 0.0000 0.0000 ( 37133 PWs)   bands (ev):

   -71.0577 -70.9208 -70.6979 -70.5953 -70.5405 -70.2845 -42.5035 -42.4533
   -42.3708 -42.2664 -42.2269 -42.2014 -42.1756 -42.1317 -42.0503 -42.0343
   -41.8467 -41.8413 -41.8132 -41.7790 -41.7137 -41.6710 -41.5856 -41.4702
   -23.9042 -19.0873 -18.7454 -18.4794 -18.1282 -17.6658 -17.5554 -17.4346
   -17.3639 -17.2862 -17.2165 -16.8216 -16.4439 -14.8375  -7.8557  -6.4896
    -6.3522  -6.2940  -5.9329  -5.7097  -5.3339  -5.1831  -4.9719  -4.7240
    -4.5188  -4.4586  -4.4252  -4.3970  -4.3910  -4.1828  -4.1284  -3.9409
    -3.6118  -3.4742  -3.2369  -3.1524  -2.9481  -2.9466  -2.7610  -2.6149
    -2.3545  -2.2566  -2.1786  -2.1374  -1.9406  -1.8612  -1.5036  -1.4716
    -1.3452  -1.1695  -0.9937  -0.9449  -0.7332  -0.6054  -0.1299   1.4990
     1.5174   1.5289   1.6109   1.6117   1.6792   1.7764   1.7856   1.9409
     2.1292   2.1672   2.2219   2.2620   2.2839   2.6972   2.8094   3.0552
     3.2319   3.4000   3.4655   4.0987   4.6825   4.9089

          k = 0.0000 0.1166 0.0000 ( 37130 PWs)   bands (ev):

   -71.0577 -70.9208 -70.6979 -70.5953 -70.5405 -70.2845 -42.5029 -42.4528
   -42.3708 -42.2652 -42.2269 -42.2014 -42.1756 -42.1317 -42.0503 -42.0343
   -41.8467 -41.8426 -41.8140 -41.7788 -41.7138 -41.6710 -41.5863 -41.4702
   -23.9041 -18.9722 -18.6258 -18.3646 -18.2811 -17.8688 -17.6980 -17.4372
   -17.3228 -17.2859 -17.1970 -16.8182 -16.4344 -14.8368  -7.8521  -6.2422
    -6.0771  -6.0127  -5.8864  -5.6554  -5.3325  -5.1322  -4.8404  -4.7305
    -4.4768  -4.3958  -4.3901  -4.3560  -4.2746  -4.1835  -4.1253  -3.9399
    -3.8536  -3.6020  -3.5315  -3.4015  -3.2247  -2.8707  -2.7933  -2.7208
    -2.4099  -2.3946  -2.2498  -2.0755  -2.0255  -1.8327  -1.7821  -1.6074
    -1.4462  -1.2982  -1.2600  -1.0136  -0.9629  -0.6980  -0.1521   1.5264
     1.7532   1.8554   1.8608   1.9089   1.9262   1.9480   1.9645   2.0627
     2.1353   2.2045   2.2552   2.2912   2.3450   2.7057   2.9038   2.9673
     3.0737   3.3230   3.6389   4.2662   4.7369   4.9093

          k = 0.0000-0.2332 0.0000 ( 37126 PWs)   bands (ev):

   -71.0577 -70.9208 -70.6978 -70.5953 -70.5405 -70.2845 -42.5022 -42.4522
   -42.3708 -42.2640 -42.2269 -42.2014 -42.1756 -42.1317 -42.0503 -42.0343
   -41.8467 -41.8438 -41.8147 -41.7787 -41.7140 -41.6710 -41.5870 -41.4702
   -23.9040 -18.7483 -18.5511 -18.3958 -18.1620 -18.1214 -17.9537 -17.4330
   -17.3183 -17.2898 -17.1666 -16.8164 -16.4260 -14.8361  -7.8497  -6.0824
    -5.7223  -5.6988  -5.5928  -5.5794  -5.3412  -5.1290  -4.7439  -4.4728
    -4.4322  -4.3930  -4.3388  -4.3208  -4.2483  -4.1839  -4.1206  -4.1058
    -3.8242  -3.8107  -3.7923  -3.7130  -3.4729  -3.4654  -2.7295  -2.7086
    -2.6159  -2.4569  -2.4267  -2.1358  -2.1347  -1.9346  -1.7256  -1.6638
    -1.5025  -1.4036  -1.3506  -1.0717  -0.9504  -0.8562  -0.1718   1.5266
     1.8862   1.9989   2.0763   2.0991   2.1152   2.1198   2.1572   2.2104
     2.2588   2.3083   2.3798   2.3804   2.4090   2.5311   2.7993   2.9557
     3.0751   3.2866   4.0333   4.1546   4.8150   4.9120

          k = 0.1111 0.0000 0.0000 ( 37175 PWs)   bands (ev):

   -71.0560 -70.9191 -70.6962 -70.5936 -70.5388 -70.2828 -42.5018 -42.4517
   -42.3694 -42.2645 -42.2463 -42.1982 -42.1734 -42.1298 -42.0720 -42.0306
   -41.8455 -41.8375 -41.8092 -41.8002 -41.7358 -41.6935 -41.5814 -41.4936
   -23.8199 -18.9765 -18.6462 -18.3900 -18.0539 -17.6079 -17.5207 -17.4353
   -17.3896 -17.3114 -17.2435 -16.8489 -16.4598 -14.9987  -8.0561  -6.3540
    -6.2386  -6.1864  -5.8350  -5.6346  -5.2701  -5.1940  -5.1425  -4.9460
    -4.8729  -4.6549  -4.6533  -4.5726  -4.1573  -4.1242  -4.0746  -3.4071
    -3.2971  -3.2399  -3.0996  -2.9763  -2.9166  -2.8193  -2.7739  -2.7343
    -2.6197  -2.5376  -2.2661  -2.1978  -2.0496  -1.8629  -1.7676  -1.6988
    -1.6263  -1.3799  -1.2033  -0.9498  -0.9257  -0.6538  -0.1973   1.5211
     1.6697   1.6999   1.7435   1.8029   1.8497   1.8715   1.8927   2.0060
     2.1541   2.2479   2.2928   2.3485   2.4419   2.6019   2.9308   2.9609
     3.1450   3.3800   3.4707   4.1501   4.6484   4.7343

          k = 0.1111 0.1166 0.0000 ( 37124 PWs)   bands (ev):

   -71.0560 -70.9191 -70.6962 -70.5936 -70.5388 -70.2828 -42.5013 -42.4512
   -42.3694 -42.2636 -42.2463 -42.1982 -42.1734 -42.1298 -42.0720 -42.0306
   -41.8455 -41.8388 -41.8099 -41.7999 -41.7358 -41.6935 -41.5820 -41.4936
   -23.8198 -18.8662 -18.5316 -18.2792 -18.2023 -17.8086 -17.6496 -17.4546
   -17.3427 -17.3122 -17.2125 -16.8455 -16.4513 -14.9979  -8.0535  -6.1124
    -5.9560  -5.8980  -5.7843  -5.5855  -5.2747  -5.1971  -5.0811  -4.9181
    -4.7507  -4.6871  -4.5750  -4.4275  -4.1526  -4.1193  -4.0306  -3.5480
    -3.4546  -3.4069  -3.3003  -3.2772  -3.0383  -2.9579  -2.8291  -2.7809
    -2.7299  -2.7089  -2.4335  -2.3113  -2.0880  -1.9538  -1.8331  -1.7506
    -1.6504  -1.4485  -1.2680  -0.9859  -0.9485  -0.7557  -0.2061   1.6539
     1.6646   1.8723   1.9295   1.9504   1.9863   2.0805   2.1213   2.1771
     2.2290   2.2765   2.3869   2.4474   2.4618   2.6542   2.8257   2.9777
     3.0661   3.2601   3.6661   4.2737   4.6365   4.6961

          k = 0.1111-0.2332 0.0000 ( 37144 PWs)   bands (ev):

   -71.0560 -70.9191 -70.6962 -70.5936 -70.5388 -70.2828 -42.5007 -42.4508
   -42.3694 -42.2626 -42.2463 -42.1982 -42.1734 -42.1298 -42.0720 -42.0306
   -41.8456 -41.8400 -41.8105 -41.7996 -41.7359 -41.6935 -41.5825 -41.4936
   -23.8197 -18.6530 -18.4579 -18.3097 -18.0923 -18.0473 -17.8943 -17.4528
   -17.3441 -17.3100 -17.1792 -16.8436 -16.4436 -14.9973  -8.0517  -5.9720
    -5.6126  -5.5559  -5.4969  -5.4629  -5.2833  -5.1978  -5.1172  -4.8118
    -4.6406  -4.5591  -4.5577  -4.2231  -4.1228  -4.1030  -3.9918  -3.9488
    -3.6286  -3.5963  -3.5169  -3.4473  -3.4317  -3.2596  -3.1063  -2.9268
    -2.8340  -2.6839  -2.6144  -2.4619  -2.1608  -1.9907  -1.9181  -1.6822
    -1.4628  -1.3643  -1.2516  -1.0483  -0.9884  -0.8949  -0.2153   1.6478
     1.8163   1.9264   2.0039   2.0522   2.0834   2.2096   2.2717   2.3136
     2.3762   2.4865   2.5141   2.5534   2.5852   2.6337   2.7574   2.8958
     2.9943   3.3174   3.9851   4.1757   4.5225   4.6989

          k = 0.2222 0.0000 0.0000 ( 37192 PWs)   bands (ev):

   -71.0517 -70.9149 -70.6920 -70.5894 -70.5345 -70.2783 -42.4975 -42.4474
   -42.3726 -42.2884 -42.2599 -42.1909 -42.1675 -42.1264 -42.1251 -42.0211
   -41.8579 -41.8383 -41.8278 -41.7991 -41.7914 -41.7503 -41.5706 -41.5526
   -23.5916 -18.6743 -18.3832 -18.1568 -17.8680 -17.5480 -17.4719 -17.4560
   -17.3753 -17.3388 -17.3122 -16.9173 -16.4853 -15.4439  -8.3861  -5.9992
    -5.9563  -5.9310  -5.7507  -5.4748  -5.4650  -5.2647  -5.1394  -5.0984
    -5.0710  -4.7982  -4.7259  -4.4482  -4.2466  -4.0338  -3.8853  -3.6817
    -3.5475  -3.4791  -3.2578  -3.2031  -3.0577  -2.8815  -2.7368  -2.5929
    -2.5748  -2.4429  -2.3872  -2.2652  -2.1344  -1.9999  -1.9097  -1.8064
    -1.7692  -1.6133  -1.5739  -1.1391  -1.0146  -0.8185  -0.3719   1.4481
     1.6792   1.9817   1.9940   2.1038   2.1141   2.1465   2.2065   2.2836
     2.3427   2.3636   2.4327   2.4393   2.5292   2.6426   2.7373   2.9407
     3.1061   3.1391   3.6331   4.0920   4.4171   4.5003

          k = 0.2222 0.1166 0.0000 ( 37137 PWs)   bands (ev):

   -71.0517 -70.9149 -70.6920 -70.5894 -70.5345 -70.2783 -42.4972 -42.4472
   -42.3726 -42.2885 -42.2594 -42.1909 -42.1675 -42.1264 -42.1251 -42.0211
   -41.8586 -41.8385 -41.8276 -41.7995 -41.7912 -41.7501 -41.5710 -41.5525
   -23.5916 -18.5793 -18.2849 -18.0613 -18.0000 -17.6866 -17.5640 -17.4841
   -17.3886 -17.3727 -17.2277 -16.9143 -16.4800 -15.4432  -8.3847  -5.8538
    -5.7161  -5.6525  -5.5826  -5.4520  -5.4174  -5.1403  -5.1176  -5.0564
    -4.9933  -4.8960  -4.7415  -4.2539  -4.1877  -4.0457  -3.9658  -3.8224
    -3.6822  -3.6264  -3.4279  -3.3255  -3.1294  -3.0644  -2.9034  -2.8454
    -2.8196  -2.6711  -2.5308  -2.4797  -2.2364  -1.8963  -1.8217  -1.6897
    -1.5971  -1.5591  -1.4472  -1.1442  -1.0552  -0.8919  -0.3544   1.4672
     1.7457   1.9287   1.9713   2.1003   2.1085   2.2081   2.3338   2.3877
     2.4394   2.4794   2.5616   2.6267   2.6382   2.6543   2.7529   2.8807
     3.0082   3.2271   3.7497   4.1077   4.2798   4.3975

          k = 0.2222-0.2332 0.0000 ( 37166 PWs)   bands (ev):

   -71.0517 -70.9149 -70.6920 -70.5894 -70.5345 -70.2783 -42.4970 -42.4470
   -42.3726 -42.2885 -42.2590 -42.1909 -42.1675 -42.1264 -42.1251 -42.0211
   -41.8592 -41.8388 -41.8273 -41.7999 -41.7910 -41.7500 -41.5713 -41.5523
   -23.5915 -18.3995 -18.2144 -18.0888 -17.9311 -17.8599 -17.7616 -17.5014
   -17.4105 -17.3510 -17.1934 -16.9124 -16.4752 -15.4425  -8.3835  -5.8292
    -5.5736  -5.3832  -5.3166  -5.2122  -5.1110  -5.0981  -5.0704  -4.9838
    -4.8401  -4.7452  -4.7292  -4.2787  -4.1845  -4.1647  -4.0957  -4.0524
    -3.9339  -3.7528  -3.6761  -3.4430  -3.4381  -3.2816  -3.1235  -2.9731
    -2.8815  -2.8415  -2.6810  -2.6486  -2.2772  -1.8245  -1.7964  -1.6065
    -1.4542  -1.3372  -1.3135  -1.1054  -1.0947  -1.0768  -0.3386   1.5770
     1.6991   1.8280   1.9715   2.0344   2.1171   2.2686   2.3493   2.4862
     2.5888   2.6392   2.6583   2.6645   2.7478   2.8415   2.9056   2.9093
     2.9532   3.3147   3.8726   3.9515   4.0480   4.0496

          k = 0.3333 0.0000 0.0000 ( 37184 PWs)   bands (ev):

   -71.0469 -70.9101 -70.6872 -70.5845 -70.5295 -70.2732 -42.4926 -42.4426
   -42.4008 -42.3111 -42.2546 -42.1942 -42.1775 -42.1592 -42.1200 -42.0102
   -41.9168 -41.8541 -41.8361 -41.8168 -41.8141 -41.7875 -41.6190 -41.5584
   -23.3002 -18.2670 -18.0540 -17.8774 -17.6800 -17.5937 -17.5339 -17.4481
   -17.4200 -17.3910 -17.1914 -16.9851 -16.4780 -16.0085  -8.5233  -6.2015
    -5.6885  -5.5852  -5.5016  -5.4102  -5.3134  -5.3116  -5.2727  -5.0197
    -5.0160  -4.8141  -4.7245  -4.6740  -4.3806  -4.2564  -4.0041  -3.9178
    -3.9007  -3.7251  -3.5712  -3.3156  -3.1924  -3.0771  -2.8370  -2.8072
    -2.6927  -2.5017  -2.4652  -2.4349  -2.1359  -2.0344  -1.9461  -1.7334
    -1.6237  -1.4942  -1.3357  -1.2528  -1.0118  -0.9652  -0.5530   1.5194
     1.5498   1.9043   2.1858   2.1992   2.2511   2.3258   2.3287   2.4654
     2.4739   2.5055   2.5324   2.5931   2.7051   2.7536   2.7776   2.8472
     2.9323   3.1129   3.6543   3.8500   4.3690   4.4772

          k = 0.3333 0.1166 0.0000 ( 37206 PWs)   bands (ev):

   -71.0469 -70.9101 -70.6872 -70.5845 -70.5295 -70.2732 -42.4927 -42.4427
   -42.4008 -42.3112 -42.2548 -42.1943 -42.1775 -42.1592 -42.1200 -42.0102
   -41.9172 -41.8536 -41.8361 -41.8167 -41.8138 -41.7876 -41.6187 -41.5585
   -23.3002 -18.2008 -17.9892 -17.8335 -17.7577 -17.6441 -17.5570 -17.4769
   -17.4721 -17.3853 -17.1741 -16.9839 -16.4772 -16.0077  -8.5232  -6.1967
    -5.4575  -5.3964  -5.3705  -5.3433  -5.2695  -5.2440  -5.1883  -5.0535
    -4.9897  -4.8837  -4.7868  -4.6804  -4.4388  -4.2518  -4.0943  -3.9847
    -3.8496  -3.8396  -3.4933  -3.4308  -3.2011  -3.1637  -2.9417  -2.9137
    -2.7993  -2.6506  -2.5027  -2.2796  -2.2413  -1.9895  -1.9543  -1.6908
    -1.6059  -1.5411  -1.2625  -1.2282  -1.0848  -0.9649  -0.5317   1.4074
     1.4931   1.7242   1.9500   1.9991   2.2550   2.2746   2.4291   2.4534
     2.5294   2.6081   2.6750   2.7256   2.7882   2.8267   2.8317   2.9263
     2.9737   3.2131   3.7119   3.8508   3.9672   4.0410

          k = 0.3333-0.2332 0.0000 ( 37216 PWs)   bands (ev):

   -71.0469 -70.9101 -70.6872 -70.5845 -70.5295 -70.2732 -42.4928 -42.4428
   -42.4009 -42.3112 -42.2550 -42.1943 -42.1775 -42.1592 -42.1200 -42.0102
   -41.9176 -41.8531 -41.8361 -41.8165 -41.8135 -41.7878 -41.6185 -41.5586
   -23.3001 -18.0795 -17.9384 -17.8435 -17.7924 -17.6570 -17.6487 -17.5469
   -17.4826 -17.3733 -17.1622 -16.9830 -16.4764 -16.0069  -8.5231  -6.1955
    -5.3219  -5.2940  -5.2432  -5.1838  -5.1358  -5.1220  -5.1079  -5.0267
    -4.9452  -4.8639  -4.7112  -4.6282  -4.4602  -4.4472  -4.3147  -4.0505
    -3.8268  -3.8208  -3.7307  -3.5729  -3.4030  -3.1025  -3.0154  -2.8982
    -2.8275  -2.7689  -2.5770  -2.4894  -2.1752  -1.9692  -1.7371  -1.7162
    -1.6445  -1.4514  -1.3042  -1.1504  -1.1386  -0.9649  -0.5070   1.2966
     1.4485   1.4821   1.7794   2.0350   2.2564   2.2625   2.3372   2.4689
     2.5341   2.7021   2.7456   2.8223   2.8602   2.8918   3.0320   3.0382
     3.0521   3.3132   3.5816   3.6525   3.7530   3.8253

          k = 0.4444 0.0000 0.0000 ( 37180 PWs)   bands (ev):

   -71.0437 -70.9069 -70.6841 -70.5814 -70.5263 -70.2699 -42.4893 -42.4395
   -42.4323 -42.3124 -42.2512 -42.2306 -42.1767 -42.1537 -42.1168 -42.0032
   -41.9559 -41.8947 -41.8555 -41.8335 -41.8096 -41.7800 -41.6620 -41.5503
   -23.0858 -17.8878 -17.7862 -17.7157 -17.6626 -17.5905 -17.5860 -17.4958
   -17.4534 -17.4429 -17.1323 -16.9928 -16.4477 -16.4071  -8.4940  -6.5005
    -5.6836  -5.4420  -5.4010  -5.3970  -5.3252  -5.2588  -5.2053  -5.0854
    -4.9768  -4.9389  -4.8383  -4.5185  -4.4829  -4.4039  -4.1753  -4.1333
    -4.0557  -3.5877  -3.3185  -3.3032  -3.2930  -3.2804  -3.1340  -3.0781
    -2.6057  -2.5463  -2.3273  -2.2246  -2.1561  -2.1377  -1.9879  -1.8543
    -1.7563  -1.4289  -1.4078  -1.3903  -1.0463  -0.6526  -0.6367   1.5951
     1.6898   1.8100   1.9760   2.0029   2.1557   2.3260   2.3719   2.5016
     2.5275   2.6303   2.6411   2.6801   2.7448   2.7835   2.9363   2.9601
     3.0788   3.1575   3.5172   3.7696   4.2842   4.4610

          k = 0.4444 0.1166 0.0000 ( 37248 PWs)   bands (ev):

   -71.0437 -70.9069 -70.6841 -70.5814 -70.5263 -70.2699 -42.4897 -42.4398
   -42.4324 -42.3125 -42.2519 -42.2306 -42.1767 -42.1537 -42.1168 -42.0032
   -41.9562 -41.8939 -41.8551 -41.8335 -41.8092 -41.7799 -41.6616 -41.5503
   -23.0857 -17.8691 -17.7784 -17.7469 -17.6863 -17.6017 -17.5620 -17.5078
   -17.4643 -17.4142 -17.1356 -16.9923 -16.4475 -16.4058  -8.4962  -6.4945
    -5.6976  -5.5760  -5.5004  -5.3867  -5.3628  -5.1346  -5.1015  -5.0482
    -4.9753  -4.9093  -4.7334  -4.5770  -4.3632  -4.2825  -4.1642  -3.9316
    -3.8616  -3.7406  -3.5635  -3.5238  -3.3671  -3.1878  -3.1171  -2.8369
    -2.7230  -2.5134  -2.2741  -2.2106  -2.1582  -2.0430  -1.9568  -1.9130
    -1.7351  -1.6029  -1.4280  -1.3455  -1.1699  -0.6630  -0.6245   1.4145
     1.4529   1.6181   1.6814   1.7507   2.1441   2.1738   2.3814   2.5106
     2.6064   2.6745   2.7524   2.7584   2.8900   2.9380   2.9564   2.9969
     3.1284   3.2234   3.5755   3.7738   3.8130   3.8685

          k = 0.4444-0.2332 0.0000 ( 37264 PWs)   bands (ev):

   -71.0437 -70.9069 -70.6841 -70.5814 -70.5263 -70.2699 -42.4901 -42.4401
   -42.4325 -42.3125 -42.2525 -42.2307 -42.1767 -42.1537 -42.1168 -42.0032
   -41.9566 -41.8932 -41.8547 -41.8335 -41.8089 -41.7798 -41.6613 -41.5502
   -23.0857 -17.8251 -17.8172 -17.7336 -17.7255 -17.6124 -17.5405 -17.5232
   -17.4645 -17.3983 -17.1388 -16.9918 -16.4474 -16.4045  -8.4985  -6.4899
    -5.7180  -5.7168  -5.5924  -5.4638  -5.3207  -5.0047  -4.9770  -4.8720
    -4.8449  -4.7570  -4.6769  -4.6256  -4.5221  -4.1937  -4.0271  -4.0130
    -3.9130  -3.8426  -3.6589  -3.4524  -3.3533  -3.1189  -3.0370  -2.9624
    -2.5765  -2.4042  -2.3528  -2.3514  -2.1856  -2.0784  -1.9662  -1.8178
    -1.7551  -1.4994  -1.4599  -1.4458  -1.2511  -0.6531  -0.6367   1.1579
     1.2237   1.3462   1.5309   1.7640   2.0376   2.1704   2.3871   2.5005
     2.6131   2.7097   2.7745   2.7819   2.8497   2.8656   3.1275   3.1733
     3.2001   3.3188   3.4972   3.5840   3.6554   3.6755

     the Fermi energy is     0.6039 ev

!    total energy              =   -1637.89546445 Ry
     estimated scf accuracy    <       0.00000050 Ry
     smearing contrib. (-TS)   =      -0.00087997 Ry
     internal energy E=F+TS    =   -1637.89458448 Ry

     The total energy is F=E-TS. E is the sum of the following terms:
     one-electron contribution =  -15565.43383344 Ry
     hartree contribution      =    7810.32034453 Ry
     xc contribution           =    -238.52493039 Ry
     ewald contribution        =    6489.03319546 Ry
     one-center paw contrib.   =    -133.28936064 Ry

     total magnetization       =    11.00 Bohr mag/cell
     absolute magnetization    =    14.58 Bohr mag/cell

     convergence has been achieved in  37 iterations

     negative rho (up, down):  2.006E-03 1.960E-02

     Forces acting on atoms (cartesian axes, Ry/au):

     atom    1 type  1   force =    -0.00001600    0.00000000    0.10038377
     atom    2 type  1   force =    -0.00008990    0.00000000   -0.09821965
     atom    3 type  1   force =    -0.00038752    0.00000000    0.01422589
     atom    4 type  1   force =     0.00068540    0.00000000   -0.00105767
     atom    5 type  1   force =    -0.00334959    0.00000000    0.00592511
     atom    6 type  1   force =     0.00091199    0.00000000    0.03660450
     atom    7 type  3   force =     0.00042552    0.00000000    0.04274670
     atom    8 type  3   force =     0.00010846    0.00000000    0.06454334
     atom    9 type  3   force =     0.00000398    0.01700888   -0.03637496
     atom   10 type  3   force =     0.00000398   -0.01700888   -0.03637496
     atom   11 type  3   force =     0.00045622    0.00000000    0.00111829
     atom   12 type  3   force =    -0.00065566    0.00000000   -0.01028150
     atom   13 type  3   force =    -0.00047455    0.00395229   -0.00209044
     atom   14 type  3   force =    -0.00047455   -0.00395229   -0.00209044
     atom   15 type  3   force =     0.00037182    0.00000000   -0.04616675
     atom   16 type  3   force =    -0.00122806    0.00000000   -0.01156006
     atom   17 type  3   force =     0.00385086    0.00742860   -0.00147316
     atom   18 type  3   force =     0.00385086   -0.00742860   -0.00147316
     atom   19 type  3   force =    -0.01189191    0.00000000   -0.02431265
     atom   20 type  3   force =     0.00602846    0.00000000    0.00471711
     atom   21 type  2   force =     0.00187019    0.00000000    0.00121067

     Total force =     0.069571     Total SCF correction =     0.002042

     Writing all to output data dir ./tmp_s0_OOH__u000__sp2m010/s0_OOH__u000__sp2m010.save/ :
     XML data file, charge density, pseudopotentials, collected wavefunctions

     init_run     :      2.59s CPU      2.72s WALL (       1 calls)
     electrons    :    130.42s CPU    132.27s WALL (       1 calls)
     forces       :      0.85s CPU      0.86s WALL (       1 calls)

     Called by init_run:
     wfcinit      :      1.13s CPU      1.18s WALL (       1 calls)
     potinit      :      0.59s CPU      0.61s WALL (       1 calls)
     hinit0       :      0.50s CPU      0.52s WALL (       1 calls)

     Called by electrons:
     c_bands      :     98.78s CPU    100.07s WALL (      37 calls)
     sum_band     :     19.57s CPU     19.91s WALL (      37 calls)
     v_of_rho     :      4.12s CPU      4.18s WALL (      38 calls)
     newd         :      1.97s CPU      1.99s WALL (      38 calls)
     PAW_pot      :      1.73s CPU      1.74s WALL (      38 calls)
     mix_rho      :      3.62s CPU      3.69s WALL (      37 calls)

     Called by c_bands:
     init_us_2    :      2.21s CPU      2.25s WALL (     608 calls)
     cegterg      :     84.61s CPU     85.75s WALL (     296 calls)

     Called by *egterg:
     cdiaghg      :     10.93s CPU     10.99s WALL (    1025 calls)
     h_psi        :     53.84s CPU     54.79s WALL (    1033 calls)
     s_psi        :      4.26s CPU      4.29s WALL (    1033 calls)
     g_psi        :      0.29s CPU      0.29s WALL (     729 calls)

     Called by h_psi:
     h_psi:calbec :      5.79s CPU      5.83s WALL (    1033 calls)
     vloc_psi     :     43.29s CPU     44.16s WALL (    1033 calls)
                                        0.00s GPU  (    1033 calls)
     add_vuspsi   :      4.17s CPU      4.20s WALL (    1033 calls)

     General routines
     calbec       :      8.70s CPU      8.76s WALL (    1361 calls)
     fft          :      2.83s CPU      2.89s WALL (     963 calls)
     ffts         :      2.35s CPU      2.39s WALL (    4578 calls)
     fftw         :     49.95s CPU     50.89s WALL (  157234 calls)
     interpolate  :      0.56s CPU      0.56s WALL (      76 calls)

     Parallel routines

     PWSCF        :   2m14.71s CPU   2m17.01s WALL


   This run was terminated on:   3: 3:39   1Sep2026            

=------------------------------------------------------------------------------=
   JOB DONE.
=------------------------------------------------------------------------------=
Note: The following floating-point exceptions are signalling: IEEE_DENORMAL
Note: The following floating-point exceptions are signalling: IEEE_DENORMAL
Note: The following floating-point exceptions are signalling: IEEE_DENORMAL
Note: The following floating-point exceptions are signalling: IEEE_DENORMAL
Note: The following floating-point exceptions are signalling: IEEE_DENORMAL
Note: The following floating-point exceptions are signalling: IEEE_DENORMAL
Note: The following floating-point exceptions are signalling: IEEE_DENORMAL
Note: The following floating-point exceptions are signalling: IEEE_DENORMAL
Note: The following floating-point exceptions are signalling: IEEE_DENORMAL
Note: The following floating-point exceptions are signalling: IEEE_DENORMAL
Note: The following floating-point exceptions are signalling: IEEE_DENORMAL
Note: The following floating-point exceptions are signalling: IEEE_DENORMAL
Note: The following floating-point exceptions are signalling: IEEE_DENORMAL
Note: The following floating-point exceptions are signalling: IEEE_DENORMAL
Note: The following floating-point exceptions are signalling: IEEE_DENORMAL
Note: The following floating-point exceptions are signalling: IEEE_DENORMAL
