
     Program PWSCF v.7.5 starts on  1Sep2026 at 19:41:45 

     This program is part of the open-source Quantum ESPRESSO suite
     for quantum simulation of materials; please cite
         "P. Giannozzi et al., J. Phys.:Condens. Matter 21 395502 (2009);
         "P. Giannozzi et al., J. Phys.:Condens. Matter 29 465901 (2017);
         "P. Giannozzi et al., J. Chem. Phys. 152 154105 (2020);
          URL http://www.quantum-espresso.org", 
     in publications or presentations arising from this work. More details at
     http://www.quantum-espresso.org/quote

     Parallel version (MPI & OpenMP), running on     128 processor cores
     Number of MPI processes:               128
     Threads/MPI process:                     1

     MPI processes distributed on     1 nodes
     230418 MiB available memory on the printing compute node when the environment starts

     Reading input from s0_OH__u000__sp2m010.run.in

     Current dimensions of program PWSCF are:
     Max number of different atomic species (ntypx) = 10
     Max number of k-points (npk) =  40000
     Max angular momentum in pseudopotentials (lmaxx) =  4
     file O.pbe-n-kjpaw_psl.0.1.UPF: wavefunction(s)  2P renormalized
     Message from routine setup:
     using ibrav=0 with symmetry is DISCOURAGED, use correct ibrav instead

     K-points division:     npool     =       4
     R & G space division:  proc/nbgrp/npool/nimage =      32
     Subspace diagonalization in iterative solution of the eigenvalue problem:
     a serial algorithm will be used


     Parallelization info
     --------------------
     sticks:   dense  smooth     PW     G-vecs:    dense   smooth      PW
     Min         103      51     14                26275     9281    1388
     Max         104      52     15                26300     9316    1415
     Sum        3323    1653    471               841263   297421   44917

     Using Slab Decomposition



     bravais-lattice index     =            0
     lattice parameter (alat)  =       5.5104  a.u.
     unit-cell volume          =    3076.9124 (a.u.)^3
     number of atoms/cell      =           20
     number of atomic types    =            3
     number of electrons       =       163.00
     number of Kohn-Sham states=           98
     kinetic-energy cutoff     =      80.0000  Ry
     charge density cutoff     =     640.0000  Ry
     scf convergence threshold =      1.0E-06
     mixing beta               =       0.3000
     number of iterations used =            8  local-TF  mixing
     Exchange-correlation= SLA  PW   PBX  PBC
                           (   1   4   3   4   0   0   0)

     celldm(1)=   5.510441  celldm(2)=   0.000000  celldm(3)=   0.000000
     celldm(4)=   0.000000  celldm(5)=   0.000000  celldm(6)=   0.000000

     crystal axes: (cart. coord. in units of alat)
               a(1) = (   1.000000   0.000000   0.000000 )  
               a(2) = (   0.000000   2.144115   0.000000 )  
               a(3) = (   0.000000   0.000000   8.576458 )  

     reciprocal axes: (cart. coord. in units 2 pi/alat)
               b(1) = (  1.000000  0.000000  0.000000 )  
               b(2) = (  0.000000  0.466393  0.000000 )  
               b(3) = (  0.000000  0.000000  0.116598 )  


     PseudoPot. # 1 for Cr read from file:
     /anvil/projects/x-che260157/pseudo/cr_pbe_v1.5.uspp.F.UPF
     MD5 check sum: 0d52af634a40206e4dee301ad30da4bf
     Pseudo is Ultrasoft + core correction, Zval = 14.0
     Generated by new atomic code, or converted to UPF format
     Using radial grid of  857 points,  6 beta functions with: 
                l(1) =   0
                l(2) =   0
                l(3) =   1
                l(4) =   1
                l(5) =   2
                l(6) =   2
     Q(r) pseudized with  8 coefficients,  rinner =    0.950   0.950   0.950
                                                       0.950   0.950

     PseudoPot. # 2 for H  read from file:
     /anvil/projects/x-che260157/pseudo/H.pbe-rrkjus_psl.1.0.0.UPF
     MD5 check sum: f52b6d4d1c606e5624b1dc7b2218f220
     Pseudo is Ultrasoft, Zval =  1.0
     Generated using "atomic" code by A. Dal Corso  v.5.1
     Using radial grid of  929 points,  2 beta functions with: 
                l(1) =   0
                l(2) =   0
     Q(r) pseudized with 0 coefficients 


     PseudoPot. # 3 for O  read from file:
     /anvil/projects/x-che260157/pseudo/O.pbe-n-kjpaw_psl.0.1.UPF
     MD5 check sum: 0234752ac141de4415c5fc33072bef88
     Pseudo is Projector augmented-wave + core cor, Zval =  6.0
     Generated using "atomic" code by A. Dal Corso  v.5.0.99 svn rev. 10869
     Shape of augmentation charge: BESSEL
     Using radial grid of 1095 points,  4 beta functions with: 
                l(1) =   0
                l(2) =   0
                l(3) =   1
                l(4) =   1
     Q(r) pseudized with 0 coefficients 


     atomic species   valence    mass     pseudopotential
     Cr               14.00    51.99600     Cr( 1.00)
     H                 1.00     1.00800     H ( 1.00)
     O                 6.00    15.99900     O ( 1.00)

     Starting magnetic structure 
     atomic species   magnetization
     Cr              0.100
     H               0.000
     O               0.000

      2 Sym. Ops. (no inversion) found ( 1 have fractional translation)



   Cartesian axes

     site n.     atom                  positions (alat units)
         1        Cr     tau(   1) = (   0.0000000   0.5360286   3.2161719  )
         2        Cr     tau(   2) = (   0.5000000   1.6080859   3.2161719  )
         3        Cr     tau(   3) = (  -0.0045866   1.6080859   4.3058521  )
         4        Cr     tau(   4) = (   0.4986853   0.5360286   4.3030576  )
         5        Cr     tau(   5) = (  -0.0014913   0.5360286   5.4105325  )
         6        Cr     tau(   6) = (   0.4918552   1.6080859   5.4140377  )
         7        O      tau(   7) = (   0.0000000   1.6080859   3.6342742  )
         8        O      tau(   8) = (   0.0000000   1.6080859   2.7980695  )
         9        O      tau(   9) = (   0.5000000   0.1179263   3.2161719  )
        10        O      tau(  10) = (   0.5000000   0.9541310   3.2161719  )
        11        O      tau(  11) = (  -0.0020806   0.5360286   4.7322491  )
        12        O      tau(  12) = (   0.0000000   0.5360286   3.8701268  )
        13        O      tau(  13) = (   0.4959276   1.1851994   4.2991401  )
        14        O      tau(  14) = (   0.4959276   2.0309725   4.2991401  )
        15        O      tau(  15) = (  -0.0067460   1.6080859   5.8016285  )
        16        O      tau(  16) = (  -0.0070311   1.6080859   4.9574288  )
        17        O      tau(  17) = (   0.4950777   0.1142789   5.3927666  )
        18        O      tau(  18) = (   0.4950777   0.9577784   5.3927666  )
        19        O      tau(  19) = (  -0.0210039   0.5360286   6.0465650  )
        20        H      tau(  20) = (   0.2916328   0.5360286   6.1748138  )

     number of k points=    15  Marzari-Vanderbilt smearing, width (Ry)=  0.0100
                       cart. coord. in units 2pi/alat
        k(    1) = (   0.0000000   0.0000000   0.0000000), wk =   0.0277778
        k(    2) = (   0.0000000   0.1165982   0.0000000), wk =   0.0555556
        k(    3) = (   0.0000000  -0.2331965   0.0000000), wk =   0.0277778
        k(    4) = (   0.1111111   0.0000000   0.0000000), wk =   0.0555556
        k(    5) = (   0.1111111   0.1165982   0.0000000), wk =   0.1111111
        k(    6) = (   0.1111111  -0.2331965   0.0000000), wk =   0.0555556
        k(    7) = (   0.2222222   0.0000000   0.0000000), wk =   0.0555556
        k(    8) = (   0.2222222   0.1165982   0.0000000), wk =   0.1111111
        k(    9) = (   0.2222222  -0.2331965   0.0000000), wk =   0.0555556
        k(   10) = (   0.3333333   0.0000000   0.0000000), wk =   0.0555556
        k(   11) = (   0.3333333   0.1165982   0.0000000), wk =   0.1111111
        k(   12) = (   0.3333333  -0.2331965   0.0000000), wk =   0.0555556
        k(   13) = (   0.4444444   0.0000000   0.0000000), wk =   0.0555556
        k(   14) = (   0.4444444   0.1165982   0.0000000), wk =   0.1111111
        k(   15) = (   0.4444444  -0.2331965   0.0000000), wk =   0.0555556

     Dense  grid:   841263 G-vectors     FFT dimensions: (  45,  96, 384)

     Smooth grid:   297421 G-vectors     FFT dimensions: (  32,  72, 270)

     Estimated max dynamical RAM per process >      74.35 MB

     Estimated total dynamical RAM >       8.09 GB

     Check: negative core charge=   -0.000001
     Generating pointlists ...
     new r_m :   0.2605 (alat units)  1.4355 (a.u.) for type    1
     new r_m :   0.1394 (alat units)  0.7681 (a.u.) for type    2
     new r_m :   0.1394 (alat units)  0.7681 (a.u.) for type    3

     Initial potential from superposition of free atoms

     starting charge     156.9999, renormalised to     163.0000

     negative rho (up, down):  2.914E-03 2.377E-03
     Starting wfcs are  113 randomized atomic wfcs
     Checking if some PAW data can be deallocated... 

     total cpu time spent up to now is        4.3 secs

     per-process dynamical memory:   103.9 Mb

     Self-consistent Calculation

     iteration #  1     ecut=    80.00 Ry     beta= 0.30
     Davidson diagonalization with overlap
     ethr =  1.00E-02,  avg # of iterations =  2.4

     negative rho (up, down):  5.125E-03 5.677E-03

     total cpu time spent up to now is       11.2 secs

     total energy              =   -1596.12304966 Ry
     estimated scf accuracy    <      45.35007835 Ry

     total magnetization       =     5.48 Bohr mag/cell
     absolute magnetization    =     6.15 Bohr mag/cell

     iteration #  2     ecut=    80.00 Ry     beta= 0.30
     Davidson diagonalization with overlap
     ethr =  1.00E-02,  avg # of iterations =  1.0

     negative rho (up, down):  5.223E-03 6.379E-03

     total cpu time spent up to now is       15.5 secs

     total energy              =   -1596.19950368 Ry
     estimated scf accuracy    <      52.64894824 Ry

     total magnetization       =     4.04 Bohr mag/cell
     absolute magnetization    =     4.73 Bohr mag/cell

     iteration #  3     ecut=    80.00 Ry     beta= 0.30
     Davidson diagonalization with overlap
     ethr =  1.00E-02,  avg # of iterations =  1.1

     negative rho (up, down):  8.239E-03 1.720E-02

     total cpu time spent up to now is       19.7 secs

     total energy              =   -1595.34050837 Ry
     estimated scf accuracy    <      12.25619712 Ry

     total magnetization       =     8.88 Bohr mag/cell
     absolute magnetization    =     9.37 Bohr mag/cell

     iteration #  4     ecut=    80.00 Ry     beta= 0.30
     Davidson diagonalization with overlap
     ethr =  7.52E-03,  avg # of iterations =  6.7

     negative rho (up, down):  7.806E-03 1.627E-02

     total cpu time spent up to now is       26.3 secs

     total energy              =   -1597.48550266 Ry
     estimated scf accuracy    <      27.19335516 Ry

     total magnetization       =     6.91 Bohr mag/cell
     absolute magnetization    =     9.01 Bohr mag/cell

     iteration #  5     ecut=    80.00 Ry     beta= 0.30
     Davidson diagonalization with overlap
     ethr =  7.52E-03,  avg # of iterations =  1.1

     negative rho (up, down):  6.164E-03 1.381E-02

     total cpu time spent up to now is       30.5 secs

     total energy              =   -1594.04741286 Ry
     estimated scf accuracy    <      21.12583189 Ry

     total magnetization       =     7.35 Bohr mag/cell
     absolute magnetization    =     9.31 Bohr mag/cell

     iteration #  6     ecut=    80.00 Ry     beta= 0.30
     Davidson diagonalization with overlap
     ethr =  7.52E-03,  avg # of iterations =  2.7

     negative rho (up, down):  7.681E-03 2.111E-02

     total cpu time spent up to now is       35.2 secs

     total energy              =   -1597.77342006 Ry
     estimated scf accuracy    <      15.96507931 Ry

     total magnetization       =    10.48 Bohr mag/cell
     absolute magnetization    =    11.15 Bohr mag/cell

     iteration #  7     ecut=    80.00 Ry     beta= 0.30
     Davidson diagonalization with overlap
     ethr =  7.52E-03,  avg # of iterations =  2.0

     negative rho (up, down):  9.223E-03 2.633E-02

     total cpu time spent up to now is       40.3 secs

     total energy              =   -1597.38726386 Ry
     estimated scf accuracy    <      19.37443049 Ry

     total magnetization       =    10.98 Bohr mag/cell
     absolute magnetization    =    11.44 Bohr mag/cell

     iteration #  8     ecut=    80.00 Ry     beta= 0.30
     Davidson diagonalization with overlap
     ethr =  7.52E-03,  avg # of iterations =  1.0

     negative rho (up, down):  1.071E-02 2.954E-02

     total cpu time spent up to now is       44.6 secs

     total energy              =   -1596.74025096 Ry
     estimated scf accuracy    <      17.22785565 Ry

     total magnetization       =    11.00 Bohr mag/cell
     absolute magnetization    =    11.49 Bohr mag/cell

     iteration #  9     ecut=    80.00 Ry     beta= 0.30
     Davidson diagonalization with overlap
     ethr =  7.52E-03,  avg # of iterations =  1.0

     negative rho (up, down):  1.127E-02 3.028E-02

     total cpu time spent up to now is       49.3 secs

     total energy              =   -1596.83799134 Ry
     estimated scf accuracy    <      11.17604884 Ry

     total magnetization       =    10.96 Bohr mag/cell
     absolute magnetization    =    11.55 Bohr mag/cell

     iteration # 10     ecut=    80.00 Ry     beta= 0.30
     Davidson diagonalization with overlap
     ethr =  6.86E-03,  avg # of iterations =  1.0

     negative rho (up, down):  1.420E-02 3.584E-02

     total cpu time spent up to now is       53.9 secs

     total energy              =   -1596.59867156 Ry
     estimated scf accuracy    <      13.04001990 Ry

     total magnetization       =    11.00 Bohr mag/cell
     absolute magnetization    =    11.59 Bohr mag/cell

     iteration # 11     ecut=    80.00 Ry     beta= 0.30
     Davidson diagonalization with overlap
     ethr =  6.86E-03,  avg # of iterations =  1.0

     negative rho (up, down):  1.358E-02 3.100E-02

     total cpu time spent up to now is       58.1 secs

     total energy              =   -1595.97421449 Ry
     estimated scf accuracy    <       4.71720369 Ry

     total magnetization       =    10.56 Bohr mag/cell
     absolute magnetization    =    11.73 Bohr mag/cell

     iteration # 12     ecut=    80.00 Ry     beta= 0.30
     Davidson diagonalization with overlap
     ethr =  2.89E-03,  avg # of iterations =  2.8

     negative rho (up, down):  1.275E-02 2.963E-02

     total cpu time spent up to now is       75.2 secs

     total energy              =   -1596.48607963 Ry
     estimated scf accuracy    <      35.89214318 Ry

     total magnetization       =     4.01 Bohr mag/cell
     absolute magnetization    =     8.39 Bohr mag/cell

     iteration # 13     ecut=    80.00 Ry     beta= 0.30
     Davidson diagonalization with overlap
     ethr =  2.89E-03,  avg # of iterations =  1.1

     negative rho (up, down):  1.328E-02 3.021E-02

     total cpu time spent up to now is       87.9 secs

     total energy              =   -1596.64811416 Ry
     estimated scf accuracy    <      17.40397130 Ry

     total magnetization       =     5.95 Bohr mag/cell
     absolute magnetization    =     9.60 Bohr mag/cell

     iteration # 14     ecut=    80.00 Ry     beta= 0.30
     Davidson diagonalization with overlap
     ethr =  2.89E-03,  avg # of iterations =  1.0

     negative rho (up, down):  1.220E-02 2.653E-02

     total cpu time spent up to now is       92.4 secs

     total energy              =   -1596.79911195 Ry
     estimated scf accuracy    <      28.55810293 Ry

     total magnetization       =     4.77 Bohr mag/cell
     absolute magnetization    =     8.79 Bohr mag/cell

     iteration # 15     ecut=    80.00 Ry     beta= 0.30
     Davidson diagonalization with overlap
     ethr =  2.89E-03,  avg # of iterations =  1.2

     negative rho (up, down):  1.232E-02 2.842E-02

     total cpu time spent up to now is       96.9 secs

     total energy              =   -1596.25372074 Ry
     estimated scf accuracy    <      38.72913386 Ry

     total magnetization       =     3.50 Bohr mag/cell
     absolute magnetization    =     7.35 Bohr mag/cell

     iteration # 16     ecut=    80.00 Ry     beta= 0.30
     Davidson diagonalization with overlap
     ethr =  2.89E-03,  avg # of iterations =  1.0

     negative rho (up, down):  1.104E-02 2.578E-02

     total cpu time spent up to now is      101.5 secs

     total energy              =   -1596.35302414 Ry
     estimated scf accuracy    <       6.70989022 Ry

     total magnetization       =     7.23 Bohr mag/cell
     absolute magnetization    =    10.32 Bohr mag/cell

     iteration # 17     ecut=    80.00 Ry     beta= 0.30
     Davidson diagonalization with overlap
     ethr =  2.89E-03,  avg # of iterations =  1.0

     negative rho (up, down):  9.835E-03 2.420E-02

     total cpu time spent up to now is      105.6 secs

     total energy              =   -1596.36152612 Ry
     estimated scf accuracy    <       0.94138844 Ry

     total magnetization       =     8.58 Bohr mag/cell
     absolute magnetization    =    10.63 Bohr mag/cell

     iteration # 18     ecut=    80.00 Ry     beta= 0.30
     Davidson diagonalization with overlap
     ethr =  5.78E-04,  avg # of iterations =  1.1

     negative rho (up, down):  9.325E-03 2.355E-02

     total cpu time spent up to now is      108.8 secs

     total energy              =   -1596.38979724 Ry
     estimated scf accuracy    <       0.73926570 Ry

     total magnetization       =     9.70 Bohr mag/cell
     absolute magnetization    =    10.82 Bohr mag/cell

     iteration # 19     ecut=    80.00 Ry     beta= 0.30
     Davidson diagonalization with overlap
     ethr =  4.54E-04,  avg # of iterations =  1.0

     negative rho (up, down):  8.813E-03 2.339E-02

     total cpu time spent up to now is      112.0 secs

     total energy              =   -1596.38675020 Ry
     estimated scf accuracy    <       0.39121058 Ry

     total magnetization       =     9.81 Bohr mag/cell
     absolute magnetization    =    11.02 Bohr mag/cell

     iteration # 20     ecut=    80.00 Ry     beta= 0.30
     Davidson diagonalization with overlap
     ethr =  2.40E-04,  avg # of iterations =  1.3

     negative rho (up, down):  8.571E-03 2.316E-02

     total cpu time spent up to now is      115.9 secs

     total energy              =   -1596.39718505 Ry
     estimated scf accuracy    <       0.05254433 Ry

     total magnetization       =    10.10 Bohr mag/cell
     absolute magnetization    =    11.66 Bohr mag/cell

     iteration # 21     ecut=    80.00 Ry     beta= 0.30
     Davidson diagonalization with overlap
     ethr =  3.22E-05,  avg # of iterations =  6.1

     negative rho (up, down):  8.051E-03 2.272E-02

     total cpu time spent up to now is      121.3 secs

     total energy              =   -1596.40503003 Ry
     estimated scf accuracy    <       0.06592026 Ry

     total magnetization       =    10.25 Bohr mag/cell
     absolute magnetization    =    11.82 Bohr mag/cell

     iteration # 22     ecut=    80.00 Ry     beta= 0.30
     Davidson diagonalization with overlap
     ethr =  3.22E-05,  avg # of iterations =  2.1

     negative rho (up, down):  7.231E-03 2.214E-02

     total cpu time spent up to now is      137.3 secs

     total energy              =   -1596.41607232 Ry
     estimated scf accuracy    <       0.07640727 Ry

     total magnetization       =    10.50 Bohr mag/cell
     absolute magnetization    =    12.06 Bohr mag/cell

     iteration # 23     ecut=    80.00 Ry     beta= 0.30
     Davidson diagonalization with overlap
     ethr =  3.22E-05,  avg # of iterations =  2.1

     negative rho (up, down):  5.211E-03 2.101E-02

     total cpu time spent up to now is      142.1 secs

     total energy              =   -1596.43070981 Ry
     estimated scf accuracy    <       0.07764075 Ry

     total magnetization       =    10.73 Bohr mag/cell
     absolute magnetization    =    12.31 Bohr mag/cell

     iteration # 24     ecut=    80.00 Ry     beta= 0.30
     Davidson diagonalization with overlap
     ethr =  3.22E-05,  avg # of iterations =  4.1

     negative rho (up, down):  3.625E-03 2.045E-02

     total cpu time spent up to now is      148.6 secs

     total energy              =   -1596.43473516 Ry
     estimated scf accuracy    <       0.06468065 Ry

     total magnetization       =    10.99 Bohr mag/cell
     absolute magnetization    =    12.73 Bohr mag/cell

     iteration # 25     ecut=    80.00 Ry     beta= 0.30
     Davidson diagonalization with overlap
     ethr =  3.22E-05,  avg # of iterations =  2.5

     negative rho (up, down):  1.371E-03 1.980E-02

     total cpu time spent up to now is      154.2 secs

     total energy              =   -1596.43399455 Ry
     estimated scf accuracy    <       0.02753848 Ry

     total magnetization       =    11.00 Bohr mag/cell
     absolute magnetization    =    13.05 Bohr mag/cell

     iteration # 26     ecut=    80.00 Ry     beta= 0.30
     Davidson diagonalization with overlap
     c_bands:  1 eigenvalues not converged
     ethr =  1.69E-05,  avg # of iterations =  8.4

     negative rho (up, down):  1.161E-03 1.960E-02

     total cpu time spent up to now is      158.9 secs

     total energy              =   -1596.43785517 Ry
     estimated scf accuracy    <       0.01537817 Ry

     total magnetization       =    11.00 Bohr mag/cell
     absolute magnetization    =    13.57 Bohr mag/cell

     iteration # 27     ecut=    80.00 Ry     beta= 0.30
     Davidson diagonalization with overlap
     ethr =  9.43E-06,  avg # of iterations =  4.8

     negative rho (up, down):  6.761E-04 1.932E-02

     total cpu time spent up to now is      164.1 secs

     total energy              =   -1596.43717160 Ry
     estimated scf accuracy    <       0.01088456 Ry

     total magnetization       =    11.00 Bohr mag/cell
     absolute magnetization    =    13.62 Bohr mag/cell

     iteration # 28     ecut=    80.00 Ry     beta= 0.30
     Davidson diagonalization with overlap
     ethr =  6.68E-06,  avg # of iterations =  2.7

     negative rho (up, down):  3.436E-04 1.892E-02

     total cpu time spent up to now is      167.7 secs

     total energy              =   -1596.43702706 Ry
     estimated scf accuracy    <       0.00534989 Ry

     total magnetization       =    11.00 Bohr mag/cell
     absolute magnetization    =    13.73 Bohr mag/cell

     iteration # 29     ecut=    80.00 Ry     beta= 0.30
     Davidson diagonalization with overlap
     ethr =  3.28E-06,  avg # of iterations =  4.9

     negative rho (up, down):  2.200E-04 1.879E-02

     total cpu time spent up to now is      172.5 secs

     total energy              =   -1596.43692475 Ry
     estimated scf accuracy    <       0.00349465 Ry

     total magnetization       =    11.00 Bohr mag/cell
     absolute magnetization    =    13.76 Bohr mag/cell

     iteration # 30     ecut=    80.00 Ry     beta= 0.30
     Davidson diagonalization with overlap
     ethr =  2.14E-06,  avg # of iterations =  4.3

     negative rho (up, down):  2.354E-04 1.894E-02

     total cpu time spent up to now is      197.3 secs

     total energy              =   -1596.43620694 Ry
     estimated scf accuracy    <       0.00184213 Ry

     total magnetization       =    11.00 Bohr mag/cell
     absolute magnetization    =    13.77 Bohr mag/cell

     iteration # 31     ecut=    80.00 Ry     beta= 0.30
     Davidson diagonalization with overlap
     ethr =  1.13E-06,  avg # of iterations =  3.7

     negative rho (up, down):  2.067E-04 1.865E-02

     total cpu time spent up to now is      202.5 secs

     total energy              =   -1596.43663826 Ry
     estimated scf accuracy    <       0.00224118 Ry

     total magnetization       =    11.00 Bohr mag/cell
     absolute magnetization    =    13.82 Bohr mag/cell

     iteration # 32     ecut=    80.00 Ry     beta= 0.30
     Davidson diagonalization with overlap
     c_bands:  1 eigenvalues not converged
     ethr =  1.13E-06,  avg # of iterations =  2.3

     negative rho (up, down):  8.082E-04 1.897E-02

     total cpu time spent up to now is      227.0 secs

     total energy              =   -1596.43669371 Ry
     estimated scf accuracy    <       0.00098050 Ry

     total magnetization       =    11.00 Bohr mag/cell
     absolute magnetization    =    13.77 Bohr mag/cell

     iteration # 33     ecut=    80.00 Ry     beta= 0.30
     Davidson diagonalization with overlap
     ethr =  6.02E-07,  avg # of iterations =  1.9

     negative rho (up, down):  1.856E-03 2.006E-02

     total cpu time spent up to now is      240.6 secs

     total energy              =   -1596.43676900 Ry
     estimated scf accuracy    <       0.00050631 Ry

     total magnetization       =    11.00 Bohr mag/cell
     absolute magnetization    =    13.69 Bohr mag/cell

     iteration # 34     ecut=    80.00 Ry     beta= 0.30
     Davidson diagonalization with overlap
     ethr =  3.11E-07,  avg # of iterations =  1.6

     negative rho (up, down):  2.114E-03 2.023E-02

     total cpu time spent up to now is      244.9 secs

     total energy              =   -1596.43682074 Ry
     estimated scf accuracy    <       0.00028176 Ry

     total magnetization       =    11.00 Bohr mag/cell
     absolute magnetization    =    13.68 Bohr mag/cell

     iteration # 35     ecut=    80.00 Ry     beta= 0.30
     Davidson diagonalization with overlap
     ethr =  1.73E-07,  avg # of iterations =  1.8

     negative rho (up, down):  2.194E-03 2.015E-02

     total cpu time spent up to now is      249.2 secs

     total energy              =   -1596.43685292 Ry
     estimated scf accuracy    <       0.00017460 Ry

     total magnetization       =    11.00 Bohr mag/cell
     absolute magnetization    =    13.66 Bohr mag/cell

     iteration # 36     ecut=    80.00 Ry     beta= 0.30
     Davidson diagonalization with overlap
     c_bands:  1 eigenvalues not converged
     ethr =  1.07E-07,  avg # of iterations =  3.1

     negative rho (up, down):  2.172E-03 1.978E-02

     total cpu time spent up to now is      254.5 secs

     total energy              =   -1596.43689551 Ry
     estimated scf accuracy    <       0.00008842 Ry

     total magnetization       =    11.00 Bohr mag/cell
     absolute magnetization    =    13.65 Bohr mag/cell

     iteration # 37     ecut=    80.00 Ry     beta= 0.30
     Davidson diagonalization with overlap
     ethr =  5.42E-08,  avg # of iterations =  2.2

     negative rho (up, down):  2.184E-03 1.954E-02

     total cpu time spent up to now is      258.7 secs

     total energy              =   -1596.43691635 Ry
     estimated scf accuracy    <       0.00006467 Ry

     total magnetization       =    11.00 Bohr mag/cell
     absolute magnetization    =    13.64 Bohr mag/cell

     iteration # 38     ecut=    80.00 Ry     beta= 0.30
     Davidson diagonalization with overlap
     ethr =  3.97E-08,  avg # of iterations =  1.2

     negative rho (up, down):  2.240E-03 1.941E-02

     total cpu time spent up to now is      263.2 secs

     total energy              =   -1596.43692618 Ry
     estimated scf accuracy    <       0.00003123 Ry

     total magnetization       =    11.00 Bohr mag/cell
     absolute magnetization    =    13.64 Bohr mag/cell

     iteration # 39     ecut=    80.00 Ry     beta= 0.30
     Davidson diagonalization with overlap
     ethr =  1.92E-08,  avg # of iterations =  1.6

     negative rho (up, down):  2.223E-03 1.928E-02

     total cpu time spent up to now is      267.9 secs

     total energy              =   -1596.43693100 Ry
     estimated scf accuracy    <       0.00001703 Ry

     total magnetization       =    11.00 Bohr mag/cell
     absolute magnetization    =    13.64 Bohr mag/cell

     iteration # 40     ecut=    80.00 Ry     beta= 0.30
     Davidson diagonalization with overlap
     ethr =  1.04E-08,  avg # of iterations =  1.2

     negative rho (up, down):  2.214E-03 1.922E-02

     total cpu time spent up to now is      272.5 secs

     total energy              =   -1596.43693166 Ry
     estimated scf accuracy    <       0.00001608 Ry

     total magnetization       =    11.00 Bohr mag/cell
     absolute magnetization    =    13.65 Bohr mag/cell

     iteration # 41     ecut=    80.00 Ry     beta= 0.30
     Davidson diagonalization with overlap
     ethr =  9.86E-09,  avg # of iterations =  1.0

     negative rho (up, down):  2.156E-03 1.911E-02

     total cpu time spent up to now is      276.7 secs

     total energy              =   -1596.43693250 Ry
     estimated scf accuracy    <       0.00001267 Ry

     total magnetization       =    11.00 Bohr mag/cell
     absolute magnetization    =    13.65 Bohr mag/cell

     iteration # 42     ecut=    80.00 Ry     beta= 0.30
     Davidson diagonalization with overlap
     ethr =  7.77E-09,  avg # of iterations =  1.1

     negative rho (up, down):  2.130E-03 1.909E-02

     total cpu time spent up to now is      281.3 secs

     total energy              =   -1596.43693301 Ry
     estimated scf accuracy    <       0.00001556 Ry

     total magnetization       =    11.00 Bohr mag/cell
     absolute magnetization    =    13.65 Bohr mag/cell

     iteration # 43     ecut=    80.00 Ry     beta= 0.30
     Davidson diagonalization with overlap
     ethr =  7.77E-09,  avg # of iterations =  1.0

     negative rho (up, down):  2.119E-03 1.909E-02

     total cpu time spent up to now is      285.8 secs

     total energy              =   -1596.43693283 Ry
     estimated scf accuracy    <       0.00001371 Ry

     total magnetization       =    11.00 Bohr mag/cell
     absolute magnetization    =    13.65 Bohr mag/cell

     iteration # 44     ecut=    80.00 Ry     beta= 0.30
     Davidson diagonalization with overlap
     ethr =  7.77E-09,  avg # of iterations =  1.0

     negative rho (up, down):  2.130E-03 1.908E-02

     total cpu time spent up to now is      290.3 secs

     total energy              =   -1596.43693348 Ry
     estimated scf accuracy    <       0.00000974 Ry

     total magnetization       =    11.00 Bohr mag/cell
     absolute magnetization    =    13.65 Bohr mag/cell

     iteration # 45     ecut=    80.00 Ry     beta= 0.30
     Davidson diagonalization with overlap
     ethr =  5.98E-09,  avg # of iterations =  1.0

     negative rho (up, down):  2.150E-03 1.909E-02

     total cpu time spent up to now is      294.7 secs

     total energy              =   -1596.43693473 Ry
     estimated scf accuracy    <       0.00000450 Ry

     total magnetization       =    11.00 Bohr mag/cell
     absolute magnetization    =    13.65 Bohr mag/cell

     iteration # 46     ecut=    80.00 Ry     beta= 0.30
     Davidson diagonalization with overlap
     ethr =  2.76E-09,  avg # of iterations =  1.9

     negative rho (up, down):  2.080E-03 1.903E-02

     Magnetic moment per site  (integrated on atomic sphere of radius R)
     atom   1 (R=0.261)  charge= 10.4633  magn=  1.9294
     atom   2 (R=0.261)  charge= 10.3884  magn=  1.4671
     atom   3 (R=0.261)  charge= 10.4092  magn=  1.6971
     atom   4 (R=0.261)  charge= 10.4079  magn=  1.6917
     atom   5 (R=0.261)  charge= 10.3968  magn=  1.5531
     atom   6 (R=0.261)  charge= 10.3848  magn=  1.4007
     atom   7 (R=0.139)  charge=  1.9666  magn= -0.0417
     atom   8 (R=0.139)  charge=  1.9450  magn= -0.0631
     atom   9 (R=0.139)  charge=  1.9668  magn= -0.0274
     atom  10 (R=0.139)  charge=  1.9668  magn= -0.0274
     atom  11 (R=0.139)  charge=  1.9618  magn= -0.0383
     atom  12 (R=0.139)  charge=  1.9628  magn= -0.0427
     atom  13 (R=0.139)  charge=  1.9669  magn= -0.0338
     atom  14 (R=0.139)  charge=  1.9669  magn= -0.0338
     atom  15 (R=0.139)  charge=  1.9480  magn= -0.0769
     atom  16 (R=0.139)  charge=  1.9608  magn= -0.0370
     atom  17 (R=0.139)  charge=  1.9666  magn= -0.0297
     atom  18 (R=0.139)  charge=  1.9666  magn= -0.0297
     atom  19 (R=0.139)  charge=  1.9679  magn= -0.0267
     atom  20 (R=0.139)  charge=  0.3930  magn=  0.0044

     total cpu time spent up to now is      298.9 secs

     End of self-consistent calculation

 ------ SPIN UP ------------


          k = 0.0000 0.0000 0.0000 ( 37133 PWs)   bands (ev):

   -73.3485 -73.2838 -73.2468 -73.2372 -73.2155 -73.1843 -44.6899 -44.6844
   -44.6433 -44.6306 -44.6119 -44.5613 -44.5574 -44.5508 -44.5034 -44.4983
   -44.4853 -44.4829 -44.4774 -44.4698 -44.4371 -44.4282 -44.4100 -44.3961
   -19.2771 -18.9862 -18.7089 -18.2320 -18.1197 -17.8138 -17.6850 -17.5834
   -17.4463 -17.3580 -17.3452 -16.9173 -16.5059  -7.1632  -7.0607  -6.9533
    -6.4618  -6.0350  -5.7762  -5.5741  -5.2681  -5.1260  -5.1072  -5.0809
    -5.0479  -4.8776  -4.8225  -4.7563  -4.1561  -3.8783  -3.5368  -3.3880
    -3.3479  -3.2724  -3.0061  -2.9166  -2.8216  -2.7331  -2.6637  -2.5627
    -2.3195  -2.2309  -2.1292  -1.8970  -1.7897  -1.7088  -1.5604  -1.3531
    -1.2497  -1.1632  -1.1580  -1.1299  -1.0676  -0.8504  -0.8436  -0.7878
    -0.7341  -0.7324  -0.6558  -0.4824  -0.1910  -0.1210   0.0192   0.0907
     0.1999   0.6066   1.0136   1.1286   1.1947   1.2934   1.4035   2.0932
     2.6718   3.1315

          k = 0.0000 0.1166 0.0000 ( 37130 PWs)   bands (ev):

   -73.3485 -73.2837 -73.2467 -73.2373 -73.2156 -73.1843 -44.6899 -44.6829
   -44.6412 -44.6282 -44.6119 -44.5609 -44.5578 -44.5507 -44.5034 -44.4983
   -44.4878 -44.4828 -44.4796 -44.4714 -44.4372 -44.4278 -44.4104 -44.3961
   -19.1552 -18.8718 -18.6181 -18.3868 -18.1655 -17.9815 -17.8163 -17.5313
   -17.4739 -17.3281 -17.3251 -16.9136 -16.4968  -6.8542  -6.7679  -6.6529
    -6.4456  -6.0384  -5.6850  -5.4609  -5.2109  -5.1666  -5.0420  -4.9858
    -4.8739  -4.8298  -4.8275  -4.7565  -4.2677  -4.1103  -3.9755  -3.7783
    -3.6746  -3.4854  -3.3101  -3.0643  -2.9381  -2.8183  -2.7406  -2.6507
    -2.4184  -2.2422  -2.1898  -2.1367  -2.0799  -1.7656  -1.5747  -1.4866
    -1.3980  -1.2702  -1.0366  -0.8291  -0.7567  -0.6755  -0.6135  -0.5721
    -0.5205  -0.4404  -0.4067  -0.3257  -0.1767  -0.0814   0.0177   0.1045
     0.1974   0.5846   0.9437   0.9996   1.1130   1.2362   1.4077   2.4361
     2.9982   3.2809

          k = 0.0000-0.2332 0.0000 ( 37126 PWs)   bands (ev):

   -73.3485 -73.2837 -73.2466 -73.2374 -73.2156 -73.1843 -44.6899 -44.6813
   -44.6391 -44.6257 -44.6118 -44.5604 -44.5584 -44.5507 -44.5034 -44.4983
   -44.4903 -44.4826 -44.4818 -44.4731 -44.4374 -44.4274 -44.4108 -44.3961
   -18.8895 -18.7751 -18.6780 -18.3497 -18.3334 -18.1333 -17.9798 -17.5026
   -17.4903 -17.3102 -17.3053 -16.9121 -16.4887  -6.5588  -6.4099  -6.3074
    -6.1871  -6.0429  -5.6797  -5.1978  -5.1477  -4.9727  -4.9681  -4.9168
    -4.8573  -4.8558  -4.8349  -4.7566  -4.4098  -4.3723  -4.3251  -4.3150
    -4.1252  -3.9368  -3.4377  -3.2252  -3.1019  -3.0272  -2.9649  -2.8273
    -2.5020  -2.2438  -2.1514  -2.1053  -1.9598  -1.8554  -1.6553  -1.4387
    -1.3853  -1.1334  -0.9771  -0.8141  -0.7744  -0.6653  -0.4663  -0.4605
    -0.4203  -0.2381  -0.2095  -0.0415   0.0002   0.0110   0.0625   0.1821
     0.4265   0.4758   0.6900   0.8074   1.0316   1.0931   1.5750   2.8100
     3.1078   3.5959

          k = 0.1111 0.0000 0.0000 ( 37175 PWs)   bands (ev):

   -73.3469 -73.2822 -73.2452 -73.2356 -73.2140 -73.1828 -44.6884 -44.6826
   -44.6414 -44.6286 -44.6088 -44.5703 -44.5584 -44.5552 -44.5021 -44.5005
   -44.4963 -44.4826 -44.4747 -44.4670 -44.4561 -44.4478 -44.4292 -44.4149
   -19.1657 -18.8850 -18.6194 -18.1588 -18.0640 -17.7587 -17.6394 -17.6101
   -17.4708 -17.3727 -17.3715 -16.9440 -16.5202  -7.0183  -6.9268  -6.8269
    -6.3408  -5.9608  -5.7248  -5.5291  -5.4556  -5.3331  -5.3008  -5.1962
    -5.0339  -4.7978  -4.7611  -4.7114  -3.9855  -3.7235  -3.5410  -3.3420
    -3.3089  -3.1840  -3.1610  -3.0395  -3.0202  -2.9397  -2.8410  -2.7053
    -2.5857  -2.3735  -2.3212  -2.1675  -2.0598  -2.0116  -1.7728  -1.7006
    -1.5721  -1.3660  -1.1721  -0.9107  -0.8162  -0.7861  -0.7182  -0.6708
    -0.5270  -0.4528  -0.3888  -0.2530  -0.0953  -0.0892   0.1454   0.2527
     0.4551   0.5444   0.9258   1.0975   1.2074   1.2269   1.3287   2.2020
     2.7689   3.1709

          k = 0.1111 0.1166 0.0000 ( 37124 PWs)   bands (ev):

   -73.3469 -73.2822 -73.2451 -73.2357 -73.2140 -73.1828 -44.6884 -44.6814
   -44.6397 -44.6266 -44.6088 -44.5703 -44.5580 -44.5556 -44.5022 -44.5006
   -44.4963 -44.4848 -44.4764 -44.4684 -44.4561 -44.4474 -44.4294 -44.4149
   -19.0483 -18.7753 -18.5311 -18.3117 -18.1055 -17.9288 -17.7698 -17.5505
   -17.4982 -17.3450 -17.3429 -16.9405 -16.5120  -6.7092  -6.6306  -6.5211
    -6.3254  -5.9644  -5.6369  -5.5101  -5.3608  -5.2988  -5.2439  -5.1522
    -4.9810  -4.7727  -4.7230  -4.6221  -4.0491  -3.9233  -3.8370  -3.7225
    -3.5546  -3.4543  -3.3482  -3.3283  -3.2617  -3.1661  -3.0012  -2.8398
    -2.7060  -2.6286  -2.2632  -2.2134  -2.1380  -1.9947  -1.7863  -1.5723
    -1.4647  -1.3828  -1.0600  -0.7861  -0.7275  -0.5247  -0.4820  -0.4116
    -0.3240  -0.2726  -0.2371  -0.1905  -0.1235  -0.0212   0.1155   0.2622
     0.4511   0.5256   0.8657   0.9227   1.0385   1.1839   1.4440   2.4945
     3.0103   3.2345

          k = 0.1111-0.2332 0.0000 ( 37144 PWs)   bands (ev):

   -73.3469 -73.2822 -73.2450 -73.2358 -73.2140 -73.1828 -44.6884 -44.6801
   -44.6379 -44.6246 -44.6088 -44.5704 -44.5573 -44.5563 -44.5023 -44.5006
   -44.4963 -44.4871 -44.4781 -44.4697 -44.4561 -44.4470 -44.4296 -44.4148
   -18.7923 -18.6805 -18.5894 -18.2804 -18.2644 -18.0727 -17.9307 -17.5208
   -17.5156 -17.3273 -17.3202 -16.9389 -16.5047  -6.4292  -6.2487  -6.1701
    -6.0403  -5.9635  -5.6567  -5.3623  -5.3280  -5.2058  -5.1862  -5.1505
    -4.8654  -4.7319  -4.6462  -4.5850  -4.3265  -4.1911  -4.0832  -4.0709
    -3.9465  -3.8568  -3.6806  -3.5782  -3.5094  -3.3899  -3.1719  -2.9540
    -2.8203  -2.6694  -2.2867  -2.2155  -1.9842  -1.8386  -1.6558  -1.4728
    -1.4365  -1.1945  -1.0475  -0.8292  -0.7060  -0.4441  -0.4230  -0.4098
    -0.3563  -0.2401  -0.0537   0.1296   0.1317   0.2017   0.2777   0.3486
     0.4377   0.5038   0.6303   0.7406   0.9665   1.0113   1.5951   2.8520
     3.0188   3.2415

          k = 0.2222 0.0000 0.0000 ( 37192 PWs)   bands (ev):

   -73.3430 -73.2784 -73.2413 -73.2317 -73.2101 -73.1789 -44.6847 -44.6781
   -44.6366 -44.6236 -44.6199 -44.5991 -44.5534 -44.5497 -44.5470 -44.5047
   -44.4975 -44.4949 -44.4926 -44.4773 -44.4755 -44.4678 -44.4615 -44.4598
   -18.8616 -18.6136 -18.3845 -17.9821 -17.9197 -17.6787 -17.6546 -17.5331
   -17.5252 -17.4383 -17.3989 -17.0073 -16.5407  -6.6373  -6.5722  -6.5006
    -6.0728  -5.8348  -5.7898  -5.7073  -5.6688  -5.5099  -5.4298  -5.1478
    -5.0586  -4.6665  -4.5177  -4.3960  -4.3952  -4.0565  -3.9724  -3.8090
    -3.6641  -3.6447  -3.5301  -3.2447  -3.0462  -2.9808  -2.8424  -2.8114
    -2.7344  -2.6093  -2.4386  -2.3730  -2.3559  -2.2500  -2.1634  -1.7893
    -1.7401  -1.4712  -1.2389  -0.8704  -0.6258  -0.5525  -0.5349  -0.4982
    -0.4520  -0.4114  -0.1559   0.0225   0.1722   0.2549   0.3590   0.4766
     0.5919   0.6474   0.7539   0.8402   0.9816   1.1189   1.3395   2.3795
     2.8164   3.0430

          k = 0.2222 0.1166 0.0000 ( 37137 PWs)   bands (ev):

   -73.3430 -73.2784 -73.2412 -73.2317 -73.2101 -73.1789 -44.6847 -44.6776
   -44.6359 -44.6228 -44.6200 -44.5991 -44.5532 -44.5499 -44.5471 -44.5043
   -44.4967 -44.4949 -44.4926 -44.4814 -44.4730 -44.4688 -44.4616 -44.4603
   -18.7587 -18.5187 -18.3042 -18.1275 -17.9611 -17.8163 -17.6759 -17.5855
   -17.5558 -17.3827 -17.3727 -17.0047 -16.5359  -6.3383  -6.2846  -6.2030
    -6.0501  -5.7891  -5.7186  -5.7119  -5.5789  -5.5314  -5.3730  -5.2956
    -4.7721  -4.6714  -4.5506  -4.5190  -4.3572  -4.2075  -4.1772  -3.9721
    -3.8786  -3.6580  -3.4957  -3.3605  -3.3389  -3.2769  -3.1764  -3.1117
    -2.9715  -2.8669  -2.4242  -2.3493  -2.1962  -2.0804  -2.0348  -1.8273
    -1.6000  -1.4512  -1.3000  -0.8246  -0.6933  -0.4571  -0.4017  -0.2231
    -0.1583  -0.1252  -0.0727   0.0317   0.2271   0.2575   0.3400   0.3764
     0.5681   0.5941   0.7080   0.7632   0.8792   1.0195   1.4702   2.5262
     2.7812   2.8819

          k = 0.2222-0.2332 0.0000 ( 37166 PWs)   bands (ev):

   -73.3430 -73.2784 -73.2412 -73.2318 -73.2101 -73.1789 -44.6847 -44.6770
   -44.6353 -44.6219 -44.6200 -44.5991 -44.5529 -44.5502 -44.5473 -44.5038
   -44.4960 -44.4948 -44.4926 -44.4839 -44.4721 -44.4698 -44.4614 -44.4610
   -18.5335 -18.4337 -18.3560 -18.1207 -18.0928 -17.9347 -17.8056 -17.5810
   -17.5553 -17.3669 -17.3455 -17.0035 -16.5315  -6.1416  -5.9118  -5.8478
    -5.7877  -5.7010  -5.6328  -5.6175  -5.4874  -5.4038  -5.3513  -5.2966
    -4.8067  -4.7471  -4.7201  -4.6193  -4.5838  -4.4913  -4.1886  -4.1772
    -3.8812  -3.8330  -3.7302  -3.5709  -3.5122  -3.5093  -3.3804  -3.2691
    -3.2655  -2.9676  -2.4075  -2.3618  -2.0462  -1.9009  -1.8135  -1.7123
    -1.6645  -1.4236  -1.3358  -0.8588  -0.4868  -0.4539  -0.3870  -0.2045
    -0.1911   0.0777   0.1747   0.2307   0.3098   0.3182   0.3319   0.4054
     0.5024   0.5432   0.7162   0.7329   0.8326   0.8489   1.5633   2.5436
     2.5884   2.6051

          k = 0.3333 0.0000 0.0000 ( 37184 PWs)   bands (ev):

   -73.3386 -73.2741 -73.2368 -73.2272 -73.2057 -73.1745 -44.6807 -44.6737
   -44.6731 -44.6312 -44.6179 -44.5996 -44.5903 -44.5585 -44.5544 -44.5508
   -44.5396 -44.5299 -44.5198 -44.4871 -44.4844 -44.4674 -44.4598 -44.4515
   -18.4534 -18.2620 -18.0971 -17.8133 -17.7642 -17.7584 -17.6325 -17.6048
   -17.5150 -17.4341 -17.3704 -17.0564 -16.5279  -6.3743  -6.2262  -6.1345
    -6.0218  -5.9371  -5.8329  -5.6964  -5.6933  -5.5664  -5.4012  -5.2723
    -5.0385  -4.9628  -4.7256  -4.5273  -4.4640  -4.4592  -4.2299  -3.9972
    -3.8546  -3.7526  -3.5463  -3.4279  -3.3974  -3.2164  -3.1449  -3.0328
    -2.9116  -2.6459  -2.4823  -2.4321  -2.2802  -1.9656  -1.9450  -1.9117
    -1.6258  -1.6047  -1.4447  -1.1114  -0.7159  -0.4940  -0.4255  -0.3580
    -0.3556  -0.2790   0.0553   0.1379   0.1570   0.2306   0.3658   0.4296
     0.5451   0.6735   0.7167   0.8284   0.9668   1.0292   1.2479   2.2776
     2.6592   3.0318

          k = 0.3333 0.1166 0.0000 ( 37206 PWs)   bands (ev):

   -73.3386 -73.2741 -73.2368 -73.2272 -73.2057 -73.1745 -44.6807 -44.6740
   -44.6733 -44.6324 -44.6193 -44.5997 -44.5903 -44.5568 -44.5525 -44.5509
   -44.5396 -44.5304 -44.5191 -44.4870 -44.4844 -44.4675 -44.4601 -44.4517
   -18.3793 -18.1960 -18.0412 -17.9433 -17.8271 -17.7437 -17.6737 -17.5956
   -17.5732 -17.4140 -17.3525 -17.0570 -16.5271  -6.3509  -6.0123  -5.9420
    -5.8879  -5.8636  -5.8082  -5.6860  -5.6595  -5.6244  -5.4712  -5.3300
    -4.9866  -4.9666  -4.7492  -4.6263  -4.4929  -4.3648  -4.2880  -3.9450
    -3.8890  -3.7480  -3.6451  -3.4607  -3.4189  -3.2870  -3.1169  -3.0432
    -2.9262  -2.8415  -2.5690  -2.3934  -2.2491  -2.1400  -2.0437  -1.8821
    -1.6060  -1.4840  -1.4644  -1.1872  -0.7899  -0.5030  -0.3902  -0.2944
    -0.2560  -0.1908  -0.1680  -0.0123   0.1178   0.2158   0.2457   0.4570
     0.6638   0.7630   0.8034   0.8838   0.9653   0.9786   1.3438   2.3227
     2.3744   2.5088

          k = 0.3333-0.2332 0.0000 ( 37216 PWs)   bands (ev):

   -73.3386 -73.2741 -73.2367 -73.2272 -73.2057 -73.1745 -44.6807 -44.6740
   -44.6739 -44.6336 -44.6206 -44.5999 -44.5903 -44.5552 -44.5509 -44.5506
   -44.5395 -44.5309 -44.5183 -44.4870 -44.4844 -44.4676 -44.4604 -44.4520
   -18.2086 -18.1591 -18.0687 -17.9697 -17.9134 -17.8184 -17.6803 -17.6432
   -17.5683 -17.4013 -17.3426 -17.0578 -16.5264  -6.3444  -5.8918  -5.8644
    -5.7642  -5.7220  -5.7169  -5.6527  -5.5755  -5.4879  -5.3291  -5.2761
    -5.1795  -4.9971  -4.9697  -4.6713  -4.5428  -4.2888  -4.2039  -4.1449
    -3.9862  -3.7996  -3.5497  -3.4808  -3.4805  -3.2929  -3.2621  -3.1013
    -3.0601  -2.8595  -2.4384  -2.3955  -2.2897  -2.1727  -2.1379  -1.9264
    -1.7673  -1.3297  -1.3147  -1.0986  -0.8724  -0.8297  -0.4569  -0.3157
    -0.3037  -0.0793  -0.0650   0.0208   0.1369   0.2439   0.2566   0.3519
     0.6797   0.7697   0.8069   0.9106   1.0495   1.0596   1.4181   2.0983
     2.1361   2.4013

          k = 0.4444 0.0000 0.0000 ( 37180 PWs)   bands (ev):

   -73.3357 -73.2712 -73.2338 -73.2243 -73.2028 -73.1716 -44.7090 -44.6786
   -44.6698 -44.6327 -44.6277 -44.6143 -44.5947 -44.5903 -44.5830 -44.5699
   -44.5546 -44.5437 -44.5334 -44.4860 -44.4787 -44.4620 -44.4546 -44.4461
   -18.0904 -17.9555 -17.8810 -17.8112 -17.7774 -17.7451 -17.6521 -17.6483
   -17.5654 -17.4523 -17.3074 -17.0511 -16.4943  -6.6833  -6.1325  -6.0104
    -5.9196  -5.8429  -5.8159  -5.7900  -5.6381  -5.5982  -5.5023  -5.4222
    -5.2353  -4.9479  -4.8852  -4.7368  -4.6378  -4.3813  -4.0335  -3.8834
    -3.8371  -3.8114  -3.6839  -3.6513  -3.4737  -3.1477  -2.9660  -2.8556
    -2.7381  -2.6563  -2.5054  -2.4553  -2.3352  -2.3052  -2.1155  -1.9697
    -1.7154  -1.6146  -1.4938  -1.0992  -0.6551  -0.4754  -0.4127  -0.3588
    -0.3372  -0.2575  -0.1936  -0.1418   0.1019   0.1349   0.2481   0.3941
     0.4111   0.6244   0.8963   0.9106   1.0916   1.1476   1.2318   2.0688
     2.7049   2.9014

          k = 0.4444 0.1166 0.0000 ( 37248 PWs)   bands (ev):

   -73.3357 -73.2712 -73.2338 -73.2243 -73.2028 -73.1716 -44.7092 -44.6786
   -44.6711 -44.6329 -44.6319 -44.6198 -44.5907 -44.5846 -44.5826 -44.5703
   -44.5533 -44.5437 -44.5334 -44.4860 -44.4787 -44.4617 -44.4544 -44.4460
   -18.0758 -17.9536 -17.8864 -17.8129 -17.7867 -17.7631 -17.6915 -17.6071
   -17.5598 -17.4384 -17.3205 -17.0535 -16.4940  -6.6803  -6.2665  -6.1163
    -6.0424  -5.9740  -5.9226  -5.6728  -5.6207  -5.4937  -5.4025  -5.2749
    -4.9506  -4.8752  -4.8445  -4.5855  -4.4664  -4.2854  -4.1984  -4.0392
    -3.8861  -3.8022  -3.6187  -3.5499  -3.3488  -3.1775  -2.9336  -2.7971
    -2.7217  -2.6084  -2.5431  -2.4247  -2.3982  -2.2857  -2.0935  -2.0006
    -1.7911  -1.6408  -1.5298  -1.2131  -0.7406  -0.6197  -0.4545  -0.4087
    -0.3948  -0.3515  -0.3292  -0.3129  -0.2194  -0.1902   0.0311   0.3077
     0.8953   0.9075   1.0017   1.0576   1.1219   1.1746   1.2293   2.1144
     2.1988   2.3171

          k = 0.4444-0.2332 0.0000 ( 37264 PWs)   bands (ev):

   -73.3357 -73.2712 -73.2338 -73.2243 -73.2028 -73.1716 -44.7093 -44.6786
   -44.6723 -44.6354 -44.6331 -44.6240 -44.5878 -44.5819 -44.5804 -44.5706
   -44.5520 -44.5437 -44.5334 -44.4860 -44.4787 -44.4614 -44.4543 -44.4459
   -18.0572 -17.9627 -17.8551 -17.8499 -17.8149 -17.7417 -17.7217 -17.5879
   -17.5558 -17.4214 -17.3368 -17.0560 -16.4938  -6.6799  -6.3640  -6.3107
    -6.2075  -5.9414  -5.9215  -5.4391  -5.4077  -5.3405  -5.2796  -5.2371
    -5.1389  -5.1148  -4.6170  -4.4658  -4.4201  -4.2126  -4.0610  -4.0299
    -3.8613  -3.7290  -3.5426  -3.4367  -3.3869  -3.0866  -2.9215  -2.9159
    -2.8291  -2.6709  -2.6102  -2.4488  -2.3609  -2.1816  -2.1790  -1.8511
    -1.6683  -1.6589  -1.4650  -1.4245  -0.9645  -0.9277  -0.9223  -0.6071
    -0.4304  -0.3539  -0.3388  -0.2927  -0.2429  -0.1950  -0.0908   0.3209
     0.9389   0.9407   1.0760   1.1641   1.2478   1.2683   1.2801   1.8894
     1.9181   1.9519

 ------ SPIN DOWN ----------


          k = 0.0000 0.0000 0.0000 ( 37133 PWs)   bands (ev):

   -71.4157 -71.2229 -71.0639 -70.9658 -70.8919 -70.6013 -42.8717 -42.7392
   -42.7047 -42.7001 -42.5933 -42.5655 -42.5136 -42.4871 -42.4015 -42.3574
   -42.2769 -42.1649 -42.1288 -42.0263 -42.0224 -42.0069 -41.8991 -41.7820
   -19.3250 -19.0359 -18.7561 -18.3313 -18.2104 -17.9185 -17.8050 -17.6436
   -17.5271 -17.4678 -17.4246 -17.1347 -16.7278  -6.7409  -6.6219  -6.5271
    -6.0446  -5.6527  -5.4932  -5.2750  -4.9958  -4.8319  -4.8084  -4.6790
    -4.6394  -4.5227  -4.4758  -4.4183  -3.9123  -3.8192  -3.5217  -3.3890
    -3.2116  -3.1796  -2.9517  -2.8907  -2.6659  -2.5698  -2.3955  -2.3820
    -2.2563  -2.0630  -1.9014  -1.7454  -1.7404  -1.6079  -1.4044  -1.2999
    -1.2527  -1.1565  -0.8991  -0.6427   1.1459   1.1758   1.2910   1.3156
     1.3185   1.4743   1.5118   1.5146   1.7609   1.8338   1.8385   1.9219
     1.9426   2.0200   2.4021   2.5345   2.6621   2.8870   3.1485   3.2817
     3.9188   4.3984

          k = 0.0000 0.1166 0.0000 ( 37130 PWs)   bands (ev):

   -71.4157 -71.2229 -71.0639 -70.9658 -70.8919 -70.6013 -42.8707 -42.7386
   -42.7042 -42.7007 -42.5933 -42.5643 -42.5135 -42.4871 -42.4026 -42.3573
   -42.2769 -42.1649 -42.1301 -42.0259 -42.0223 -42.0074 -41.8998 -41.7820
   -19.2053 -18.9225 -18.6636 -18.4779 -18.2657 -18.0624 -17.9142 -17.6061
   -17.5677 -17.4323 -17.4157 -17.1329 -16.7183  -6.4521  -6.3475  -6.2420
    -6.0286  -5.6560  -5.4031  -5.1738  -5.0254  -4.7670  -4.6344  -4.5992
    -4.5872  -4.5152  -4.4720  -4.4218  -4.0895  -3.9166  -3.7956  -3.6604
    -3.4651  -3.2127  -3.1166  -2.9284  -2.7219  -2.6448  -2.4786  -2.3979
    -2.1935  -2.1606  -2.0718  -1.9862  -1.8456  -1.6173  -1.5687  -1.4570
    -1.3762  -1.2074  -1.0464  -0.7496   1.3745   1.4190   1.5018   1.5687
     1.6119   1.6332   1.6926   1.7681   1.7860   1.8453   1.8609   1.9601
     2.0198   2.0244   2.4251   2.4912   2.6750   2.7484   3.0131   3.5415
     4.1424   4.4586

          k = 0.0000-0.2332 0.0000 ( 37126 PWs)   bands (ev):

   -71.4157 -71.2229 -71.0639 -70.9658 -70.8920 -70.6013 -42.8697 -42.7380
   -42.7033 -42.7015 -42.5933 -42.5632 -42.5135 -42.4871 -42.4037 -42.3573
   -42.2770 -42.1649 -42.1313 -42.0255 -42.0222 -42.0080 -41.9005 -41.7820
   -18.9392 -18.8422 -18.7230 -18.4527 -18.3933 -18.2242 -18.0546 -17.5870
   -17.5844 -17.4147 -17.4015 -17.1340 -16.7099  -6.1857  -5.9814  -5.9397
    -5.7967  -5.6642  -5.4104  -5.0679  -4.7425  -4.7234  -4.5873  -4.5590
    -4.5334  -4.5067  -4.4642  -4.4260  -4.1168  -4.0974  -4.0566  -4.0451
    -3.8330  -3.7060  -3.0972  -2.9886  -2.8538  -2.7188  -2.6599  -2.5001
    -2.2502  -2.2244  -2.0452  -2.0205  -1.9769  -1.7798  -1.6995  -1.4807
    -1.3426  -1.0853  -1.0648  -0.9603   1.3795   1.6552   1.6821   1.7784
     1.8063   1.8234   1.8262   1.8465   1.9358   1.9535   2.0278   2.0504
     2.0867   2.1055   2.2013   2.3800   2.6766   2.7337   3.0053   3.9051
     4.1769   4.5377

          k = 0.1111 0.0000 0.0000 ( 37175 PWs)   bands (ev):

   -71.4140 -71.2213 -71.0622 -70.9642 -70.8902 -70.5995 -42.8699 -42.7375
   -42.7026 -42.6970 -42.6150 -42.5637 -42.5102 -42.4850 -42.3978 -42.3791
   -42.2729 -42.1636 -42.1250 -42.0474 -42.0443 -42.0291 -41.8949 -41.8054
   -19.2144 -18.9353 -18.6677 -18.2586 -18.1544 -17.8622 -17.7639 -17.6699
   -17.5520 -17.4809 -17.4505 -17.1631 -16.7431  -6.6080  -6.5070  -6.4202
    -5.9474  -5.5885  -5.4308  -5.2462  -5.1344  -5.1266  -4.9341  -4.8649
    -4.7494  -4.4636  -4.4551  -4.4206  -3.6545  -3.5353  -3.4184  -3.2445
    -3.2036  -3.0532  -3.0250  -2.9972  -2.9176  -2.7794  -2.6476  -2.4509
    -2.3015  -2.2147  -2.0835  -1.9928  -1.8813  -1.8109  -1.5855  -1.5043
    -1.3043  -1.2015  -1.0579  -0.7242   1.1807   1.3651   1.4386   1.4813
     1.5374   1.5771   1.6076   1.6192   1.8067   1.8522   1.9386   1.9783
     2.0667   2.1352   2.3101   2.5736   2.6497   2.7960   3.0644   3.3819
     3.9781   4.4045

          k = 0.1111 0.1166 0.0000 ( 37124 PWs)   bands (ev):

   -71.4140 -71.2212 -71.0622 -70.9642 -70.8903 -70.5995 -42.8691 -42.7370
   -42.7022 -42.6974 -42.6150 -42.5627 -42.5102 -42.4850 -42.3987 -42.3791
   -42.2729 -42.1636 -42.1262 -42.0470 -42.0441 -42.0295 -41.8955 -41.8053
   -19.0994 -18.8269 -18.5781 -18.4028 -18.2038 -18.0085 -17.8679 -17.6280
   -17.5919 -17.4488 -17.4357 -17.1614 -16.7345  -6.3229  -6.2265  -6.1285
    -5.9318  -5.5901  -5.3590  -5.2135  -5.1391  -5.0004  -4.8848  -4.8243
    -4.6579  -4.4722  -4.4177  -4.3276  -3.7964  -3.6756  -3.6253  -3.5285
    -3.3870  -3.2823  -3.1125  -3.0944  -3.0498  -2.9296  -2.7764  -2.5405
    -2.3742  -2.3156  -2.1308  -2.0934  -1.9939  -1.9055  -1.5512  -1.4804
    -1.3714  -1.1868  -1.0820  -0.8029   1.3670   1.4683   1.5673   1.6391
     1.7048   1.7112   1.7731   1.8587   1.9118   1.9456   1.9509   2.0635
     2.1299   2.1624   2.3744   2.4298   2.6335   2.7729   2.9524   3.5995
     4.1315   4.4060

          k = 0.1111-0.2332 0.0000 ( 37144 PWs)   bands (ev):

   -71.4140 -71.2212 -71.0623 -70.9642 -70.8903 -70.5995 -42.8682 -42.7365
   -42.7018 -42.6978 -42.6150 -42.5618 -42.5102 -42.4850 -42.3996 -42.3791
   -42.2729 -42.1636 -42.1274 -42.0466 -42.0439 -42.0299 -41.8960 -41.8053
   -18.8439 -18.7487 -18.6367 -18.3797 -18.3250 -18.1621 -18.0056 -17.6125
   -17.6053 -17.4313 -17.4188 -17.1623 -16.7269  -6.0760  -5.8385  -5.8303
    -5.6715  -5.5872  -5.3933  -5.1757  -4.9587  -4.9270  -4.8149  -4.8004
    -4.5442  -4.4474  -4.3127  -4.2620  -4.0680  -3.9160  -3.8392  -3.7935
    -3.7120  -3.6080  -3.4175  -3.3434  -3.1791  -3.0540  -2.8158  -2.6828
    -2.4850  -2.3685  -2.2037  -2.1360  -1.8967  -1.8045  -1.6212  -1.4348
    -1.3034  -1.1319  -1.0918  -0.9537   1.4765   1.5899   1.6186   1.7039
     1.7889   1.8040   1.9175   1.9593   2.0212   2.1176   2.1488   2.1534
     2.2577   2.2630   2.3003   2.3915   2.6151   2.6576   3.0249   3.9198
     4.0987   4.1934

          k = 0.2222 0.0000 0.0000 ( 37192 PWs)   bands (ev):

   -71.4098 -71.2170 -71.0581 -70.9600 -70.8860 -70.5950 -42.8654 -42.7332
   -42.6982 -42.6902 -42.6675 -42.5591 -42.5024 -42.4795 -42.4334 -42.3884
   -42.2627 -42.1607 -42.1153 -42.1009 -42.0987 -42.0848 -41.8842 -41.8642
   -18.9132 -18.6661 -18.4362 -18.0813 -18.0119 -17.7538 -17.7380 -17.6602
   -17.6154 -17.5167 -17.5019 -17.2344 -16.7669  -6.2627  -6.2129  -6.1591
    -5.7755  -5.5266  -5.4864  -5.4353  -5.3723  -5.2747  -5.0923  -4.8604
    -4.7575  -4.4398  -4.2929  -4.1416  -4.0792  -3.8267  -3.7270  -3.5252
    -3.3767  -3.2703  -3.2594  -2.9684  -2.8644  -2.8437  -2.6833  -2.6672
    -2.5293  -2.3498  -2.2334  -2.1869  -2.0954  -1.9978  -1.9078  -1.6235
    -1.4841  -1.4182  -1.1314  -0.9915   1.1267   1.3834   1.7043   1.7653
     1.8097   1.8516   1.8754   1.9082   2.0123   2.0528   2.1013   2.1410
     2.1424   2.2311   2.3353   2.3577   2.5776   2.8282   2.8294   3.5851
     3.8830   4.1835

          k = 0.2222 0.1166 0.0000 ( 37137 PWs)   bands (ev):

   -71.4098 -71.2170 -71.0581 -70.9600 -70.8860 -70.5950 -42.8649 -42.7330
   -42.6980 -42.6904 -42.6676 -42.5587 -42.5024 -42.4795 -42.4334 -42.3889
   -42.2627 -42.1607 -42.1173 -42.1004 -42.0975 -42.0849 -41.8845 -41.8640
   -18.8133 -18.5736 -18.3562 -18.2175 -18.0533 -17.8877 -17.7723 -17.6749
   -17.6480 -17.4856 -17.4743 -17.2332 -16.7617  -6.0044  -5.9329  -5.8794
    -5.7359  -5.5050  -5.4159  -5.3925  -5.3009  -5.2370  -5.0483  -5.0048
    -4.4850  -4.4137  -4.3019  -4.2766  -4.0809  -3.9521  -3.8869  -3.6508
    -3.5890  -3.3944  -3.2604  -3.1670  -3.1207  -3.0661  -2.9395  -2.8669
    -2.7595  -2.5015  -2.1923  -2.0775  -2.0434  -1.8531  -1.7697  -1.5944
    -1.4473  -1.3391  -1.1994  -0.9883   1.1850   1.4594   1.6522   1.7437
     1.8140   1.8427   1.9145   2.0310   2.0993   2.1601   2.1751   2.2467
     2.3316   2.3335   2.3404   2.4098   2.5239   2.7152   2.9335   3.6967
     3.8481   4.0380

          k = 0.2222-0.2332 0.0000 ( 37166 PWs)   bands (ev):

   -71.4098 -71.2170 -71.0581 -70.9600 -70.8860 -70.5950 -42.8645 -42.7328
   -42.6979 -42.6905 -42.6677 -42.5582 -42.5024 -42.4795 -42.4334 -42.3895
   -42.2627 -42.1607 -42.1191 -42.1002 -42.0961 -42.0850 -41.8849 -41.8639
   -18.5913 -18.5048 -18.4109 -18.2066 -18.1545 -18.0188 -17.8811 -17.6782
   -17.6485 -17.4691 -17.4517 -17.2342 -16.7569  -5.8678  -5.6241  -5.5925
    -5.4607  -5.3634  -5.3476  -5.3077  -5.1249  -5.0897  -5.0007  -4.9664
    -4.5152  -4.4320  -4.4235  -4.3446  -4.2820  -4.2650  -3.9168  -3.8854
    -3.7308  -3.6608  -3.5617  -3.3003  -3.2675  -3.2044  -3.0604  -2.9991
    -2.9355  -2.5777  -2.1911  -2.1714  -1.8472  -1.7414  -1.5855  -1.5227
    -1.4140  -1.3426  -1.2355  -0.9828   1.3317   1.4215   1.5582   1.7374
     1.7585   1.8026   1.9880   2.0272   2.1203   2.2839   2.3339   2.3461
     2.4255   2.4712   2.5019   2.5643   2.5995   2.6450   3.0168   3.6067
     3.7051   3.7624

          k = 0.3333 0.0000 0.0000 ( 37184 PWs)   bands (ev):

   -71.4049 -71.2122 -71.0533 -70.9553 -70.8812 -70.5900 -42.8603 -42.7338
   -42.7284 -42.6935 -42.6750 -42.5539 -42.5029 -42.4869 -42.4717 -42.3777
   -42.2511 -42.1673 -42.1624 -42.1496 -42.1470 -42.1043 -41.9305 -41.8720
   -18.5096 -18.3188 -18.1554 -17.9072 -17.8619 -17.8172 -17.7359 -17.6881
   -17.5926 -17.5435 -17.4843 -17.3064 -16.7581  -6.2171  -5.9483  -5.8353
    -5.7276  -5.6421  -5.5494  -5.4751  -5.4006  -5.2509  -5.0649  -4.9629
    -4.8053  -4.6317  -4.4417  -4.2700  -4.1742  -4.1653  -3.9936  -3.7363
    -3.5674  -3.5538  -3.3406  -3.1446  -3.1042  -2.9323  -2.8640  -2.7130
    -2.7021  -2.3862  -2.3280  -2.1407  -2.1119  -1.8340  -1.7672  -1.7271
    -1.6015  -1.5027  -1.3654  -1.2795   1.2048   1.2616   1.6442   1.8753
     1.9194   1.9865   2.0303   2.0661   2.1422   2.1838   2.2057   2.2152
     2.3201   2.3293   2.4663   2.4974   2.5701   2.5937   2.8387   3.4468
     3.8279   4.1164

          k = 0.3333 0.1166 0.0000 ( 37206 PWs)   bands (ev):

   -71.4049 -71.2122 -71.0533 -70.9553 -70.8812 -70.5900 -42.8603 -42.7339
   -42.7285 -42.6935 -42.6751 -42.5541 -42.5029 -42.4870 -42.4717 -42.3778
   -42.2511 -42.1677 -42.1621 -42.1493 -42.1471 -42.1038 -41.9302 -41.8720
   -18.4390 -18.2565 -18.1037 -18.0248 -17.9066 -17.8160 -17.7716 -17.6870
   -17.6598 -17.5136 -17.4660 -17.3086 -16.7573  -6.1982  -5.7120  -5.6319
    -5.6055  -5.5614  -5.5093  -5.4261  -5.3471  -5.2889  -5.1632  -4.9790
    -4.7522  -4.6689  -4.5131  -4.3546  -4.2622  -4.1483  -3.9847  -3.7568
    -3.6724  -3.4747  -3.4072  -3.2455  -3.2032  -3.0635  -2.8977  -2.8203
    -2.5514  -2.5333  -2.2906  -2.1990  -2.0517  -1.9542  -1.8375  -1.7275
    -1.4997  -1.4499  -1.3608  -1.2513   1.1167   1.2175   1.4458   1.6859
     1.7069   1.9419   2.0174   2.0689   2.1656   2.2200   2.3096   2.3790
     2.4561   2.4993   2.5118   2.5235   2.6057   2.6907   2.9175   3.4554
     3.6466   3.7394

          k = 0.3333-0.2332 0.0000 ( 37216 PWs)   bands (ev):

   -71.4049 -71.2122 -71.0533 -70.9553 -70.8812 -70.5900 -42.8603 -42.7340
   -42.7286 -42.6935 -42.6751 -42.5543 -42.5029 -42.4870 -42.4717 -42.3779
   -42.2511 -42.1681 -42.1618 -42.1492 -42.1471 -42.1033 -41.9299 -41.8721
   -18.2777 -18.2284 -18.1378 -18.0418 -17.9748 -17.8954 -17.7742 -17.7210
   -17.6689 -17.5001 -17.4538 -17.3113 -16.7565  -6.1904  -5.5464  -5.5197
    -5.4482  -5.4231  -5.4040  -5.3646  -5.2755  -5.1500  -5.0176  -4.9997
    -4.8083  -4.7502  -4.7245  -4.4230  -4.3526  -4.1041  -4.0112  -3.9141
    -3.8522  -3.6520  -3.4016  -3.2951  -3.1746  -3.0463  -2.9867  -2.8579
    -2.7817  -2.4826  -2.2675  -2.1785  -1.9972  -1.9829  -1.8779  -1.7405
    -1.4979  -1.4061  -1.3730  -1.1328   1.0304   1.1888   1.1950   1.5251
     1.7227   1.9339   1.9810   1.9974   2.1770   2.2195   2.4247   2.4374
     2.5078   2.6058   2.6535   2.6699   2.7360   2.7593   3.0035   3.2348
     3.3741   3.4516

          k = 0.4444 0.0000 0.0000 ( 37180 PWs)   bands (ev):

   -71.4018 -71.2091 -71.0502 -70.9522 -70.8780 -70.5867 -42.8569 -42.7734
   -42.7252 -42.6906 -42.6683 -42.5505 -42.5377 -42.4871 -42.4665 -42.3706
   -42.2438 -42.2028 -42.2007 -42.1886 -42.1512 -42.0971 -41.9733 -41.8640
   -18.1427 -18.0185 -17.9576 -17.8779 -17.8699 -17.8160 -17.7611 -17.7360
   -17.6425 -17.5563 -17.4186 -17.3229 -16.7274  -6.5422  -5.8890  -5.7287
    -5.6356  -5.6247  -5.5796  -5.5015  -5.3044  -5.3024  -5.2289  -5.1231
    -4.8732  -4.7008  -4.5632  -4.4590  -4.3173  -4.1116  -3.8409  -3.5944
    -3.5686  -3.5559  -3.5484  -3.3759  -3.3199  -2.8720  -2.7995  -2.6586
    -2.4561  -2.4356  -2.3902  -2.2352  -2.2303  -2.0212  -2.0056  -1.7892
    -1.5994  -1.5838  -1.3392  -1.2736   1.3183   1.4724   1.4969   1.6724
     1.6991   1.8228   1.9886   2.0604   2.2128   2.2215   2.3505   2.3533
     2.3773   2.4427   2.5102   2.6406   2.6609   2.7553   2.8663   3.2644
     3.8533   4.0354

          k = 0.4444 0.1166 0.0000 ( 37248 PWs)   bands (ev):

   -71.4018 -71.2091 -71.0502 -70.9522 -70.8780 -70.5867 -42.8573 -42.7735
   -42.7256 -42.6906 -42.6683 -42.5512 -42.5378 -42.4871 -42.4665 -42.3705
   -42.2438 -42.2025 -42.2011 -42.1879 -42.1512 -42.0965 -41.9730 -41.8639
   -18.1294 -18.0228 -17.9681 -17.8916 -17.8666 -17.8382 -17.7910 -17.6944
   -17.6312 -17.5402 -17.4315 -17.3262 -16.7272  -6.5367  -5.9461  -5.7781
    -5.7445  -5.6523  -5.6025  -5.3868  -5.3293  -5.2664  -5.1261  -5.0218
    -4.7124  -4.6071  -4.5580  -4.2717  -4.1990  -4.0672  -3.9956  -3.8290
    -3.7229  -3.6075  -3.4804  -3.3897  -3.0909  -2.9393  -2.7738  -2.5814
    -2.4598  -2.4072  -2.3552  -2.2247  -2.1989  -2.1537  -1.9430  -1.8268
    -1.6916  -1.5806  -1.4470  -1.3080   1.1236   1.1677   1.3442   1.4035
     1.5242   1.7883   1.8407   2.0678   2.2306   2.3175   2.3789   2.4452
     2.4981   2.5920   2.6084   2.6452   2.7013   2.8361   2.9266   3.3025
     3.4630   3.5734

          k = 0.4444-0.2332 0.0000 ( 37264 PWs)   bands (ev):

   -71.4018 -71.2091 -71.0502 -70.9522 -70.8780 -70.5867 -42.8576 -42.7736
   -42.7259 -42.6906 -42.6683 -42.5519 -42.5379 -42.4871 -42.4665 -42.3704
   -42.2438 -42.2024 -42.2013 -42.1871 -42.1513 -42.0960 -41.9726 -41.8638
   -18.1115 -18.0420 -17.9439 -17.9224 -17.8978 -17.8198 -17.8118 -17.6732
   -17.6211 -17.5215 -17.4481 -17.3295 -16.7270  -6.5334  -5.9998  -5.9374
    -5.8574  -5.6389  -5.5953  -5.1668  -5.1394  -5.0698  -4.9566  -4.9392
    -4.8395  -4.8122  -4.3224  -4.3109  -4.2951  -4.1186  -3.9197  -3.9113
    -3.7332  -3.5972  -3.4075  -3.3240  -3.1929  -2.8155  -2.6528  -2.6424
    -2.5454  -2.4113  -2.3934  -2.3039  -2.1594  -2.0996  -1.9945  -1.7671
    -1.6805  -1.6662  -1.5183  -1.3495   0.8770   0.9301   1.0826   1.3204
     1.4616   1.7250   1.8380   2.0724   2.1992   2.3271   2.4150   2.4861
     2.4903   2.5284   2.5796   2.8225   2.8842   2.9077   3.0085   3.1543
     3.2989   3.3726

     the Fermi energy is     0.3051 ev

!    total energy              =   -1596.43693579 Ry
     estimated scf accuracy    <       0.00000058 Ry
     smearing contrib. (-TS)   =      -0.00024462 Ry
     internal energy E=F+TS    =   -1596.43669117 Ry

     The total energy is F=E-TS. E is the sum of the following terms:
     one-electron contribution =  -15592.58629784 Ry
     hartree contribution      =    7820.07502310 Ry
     xc contribution           =    -231.10097611 Ry
     ewald contribution        =    6530.92609983 Ry
     one-center paw contrib.   =    -123.75054015 Ry

     total magnetization       =    11.00 Bohr mag/cell
     absolute magnetization    =    13.65 Bohr mag/cell

     convergence has been achieved in  46 iterations

     negative rho (up, down):  2.080E-03 1.903E-02

     Forces acting on atoms (cartesian axes, Ry/au):

     atom    1 type  1   force =     0.00002324    0.00000000    0.10861229
     atom    2 type  1   force =     0.00021326    0.00000000   -0.09966965
     atom    3 type  1   force =     0.00046355    0.00000000    0.01069939
     atom    4 type  1   force =     0.00015709    0.00000000    0.00644120
     atom    5 type  1   force =    -0.00183656    0.00000000    0.01940932
     atom    6 type  1   force =    -0.00031891    0.00000000    0.04362601
     atom    7 type  3   force =    -0.00141143    0.00000000    0.04012571
     atom    8 type  3   force =    -0.00021557    0.00000000    0.06501754
     atom    9 type  3   force =    -0.00002707    0.01688321   -0.03710597
     atom   10 type  3   force =    -0.00002707   -0.01688321   -0.03710597
     atom   11 type  3   force =    -0.00080675    0.00000000   -0.01389348
     atom   12 type  3   force =    -0.00208088    0.00000000   -0.01272881
     atom   13 type  3   force =     0.00102869    0.00357831   -0.00164260
     atom   14 type  3   force =     0.00102869   -0.00357831   -0.00164260
     atom   15 type  3   force =     0.00097749    0.00000000   -0.05078870
     atom   16 type  3   force =     0.00137764    0.00000000   -0.00902101
     atom   17 type  3   force =    -0.00045756    0.00798168   -0.00074143
     atom   18 type  3   force =    -0.00045756   -0.00798168   -0.00074143
     atom   19 type  3   force =     0.00251671    0.00000000   -0.02992102
     atom   20 type  2   force =    -0.00014701    0.00000000    0.00107120

     Total force =     0.079761     Total SCF correction =     0.000915

     Writing all to output data dir ./tmp_s0_OH__u000__sp2m010/s0_OH__u000__sp2m010.save/ :
     XML data file, charge density, pseudopotentials, collected wavefunctions

     init_run     :      3.94s CPU      4.07s WALL (       1 calls)
     electrons    :    281.68s CPU    294.74s WALL (       1 calls)
     forces       :      0.91s CPU      0.92s WALL (       1 calls)

     Called by init_run:
     wfcinit      :      1.52s CPU      1.57s WALL (       1 calls)
     potinit      :      1.19s CPU      1.21s WALL (       1 calls)
     hinit0       :      0.49s CPU      0.51s WALL (       1 calls)

     Called by electrons:
     c_bands      :    205.58s CPU    214.75s WALL (      46 calls)
     sum_band     :     49.78s CPU     52.00s WALL (      46 calls)
     v_of_rho     :      5.47s CPU      5.77s WALL (      47 calls)
     newd         :      3.73s CPU      3.94s WALL (      47 calls)
     PAW_pot      :      7.64s CPU      8.01s WALL (      47 calls)
     mix_rho      :      6.15s CPU      6.64s WALL (      46 calls)

     Called by c_bands:
     init_us_2    :      2.32s CPU      2.52s WALL (     752 calls)
     cegterg      :    107.23s CPU    115.37s WALL (     368 calls)

     Called by *egterg:
     cdiaghg      :     11.30s CPU     12.13s WALL (    1157 calls)
     h_psi        :     69.27s CPU     74.67s WALL (    1165 calls)
     s_psi        :      4.35s CPU      4.72s WALL (    1165 calls)
     g_psi        :      0.33s CPU      0.37s WALL (     789 calls)

     Called by h_psi:
     h_psi:calbec :      7.53s CPU      8.18s WALL (    1165 calls)
     vloc_psi     :     56.87s CPU     61.18s WALL (    1165 calls)
                                        0.00s GPU  (    1165 calls)
     add_vuspsi   :      4.36s CPU      4.74s WALL (    1165 calls)

     General routines
     calbec       :     11.44s CPU     12.36s WALL (    1565 calls)
     fft          :      3.91s CPU      4.06s WALL (    1188 calls)
     ffts         :      3.92s CPU      4.23s WALL (    5721 calls)
     fftw         :     67.77s CPU     72.74s WALL (  185044 calls)
     interpolate  :      0.55s CPU      0.55s WALL (      94 calls)

     Parallel routines

     PWSCF        :   4m47.28s CPU   5m 0.78s WALL


   This run was terminated on:  19:46:46   1Sep2026            

=------------------------------------------------------------------------------=
   JOB DONE.
=------------------------------------------------------------------------------=
Note: The following floating-point exceptions are signalling: IEEE_DENORMAL
Note: The following floating-point exceptions are signalling: IEEE_DENORMAL
Note: The following floating-point exceptions are signalling: IEEE_DENORMAL
Note: The following floating-point exceptions are signalling: IEEE_DENORMAL
Note: The following floating-point exceptions are signalling: IEEE_DENORMAL
Note: The following floating-point exceptions are signalling: IEEE_DENORMAL
Note: The following floating-point exceptions are signalling: IEEE_DENORMAL
Note: The following floating-point exceptions are signalling: IEEE_DENORMAL
Note: The following floating-point exceptions are signalling: IEEE_DENORMAL
Note: The following floating-point exceptions are signalling: IEEE_DENORMAL
Note: The following floating-point exceptions are signalling: IEEE_DENORMAL
Note: The following floating-point exceptions are signalling: IEEE_DENORMAL
Note: The following floating-point exceptions are signalling: IEEE_DENORMAL
Note: The following floating-point exceptions are signalling: IEEE_DENORMAL
