
     Program PWSCF v.7.5 starts on  1Sep2026 at  0:39:23 

     This program is part of the open-source Quantum ESPRESSO suite
     for quantum simulation of materials; please cite
         "P. Giannozzi et al., J. Phys.:Condens. Matter 21 395502 (2009);
         "P. Giannozzi et al., J. Phys.:Condens. Matter 29 465901 (2017);
         "P. Giannozzi et al., J. Chem. Phys. 152 154105 (2020);
          URL http://www.quantum-espresso.org", 
     in publications or presentations arising from this work. More details at
     http://www.quantum-espresso.org/quote

     Parallel version (MPI & OpenMP), running on     128 processor cores
     Number of MPI processes:               128
     Threads/MPI process:                     1

     MPI processes distributed on     1 nodes
     229189 MiB available memory on the printing compute node when the environment starts

     Reading input from s0_OH__u000__sp2m030.run.in

     Current dimensions of program PWSCF are:
     Max number of different atomic species (ntypx) = 10
     Max number of k-points (npk) =  40000
     Max angular momentum in pseudopotentials (lmaxx) =  4
     file O.pbe-n-kjpaw_psl.0.1.UPF: wavefunction(s)  2P renormalized
     Message from routine setup:
     using ibrav=0 with symmetry is DISCOURAGED, use correct ibrav instead

     K-points division:     npool     =       4
     R & G space division:  proc/nbgrp/npool/nimage =      32
     Subspace diagonalization in iterative solution of the eigenvalue problem:
     a serial algorithm will be used


     Parallelization info
     --------------------
     sticks:   dense  smooth     PW     G-vecs:    dense   smooth      PW
     Min         103      51     14                26275     9281    1388
     Max         104      52     15                26300     9316    1415
     Sum        3323    1653    471               841263   297421   44917

     Using Slab Decomposition



     bravais-lattice index     =            0
     lattice parameter (alat)  =       5.5104  a.u.
     unit-cell volume          =    3076.9124 (a.u.)^3
     number of atoms/cell      =           20
     number of atomic types    =            3
     number of electrons       =       163.00
     number of Kohn-Sham states=           98
     kinetic-energy cutoff     =      80.0000  Ry
     charge density cutoff     =     640.0000  Ry
     scf convergence threshold =      1.0E-06
     mixing beta               =       0.3000
     number of iterations used =            8  local-TF  mixing
     Exchange-correlation= SLA  PW   PBX  PBC
                           (   1   4   3   4   0   0   0)

     celldm(1)=   5.510441  celldm(2)=   0.000000  celldm(3)=   0.000000
     celldm(4)=   0.000000  celldm(5)=   0.000000  celldm(6)=   0.000000

     crystal axes: (cart. coord. in units of alat)
               a(1) = (   1.000000   0.000000   0.000000 )  
               a(2) = (   0.000000   2.144115   0.000000 )  
               a(3) = (   0.000000   0.000000   8.576458 )  

     reciprocal axes: (cart. coord. in units 2 pi/alat)
               b(1) = (  1.000000  0.000000  0.000000 )  
               b(2) = (  0.000000  0.466393  0.000000 )  
               b(3) = (  0.000000  0.000000  0.116598 )  


     PseudoPot. # 1 for Cr read from file:
     /anvil/projects/x-che260157/pseudo/cr_pbe_v1.5.uspp.F.UPF
     MD5 check sum: 0d52af634a40206e4dee301ad30da4bf
     Pseudo is Ultrasoft + core correction, Zval = 14.0
     Generated by new atomic code, or converted to UPF format
     Using radial grid of  857 points,  6 beta functions with: 
                l(1) =   0
                l(2) =   0
                l(3) =   1
                l(4) =   1
                l(5) =   2
                l(6) =   2
     Q(r) pseudized with  8 coefficients,  rinner =    0.950   0.950   0.950
                                                       0.950   0.950

     PseudoPot. # 2 for H  read from file:
     /anvil/projects/x-che260157/pseudo/H.pbe-rrkjus_psl.1.0.0.UPF
     MD5 check sum: f52b6d4d1c606e5624b1dc7b2218f220
     Pseudo is Ultrasoft, Zval =  1.0
     Generated using "atomic" code by A. Dal Corso  v.5.1
     Using radial grid of  929 points,  2 beta functions with: 
                l(1) =   0
                l(2) =   0
     Q(r) pseudized with 0 coefficients 


     PseudoPot. # 3 for O  read from file:
     /anvil/projects/x-che260157/pseudo/O.pbe-n-kjpaw_psl.0.1.UPF
     MD5 check sum: 0234752ac141de4415c5fc33072bef88
     Pseudo is Projector augmented-wave + core cor, Zval =  6.0
     Generated using "atomic" code by A. Dal Corso  v.5.0.99 svn rev. 10869
     Shape of augmentation charge: BESSEL
     Using radial grid of 1095 points,  4 beta functions with: 
                l(1) =   0
                l(2) =   0
                l(3) =   1
                l(4) =   1
     Q(r) pseudized with 0 coefficients 


     atomic species   valence    mass     pseudopotential
     Cr               14.00    51.99600     Cr( 1.00)
     H                 1.00     1.00800     H ( 1.00)
     O                 6.00    15.99900     O ( 1.00)

     Starting magnetic structure 
     atomic species   magnetization
     Cr              0.300
     H               0.000
     O               0.000

      2 Sym. Ops. (no inversion) found ( 1 have fractional translation)



   Cartesian axes

     site n.     atom                  positions (alat units)
         1        Cr     tau(   1) = (   0.0000000   0.5360286   3.2161719  )
         2        Cr     tau(   2) = (   0.5000000   1.6080859   3.2161719  )
         3        Cr     tau(   3) = (  -0.0045866   1.6080859   4.3058521  )
         4        Cr     tau(   4) = (   0.4986853   0.5360286   4.3030576  )
         5        Cr     tau(   5) = (  -0.0014913   0.5360286   5.4105325  )
         6        Cr     tau(   6) = (   0.4918552   1.6080859   5.4140377  )
         7        O      tau(   7) = (   0.0000000   1.6080859   3.6342742  )
         8        O      tau(   8) = (   0.0000000   1.6080859   2.7980695  )
         9        O      tau(   9) = (   0.5000000   0.1179263   3.2161719  )
        10        O      tau(  10) = (   0.5000000   0.9541310   3.2161719  )
        11        O      tau(  11) = (  -0.0020806   0.5360286   4.7322491  )
        12        O      tau(  12) = (   0.0000000   0.5360286   3.8701268  )
        13        O      tau(  13) = (   0.4959276   1.1851994   4.2991401  )
        14        O      tau(  14) = (   0.4959276   2.0309725   4.2991401  )
        15        O      tau(  15) = (  -0.0067460   1.6080859   5.8016285  )
        16        O      tau(  16) = (  -0.0070311   1.6080859   4.9574288  )
        17        O      tau(  17) = (   0.4950777   0.1142789   5.3927666  )
        18        O      tau(  18) = (   0.4950777   0.9577784   5.3927666  )
        19        O      tau(  19) = (  -0.0210039   0.5360286   6.0465650  )
        20        H      tau(  20) = (   0.2916328   0.5360286   6.1748138  )

     number of k points=    15  Marzari-Vanderbilt smearing, width (Ry)=  0.0100
                       cart. coord. in units 2pi/alat
        k(    1) = (   0.0000000   0.0000000   0.0000000), wk =   0.0277778
        k(    2) = (   0.0000000   0.1165982   0.0000000), wk =   0.0555556
        k(    3) = (   0.0000000  -0.2331965   0.0000000), wk =   0.0277778
        k(    4) = (   0.1111111   0.0000000   0.0000000), wk =   0.0555556
        k(    5) = (   0.1111111   0.1165982   0.0000000), wk =   0.1111111
        k(    6) = (   0.1111111  -0.2331965   0.0000000), wk =   0.0555556
        k(    7) = (   0.2222222   0.0000000   0.0000000), wk =   0.0555556
        k(    8) = (   0.2222222   0.1165982   0.0000000), wk =   0.1111111
        k(    9) = (   0.2222222  -0.2331965   0.0000000), wk =   0.0555556
        k(   10) = (   0.3333333   0.0000000   0.0000000), wk =   0.0555556
        k(   11) = (   0.3333333   0.1165982   0.0000000), wk =   0.1111111
        k(   12) = (   0.3333333  -0.2331965   0.0000000), wk =   0.0555556
        k(   13) = (   0.4444444   0.0000000   0.0000000), wk =   0.0555556
        k(   14) = (   0.4444444   0.1165982   0.0000000), wk =   0.1111111
        k(   15) = (   0.4444444  -0.2331965   0.0000000), wk =   0.0555556

     Dense  grid:   841263 G-vectors     FFT dimensions: (  45,  96, 384)

     Smooth grid:   297421 G-vectors     FFT dimensions: (  32,  72, 270)

     Estimated max dynamical RAM per process >      74.35 MB

     Estimated total dynamical RAM >       8.09 GB

     Check: negative core charge=   -0.000001
     Generating pointlists ...
     new r_m :   0.2605 (alat units)  1.4355 (a.u.) for type    1
     new r_m :   0.1394 (alat units)  0.7681 (a.u.) for type    2
     new r_m :   0.1394 (alat units)  0.7681 (a.u.) for type    3

     Initial potential from superposition of free atoms

     starting charge     156.9999, renormalised to     163.0000

     negative rho (up, down):  3.452E-03 1.842E-03
     Starting wfcs are  113 randomized atomic wfcs
     Checking if some PAW data can be deallocated... 

     total cpu time spent up to now is        3.4 secs

     per-process dynamical memory:   104.0 Mb

     Self-consistent Calculation

     iteration #  1     ecut=    80.00 Ry     beta= 0.30
     Davidson diagonalization with overlap
     ethr =  1.00E-02,  avg # of iterations =  3.0

     negative rho (up, down):  3.630E-03 6.063E-03

     total cpu time spent up to now is        8.9 secs

     total energy              =   -1596.75711148 Ry
     estimated scf accuracy    <      38.00274748 Ry

     total magnetization       =    12.89 Bohr mag/cell
     absolute magnetization    =    14.15 Bohr mag/cell

     iteration #  2     ecut=    80.00 Ry     beta= 0.30
     Davidson diagonalization with overlap
     ethr =  1.00E-02,  avg # of iterations =  1.0

     negative rho (up, down):  9.208E-03 2.541E-02

     total cpu time spent up to now is       13.4 secs

     total energy              =   -1594.17175980 Ry
     estimated scf accuracy    <      22.58866198 Ry

     total magnetization       =    11.98 Bohr mag/cell
     absolute magnetization    =    13.42 Bohr mag/cell

     iteration #  3     ecut=    80.00 Ry     beta= 0.30
     Davidson diagonalization with overlap
     ethr =  1.00E-02,  avg # of iterations =  4.4

     negative rho (up, down):  6.610E-03 1.906E-02

     total cpu time spent up to now is       18.7 secs

     total energy              =   -1596.22753282 Ry
     estimated scf accuracy    <      45.13679992 Ry

     total magnetization       =     6.54 Bohr mag/cell
     absolute magnetization    =    10.58 Bohr mag/cell

     iteration #  4     ecut=    80.00 Ry     beta= 0.30
     Davidson diagonalization with overlap
     ethr =  1.00E-02,  avg # of iterations =  1.1

     negative rho (up, down):  8.145E-03 2.486E-02

     total cpu time spent up to now is       22.1 secs

     total energy              =   -1595.45394924 Ry
     estimated scf accuracy    <      13.50543940 Ry

     total magnetization       =     8.81 Bohr mag/cell
     absolute magnetization    =    12.34 Bohr mag/cell

     iteration #  5     ecut=    80.00 Ry     beta= 0.30
     Davidson diagonalization with overlap
     ethr =  8.29E-03,  avg # of iterations =  1.9

     negative rho (up, down):  1.017E-02 2.966E-02

     total cpu time spent up to now is       27.4 secs

     total energy              =   -1596.54204616 Ry
     estimated scf accuracy    <       4.43126926 Ry

     total magnetization       =    10.93 Bohr mag/cell
     absolute magnetization    =    13.40 Bohr mag/cell

     iteration #  6     ecut=    80.00 Ry     beta= 0.30
     Davidson diagonalization with overlap
     ethr =  2.72E-03,  avg # of iterations =  3.0

     negative rho (up, down):  1.081E-02 3.085E-02

     total cpu time spent up to now is       31.4 secs

     total energy              =   -1596.72934095 Ry
     estimated scf accuracy    <       9.30034715 Ry

     total magnetization       =    11.00 Bohr mag/cell
     absolute magnetization    =    12.51 Bohr mag/cell

     iteration #  7     ecut=    80.00 Ry     beta= 0.30
     Davidson diagonalization with overlap
     ethr =  2.72E-03,  avg # of iterations =  1.0

     negative rho (up, down):  1.366E-02 3.323E-02

     total cpu time spent up to now is       35.3 secs

     total energy              =   -1595.97411096 Ry
     estimated scf accuracy    <       7.80975720 Ry

     total magnetization       =    11.00 Bohr mag/cell
     absolute magnetization    =    12.40 Bohr mag/cell

     iteration #  8     ecut=    80.00 Ry     beta= 0.30
     Davidson diagonalization with overlap
     ethr =  2.72E-03,  avg # of iterations =  1.2

     negative rho (up, down):  1.100E-02 2.810E-02

     total cpu time spent up to now is       39.0 secs

     total energy              =   -1596.17711864 Ry
     estimated scf accuracy    <      15.99517315 Ry

     total magnetization       =     5.63 Bohr mag/cell
     absolute magnetization    =     9.67 Bohr mag/cell

     iteration #  9     ecut=    80.00 Ry     beta= 0.30
     Davidson diagonalization with overlap
     ethr =  2.72E-03,  avg # of iterations =  1.0

     negative rho (up, down):  1.101E-02 2.726E-02

     total cpu time spent up to now is       43.7 secs

     total energy              =   -1596.40361381 Ry
     estimated scf accuracy    <       0.85771475 Ry

     total magnetization       =    10.62 Bohr mag/cell
     absolute magnetization    =    12.28 Bohr mag/cell

     iteration # 10     ecut=    80.00 Ry     beta= 0.30
     Davidson diagonalization with overlap
     ethr =  5.26E-04,  avg # of iterations =  1.7

     negative rho (up, down):  1.109E-02 2.788E-02

     total cpu time spent up to now is       47.7 secs

     total energy              =   -1596.39305621 Ry
     estimated scf accuracy    <       0.76098225 Ry

     total magnetization       =    10.83 Bohr mag/cell
     absolute magnetization    =    12.50 Bohr mag/cell

     iteration # 11     ecut=    80.00 Ry     beta= 0.30
     Davidson diagonalization with overlap
     ethr =  4.67E-04,  avg # of iterations =  1.0

     negative rho (up, down):  1.076E-02 2.753E-02

     total cpu time spent up to now is       51.8 secs

     total energy              =   -1596.42415869 Ry
     estimated scf accuracy    <       0.26767063 Ry

     total magnetization       =    10.56 Bohr mag/cell
     absolute magnetization    =    12.59 Bohr mag/cell

     iteration # 12     ecut=    80.00 Ry     beta= 0.30
     Davidson diagonalization with overlap
     ethr =  1.64E-04,  avg # of iterations =  1.5

     negative rho (up, down):  8.806E-03 2.606E-02

     total cpu time spent up to now is       55.2 secs

     total energy              =   -1596.42529537 Ry
     estimated scf accuracy    <       0.21532272 Ry

     total magnetization       =    10.65 Bohr mag/cell
     absolute magnetization    =    12.67 Bohr mag/cell

     iteration # 13     ecut=    80.00 Ry     beta= 0.30
     Davidson diagonalization with overlap
     ethr =  1.32E-04,  avg # of iterations =  1.3

     negative rho (up, down):  6.691E-03 2.457E-02

     total cpu time spent up to now is       58.7 secs

     total energy              =   -1596.43750678 Ry
     estimated scf accuracy    <       0.04496058 Ry

     total magnetization       =    11.00 Bohr mag/cell
     absolute magnetization    =    13.10 Bohr mag/cell

     iteration # 14     ecut=    80.00 Ry     beta= 0.30
     Davidson diagonalization with overlap
     ethr =  2.76E-05,  avg # of iterations = 10.4

     negative rho (up, down):  4.448E-03 2.279E-02

     total cpu time spent up to now is       64.4 secs

     total energy              =   -1596.43737708 Ry
     estimated scf accuracy    <       0.02271033 Ry

     total magnetization       =    11.00 Bohr mag/cell
     absolute magnetization    =    13.35 Bohr mag/cell

     iteration # 15     ecut=    80.00 Ry     beta= 0.30
     Davidson diagonalization with overlap
     ethr =  1.39E-05,  avg # of iterations =  5.1

     negative rho (up, down):  4.096E-03 2.247E-02

     total cpu time spent up to now is       70.1 secs

     total energy              =   -1596.43892807 Ry
     estimated scf accuracy    <       0.01915166 Ry

     total magnetization       =    11.00 Bohr mag/cell
     absolute magnetization    =    13.58 Bohr mag/cell

     iteration # 16     ecut=    80.00 Ry     beta= 0.30
     Davidson diagonalization with overlap
     ethr =  1.17E-05,  avg # of iterations =  1.0

     negative rho (up, down):  1.164E-03 1.989E-02

     total cpu time spent up to now is       76.6 secs

     total energy              =   -1596.43622849 Ry
     estimated scf accuracy    <       0.01922796 Ry

     total magnetization       =    11.00 Bohr mag/cell
     absolute magnetization    =    13.60 Bohr mag/cell

     iteration # 17     ecut=    80.00 Ry     beta= 0.30
     Davidson diagonalization with overlap
     ethr =  1.17E-05,  avg # of iterations =  4.5

     negative rho (up, down):  5.842E-04 1.934E-02

     total cpu time spent up to now is       81.6 secs

     total energy              =   -1596.43695980 Ry
     estimated scf accuracy    <       0.01955315 Ry

     total magnetization       =    11.00 Bohr mag/cell
     absolute magnetization    =    13.77 Bohr mag/cell

     iteration # 18     ecut=    80.00 Ry     beta= 0.30
     Davidson diagonalization with overlap
     ethr =  1.17E-05,  avg # of iterations =  1.6

     negative rho (up, down):  1.924E-04 1.886E-02

     total cpu time spent up to now is       85.7 secs

     total energy              =   -1596.43656622 Ry
     estimated scf accuracy    <       0.01555020 Ry

     total magnetization       =    11.00 Bohr mag/cell
     absolute magnetization    =    13.79 Bohr mag/cell

     iteration # 19     ecut=    80.00 Ry     beta= 0.30
     Davidson diagonalization with overlap
     ethr =  9.54E-06,  avg # of iterations =  1.2

     negative rho (up, down):  2.310E-04 1.870E-02

     total cpu time spent up to now is       93.9 secs

     total energy              =   -1596.43677297 Ry
     estimated scf accuracy    <       0.00334762 Ry

     total magnetization       =    11.00 Bohr mag/cell
     absolute magnetization    =    13.75 Bohr mag/cell

     iteration # 20     ecut=    80.00 Ry     beta= 0.30
     Davidson diagonalization with overlap
     ethr =  2.05E-06,  avg # of iterations = 10.3

     negative rho (up, down):  3.687E-04 1.867E-02

     total cpu time spent up to now is      101.1 secs

     total energy              =   -1596.43679564 Ry
     estimated scf accuracy    <       0.00186165 Ry

     total magnetization       =    11.00 Bohr mag/cell
     absolute magnetization    =    13.72 Bohr mag/cell

     iteration # 21     ecut=    80.00 Ry     beta= 0.30
     Davidson diagonalization with overlap
     ethr =  1.14E-06,  avg # of iterations =  2.6

     negative rho (up, down):  1.446E-03 1.981E-02

     total cpu time spent up to now is      105.7 secs

     total energy              =   -1596.43676536 Ry
     estimated scf accuracy    <       0.00128325 Ry

     total magnetization       =    11.00 Bohr mag/cell
     absolute magnetization    =    13.70 Bohr mag/cell

     iteration # 22     ecut=    80.00 Ry     beta= 0.30
     Davidson diagonalization with overlap
     ethr =  7.87E-07,  avg # of iterations =  1.1

     negative rho (up, down):  1.917E-03 2.021E-02

     total cpu time spent up to now is      109.9 secs

     total energy              =   -1596.43677896 Ry
     estimated scf accuracy    <       0.00080587 Ry

     total magnetization       =    11.00 Bohr mag/cell
     absolute magnetization    =    13.69 Bohr mag/cell

     iteration # 23     ecut=    80.00 Ry     beta= 0.30
     Davidson diagonalization with overlap
     ethr =  4.94E-07,  avg # of iterations =  1.4

     negative rho (up, down):  2.796E-03 2.104E-02

     total cpu time spent up to now is      113.6 secs

     total energy              =   -1596.43681840 Ry
     estimated scf accuracy    <       0.00049756 Ry

     total magnetization       =    11.00 Bohr mag/cell
     absolute magnetization    =    13.67 Bohr mag/cell

     iteration # 24     ecut=    80.00 Ry     beta= 0.30
     Davidson diagonalization with overlap
     ethr =  3.05E-07,  avg # of iterations =  1.4

     negative rho (up, down):  3.461E-03 2.165E-02

     total cpu time spent up to now is      119.6 secs

     total energy              =   -1596.43686546 Ry
     estimated scf accuracy    <       0.00025695 Ry

     total magnetization       =    11.00 Bohr mag/cell
     absolute magnetization    =    13.65 Bohr mag/cell

     iteration # 25     ecut=    80.00 Ry     beta= 0.30
     Davidson diagonalization with overlap
     ethr =  1.58E-07,  avg # of iterations =  1.4

     negative rho (up, down):  3.245E-03 2.130E-02

     total cpu time spent up to now is      123.1 secs

     total energy              =   -1596.43689386 Ry
     estimated scf accuracy    <       0.00019134 Ry

     total magnetization       =    11.00 Bohr mag/cell
     absolute magnetization    =    13.64 Bohr mag/cell

     iteration # 26     ecut=    80.00 Ry     beta= 0.30
     Davidson diagonalization with overlap
     ethr =  1.17E-07,  avg # of iterations =  1.2

     negative rho (up, down):  2.572E-03 2.035E-02

     total cpu time spent up to now is      127.0 secs

     total energy              =   -1596.43690538 Ry
     estimated scf accuracy    <       0.00010285 Ry

     total magnetization       =    11.00 Bohr mag/cell
     absolute magnetization    =    13.64 Bohr mag/cell

     iteration # 27     ecut=    80.00 Ry     beta= 0.30
     Davidson diagonalization with overlap
     ethr =  6.31E-08,  avg # of iterations =  1.7

     negative rho (up, down):  2.232E-03 1.954E-02

     total cpu time spent up to now is      132.7 secs

     total energy              =   -1596.43692167 Ry
     estimated scf accuracy    <       0.00005165 Ry

     total magnetization       =    11.00 Bohr mag/cell
     absolute magnetization    =    13.65 Bohr mag/cell

     iteration # 28     ecut=    80.00 Ry     beta= 0.30
     Davidson diagonalization with overlap
     ethr =  3.17E-08,  avg # of iterations =  2.0

     negative rho (up, down):  2.230E-03 1.933E-02

     total cpu time spent up to now is      138.7 secs

     total energy              =   -1596.43692885 Ry
     estimated scf accuracy    <       0.00003187 Ry

     total magnetization       =    11.00 Bohr mag/cell
     absolute magnetization    =    13.65 Bohr mag/cell

     iteration # 29     ecut=    80.00 Ry     beta= 0.30
     Davidson diagonalization with overlap
     ethr =  1.96E-08,  avg # of iterations =  1.9

     negative rho (up, down):  2.248E-03 1.929E-02

     total cpu time spent up to now is      156.3 secs

     total energy              =   -1596.43693247 Ry
     estimated scf accuracy    <       0.00000494 Ry

     total magnetization       =    11.00 Bohr mag/cell
     absolute magnetization    =    13.65 Bohr mag/cell

     iteration # 30     ecut=    80.00 Ry     beta= 0.30
     Davidson diagonalization with overlap
     ethr =  3.03E-09,  avg # of iterations =  4.0

     negative rho (up, down):  2.165E-03 1.915E-02

     total cpu time spent up to now is      162.0 secs

     total energy              =   -1596.43693431 Ry
     estimated scf accuracy    <       0.00000219 Ry

     total magnetization       =    11.00 Bohr mag/cell
     absolute magnetization    =    13.65 Bohr mag/cell

     iteration # 31     ecut=    80.00 Ry     beta= 0.30
     Davidson diagonalization with overlap
     ethr =  1.34E-09,  avg # of iterations =  2.0

     negative rho (up, down):  2.134E-03 1.910E-02

     total cpu time spent up to now is      177.1 secs

     total energy              =   -1596.43693532 Ry
     estimated scf accuracy    <       0.00000189 Ry

     total magnetization       =    11.00 Bohr mag/cell
     absolute magnetization    =    13.65 Bohr mag/cell

     iteration # 32     ecut=    80.00 Ry     beta= 0.30
     Davidson diagonalization with overlap
     ethr =  1.16E-09,  avg # of iterations =  1.9

     negative rho (up, down):  2.080E-03 1.903E-02

     Magnetic moment per site  (integrated on atomic sphere of radius R)
     atom   1 (R=0.261)  charge= 10.4634  magn=  1.9294
     atom   2 (R=0.261)  charge= 10.3885  magn=  1.4670
     atom   3 (R=0.261)  charge= 10.4092  magn=  1.6970
     atom   4 (R=0.261)  charge= 10.4080  magn=  1.6917
     atom   5 (R=0.261)  charge= 10.3966  magn=  1.5544
     atom   6 (R=0.261)  charge= 10.3848  magn=  1.4010
     atom   7 (R=0.139)  charge=  1.9666  magn= -0.0417
     atom   8 (R=0.139)  charge=  1.9449  magn= -0.0631
     atom   9 (R=0.139)  charge=  1.9668  magn= -0.0274
     atom  10 (R=0.139)  charge=  1.9668  magn= -0.0274
     atom  11 (R=0.139)  charge=  1.9619  magn= -0.0383
     atom  12 (R=0.139)  charge=  1.9628  magn= -0.0427
     atom  13 (R=0.139)  charge=  1.9669  magn= -0.0338
     atom  14 (R=0.139)  charge=  1.9669  magn= -0.0338
     atom  15 (R=0.139)  charge=  1.9480  magn= -0.0771
     atom  16 (R=0.139)  charge=  1.9607  magn= -0.0370
     atom  17 (R=0.139)  charge=  1.9667  magn= -0.0298
     atom  18 (R=0.139)  charge=  1.9667  magn= -0.0298
     atom  19 (R=0.139)  charge=  1.9679  magn= -0.0270
     atom  20 (R=0.139)  charge=  0.3931  magn=  0.0044

     total cpu time spent up to now is      180.4 secs

     End of self-consistent calculation

 ------ SPIN UP ------------


          k = 0.0000 0.0000 0.0000 ( 37133 PWs)   bands (ev):

   -73.3489 -73.2839 -73.2470 -73.2372 -73.2155 -73.1852 -44.6899 -44.6852
   -44.6435 -44.6308 -44.6122 -44.5614 -44.5574 -44.5506 -44.5036 -44.4985
   -44.4853 -44.4830 -44.4774 -44.4710 -44.4371 -44.4282 -44.4102 -44.3973
   -19.2771 -18.9857 -18.7087 -18.2318 -18.1192 -17.8136 -17.6845 -17.5835
   -17.4462 -17.3581 -17.3445 -16.9164 -16.5057  -7.1633  -7.0608  -6.9531
    -6.4618  -6.0347  -5.7762  -5.5737  -5.2681  -5.1257  -5.1073  -5.0806
    -5.0475  -4.8776  -4.8221  -4.7562  -4.1559  -3.8782  -3.5368  -3.3878
    -3.3477  -3.2723  -3.0062  -2.9162  -2.8211  -2.7328  -2.6634  -2.5625
    -2.3193  -2.2307  -2.1291  -1.8966  -1.7893  -1.7086  -1.5603  -1.3529
    -1.2498  -1.1634  -1.1576  -1.1299  -1.0688  -0.8507  -0.8439  -0.7879
    -0.7339  -0.7325  -0.6558  -0.4817  -0.1910  -0.1219   0.0192   0.0909
     0.1999   0.6067   1.0137   1.1287   1.1947   1.2935   1.4034   2.0933
     2.6719   3.1314

          k = 0.0000 0.1166 0.0000 ( 37130 PWs)   bands (ev):

   -73.3489 -73.2839 -73.2469 -73.2373 -73.2155 -73.1852 -44.6899 -44.6836
   -44.6414 -44.6284 -44.6122 -44.5610 -44.5578 -44.5506 -44.5036 -44.4985
   -44.4878 -44.4828 -44.4795 -44.4726 -44.4372 -44.4279 -44.4105 -44.3973
   -19.1552 -18.8713 -18.6180 -18.3867 -18.1649 -17.9812 -17.8157 -17.5313
   -17.4739 -17.3280 -17.3244 -16.9128 -16.4966  -6.8542  -6.7680  -6.6526
    -6.4455  -6.0382  -5.6848  -5.4607  -5.2110  -5.1663  -5.0421  -4.9853
    -4.8739  -4.8295  -4.8272  -4.7564  -4.2676  -4.1101  -3.9753  -3.7782
    -3.6745  -3.4852  -3.3100  -3.0643  -2.9377  -2.8181  -2.7403  -2.6505
    -2.4184  -2.2421  -2.1895  -2.1366  -2.0797  -1.7655  -1.5745  -1.4862
    -1.3977  -1.2701  -1.0364  -0.8290  -0.7569  -0.6755  -0.6143  -0.5717
    -0.5205  -0.4405  -0.4069  -0.3258  -0.1767  -0.0821   0.0177   0.1045
     0.1974   0.5847   0.9438   0.9996   1.1131   1.2361   1.4077   2.4362
     2.9983   3.2808

          k = 0.0000-0.2332 0.0000 ( 37126 PWs)   bands (ev):

   -73.3489 -73.2838 -73.2468 -73.2374 -73.2155 -73.1852 -44.6899 -44.6821
   -44.6393 -44.6259 -44.6122 -44.5605 -44.5583 -44.5506 -44.5036 -44.4986
   -44.4903 -44.4827 -44.4817 -44.4743 -44.4373 -44.4275 -44.4109 -44.3973
   -18.8895 -18.7750 -18.6775 -18.3493 -18.3333 -18.1330 -17.9791 -17.5026
   -17.4904 -17.3103 -17.3045 -16.9113 -16.4885  -6.5588  -6.4099  -6.3075
    -6.1867  -6.0428  -5.6794  -5.1975  -5.1478  -4.9727  -4.9681  -4.9163
    -4.8575  -4.8557  -4.8345  -4.7565  -4.4098  -4.3724  -4.3248  -4.3148
    -4.1249  -3.9368  -3.4376  -3.2250  -3.1019  -3.0274  -2.9645  -2.8268
    -2.5021  -2.2435  -2.1511  -2.1050  -1.9597  -1.8554  -1.6551  -1.4385
    -1.3850  -1.1330  -0.9770  -0.8132  -0.7746  -0.6650  -0.4663  -0.4609
    -0.4214  -0.2381  -0.2102  -0.0417  -0.0000   0.0111   0.0623   0.1822
     0.4265   0.4759   0.6901   0.8075   1.0315   1.0932   1.5751   2.8101
     3.1080   3.5960

          k = 0.1111 0.0000 0.0000 ( 37175 PWs)   bands (ev):

   -73.3473 -73.2824 -73.2454 -73.2356 -73.2139 -73.1837 -44.6884 -44.6834
   -44.6416 -44.6288 -44.6091 -44.5702 -44.5585 -44.5552 -44.5022 -44.5007
   -44.4965 -44.4826 -44.4747 -44.4682 -44.4561 -44.4479 -44.4293 -44.4161
   -19.1657 -18.8846 -18.6192 -18.1586 -18.0635 -17.7586 -17.6389 -17.6101
   -17.4707 -17.3728 -17.3707 -16.9431 -16.5199  -7.0183  -6.9269  -6.8266
    -6.3408  -5.9606  -5.7248  -5.5288  -5.4556  -5.3332  -5.3006  -5.1957
    -5.0338  -4.7976  -4.7608  -4.7112  -3.9853  -3.7234  -3.5410  -3.3421
    -3.3088  -3.1839  -3.1609  -3.0393  -3.0198  -2.9397  -2.8407  -2.7050
    -2.5854  -2.3733  -2.3211  -2.1673  -2.0597  -2.0114  -1.7726  -1.7001
    -1.5721  -1.3659  -1.1719  -0.9108  -0.8166  -0.7865  -0.7179  -0.6710
    -0.5271  -0.4526  -0.3890  -0.2531  -0.0961  -0.0893   0.1456   0.2528
     0.4552   0.5446   0.9259   1.0975   1.2074   1.2270   1.3287   2.2021
     2.7690   3.1705

          k = 0.1111 0.1166 0.0000 ( 37124 PWs)   bands (ev):

   -73.3473 -73.2823 -73.2453 -73.2357 -73.2139 -73.1837 -44.6884 -44.6821
   -44.6398 -44.6268 -44.6091 -44.5702 -44.5581 -44.5556 -44.5023 -44.5007
   -44.4965 -44.4848 -44.4764 -44.4696 -44.4561 -44.4475 -44.4295 -44.4161
   -19.0482 -18.7748 -18.5309 -18.3116 -18.1049 -17.9286 -17.7693 -17.5505
   -17.4982 -17.3448 -17.3424 -16.9396 -16.5118  -6.7093  -6.6307  -6.5209
    -6.3254  -5.9642  -5.6367  -5.5100  -5.3607  -5.2987  -5.2438  -5.1518
    -4.9809  -4.7722  -4.7229  -4.6218  -4.0491  -3.9231  -3.8369  -3.7224
    -3.5545  -3.4542  -3.3481  -3.3281  -3.2618  -3.1657  -3.0010  -2.8396
    -2.7059  -2.6284  -2.2630  -2.2133  -2.1379  -1.9944  -1.7861  -1.5721
    -1.4643  -1.3827  -1.0598  -0.7860  -0.7271  -0.5248  -0.4822  -0.4117
    -0.3243  -0.2727  -0.2371  -0.1907  -0.1238  -0.0219   0.1155   0.2622
     0.4512   0.5257   0.8658   0.9227   1.0386   1.1839   1.4440   2.4947
     3.0104   3.2340

          k = 0.1111-0.2332 0.0000 ( 37144 PWs)   bands (ev):

   -73.3473 -73.2823 -73.2452 -73.2358 -73.2139 -73.1837 -44.6884 -44.6808
   -44.6381 -44.6247 -44.6091 -44.5702 -44.5574 -44.5563 -44.5024 -44.5007
   -44.4965 -44.4871 -44.4781 -44.4709 -44.4561 -44.4470 -44.4298 -44.4160
   -18.7922 -18.6805 -18.5889 -18.2800 -18.2643 -18.0723 -17.9300 -17.5209
   -17.5156 -17.3274 -17.3194 -16.9380 -16.5045  -6.4292  -6.2487  -6.1701
    -6.0400  -5.9634  -5.6564  -5.3622  -5.3280  -5.2058  -5.1861  -5.1501
    -4.8652  -4.7316  -4.6462  -4.5850  -4.3262  -4.1910  -4.0833  -4.0710
    -3.9460  -3.8567  -3.6806  -3.5780  -3.5094  -3.3898  -3.1718  -2.9541
    -2.8199  -2.6692  -2.2865  -2.2152  -1.9839  -1.8385  -1.6557  -1.4727
    -1.4363  -1.1942  -1.0473  -0.8282  -0.7059  -0.4442  -0.4230  -0.4107
    -0.3564  -0.2400  -0.0542   0.1294   0.1316   0.2011   0.2777   0.3485
     0.4378   0.5040   0.6303   0.7406   0.9665   1.0113   1.5951   2.8521
     3.0187   3.2379

          k = 0.2222 0.0000 0.0000 ( 37192 PWs)   bands (ev):

   -73.3434 -73.2785 -73.2415 -73.2317 -73.2100 -73.1798 -44.6846 -44.6789
   -44.6368 -44.6237 -44.6198 -44.5994 -44.5534 -44.5498 -44.5470 -44.5046
   -44.4975 -44.4953 -44.4928 -44.4775 -44.4755 -44.4677 -44.4626 -44.4610
   -18.8615 -18.6132 -18.3843 -17.9818 -17.9194 -17.6787 -17.6546 -17.5331
   -17.5247 -17.4376 -17.3989 -17.0063 -16.5405  -6.6373  -6.5723  -6.5003
    -6.0727  -5.8349  -5.7896  -5.7072  -5.6686  -5.5097  -5.4297  -5.1477
    -5.0585  -4.6665  -4.5173  -4.3958  -4.3950  -4.0565  -3.9722  -3.8090
    -3.6639  -3.6445  -3.5300  -3.2445  -3.0462  -2.9808  -2.8423  -2.8113
    -2.7344  -2.6093  -2.4385  -2.3727  -2.3557  -2.2497  -2.1629  -1.7889
    -1.7399  -1.4709  -1.2387  -0.8703  -0.6252  -0.5526  -0.5349  -0.4982
    -0.4531  -0.4115  -0.1560   0.0221   0.1718   0.2550   0.3590   0.4765
     0.5921   0.6475   0.7541   0.8402   0.9816   1.1189   1.3396   2.3796
     2.8163   3.0427

          k = 0.2222 0.1166 0.0000 ( 37137 PWs)   bands (ev):

   -73.3434 -73.2785 -73.2414 -73.2317 -73.2100 -73.1798 -44.6846 -44.6783
   -44.6361 -44.6229 -44.6199 -44.5994 -44.5531 -44.5500 -44.5472 -44.5042
   -44.4968 -44.4952 -44.4928 -44.4815 -44.4731 -44.4687 -44.4627 -44.4614
   -18.7587 -18.5183 -18.3040 -18.1275 -17.9605 -17.8162 -17.6754 -17.5855
   -17.5558 -17.3827 -17.3720 -17.0038 -16.5357  -6.3384  -6.2847  -6.2027
    -6.0500  -5.7889  -5.7186  -5.7119  -5.5788  -5.5312  -5.3729  -5.2955
    -4.7720  -4.6713  -4.5505  -4.5186  -4.3571  -4.2075  -4.1769  -3.9719
    -3.8785  -3.6579  -3.4956  -3.3605  -3.3388  -3.2768  -3.1764  -3.1116
    -2.9713  -2.8668  -2.4241  -2.3489  -2.1960  -2.0801  -2.0347  -1.8272
    -1.5997  -1.4509  -1.2998  -0.8242  -0.6931  -0.4571  -0.4019  -0.2232
    -0.1583  -0.1253  -0.0737   0.0314   0.2270   0.2575   0.3400   0.3764
     0.5683   0.5941   0.7080   0.7632   0.8792   1.0195   1.4702   2.5260
     2.7809   2.8812

          k = 0.2222-0.2332 0.0000 ( 37166 PWs)   bands (ev):

   -73.3434 -73.2785 -73.2413 -73.2318 -73.2100 -73.1798 -44.6846 -44.6777
   -44.6354 -44.6221 -44.6199 -44.5994 -44.5529 -44.5503 -44.5473 -44.5037
   -44.4961 -44.4951 -44.4928 -44.4839 -44.4722 -44.4698 -44.4626 -44.4621
   -18.5334 -18.4336 -18.3555 -18.1204 -18.0927 -17.9343 -17.8049 -17.5810
   -17.5554 -17.3670 -17.3448 -17.0025 -16.5312  -6.1416  -5.9117  -5.8477
    -5.7876  -5.7011  -5.6326  -5.6173  -5.4874  -5.4039  -5.3510  -5.2965
    -4.8067  -4.7472  -4.7198  -4.6192  -4.5835  -4.4909  -4.1885  -4.1771
    -3.8809  -3.8331  -3.7301  -3.5705  -3.5119  -3.5093  -3.3804  -3.2689
    -3.2655  -2.9675  -2.4074  -2.3613  -2.0460  -1.9009  -1.8133  -1.7122
    -1.6644  -1.4234  -1.3358  -0.8578  -0.4869  -0.4542  -0.3870  -0.2046
    -0.1913   0.0778   0.1746   0.2299   0.3098   0.3181   0.3318   0.4055
     0.5024   0.5433   0.7161   0.7330   0.8324   0.8488   1.5633   2.5435
     2.5880   2.6009

          k = 0.3333 0.0000 0.0000 ( 37184 PWs)   bands (ev):

   -73.3390 -73.2742 -73.2370 -73.2272 -73.2056 -73.1754 -44.6806 -44.6738
   -44.6736 -44.6313 -44.6181 -44.5996 -44.5907 -44.5584 -44.5545 -44.5508
   -44.5398 -44.5300 -44.5209 -44.4874 -44.4845 -44.4674 -44.4598 -44.4527
   -18.4534 -18.2616 -18.0969 -17.8128 -17.7640 -17.7584 -17.6325 -17.6048
   -17.5142 -17.4342 -17.3698 -17.0554 -16.5276  -6.3741  -6.2263  -6.1346
    -6.0215  -5.9372  -5.8329  -5.6963  -5.6931  -5.5662  -5.4010  -5.2723
    -5.0384  -4.9627  -4.7254  -4.5273  -4.4639  -4.4590  -4.2298  -3.9972
    -3.8543  -3.7522  -3.5460  -3.4277  -3.3974  -3.2164  -3.1448  -3.0326
    -2.9115  -2.6459  -2.4820  -2.4321  -2.2798  -1.9652  -1.9446  -1.9116
    -1.6255  -1.6044  -1.4445  -1.1111  -0.7159  -0.4940  -0.4255  -0.3595
    -0.3553  -0.2790   0.0553   0.1378   0.1570   0.2306   0.3654   0.4296
     0.5451   0.6734   0.7167   0.8284   0.9668   1.0293   1.2479   2.2777
     2.6592   3.0330

          k = 0.3333 0.1166 0.0000 ( 37206 PWs)   bands (ev):

   -73.3390 -73.2742 -73.2369 -73.2272 -73.2056 -73.1754 -44.6806 -44.6744
   -44.6736 -44.6326 -44.6195 -44.5998 -44.5907 -44.5568 -44.5525 -44.5508
   -44.5397 -44.5305 -44.5202 -44.4873 -44.4845 -44.4675 -44.4601 -44.4529
   -18.3793 -18.1956 -18.0409 -17.9433 -17.8265 -17.7436 -17.6737 -17.5952
   -17.5730 -17.4140 -17.3520 -17.0560 -16.5269  -6.3507  -6.0123  -5.9421
    -5.8880  -5.8634  -5.8081  -5.6858  -5.6594  -5.6244  -5.4710  -5.3300
    -4.9866  -4.9666  -4.7488  -4.6263  -4.4927  -4.3647  -4.2879  -3.9448
    -3.8885  -3.7478  -3.6449  -3.4605  -3.4188  -3.2870  -3.1167  -3.0431
    -2.9262  -2.8415  -2.5690  -2.3929  -2.2489  -2.1395  -2.0437  -1.8818
    -1.6058  -1.4839  -1.4642  -1.1869  -0.7898  -0.5030  -0.3901  -0.2944
    -0.2560  -0.1909  -0.1692  -0.0124   0.1178   0.2159   0.2458   0.4570
     0.6638   0.7632   0.8032   0.8838   0.9653   0.9785   1.3439   2.3228
     2.3731   2.5063

          k = 0.3333-0.2332 0.0000 ( 37216 PWs)   bands (ev):

   -73.3390 -73.2742 -73.2369 -73.2272 -73.2056 -73.1754 -44.6806 -44.6746
   -44.6738 -44.6337 -44.6208 -44.6000 -44.5907 -44.5552 -44.5508 -44.5507
   -44.5396 -44.5310 -44.5195 -44.4873 -44.4845 -44.4676 -44.4604 -44.4532
   -18.2086 -18.1591 -18.0682 -17.9693 -17.9134 -17.8180 -17.6801 -17.6427
   -17.5683 -17.4014 -17.3421 -17.0568 -16.5261  -6.3442  -5.8918  -5.8646
    -5.7639  -5.7221  -5.7168  -5.6525  -5.5756  -5.4878  -5.3288  -5.2761
    -5.1794  -4.9972  -4.9698  -4.6709  -4.5426  -4.2887  -4.2039  -4.1445
    -3.9860  -3.7996  -3.5493  -3.4806  -3.4805  -3.2926  -3.2621  -3.1012
    -3.0599  -2.8594  -2.4382  -2.3950  -2.2895  -2.1726  -2.1377  -1.9262
    -1.7671  -1.3295  -1.3146  -1.0980  -0.8727  -0.8296  -0.4569  -0.3157
    -0.3037  -0.0793  -0.0649   0.0195   0.1369   0.2440   0.2568   0.3519
     0.6798   0.7698   0.8068   0.9107   1.0495   1.0593   1.4181   2.0841
     2.0982   2.1360

          k = 0.4444 0.0000 0.0000 ( 37180 PWs)   bands (ev):

   -73.3360 -73.2713 -73.2340 -73.2243 -73.2027 -73.1725 -44.7089 -44.6785
   -44.6705 -44.6327 -44.6279 -44.6145 -44.5947 -44.5903 -44.5833 -44.5700
   -44.5557 -44.5436 -44.5336 -44.4863 -44.4789 -44.4620 -44.4545 -44.4472
   -18.0904 -17.9552 -17.8807 -17.8112 -17.7774 -17.7444 -17.6520 -17.6483
   -17.5646 -17.4524 -17.3071 -17.0500 -16.4940  -6.6831  -6.1325  -6.0104
    -5.9196  -5.8428  -5.8159  -5.7899  -5.6381  -5.5979  -5.5021  -5.4221
    -5.2352  -4.9477  -4.8851  -4.7367  -4.6378  -4.3813  -4.0333  -3.8835
    -3.8372  -3.8111  -3.6836  -3.6513  -3.4736  -3.1475  -2.9658  -2.8554
    -2.7380  -2.6562  -2.5046  -2.4554  -2.3348  -2.3051  -2.1151  -1.9694
    -1.7153  -1.6140  -1.4936  -1.0989  -0.6551  -0.4753  -0.4127  -0.3600
    -0.3373  -0.2579  -0.1936  -0.1417   0.1019   0.1350   0.2482   0.3941
     0.4110   0.6242   0.8962   0.9106   1.0918   1.1476   1.2319   2.0690
     2.7049   2.8995

          k = 0.4444 0.1166 0.0000 ( 37248 PWs)   bands (ev):

   -73.3360 -73.2713 -73.2340 -73.2243 -73.2027 -73.1725 -44.7090 -44.6785
   -44.6718 -44.6330 -44.6320 -44.6200 -44.5908 -44.5847 -44.5829 -44.5704
   -44.5544 -44.5437 -44.5336 -44.4862 -44.4789 -44.4617 -44.4544 -44.4471
   -18.0758 -17.9535 -17.8860 -17.8128 -17.7860 -17.7631 -17.6914 -17.6071
   -17.5590 -17.4384 -17.3200 -17.0524 -16.4937  -6.6802  -6.2666  -6.1162
    -6.0423  -5.9739  -5.9226  -5.6728  -5.6206  -5.4936  -5.4024  -5.2749
    -4.9505  -4.8751  -4.8443  -4.5854  -4.4662  -4.2853  -4.1983  -4.0391
    -3.8859  -3.8020  -3.6184  -3.5498  -3.3486  -3.1774  -2.9335  -2.7968
    -2.7217  -2.6082  -2.5426  -2.4244  -2.3979  -2.2854  -2.0931  -2.0003
    -1.7908  -1.6405  -1.5297  -1.2129  -0.7406  -0.6198  -0.4544  -0.4089
    -0.3947  -0.3514  -0.3305  -0.3129  -0.2196  -0.1903   0.0313   0.3078
     0.8953   0.9075   1.0016   1.0576   1.1218   1.1746   1.2294   2.1145
     2.1987   2.3096

          k = 0.4444-0.2332 0.0000 ( 37264 PWs)   bands (ev):

   -73.3360 -73.2713 -73.2340 -73.2243 -73.2027 -73.1725 -44.7092 -44.6786
   -44.6731 -44.6356 -44.6331 -44.6241 -44.5879 -44.5822 -44.5805 -44.5707
   -44.5531 -44.5437 -44.5335 -44.4862 -44.4789 -44.4614 -44.4542 -44.4470
   -18.0572 -17.9627 -17.8547 -17.8491 -17.8148 -17.7417 -17.7216 -17.5880
   -17.5549 -17.4215 -17.3363 -17.0549 -16.4935  -6.6797  -6.3641  -6.3109
    -6.2071  -5.9414  -5.9216  -5.4389  -5.4078  -5.3404  -5.2793  -5.2371
    -5.1388  -5.1148  -4.6170  -4.4659  -4.4199  -4.2124  -4.0610  -4.0294
    -3.8610  -3.7290  -3.5426  -3.4363  -3.3867  -3.0864  -2.9215  -2.9159
    -2.8289  -2.6707  -2.6099  -2.4479  -2.3606  -2.1814  -2.1787  -1.8509
    -1.6679  -1.6587  -1.4649  -1.4241  -0.9644  -0.9277  -0.9228  -0.6072
    -0.4303  -0.3539  -0.3388  -0.2942  -0.2429  -0.1951  -0.0905   0.3211
     0.9391   0.9405   1.0760   1.1643   1.2479   1.2679   1.2801   1.8893
     1.9179   1.9515

 ------ SPIN DOWN ----------


          k = 0.0000 0.0000 0.0000 ( 37133 PWs)   bands (ev):

   -71.4146 -71.2231 -71.0583 -70.9657 -70.8915 -70.6010 -42.8713 -42.7394
   -42.7015 -42.6966 -42.5915 -42.5653 -42.5134 -42.4870 -42.3965 -42.3574
   -42.2771 -42.1644 -42.1285 -42.0257 -42.0170 -42.0067 -41.8990 -41.7819
   -19.3249 -19.0355 -18.7559 -18.3311 -18.2105 -17.9184 -17.8047 -17.6436
   -17.5270 -17.4677 -17.4239 -17.1343 -16.7276  -6.7408  -6.6217  -6.5262
    -6.0444  -5.6524  -5.4932  -5.2746  -4.9954  -4.8316  -4.8084  -4.6786
    -4.6382  -4.5222  -4.4757  -4.4183  -3.9122  -3.8189  -3.5216  -3.3890
    -3.2115  -3.1793  -2.9515  -2.8906  -2.6655  -2.5695  -2.3953  -2.3817
    -2.2560  -2.0628  -1.9013  -1.7452  -1.7400  -1.6077  -1.4041  -1.3000
    -1.2525  -1.1563  -0.8989  -0.6425   1.1473   1.1797   1.2911   1.3154
     1.3184   1.4744   1.5124   1.5151   1.7636   1.8343   1.8404   1.9222
     1.9436   2.0235   2.4025   2.5347   2.6638   2.8875   3.1487   3.2832
     3.9199   4.3990

          k = 0.0000 0.1166 0.0000 ( 37130 PWs)   bands (ev):

   -71.4146 -71.2231 -71.0583 -70.9657 -70.8915 -70.6010 -42.8704 -42.7388
   -42.7009 -42.6971 -42.5915 -42.5641 -42.5134 -42.4870 -42.3975 -42.3574
   -42.2771 -42.1644 -42.1298 -42.0253 -42.0169 -42.0072 -41.8997 -41.7819
   -19.2053 -18.9221 -18.6636 -18.4778 -18.2656 -18.0623 -17.9139 -17.6061
   -17.5676 -17.4323 -17.4149 -17.1326 -16.7181  -6.4521  -6.3474  -6.2411
    -6.0284  -5.6557  -5.4029  -5.1736  -5.0251  -4.7670  -4.6342  -4.5979
    -4.5869  -4.5146  -4.4719  -4.4218  -4.0894  -3.9165  -3.7952  -3.6603
    -3.4650  -3.2124  -3.1165  -2.9282  -2.7215  -2.6446  -2.4783  -2.3976
    -2.1933  -2.1605  -2.0715  -1.9860  -1.8452  -1.6171  -1.5685  -1.4569
    -1.3761  -1.2072  -1.0464  -0.7495   1.3750   1.4204   1.5049   1.5686
     1.6120   1.6335   1.6931   1.7704   1.7866   1.8458   1.8637   1.9601
     2.0207   2.0277   2.4251   2.4933   2.6754   2.7487   3.0133   3.5426
     4.1435   4.4587

          k = 0.0000-0.2332 0.0000 ( 37126 PWs)   bands (ev):

   -71.4146 -71.2231 -71.0583 -70.9657 -70.8915 -70.6010 -42.8694 -42.7382
   -42.7002 -42.6979 -42.5915 -42.5630 -42.5134 -42.4870 -42.3986 -42.3574
   -42.2771 -42.1644 -42.1310 -42.0248 -42.0169 -42.0077 -41.9004 -41.7819
   -18.9391 -18.8421 -18.7228 -18.4523 -18.3933 -18.2241 -18.0544 -17.5869
   -17.5844 -17.4147 -17.4008 -17.1337 -16.7097  -6.1855  -5.9814  -5.9396
    -5.7954  -5.6640  -5.4101  -5.0675  -4.7424  -4.7234  -4.5873  -4.5576
    -4.5332  -4.5060  -4.4642  -4.4260  -4.1167  -4.0974  -4.0566  -4.0442
    -3.8325  -3.7059  -3.0971  -2.9885  -2.8537  -2.7187  -2.6593  -2.4997
    -2.2500  -2.2242  -2.0446  -2.0206  -1.9766  -1.7797  -1.6993  -1.4805
    -1.3425  -1.0852  -1.0646  -0.9605   1.3798   1.6573   1.6827   1.7791
     1.8077   1.8238   1.8272   1.8503   1.9359   1.9541   2.0311   2.0511
     2.0885   2.1059   2.2014   2.3816   2.6769   2.7341   3.0054   3.9053
     4.1787   4.5385

          k = 0.1111 0.0000 0.0000 ( 37175 PWs)   bands (ev):

   -71.4129 -71.2214 -71.0567 -70.9641 -70.8898 -70.5992 -42.8696 -42.7377
   -42.6984 -42.6945 -42.6132 -42.5635 -42.5100 -42.4850 -42.3928 -42.3791
   -42.2731 -42.1631 -42.1247 -42.0468 -42.0389 -42.0288 -41.8948 -41.8052
   -19.2143 -18.9350 -18.6676 -18.2585 -18.1544 -17.8621 -17.7635 -17.6699
   -17.5519 -17.4809 -17.4498 -17.1628 -16.7430  -6.6079  -6.5069  -6.4193
    -5.9472  -5.5882  -5.4308  -5.2459  -5.1342  -5.1262  -4.9341  -4.8638
    -4.7493  -4.4634  -4.4545  -4.4205  -3.6543  -3.5350  -3.4183  -3.2445
    -3.2035  -3.0532  -3.0249  -2.9966  -2.9172  -2.7792  -2.6471  -2.4505
    -2.3013  -2.2144  -2.0833  -1.9927  -1.8810  -1.8107  -1.5852  -1.5041
    -1.3043  -1.2013  -1.0578  -0.7241   1.1818   1.3685   1.4388   1.4814
     1.5375   1.5774   1.6078   1.6200   1.8089   1.8551   1.9395   1.9789
     2.0688   2.1361   2.3104   2.5753   2.6500   2.7965   3.0646   3.3834
     3.9796   4.4660

          k = 0.1111 0.1166 0.0000 ( 37124 PWs)   bands (ev):

   -71.4129 -71.2214 -71.0567 -70.9641 -70.8898 -70.5992 -42.8688 -42.7372
   -42.6978 -42.6950 -42.6133 -42.5625 -42.5100 -42.4850 -42.3937 -42.3791
   -42.2731 -42.1631 -42.1259 -42.0463 -42.0389 -42.0292 -41.8954 -41.8052
   -19.0993 -18.8265 -18.5780 -18.4027 -18.2038 -18.0084 -17.8676 -17.6280
   -17.5919 -17.4488 -17.4349 -17.1610 -16.7344  -6.3228  -6.2264  -6.1275
    -5.9315  -5.5899  -5.3588  -5.2132  -5.1389  -5.0001  -4.8847  -4.8234
    -4.6575  -4.4717  -4.4177  -4.3273  -3.7964  -3.6755  -3.6248  -3.5281
    -3.3868  -3.2822  -3.1124  -3.0940  -3.0497  -2.9290  -2.7761  -2.5402
    -2.3739  -2.3153  -2.1307  -2.0933  -1.9937  -1.9054  -1.5509  -1.4804
    -1.3713  -1.1866  -1.0819  -0.8028   1.3683   1.4687   1.5683   1.6395
     1.7059   1.7118   1.7750   1.8607   1.9123   1.9478   1.9524   2.0647
     2.1312   2.1632   2.3746   2.4317   2.6341   2.7732   2.9526   3.6006
     4.1324   4.4017

          k = 0.1111-0.2332 0.0000 ( 37144 PWs)   bands (ev):

   -71.4129 -71.2214 -71.0567 -70.9641 -70.8899 -70.5992 -42.8679 -42.7367
   -42.6966 -42.6963 -42.6133 -42.5616 -42.5100 -42.4850 -42.3946 -42.3791
   -42.2731 -42.1631 -42.1271 -42.0457 -42.0388 -42.0296 -41.8960 -41.8052
   -18.8438 -18.7486 -18.6364 -18.3793 -18.3250 -18.1620 -18.0054 -17.6124
   -17.6054 -17.4313 -17.4180 -17.1620 -16.7268  -6.0758  -5.8385  -5.8302
    -5.6702  -5.5871  -5.3929  -5.1753  -4.9586  -4.9270  -4.8150  -4.7992
    -4.5438  -4.4471  -4.3127  -4.2618  -4.0677  -3.9157  -3.8391  -3.7933
    -3.7113  -3.6078  -3.4174  -3.3429  -3.1789  -3.0538  -2.8154  -2.6827
    -2.4844  -2.3682  -2.2035  -2.1357  -1.8965  -1.8046  -1.6211  -1.4347
    -1.3032  -1.1318  -1.0915  -0.9539   1.4768   1.5916   1.6193   1.7056
     1.7899   1.8043   1.9188   1.9599   2.0222   2.1186   2.1524   2.1551
     2.2581   2.2654   2.3003   2.3924   2.6154   2.6580   3.0250   3.9206
     4.1001   4.1947

          k = 0.2222 0.0000 0.0000 ( 37192 PWs)   bands (ev):

   -71.4087 -71.2172 -71.0525 -70.9599 -70.8856 -70.5948 -42.8651 -42.7334
   -42.6930 -42.6886 -42.6658 -42.5589 -42.5021 -42.4796 -42.4334 -42.3834
   -42.2629 -42.1602 -42.1150 -42.0995 -42.0942 -42.0845 -41.8841 -41.8641
   -18.9131 -18.6657 -18.4361 -18.0811 -18.0119 -17.7538 -17.7380 -17.6598
   -17.6153 -17.5159 -17.5018 -17.2341 -16.7668  -6.2627  -6.2128  -6.1582
    -5.7752  -5.5266  -5.4860  -5.4351  -5.3717  -5.2744  -5.0919  -4.8602
    -4.7573  -4.4397  -4.2925  -4.1413  -4.0790  -3.8265  -3.7267  -3.5251
    -3.3759  -3.2702  -3.2589  -2.9681  -2.8642  -2.8437  -2.6828  -2.6671
    -2.5290  -2.3496  -2.2333  -2.1865  -2.0952  -1.9973  -1.9077  -1.6233
    -1.4842  -1.4180  -1.1314  -0.9914   1.1276   1.3840   1.7065   1.7654
     1.8099   1.8528   1.8768   1.9112   2.0129   2.0562   2.1017   2.1410
     2.1430   2.2317   2.3359   2.3592   2.5782   2.8285   2.8296   3.5861
     3.8842   4.1838

          k = 0.2222 0.1166 0.0000 ( 37137 PWs)   bands (ev):

   -71.4087 -71.2172 -71.0525 -70.9599 -70.8856 -70.5948 -42.8646 -42.7332
   -42.6927 -42.6889 -42.6659 -42.5584 -42.5021 -42.4796 -42.4334 -42.3839
   -42.2629 -42.1602 -42.1170 -42.0980 -42.0940 -42.0846 -41.8845 -41.8639
   -18.8132 -18.5732 -18.3562 -18.2174 -18.0532 -17.8876 -17.7719 -17.6749
   -17.6479 -17.4856 -17.4736 -17.2329 -16.7615  -6.0042  -5.9328  -5.8788
    -5.7354  -5.5047  -5.4158  -5.3926  -5.3006  -5.2364  -5.0481  -5.0045
    -4.4847  -4.4136  -4.3016  -4.2764  -4.0808  -3.9516  -3.8867  -3.6504
    -3.5887  -3.3941  -3.2603  -3.1668  -3.1205  -3.0657  -2.9391  -2.8667
    -2.7593  -2.5013  -2.1920  -2.0774  -2.0433  -1.8530  -1.7694  -1.5943
    -1.4471  -1.3388  -1.1993  -0.9883   1.1859   1.4601   1.6529   1.7438
     1.8152   1.8444   1.9153   2.0320   2.1014   2.1632   2.1765   2.2473
     2.3320   2.3342   2.3409   2.4114   2.5246   2.7155   2.9339   3.6976
     3.8495   4.0376

          k = 0.2222-0.2332 0.0000 ( 37166 PWs)   bands (ev):

   -71.4087 -71.2172 -71.0525 -70.9599 -70.8856 -70.5948 -42.8642 -42.7330
   -42.6924 -42.6892 -42.6660 -42.5580 -42.5021 -42.4796 -42.4335 -42.3844
   -42.2629 -42.1602 -42.1188 -42.0966 -42.0937 -42.0848 -41.8848 -41.8638
   -18.5912 -18.5047 -18.4107 -18.2063 -18.1546 -18.0186 -17.8808 -17.6781
   -17.6485 -17.4691 -17.4509 -17.2339 -16.7568  -5.8675  -5.6238  -5.5922
    -5.4606  -5.3631  -5.3475  -5.3070  -5.1248  -5.0894  -4.9997  -4.9664
    -4.5152  -4.4319  -4.4228  -4.3445  -4.2815  -4.2645  -3.9167  -3.8852
    -3.7304  -3.6607  -3.5614  -3.3002  -3.2669  -3.2040  -3.0604  -2.9989
    -2.9352  -2.5775  -2.1908  -2.1713  -1.8470  -1.7414  -1.5853  -1.5228
    -1.4138  -1.3424  -1.2350  -0.9830   1.3331   1.4220   1.5588   1.7377
     1.7598   1.8041   1.9881   2.0283   2.1220   2.2844   2.3360   2.3466
     2.4276   2.4737   2.5043   2.5645   2.5998   2.6449   3.0170   3.6087
     3.7046   3.7623

          k = 0.3333 0.0000 0.0000 ( 37184 PWs)   bands (ev):

   -71.4038 -71.2124 -71.0477 -70.9552 -70.8807 -70.5897 -42.8600 -42.7320
   -42.7286 -42.6881 -42.6737 -42.5537 -42.5027 -42.4868 -42.4719 -42.3726
   -42.2512 -42.1670 -42.1567 -42.1492 -42.1466 -42.1040 -41.9303 -41.8719
   -18.5095 -18.3185 -18.1554 -17.9070 -17.8618 -17.8172 -17.7360 -17.6881
   -17.5918 -17.5436 -17.4836 -17.3063 -16.7580  -6.2167  -5.9482  -5.8352
    -5.7268  -5.6421  -5.5493  -5.4749  -5.4001  -5.2504  -5.0646  -4.9626
    -4.8051  -4.6314  -4.4411  -4.2698  -4.1741  -4.1649  -3.9934  -3.7359
    -3.5669  -3.5536  -3.3403  -3.1441  -3.1042  -2.9320  -2.8638  -2.7127
    -2.7019  -2.3862  -2.3278  -2.1402  -2.1117  -1.8339  -1.7668  -1.7271
    -1.6013  -1.5025  -1.3656  -1.2793   1.2060   1.2619   1.6449   1.8766
     1.9205   1.9872   2.0305   2.0683   2.1452   2.1843   2.2064   2.2174
     2.3218   2.3299   2.4665   2.4980   2.5704   2.5942   2.8390   3.4474
     3.8298   4.1120

          k = 0.3333 0.1166 0.0000 ( 37206 PWs)   bands (ev):

   -71.4038 -71.2124 -71.0477 -70.9552 -70.8808 -70.5897 -42.8600 -42.7321
   -42.7287 -42.6880 -42.6738 -42.5539 -42.5027 -42.4868 -42.4719 -42.3727
   -42.2512 -42.1674 -42.1564 -42.1489 -42.1468 -42.1035 -41.9300 -41.8720
   -18.4390 -18.2562 -18.1036 -18.0247 -17.9064 -17.8160 -17.7715 -17.6869
   -17.6595 -17.5135 -17.4652 -17.3085 -16.7571  -6.1978  -5.7120  -5.6319
    -5.6054  -5.5607  -5.5089  -5.4259  -5.3466  -5.2887  -5.1629  -4.9788
    -4.7519  -4.6687  -4.5124  -4.3543  -4.2620  -4.1480  -3.9844  -3.7562
    -3.6722  -3.4745  -3.4069  -3.2450  -3.2031  -3.0632  -2.8975  -2.8201
    -2.5512  -2.5332  -2.2904  -2.1987  -2.0515  -1.9539  -1.8375  -1.7273
    -1.4996  -1.4497  -1.3606  -1.2513   1.1177   1.2182   1.4462   1.6876
     1.7077   1.9433   2.0177   2.0701   2.1662   2.2203   2.3144   2.3794
     2.4569   2.4999   2.5140   2.5238   2.6063   2.6910   2.9178   3.4558
     3.6479   3.7358

          k = 0.3333-0.2332 0.0000 ( 37216 PWs)   bands (ev):

   -71.4038 -71.2124 -71.0477 -70.9552 -70.8808 -70.5897 -42.8600 -42.7322
   -42.7288 -42.6880 -42.6738 -42.5541 -42.5028 -42.4868 -42.4719 -42.3729
   -42.2513 -42.1678 -42.1561 -42.1488 -42.1468 -42.1031 -41.9297 -41.8721
   -18.2776 -18.2284 -18.1377 -18.0414 -17.9748 -17.8951 -17.7740 -17.7207
   -17.6689 -17.5001 -17.4530 -17.3112 -16.7564  -6.1900  -5.5464  -5.5196
    -5.4481  -5.4230  -5.4031  -5.3643  -5.2754  -5.1496  -5.0172  -4.9991
    -4.8082  -4.7500  -4.7245  -4.4220  -4.3523  -4.1038  -4.0108  -3.9138
    -3.8521  -3.6519  -3.4011  -3.2950  -3.1744  -3.0459  -2.9867  -2.8577
    -2.7813  -2.4824  -2.2672  -2.1784  -1.9968  -1.9828  -1.8778  -1.7404
    -1.4975  -1.4060  -1.3728  -1.1328   1.0317   1.1891   1.1955   1.5267
     1.7232   1.9354   1.9827   1.9978   2.1774   2.2196   2.4253   2.4384
     2.5126   2.6060   2.6538   2.6737   2.7360   2.7595   3.0039   3.2368
     3.3743   3.4517

          k = 0.4444 0.0000 0.0000 ( 37180 PWs)   bands (ev):

   -71.4007 -71.2092 -71.0446 -70.9521 -70.8776 -70.5864 -42.8567 -42.7716
   -42.7254 -42.6851 -42.6670 -42.5503 -42.5377 -42.4867 -42.4668 -42.3655
   -42.2440 -42.2008 -42.1968 -42.1883 -42.1507 -42.0968 -41.9732 -41.8639
   -18.1427 -18.0183 -17.9576 -17.8778 -17.8699 -17.8155 -17.7611 -17.7360
   -17.6417 -17.5563 -17.4179 -17.3230 -16.7272  -6.5418  -5.8888  -5.7286
    -5.6354  -5.6246  -5.5794  -5.5011  -5.3041  -5.3020  -5.2283  -5.1228
    -4.8731  -4.7004  -4.5629  -4.4587  -4.3170  -4.1112  -3.8406  -3.5943
    -3.5685  -3.5548  -3.5481  -3.3757  -3.3196  -2.8718  -2.7993  -2.6583
    -2.4559  -2.4356  -2.3901  -2.2352  -2.2301  -2.0208  -2.0053  -1.7889
    -1.5991  -1.5839  -1.3390  -1.2735   1.3192   1.4728   1.4977   1.6735
     1.6995   1.8248   1.9890   2.0602   2.2150   2.2219   2.3511   2.3581
     2.3789   2.4441   2.5105   2.6417   2.6614   2.7558   2.8662   3.2652
     3.8549   4.0407

          k = 0.4444 0.1166 0.0000 ( 37248 PWs)   bands (ev):

   -71.4007 -71.2092 -71.0446 -70.9521 -70.8776 -70.5864 -42.8570 -42.7718
   -42.7257 -42.6851 -42.6670 -42.5510 -42.5378 -42.4867 -42.4668 -42.3654
   -42.2440 -42.2012 -42.1964 -42.1876 -42.1507 -42.0963 -41.9728 -41.8638
   -18.1294 -18.0228 -17.9680 -17.8915 -17.8662 -17.8381 -17.7909 -17.6944
   -17.6305 -17.5402 -17.4308 -17.3263 -16.7270  -6.5363  -5.9460  -5.7778
    -5.7442  -5.6523  -5.6020  -5.3865  -5.3288  -5.2662  -5.1258  -5.0215
    -4.7121  -4.6067  -4.5577  -4.2713  -4.1985  -4.0670  -3.9954  -3.8289
    -3.7223  -3.6071  -3.4799  -3.3895  -3.0907  -2.9391  -2.7736  -2.5813
    -2.4597  -2.4072  -2.3550  -2.2243  -2.1987  -2.1536  -1.9427  -1.8266
    -1.6915  -1.5805  -1.4467  -1.3079   1.1252   1.1676   1.3443   1.4045
     1.5254   1.7898   1.8426   2.0676   2.2308   2.3182   2.3840   2.4457
     2.4983   2.5930   2.6105   2.6456   2.7023   2.8367   2.9266   3.3031
     3.4643   3.5728

          k = 0.4444-0.2332 0.0000 ( 37264 PWs)   bands (ev):

   -71.4007 -71.2092 -71.0446 -70.9521 -70.8776 -70.5864 -42.8573 -42.7719
   -42.7261 -42.6851 -42.6670 -42.5516 -42.5379 -42.4867 -42.4668 -42.3653
   -42.2440 -42.2017 -42.1960 -42.1869 -42.1508 -42.0957 -41.9724 -41.8637
   -18.1115 -18.0420 -17.9440 -17.9216 -17.8978 -17.8198 -17.8118 -17.6732
   -17.6204 -17.5215 -17.4472 -17.3295 -16.7269  -6.5330  -5.9998  -5.9374
    -5.8564  -5.6388  -5.5952  -5.1663  -5.1392  -5.0694  -4.9561  -4.9389
    -4.8394  -4.8117  -4.3223  -4.3106  -4.2948  -4.1183  -3.9196  -3.9106
    -3.7329  -3.5971  -3.4071  -3.3237  -3.1926  -2.8153  -2.6527  -2.6421
    -2.5453  -2.4110  -2.3932  -2.3036  -2.1591  -2.0994  -1.9945  -1.7670
    -1.6804  -1.6660  -1.5180  -1.3495   0.8788   0.9301   1.0827   1.3216
     1.4620   1.7271   1.8399   2.0723   2.1997   2.3277   2.4202   2.4864
     2.4905   2.5291   2.5800   2.8260   2.8844   2.9080   3.0087   3.1557
     3.2991   3.3552

     the Fermi energy is     0.3051 ev

!    total energy              =   -1596.43693595 Ry
     estimated scf accuracy    <       0.00000028 Ry
     smearing contrib. (-TS)   =      -0.00024580 Ry
     internal energy E=F+TS    =   -1596.43669015 Ry

     The total energy is F=E-TS. E is the sum of the following terms:
     one-electron contribution =  -15592.59723064 Ry
     hartree contribution      =    7820.08582840 Ry
     xc contribution           =    -231.10086490 Ry
     ewald contribution        =    6530.92609983 Ry
     one-center paw contrib.   =    -123.75052285 Ry

     total magnetization       =    11.00 Bohr mag/cell
     absolute magnetization    =    13.65 Bohr mag/cell

     convergence has been achieved in  32 iterations

     negative rho (up, down):  2.080E-03 1.903E-02

     Forces acting on atoms (cartesian axes, Ry/au):

     atom    1 type  1   force =     0.00002165    0.00000000    0.10862337
     atom    2 type  1   force =     0.00021215    0.00000000   -0.09973065
     atom    3 type  1   force =     0.00046263    0.00000000    0.01070674
     atom    4 type  1   force =     0.00015683    0.00000000    0.00639166
     atom    5 type  1   force =    -0.00183248    0.00000000    0.01936390
     atom    6 type  1   force =    -0.00032157    0.00000000    0.04367015
     atom    7 type  3   force =    -0.00141274    0.00000000    0.04015154
     atom    8 type  3   force =    -0.00021734    0.00000000    0.06504119
     atom    9 type  3   force =    -0.00002836    0.01689045   -0.03712840
     atom   10 type  3   force =    -0.00002836   -0.01689045   -0.03712840
     atom   11 type  3   force =    -0.00081098    0.00000000   -0.01391969
     atom   12 type  3   force =    -0.00208180    0.00000000   -0.01273134
     atom   13 type  3   force =     0.00102719    0.00359235   -0.00164451
     atom   14 type  3   force =     0.00102719   -0.00359235   -0.00164451
     atom   15 type  3   force =     0.00097761    0.00000000   -0.05079747
     atom   16 type  3   force =     0.00137754    0.00000000   -0.00905225
     atom   17 type  3   force =    -0.00045553    0.00791376   -0.00073851
     atom   18 type  3   force =    -0.00045553   -0.00791376   -0.00073851
     atom   19 type  3   force =     0.00253082    0.00000000   -0.02976223
     atom   20 type  2   force =    -0.00014891    0.00000000    0.00106790

     Total force =     0.079714     Total SCF correction =     0.001323

     Writing all to output data dir ./tmp_s0_OH__u000__sp2m030/s0_OH__u000__sp2m030.save/ :
     XML data file, charge density, pseudopotentials, collected wavefunctions

     init_run     :      2.85s CPU      2.98s WALL (       1 calls)
     electrons    :    175.25s CPU    177.14s WALL (       1 calls)
     forces       :      0.75s CPU      0.76s WALL (       1 calls)

     Called by init_run:
     wfcinit      :      1.29s CPU      1.35s WALL (       1 calls)
     potinit      :      0.45s CPU      0.46s WALL (       1 calls)
     hinit0       :      0.50s CPU      0.54s WALL (       1 calls)

     Called by electrons:
     c_bands      :    116.10s CPU    117.30s WALL (      32 calls)
     sum_band     :     39.95s CPU     40.37s WALL (      32 calls)
     v_of_rho     :      3.84s CPU      3.89s WALL (      33 calls)
     newd         :      3.03s CPU      3.07s WALL (      33 calls)
     PAW_pot      :      6.15s CPU      6.19s WALL (      33 calls)
     mix_rho      :      3.90s CPU      3.99s WALL (      32 calls)

     Called by c_bands:
     init_us_2    :      2.01s CPU      2.04s WALL (     528 calls)
     cegterg      :     69.82s CPU     70.73s WALL (     256 calls)

     Called by *egterg:
     cdiaghg      :      8.21s CPU      8.27s WALL (     832 calls)
     h_psi        :     44.60s CPU     45.37s WALL (     840 calls)
     s_psi        :      3.31s CPU      3.33s WALL (     840 calls)
     g_psi        :      0.24s CPU      0.24s WALL (     576 calls)

     Called by h_psi:
     h_psi:calbec :      5.19s CPU      5.24s WALL (     840 calls)
     vloc_psi     :     35.62s CPU     36.30s WALL (     840 calls)
                                        0.00s GPU  (     840 calls)
     add_vuspsi   :      3.30s CPU      3.33s WALL (     840 calls)

     General routines
     calbec       :      7.74s CPU      7.81s WALL (    1128 calls)
     fft          :      2.61s CPU      2.66s WALL (     838 calls)
     ffts         :      2.84s CPU      2.89s WALL (    3943 calls)
     fftw         :     41.53s CPU     42.31s WALL (  130798 calls)
     interpolate  :      0.47s CPU      0.48s WALL (      66 calls)

     Parallel routines

     PWSCF        :   2m59.96s CPU   3m 2.32s WALL


   This run was terminated on:   0:42:26   1Sep2026            

=------------------------------------------------------------------------------=
   JOB DONE.
=------------------------------------------------------------------------------=
Note: The following floating-point exceptions are signalling: IEEE_DENORMAL
Note: The following floating-point exceptions are signalling: IEEE_DENORMAL
Note: The following floating-point exceptions are signalling: IEEE_DENORMAL
Note: The following floating-point exceptions are signalling: IEEE_DENORMAL
Note: The following floating-point exceptions are signalling: IEEE_DENORMAL
Note: The following floating-point exceptions are signalling: IEEE_DENORMAL
Note: The following floating-point exceptions are signalling: IEEE_DENORMAL
Note: The following floating-point exceptions are signalling: IEEE_DENORMAL
Note: The following floating-point exceptions are signalling: IEEE_DENORMAL
Note: The following floating-point exceptions are signalling: IEEE_DENORMAL
Note: The following floating-point exceptions are signalling: IEEE_DENORMAL
Note: The following floating-point exceptions are signalling: IEEE_DENORMAL
