
     Program PWSCF v.7.5 starts on  1Sep2026 at  3:32:25 

     This program is part of the open-source Quantum ESPRESSO suite
     for quantum simulation of materials; please cite
         "P. Giannozzi et al., J. Phys.:Condens. Matter 21 395502 (2009);
         "P. Giannozzi et al., J. Phys.:Condens. Matter 29 465901 (2017);
         "P. Giannozzi et al., J. Chem. Phys. 152 154105 (2020);
          URL http://www.quantum-espresso.org", 
     in publications or presentations arising from this work. More details at
     http://www.quantum-espresso.org/quote

     Parallel version (MPI & OpenMP), running on     128 processor cores
     Number of MPI processes:               128
     Threads/MPI process:                     1

     MPI processes distributed on     1 nodes
     224557 MiB available memory on the printing compute node when the environment starts

     Reading input from s0_OOH__u000__sp2m050.run.in

     Current dimensions of program PWSCF are:
     Max number of different atomic species (ntypx) = 10
     Max number of k-points (npk) =  40000
     Max angular momentum in pseudopotentials (lmaxx) =  4
     file O.pbe-n-kjpaw_psl.0.1.UPF: wavefunction(s)  2P renormalized
     Message from routine setup:
     using ibrav=0 with symmetry is DISCOURAGED, use correct ibrav instead

     K-points division:     npool     =       4
     R & G space division:  proc/nbgrp/npool/nimage =      32
     Subspace diagonalization in iterative solution of the eigenvalue problem:
     a serial algorithm will be used


     Parallelization info
     --------------------
     sticks:   dense  smooth     PW     G-vecs:    dense   smooth      PW
     Min         103      51     14                26275     9281    1388
     Max         104      52     15                26300     9316    1415
     Sum        3323    1653    471               841263   297421   44917

     Using Slab Decomposition



     bravais-lattice index     =            0
     lattice parameter (alat)  =       5.5104  a.u.
     unit-cell volume          =    3076.9124 (a.u.)^3
     number of atoms/cell      =           21
     number of atomic types    =            3
     number of electrons       =       169.00
     number of Kohn-Sham states=          102
     kinetic-energy cutoff     =      80.0000  Ry
     charge density cutoff     =     640.0000  Ry
     scf convergence threshold =      1.0E-06
     mixing beta               =       0.3000
     number of iterations used =            8  local-TF  mixing
     Exchange-correlation= SLA  PW   PBX  PBC
                           (   1   4   3   4   0   0   0)

     celldm(1)=   5.510441  celldm(2)=   0.000000  celldm(3)=   0.000000
     celldm(4)=   0.000000  celldm(5)=   0.000000  celldm(6)=   0.000000

     crystal axes: (cart. coord. in units of alat)
               a(1) = (   1.000000   0.000000   0.000000 )  
               a(2) = (   0.000000   2.144115   0.000000 )  
               a(3) = (   0.000000   0.000000   8.576458 )  

     reciprocal axes: (cart. coord. in units 2 pi/alat)
               b(1) = (  1.000000  0.000000  0.000000 )  
               b(2) = (  0.000000  0.466393  0.000000 )  
               b(3) = (  0.000000  0.000000  0.116598 )  


     PseudoPot. # 1 for Cr read from file:
     /anvil/projects/x-che260157/pseudo/cr_pbe_v1.5.uspp.F.UPF
     MD5 check sum: 0d52af634a40206e4dee301ad30da4bf
     Pseudo is Ultrasoft + core correction, Zval = 14.0
     Generated by new atomic code, or converted to UPF format
     Using radial grid of  857 points,  6 beta functions with: 
                l(1) =   0
                l(2) =   0
                l(3) =   1
                l(4) =   1
                l(5) =   2
                l(6) =   2
     Q(r) pseudized with  8 coefficients,  rinner =    0.950   0.950   0.950
                                                       0.950   0.950

     PseudoPot. # 2 for H  read from file:
     /anvil/projects/x-che260157/pseudo/H.pbe-rrkjus_psl.1.0.0.UPF
     MD5 check sum: f52b6d4d1c606e5624b1dc7b2218f220
     Pseudo is Ultrasoft, Zval =  1.0
     Generated using "atomic" code by A. Dal Corso  v.5.1
     Using radial grid of  929 points,  2 beta functions with: 
                l(1) =   0
                l(2) =   0
     Q(r) pseudized with 0 coefficients 


     PseudoPot. # 3 for O  read from file:
     /anvil/projects/x-che260157/pseudo/O.pbe-n-kjpaw_psl.0.1.UPF
     MD5 check sum: 0234752ac141de4415c5fc33072bef88
     Pseudo is Projector augmented-wave + core cor, Zval =  6.0
     Generated using "atomic" code by A. Dal Corso  v.5.0.99 svn rev. 10869
     Shape of augmentation charge: BESSEL
     Using radial grid of 1095 points,  4 beta functions with: 
                l(1) =   0
                l(2) =   0
                l(3) =   1
                l(4) =   1
     Q(r) pseudized with 0 coefficients 


     atomic species   valence    mass     pseudopotential
     Cr               14.00    51.99600     Cr( 1.00)
     H                 1.00     1.00800     H ( 1.00)
     O                 6.00    15.99900     O ( 1.00)

     Starting magnetic structure 
     atomic species   magnetization
     Cr              0.500
     H               0.000
     O               0.000

      2 Sym. Ops. (no inversion) found ( 1 have fractional translation)



   Cartesian axes

     site n.     atom                  positions (alat units)
         1        Cr     tau(   1) = (   0.0000000   0.5360286   3.2161719  )
         2        Cr     tau(   2) = (   0.5000000   1.6080859   3.2161719  )
         3        Cr     tau(   3) = (   0.0011527   1.6080859   4.3089263  )
         4        Cr     tau(   4) = (   0.4993817   0.5360286   4.2961656  )
         5        Cr     tau(   5) = (  -0.0085889   0.5360286   5.3745755  )
         6        Cr     tau(   6) = (   0.5028693   1.6080859   5.4254587  )
         7        O      tau(   7) = (   0.0000000   1.6080859   3.6342742  )
         8        O      tau(   8) = (   0.0000000   1.6080859   2.7980695  )
         9        O      tau(   9) = (   0.5000000   0.1179263   3.2161719  )
        10        O      tau(  10) = (   0.5000000   0.9541310   3.2161719  )
        11        O      tau(  11) = (  -0.0015627   0.5360286   4.7288986  )
        12        O      tau(  12) = (   0.0000000   0.5360286   3.8701268  )
        13        O      tau(  13) = (   0.5010389   1.1848813   4.3017892  )
        14        O      tau(  14) = (   0.5010389   2.0312906   4.3017892  )
        15        O      tau(  15) = (  -0.0029502   1.6080859   5.8123958  )
        16        O      tau(  16) = (   0.0026206   1.6080859   4.9663566  )
        17        O      tau(  17) = (   0.4972029   0.1158953   5.4026833  )
        18        O      tau(  18) = (   0.4972029   0.9561620   5.4026833  )
        19        O      tau(  19) = (   0.0860179   0.5360286   6.0803268  )
        20        O      tau(  20) = (  -0.1886167   0.5360286   6.4573034  )
        21        H      tau(  21) = (  -0.5167581   0.5360286   6.3029246  )

     number of k points=    15  Marzari-Vanderbilt smearing, width (Ry)=  0.0100
                       cart. coord. in units 2pi/alat
        k(    1) = (   0.0000000   0.0000000   0.0000000), wk =   0.0277778
        k(    2) = (   0.0000000   0.1165982   0.0000000), wk =   0.0555556
        k(    3) = (   0.0000000  -0.2331965   0.0000000), wk =   0.0277778
        k(    4) = (   0.1111111   0.0000000   0.0000000), wk =   0.0555556
        k(    5) = (   0.1111111   0.1165982   0.0000000), wk =   0.1111111
        k(    6) = (   0.1111111  -0.2331965   0.0000000), wk =   0.0555556
        k(    7) = (   0.2222222   0.0000000   0.0000000), wk =   0.0555556
        k(    8) = (   0.2222222   0.1165982   0.0000000), wk =   0.1111111
        k(    9) = (   0.2222222  -0.2331965   0.0000000), wk =   0.0555556
        k(   10) = (   0.3333333   0.0000000   0.0000000), wk =   0.0555556
        k(   11) = (   0.3333333   0.1165982   0.0000000), wk =   0.1111111
        k(   12) = (   0.3333333  -0.2331965   0.0000000), wk =   0.0555556
        k(   13) = (   0.4444444   0.0000000   0.0000000), wk =   0.0555556
        k(   14) = (   0.4444444   0.1165982   0.0000000), wk =   0.1111111
        k(   15) = (   0.4444444  -0.2331965   0.0000000), wk =   0.0555556

     Dense  grid:   841263 G-vectors     FFT dimensions: (  45,  96, 384)

     Smooth grid:   297421 G-vectors     FFT dimensions: (  32,  72, 270)

     Estimated max dynamical RAM per process >      75.44 MB

     Estimated total dynamical RAM >       8.23 GB

     Check: negative core charge=   -0.000001
     Generating pointlists ...
     new r_m :   0.2589 (alat units)  1.4267 (a.u.) for type    1
     new r_m :   0.1496 (alat units)  0.8243 (a.u.) for type    2
     new r_m :   0.1496 (alat units)  0.8243 (a.u.) for type    3

     Initial potential from superposition of free atoms

     starting charge     162.9999, renormalised to     169.0000

     negative rho (up, down):  3.981E-03 1.303E-03
     Starting wfcs are  117 randomized atomic wfcs
     Checking if some PAW data can be deallocated... 

     total cpu time spent up to now is        4.6 secs

     per-process dynamical memory:   104.7 Mb

     Self-consistent Calculation

     iteration #  1     ecut=    80.00 Ry     beta= 0.30
     Davidson diagonalization with overlap
     ethr =  1.00E-02,  avg # of iterations =  5.6

     negative rho (up, down):  7.086E-03 9.728E-03

     total cpu time spent up to now is       10.6 secs

     total energy              =   -1636.51391296 Ry
     estimated scf accuracy    <     365.53611767 Ry

     total magnetization       =    17.82 Bohr mag/cell
     absolute magnetization    =    18.96 Bohr mag/cell

     iteration #  2     ecut=    80.00 Ry     beta= 0.30
     Davidson diagonalization with overlap
     ethr =  1.00E-02,  avg # of iterations =  1.8

     negative rho (up, down):  9.508E-03 2.282E-02

     total cpu time spent up to now is       13.8 secs

     total energy              =   -1637.38924515 Ry
     estimated scf accuracy    <      59.07737482 Ry

     total magnetization       =    14.73 Bohr mag/cell
     absolute magnetization    =    19.94 Bohr mag/cell

     iteration #  3     ecut=    80.00 Ry     beta= 0.30
     Davidson diagonalization with overlap
     ethr =  1.00E-02,  avg # of iterations =  3.0

     negative rho (up, down):  1.343E-02 3.917E-02

     total cpu time spent up to now is       17.6 secs

     total energy              =   -1637.43337805 Ry
     estimated scf accuracy    <      37.53841599 Ry

     total magnetization       =    14.41 Bohr mag/cell
     absolute magnetization    =    20.83 Bohr mag/cell

     iteration #  4     ecut=    80.00 Ry     beta= 0.30
     Davidson diagonalization with overlap
     ethr =  1.00E-02,  avg # of iterations =  2.5

     negative rho (up, down):  2.129E-02 5.839E-02

     total cpu time spent up to now is       20.9 secs

     total energy              =   -1636.90631217 Ry
     estimated scf accuracy    <      20.02206739 Ry

     total magnetization       =    13.24 Bohr mag/cell
     absolute magnetization    =    19.29 Bohr mag/cell

     iteration #  5     ecut=    80.00 Ry     beta= 0.30
     Davidson diagonalization with overlap
     ethr =  1.00E-02,  avg # of iterations =  3.7

     negative rho (up, down):  2.500E-02 5.807E-02

     total cpu time spent up to now is       24.7 secs

     total energy              =   -1637.60706285 Ry
     estimated scf accuracy    <       5.09923887 Ry

     total magnetization       =    12.39 Bohr mag/cell
     absolute magnetization    =    16.84 Bohr mag/cell

     iteration #  6     ecut=    80.00 Ry     beta= 0.30
     Davidson diagonalization with overlap
     ethr =  3.02E-03,  avg # of iterations =  6.3

     negative rho (up, down):  2.401E-02 5.404E-02

     total cpu time spent up to now is       29.3 secs

     total energy              =   -1638.40232383 Ry
     estimated scf accuracy    <       2.25360144 Ry

     total magnetization       =    11.28 Bohr mag/cell
     absolute magnetization    =    14.97 Bohr mag/cell

     iteration #  7     ecut=    80.00 Ry     beta= 0.30
     Davidson diagonalization with overlap
     ethr =  1.33E-03,  avg # of iterations =  2.1

     negative rho (up, down):  2.163E-02 4.606E-02

     total cpu time spent up to now is       33.0 secs

     total energy              =   -1637.97546747 Ry
     estimated scf accuracy    <       2.14378540 Ry

     total magnetization       =    11.00 Bohr mag/cell
     absolute magnetization    =    14.90 Bohr mag/cell

     iteration #  8     ecut=    80.00 Ry     beta= 0.30
     Davidson diagonalization with overlap
     ethr =  1.27E-03,  avg # of iterations =  3.2

     negative rho (up, down):  1.789E-02 3.854E-02

     total cpu time spent up to now is       36.6 secs

     total energy              =   -1637.75408900 Ry
     estimated scf accuracy    <       1.05839397 Ry

     total magnetization       =    11.00 Bohr mag/cell
     absolute magnetization    =    14.94 Bohr mag/cell

     iteration #  9     ecut=    80.00 Ry     beta= 0.30
     Davidson diagonalization with overlap
     ethr =  6.26E-04,  avg # of iterations =  5.5

     negative rho (up, down):  1.955E-02 3.984E-02

     total cpu time spent up to now is       40.7 secs

     total energy              =   -1638.29512237 Ry
     estimated scf accuracy    <      13.05655030 Ry

     total magnetization       =    14.33 Bohr mag/cell
     absolute magnetization    =    16.08 Bohr mag/cell

     iteration # 10     ecut=    80.00 Ry     beta= 0.30
     Davidson diagonalization with overlap
     ethr =  6.26E-04,  avg # of iterations =  1.5

     negative rho (up, down):  2.122E-02 4.166E-02

     total cpu time spent up to now is       43.9 secs

     total energy              =   -1638.00709356 Ry
     estimated scf accuracy    <      10.44910434 Ry

     total magnetization       =    14.17 Bohr mag/cell
     absolute magnetization    =    15.59 Bohr mag/cell

     iteration # 11     ecut=    80.00 Ry     beta= 0.30
     Davidson diagonalization with overlap
     ethr =  6.26E-04,  avg # of iterations =  1.4

     negative rho (up, down):  2.129E-02 4.169E-02

     total cpu time spent up to now is       47.1 secs

     total energy              =   -1638.00932576 Ry
     estimated scf accuracy    <       4.16006722 Ry

     total magnetization       =    13.20 Bohr mag/cell
     absolute magnetization    =    14.94 Bohr mag/cell

     iteration # 12     ecut=    80.00 Ry     beta= 0.30
     Davidson diagonalization with overlap
     ethr =  6.26E-04,  avg # of iterations =  1.2

     negative rho (up, down):  1.931E-02 3.878E-02

     total cpu time spent up to now is       50.2 secs

     total energy              =   -1637.96042536 Ry
     estimated scf accuracy    <       3.12979339 Ry

     total magnetization       =    12.98 Bohr mag/cell
     absolute magnetization    =    14.78 Bohr mag/cell

     iteration # 13     ecut=    80.00 Ry     beta= 0.30
     Davidson diagonalization with overlap
     ethr =  6.26E-04,  avg # of iterations =  1.1

     negative rho (up, down):  1.472E-02 3.301E-02

     total cpu time spent up to now is       53.1 secs

     total energy              =   -1637.84245184 Ry
     estimated scf accuracy    <       2.27472300 Ry

     total magnetization       =    12.77 Bohr mag/cell
     absolute magnetization    =    14.61 Bohr mag/cell

     iteration # 14     ecut=    80.00 Ry     beta= 0.30
     Davidson diagonalization with overlap
     ethr =  6.26E-04,  avg # of iterations =  1.9

     negative rho (up, down):  1.433E-02 3.288E-02

     total cpu time spent up to now is       57.3 secs

     total energy              =   -1637.93917017 Ry
     estimated scf accuracy    <       0.28089553 Ry

     total magnetization       =    11.00 Bohr mag/cell
     absolute magnetization    =    14.19 Bohr mag/cell

     iteration # 15     ecut=    80.00 Ry     beta= 0.30
     Davidson diagonalization with overlap
     ethr =  1.66E-04,  avg # of iterations =  2.6

     negative rho (up, down):  1.417E-02 3.301E-02

     total cpu time spent up to now is       61.0 secs

     total energy              =   -1637.95125205 Ry
     estimated scf accuracy    <       0.49709854 Ry

     total magnetization       =    11.00 Bohr mag/cell
     absolute magnetization    =    13.90 Bohr mag/cell

     iteration # 16     ecut=    80.00 Ry     beta= 0.30
     Davidson diagonalization with overlap
     ethr =  1.66E-04,  avg # of iterations =  1.4

     negative rho (up, down):  1.412E-02 3.309E-02

     total cpu time spent up to now is       64.1 secs

     total energy              =   -1637.95150232 Ry
     estimated scf accuracy    <       0.56187277 Ry

     total magnetization       =    11.00 Bohr mag/cell
     absolute magnetization    =    13.85 Bohr mag/cell

     iteration # 17     ecut=    80.00 Ry     beta= 0.30
     Davidson diagonalization with overlap
     ethr =  1.66E-04,  avg # of iterations =  1.0

     negative rho (up, down):  1.478E-02 3.421E-02

     total cpu time spent up to now is       67.1 secs

     total energy              =   -1637.94798865 Ry
     estimated scf accuracy    <       0.57094666 Ry

     total magnetization       =    11.00 Bohr mag/cell
     absolute magnetization    =    13.83 Bohr mag/cell

     iteration # 18     ecut=    80.00 Ry     beta= 0.30
     Davidson diagonalization with overlap
     ethr =  1.66E-04,  avg # of iterations =  1.0

     negative rho (up, down):  1.428E-02 3.390E-02

     total cpu time spent up to now is       70.1 secs

     total energy              =   -1637.93118907 Ry
     estimated scf accuracy    <       0.51687158 Ry

     total magnetization       =    11.00 Bohr mag/cell
     absolute magnetization    =    13.82 Bohr mag/cell

     iteration # 19     ecut=    80.00 Ry     beta= 0.30
     Davidson diagonalization with overlap
     ethr =  1.66E-04,  avg # of iterations =  1.0

     negative rho (up, down):  1.263E-02 3.219E-02

     total cpu time spent up to now is       73.0 secs

     total energy              =   -1637.90823560 Ry
     estimated scf accuracy    <       0.45878983 Ry

     total magnetization       =    11.00 Bohr mag/cell
     absolute magnetization    =    13.79 Bohr mag/cell

     iteration # 20     ecut=    80.00 Ry     beta= 0.30
     Davidson diagonalization with overlap
     ethr =  1.66E-04,  avg # of iterations =  1.0

     negative rho (up, down):  6.121E-03 2.469E-02

     total cpu time spent up to now is       76.2 secs

     total energy              =   -1637.88588798 Ry
     estimated scf accuracy    <       0.11893710 Ry

     total magnetization       =    11.14 Bohr mag/cell
     absolute magnetization    =    13.94 Bohr mag/cell

     iteration # 21     ecut=    80.00 Ry     beta= 0.30
     Davidson diagonalization with overlap
     ethr =  7.04E-05,  avg # of iterations =  2.8

     negative rho (up, down):  3.419E-03 2.170E-02

     total cpu time spent up to now is       79.6 secs

     total energy              =   -1637.91692082 Ry
     estimated scf accuracy    <       1.37105983 Ry

     total magnetization       =    12.27 Bohr mag/cell
     absolute magnetization    =    14.49 Bohr mag/cell

     iteration # 22     ecut=    80.00 Ry     beta= 0.30
     Davidson diagonalization with overlap
     ethr =  7.04E-05,  avg # of iterations =  1.0

     negative rho (up, down):  2.025E-03 2.043E-02

     total cpu time spent up to now is       82.6 secs

     total energy              =   -1637.88382695 Ry
     estimated scf accuracy    <       1.13956529 Ry

     total magnetization       =    12.16 Bohr mag/cell
     absolute magnetization    =    14.45 Bohr mag/cell

     iteration # 23     ecut=    80.00 Ry     beta= 0.30
     Davidson diagonalization with overlap
     ethr =  7.04E-05,  avg # of iterations =  1.0

     negative rho (up, down):  5.399E-04 1.887E-02

     total cpu time spent up to now is       85.7 secs

     total energy              =   -1637.89449594 Ry
     estimated scf accuracy    <       0.04078733 Ry

     total magnetization       =    11.38 Bohr mag/cell
     absolute magnetization    =    14.18 Bohr mag/cell

     iteration # 24     ecut=    80.00 Ry     beta= 0.30
     Davidson diagonalization with overlap
     ethr =  2.41E-05,  avg # of iterations =  3.9

     negative rho (up, down):  3.692E-04 1.902E-02

     total cpu time spent up to now is       89.5 secs

     total energy              =   -1637.89623564 Ry
     estimated scf accuracy    <       0.04113640 Ry

     total magnetization       =    11.15 Bohr mag/cell
     absolute magnetization    =    14.43 Bohr mag/cell

     iteration # 25     ecut=    80.00 Ry     beta= 0.30
     Davidson diagonalization with overlap
     ethr =  2.41E-05,  avg # of iterations =  1.0

     negative rho (up, down):  8.265E-04 1.968E-02

     total cpu time spent up to now is       92.4 secs

     total energy              =   -1637.90022307 Ry
     estimated scf accuracy    <       0.02733810 Ry

     total magnetization       =    10.95 Bohr mag/cell
     absolute magnetization    =    14.61 Bohr mag/cell

     iteration # 26     ecut=    80.00 Ry     beta= 0.30
     Davidson diagonalization with overlap
     ethr =  1.62E-05,  avg # of iterations =  2.2

     negative rho (up, down):  6.912E-03 2.561E-02

     total cpu time spent up to now is       95.7 secs

     total energy              =   -1637.89739774 Ry
     estimated scf accuracy    <       0.11605924 Ry

     total magnetization       =    11.00 Bohr mag/cell
     absolute magnetization    =    14.91 Bohr mag/cell

     iteration # 27     ecut=    80.00 Ry     beta= 0.30
     Davidson diagonalization with overlap
     ethr =  1.62E-05,  avg # of iterations =  2.2

     negative rho (up, down):  7.095E-03 2.586E-02

     total cpu time spent up to now is       99.1 secs

     total energy              =   -1637.89695986 Ry
     estimated scf accuracy    <       0.09348879 Ry

     total magnetization       =    11.00 Bohr mag/cell
     absolute magnetization    =    14.99 Bohr mag/cell

     iteration # 28     ecut=    80.00 Ry     beta= 0.30
     Davidson diagonalization with overlap
     ethr =  1.62E-05,  avg # of iterations =  1.0

     negative rho (up, down):  5.884E-03 2.496E-02

     total cpu time spent up to now is      102.0 secs

     total energy              =   -1637.89021210 Ry
     estimated scf accuracy    <       0.08493515 Ry

     total magnetization       =    11.00 Bohr mag/cell
     absolute magnetization    =    14.99 Bohr mag/cell

     iteration # 29     ecut=    80.00 Ry     beta= 0.30
     Davidson diagonalization with overlap
     ethr =  1.62E-05,  avg # of iterations =  2.7

     negative rho (up, down):  4.115E-03 2.323E-02

     total cpu time spent up to now is      105.5 secs

     total energy              =   -1637.89503411 Ry
     estimated scf accuracy    <       0.00599150 Ry

     total magnetization       =    11.00 Bohr mag/cell
     absolute magnetization    =    14.72 Bohr mag/cell

     iteration # 30     ecut=    80.00 Ry     beta= 0.30
     Davidson diagonalization with overlap
     ethr =  3.55E-06,  avg # of iterations = 12.0

     negative rho (up, down):  1.762E-03 2.090E-02

     total cpu time spent up to now is      110.7 secs

     total energy              =   -1637.89770132 Ry
     estimated scf accuracy    <       0.15047600 Ry

     total magnetization       =    11.00 Bohr mag/cell
     absolute magnetization    =    14.26 Bohr mag/cell

     iteration # 31     ecut=    80.00 Ry     beta= 0.30
     Davidson diagonalization with overlap
     ethr =  3.55E-06,  avg # of iterations =  2.1

     negative rho (up, down):  1.741E-03 2.090E-02

     total cpu time spent up to now is      114.0 secs

     total energy              =   -1637.89512569 Ry
     estimated scf accuracy    <       0.09130941 Ry

     total magnetization       =    11.00 Bohr mag/cell
     absolute magnetization    =    14.36 Bohr mag/cell

     iteration # 32     ecut=    80.00 Ry     beta= 0.30
     Davidson diagonalization with overlap
     ethr =  3.55E-06,  avg # of iterations =  1.2

     negative rho (up, down):  6.666E-04 1.977E-02

     total cpu time spent up to now is      117.1 secs

     total energy              =   -1637.89688669 Ry
     estimated scf accuracy    <       0.02272803 Ry

     total magnetization       =    11.00 Bohr mag/cell
     absolute magnetization    =    14.54 Bohr mag/cell

     iteration # 33     ecut=    80.00 Ry     beta= 0.30
     Davidson diagonalization with overlap
     ethr =  3.55E-06,  avg # of iterations =  1.5

     negative rho (up, down):  5.090E-04 1.961E-02

     total cpu time spent up to now is      120.4 secs

     total energy              =   -1637.89748127 Ry
     estimated scf accuracy    <       0.06411268 Ry

     total magnetization       =    11.00 Bohr mag/cell
     absolute magnetization    =    14.41 Bohr mag/cell

     iteration # 34     ecut=    80.00 Ry     beta= 0.30
     Davidson diagonalization with overlap
     ethr =  3.55E-06,  avg # of iterations =  1.0

     negative rho (up, down):  9.665E-04 2.008E-02

     total cpu time spent up to now is      123.3 secs

     total energy              =   -1637.89769431 Ry
     estimated scf accuracy    <       0.07626235 Ry

     total magnetization       =    11.00 Bohr mag/cell
     absolute magnetization    =    14.39 Bohr mag/cell

     iteration # 35     ecut=    80.00 Ry     beta= 0.30
     Davidson diagonalization with overlap
     ethr =  3.55E-06,  avg # of iterations =  1.0

     negative rho (up, down):  9.619E-04 1.995E-02

     total cpu time spent up to now is      126.3 secs

     total energy              =   -1637.89598320 Ry
     estimated scf accuracy    <       0.07810621 Ry

     total magnetization       =    11.00 Bohr mag/cell
     absolute magnetization    =    14.38 Bohr mag/cell

     iteration # 36     ecut=    80.00 Ry     beta= 0.30
     Davidson diagonalization with overlap
     ethr =  3.55E-06,  avg # of iterations =  1.0

     negative rho (up, down):  4.012E-03 2.281E-02

     total cpu time spent up to now is      129.3 secs

     total energy              =   -1637.89828847 Ry
     estimated scf accuracy    <       0.04652528 Ry

     total magnetization       =    11.00 Bohr mag/cell
     absolute magnetization    =    14.47 Bohr mag/cell

     iteration # 37     ecut=    80.00 Ry     beta= 0.30
     Davidson diagonalization with overlap
     ethr =  3.55E-06,  avg # of iterations =  2.0

     negative rho (up, down):  2.202E-03 2.096E-02

     total cpu time spent up to now is      132.5 secs

     total energy              =   -1637.89080657 Ry
     estimated scf accuracy    <       0.23938893 Ry

     total magnetization       =    11.00 Bohr mag/cell
     absolute magnetization    =    14.19 Bohr mag/cell

     iteration # 38     ecut=    80.00 Ry     beta= 0.30
     Davidson diagonalization with overlap
     ethr =  3.55E-06,  avg # of iterations =  2.3

     negative rho (up, down):  4.042E-03 2.290E-02

     total cpu time spent up to now is      135.9 secs

     total energy              =   -1637.89514994 Ry
     estimated scf accuracy    <       0.00649527 Ry

     total magnetization       =    11.00 Bohr mag/cell
     absolute magnetization    =    14.61 Bohr mag/cell

     iteration # 39     ecut=    80.00 Ry     beta= 0.30
     Davidson diagonalization with overlap
     ethr =  3.55E-06,  avg # of iterations =  2.0

     negative rho (up, down):  5.230E-03 2.417E-02

     total cpu time spent up to now is      139.2 secs

     total energy              =   -1637.89530905 Ry
     estimated scf accuracy    <       0.00132391 Ry

     total magnetization       =    11.00 Bohr mag/cell
     absolute magnetization    =    14.62 Bohr mag/cell

     iteration # 40     ecut=    80.00 Ry     beta= 0.30
     Davidson diagonalization with overlap
     ethr =  7.83E-07,  avg # of iterations =  2.0

     negative rho (up, down):  4.522E-03 2.348E-02

     total cpu time spent up to now is      142.5 secs

     total energy              =   -1637.89530562 Ry
     estimated scf accuracy    <       0.00094614 Ry

     total magnetization       =    11.00 Bohr mag/cell
     absolute magnetization    =    14.60 Bohr mag/cell

     iteration # 41     ecut=    80.00 Ry     beta= 0.30
     Davidson diagonalization with overlap
     ethr =  5.60E-07,  avg # of iterations =  2.1

     negative rho (up, down):  3.137E-03 2.185E-02

     total cpu time spent up to now is      146.2 secs

     total energy              =   -1637.89531309 Ry
     estimated scf accuracy    <       0.00049218 Ry

     total magnetization       =    11.00 Bohr mag/cell
     absolute magnetization    =    14.58 Bohr mag/cell

     iteration # 42     ecut=    80.00 Ry     beta= 0.30
     Davidson diagonalization with overlap
     ethr =  2.91E-07,  avg # of iterations =  1.7

     negative rho (up, down):  1.998E-03 2.015E-02

     total cpu time spent up to now is      150.5 secs

     total energy              =   -1637.89538827 Ry
     estimated scf accuracy    <       0.00018810 Ry

     total magnetization       =    11.00 Bohr mag/cell
     absolute magnetization    =    14.59 Bohr mag/cell

     iteration # 43     ecut=    80.00 Ry     beta= 0.30
     Davidson diagonalization with overlap
     ethr =  1.11E-07,  avg # of iterations =  3.1

     negative rho (up, down):  1.743E-03 1.960E-02

     total cpu time spent up to now is      154.2 secs

     total energy              =   -1637.89543501 Ry
     estimated scf accuracy    <       0.00004404 Ry

     total magnetization       =    11.00 Bohr mag/cell
     absolute magnetization    =    14.59 Bohr mag/cell

     iteration # 44     ecut=    80.00 Ry     beta= 0.30
     Davidson diagonalization with overlap
     ethr =  2.61E-08,  avg # of iterations =  2.7

     negative rho (up, down):  1.851E-03 1.955E-02

     total cpu time spent up to now is      158.1 secs

     total energy              =   -1637.89545634 Ry
     estimated scf accuracy    <       0.00001499 Ry

     total magnetization       =    11.00 Bohr mag/cell
     absolute magnetization    =    14.59 Bohr mag/cell

     iteration # 45     ecut=    80.00 Ry     beta= 0.30
     Davidson diagonalization with overlap
     ethr =  8.87E-09,  avg # of iterations =  2.6

     negative rho (up, down):  1.836E-03 1.946E-02

     total cpu time spent up to now is      161.5 secs

     total energy              =   -1637.89546276 Ry
     estimated scf accuracy    <       0.00000579 Ry

     total magnetization       =    11.00 Bohr mag/cell
     absolute magnetization    =    14.59 Bohr mag/cell

     iteration # 46     ecut=    80.00 Ry     beta= 0.30
     Davidson diagonalization with overlap
     ethr =  3.42E-09,  avg # of iterations =  3.1

     negative rho (up, down):  1.904E-03 1.951E-02

     total cpu time spent up to now is      165.0 secs

     total energy              =   -1637.89546409 Ry
     estimated scf accuracy    <       0.00000192 Ry

     total magnetization       =    11.00 Bohr mag/cell
     absolute magnetization    =    14.59 Bohr mag/cell

     iteration # 47     ecut=    80.00 Ry     beta= 0.30
     Davidson diagonalization with overlap
     ethr =  1.14E-09,  avg # of iterations =  4.0

     negative rho (up, down):  2.006E-03 1.961E-02

     Magnetic moment per site  (integrated on atomic sphere of radius R)
     atom   1 (R=0.259)  charge= 10.4298  magn=  1.9389
     atom   2 (R=0.259)  charge= 10.3519  magn=  1.4654
     atom   3 (R=0.259)  charge= 10.3735  magn=  1.7114
     atom   4 (R=0.259)  charge= 10.3794  magn=  1.7343
     atom   5 (R=0.259)  charge= 10.3901  magn=  1.7619
     atom   6 (R=0.259)  charge= 10.3531  magn=  1.4349
     atom   7 (R=0.150)  charge=  2.2815  magn= -0.0465
     atom   8 (R=0.150)  charge=  2.2548  magn= -0.0761
     atom   9 (R=0.150)  charge=  2.2865  magn= -0.0316
     atom  10 (R=0.150)  charge=  2.2865  magn= -0.0316
     atom  11 (R=0.150)  charge=  2.2814  magn= -0.0386
     atom  12 (R=0.150)  charge=  2.2795  magn= -0.0452
     atom  13 (R=0.150)  charge=  2.2872  magn= -0.0364
     atom  14 (R=0.150)  charge=  2.2872  magn= -0.0364
     atom  15 (R=0.150)  charge=  2.2623  magn= -0.0704
     atom  16 (R=0.150)  charge=  2.2743  magn= -0.0466
     atom  17 (R=0.150)  charge=  2.2863  magn= -0.0323
     atom  18 (R=0.150)  charge=  2.2863  magn= -0.0323
     atom  19 (R=0.150)  charge=  2.2633  magn= -0.1481
     atom  20 (R=0.150)  charge=  2.2683  magn= -0.1296
     atom  21 (R=0.150)  charge=  0.4284  magn=  0.0016

     total cpu time spent up to now is      168.6 secs

     End of self-consistent calculation

 ------ SPIN UP ------------


          k = 0.0000 0.0000 0.0000 ( 37133 PWs)   bands (ev):

   -73.0834 -73.0444 -72.9608 -72.9509 -72.9489 -72.9445 -44.4187 -44.4087
   -44.3904 -44.3765 -44.3408 -44.3360 -44.3162 -44.3022 -44.2848 -44.2359
   -44.2195 -44.2158 -44.2042 -44.1921 -44.1716 -44.1686 -44.1340 -44.1121
   -23.5358 -19.0487 -18.7066 -18.4400 -18.0530 -17.5580 -17.4485 -17.3441
   -17.3041 -17.2201 -17.1458 -16.6374 -16.2132 -14.3276  -7.7292  -6.8995
    -6.8023  -6.7314  -6.3768  -5.7164  -5.6028  -5.2758  -5.1085  -4.9809
    -4.8776  -4.8391  -4.8084  -4.5506  -4.5168  -4.4611  -4.4566  -3.9339
    -3.6691  -3.5931  -3.2822  -3.1905  -3.1172  -3.0062  -2.8382  -2.6563
    -2.5336  -2.4750  -2.3937  -2.2251  -1.9894  -1.9094  -1.8275  -1.6609
    -1.3731  -1.1728  -1.1052  -1.0118  -0.9400  -0.8813  -0.8029  -0.6618
    -0.6554  -0.6506  -0.6177  -0.5733  -0.5256  -0.4944  -0.0946   0.0724
     0.1978   0.3099   0.4636   0.6723   0.9608   1.2567   1.3464   1.4404
     1.5296   1.6438   2.1463   2.7646   3.3854   3.8553

          k = 0.0000 0.1166 0.0000 ( 37130 PWs)   bands (ev):

   -73.0834 -73.0444 -72.9608 -72.9507 -72.9488 -72.9447 -44.4171 -44.4087
   -44.3885 -44.3765 -44.3384 -44.3360 -44.3163 -44.3022 -44.2849 -44.2359
   -44.2215 -44.2175 -44.2042 -44.1946 -44.1717 -44.1686 -44.1337 -44.1124
   -23.5357 -18.9317 -18.5864 -18.3271 -18.2087 -17.7785 -17.6155 -17.3481
   -17.2480 -17.2116 -17.1118 -16.6336 -16.2041 -14.3269  -7.7206  -6.6223
    -6.5180  -6.4387  -6.3296  -5.7241  -5.4524  -5.2568  -4.9373  -4.9235
    -4.8086  -4.8056  -4.7768  -4.5609  -4.5214  -4.4559  -4.3510  -4.0416
    -3.9278  -3.7933  -3.7060  -3.5234  -3.3448  -3.2134  -2.9890  -2.8616
    -2.6479  -2.5523  -2.4515  -2.3722  -2.2438  -1.9912  -1.8453  -1.8054
    -1.5689  -1.2934  -1.2885  -1.0809  -0.9783  -0.8791  -0.6751  -0.6280
    -0.4224  -0.3558  -0.2973  -0.2761  -0.1673  -0.1258   0.0195   0.1076
     0.2637   0.3085   0.4749   0.6729   0.9259   1.1933   1.2505   1.3351
     1.4688   1.6350   2.4597   3.0117   3.5395   3.8577

          k = 0.0000-0.2332 0.0000 ( 37126 PWs)   bands (ev):

   -73.0834 -73.0444 -72.9608 -72.9506 -72.9488 -72.9449 -44.4153 -44.4087
   -44.3865 -44.3764 -44.3360 -44.3359 -44.3163 -44.3021 -44.2849 -44.2358
   -44.2235 -44.2193 -44.2042 -44.1971 -44.1718 -44.1687 -44.1334 -44.1127
   -23.5356 -18.7072 -18.4915 -18.3663 -18.0807 -18.0698 -17.8778 -17.3429
   -17.2437 -17.2098 -17.0730 -16.6311 -16.1959 -14.3262  -7.7156  -6.4724
    -6.1278  -6.0651  -6.0084  -5.7310  -5.4104  -4.9629  -4.8597  -4.8060
    -4.7369  -4.7244  -4.7115  -4.5718  -4.5243  -4.5164  -4.4541  -4.2174
    -4.1174  -4.0858  -4.0624  -3.8954  -3.7579  -3.5794  -3.0455  -2.9253
    -2.8394  -2.7954  -2.7253  -2.4880  -2.4147  -1.9268  -1.8257  -1.6428
    -1.5865  -1.3595  -1.2658  -1.1246  -0.9141  -0.8239  -0.7726  -0.6373
    -0.2199  -0.2146  -0.1830  -0.1564   0.0124   0.2133   0.2296   0.2892
     0.3005   0.4690   0.6489   0.7133   0.7483   0.9002   1.0941   1.2474
     1.3478   1.8015   2.8234   3.0338   3.8604   3.8606

          k = 0.1111 0.0000 0.0000 ( 37175 PWs)   bands (ev):

   -73.0819 -73.0429 -72.9593 -72.9493 -72.9473 -72.9430 -44.4169 -44.4065
   -44.3885 -44.3739 -44.3388 -44.3355 -44.3202 -44.3133 -44.2838 -44.2544
   -44.2167 -44.2130 -44.2013 -44.1909 -44.1894 -44.1875 -44.1538 -44.1312
   -23.4496 -18.9368 -18.6069 -18.3499 -17.9778 -17.5014 -17.4184 -17.3376
   -17.3300 -17.2450 -17.1728 -16.6642 -16.2277 -14.4964  -7.9286  -6.7519
    -6.6708  -6.6071  -6.2527  -5.6405  -5.5067  -5.2714  -5.2366  -5.1285
    -5.0928  -5.0583  -4.9308  -4.7608  -4.4744  -4.4183  -4.2537  -3.5564
    -3.5342  -3.4945  -3.1043  -3.0820  -3.0142  -2.9892  -2.8998  -2.8058
    -2.7034  -2.6784  -2.4497  -2.3951  -2.3905  -2.0363  -1.9219  -1.8909
    -1.7301  -1.6416  -1.5098  -1.2579  -0.9041  -0.8918  -0.7524  -0.6303
    -0.5657  -0.4474  -0.3526  -0.3040  -0.2492  -0.0556   0.0470   0.1209
     0.2846   0.5409   0.5787   0.7307   0.9018   1.1764   1.3450   1.4531
     1.4608   1.5687   2.2224   2.8585   3.4340   3.5362

          k = 0.1111 0.1166 0.0000 ( 37124 PWs)   bands (ev):

   -73.0819 -73.0429 -72.9593 -72.9492 -72.9473 -72.9431 -44.4155 -44.4065
   -44.3869 -44.3739 -44.3369 -44.3354 -44.3201 -44.3134 -44.2838 -44.2544
   -44.2183 -44.2145 -44.2013 -44.1916 -44.1909 -44.1875 -44.1534 -44.1314
   -23.4495 -18.8245 -18.4914 -18.2402 -18.1296 -17.7212 -17.5690 -17.3665
   -17.2658 -17.2372 -17.1229 -16.6605 -16.2195 -14.4957  -7.9235  -6.4760
    -6.3803  -6.3068  -6.2044  -5.6479  -5.3961  -5.2435  -5.1449  -5.1023
    -5.0471  -4.9881  -4.9023  -4.6738  -4.4690  -4.4076  -4.2130  -3.8149
    -3.6636  -3.6115  -3.4791  -3.4614  -3.2163  -3.0978  -3.0778  -3.0217
    -2.9909  -2.8652  -2.6388  -2.5161  -2.4554  -2.2650  -1.9698  -1.8483
    -1.7040  -1.6454  -1.4217  -1.1680  -1.0433  -0.8084  -0.6829  -0.3827
    -0.3002  -0.2253  -0.1155  -0.0748  -0.0330  -0.0072   0.0906   0.2197
     0.2960   0.5518   0.5759   0.7466   0.8686   1.1181   1.1777   1.2756
     1.4186   1.6858   2.4826   3.0462   3.4914   3.5445

          k = 0.1111-0.2332 0.0000 ( 37144 PWs)   bands (ev):

   -73.0819 -73.0429 -72.9593 -72.9490 -72.9473 -72.9433 -44.4141 -44.4065
   -44.3853 -44.3739 -44.3354 -44.3348 -44.3201 -44.3135 -44.2839 -44.2545
   -44.2199 -44.2160 -44.2013 -44.1938 -44.1908 -44.1874 -44.1530 -44.1316
   -23.4494 -18.6099 -18.3970 -18.2783 -18.0055 -18.0032 -17.8208 -17.3634
   -17.2694 -17.2275 -17.0819 -16.6580 -16.2121 -14.4951  -7.9204  -6.3403
    -5.9658  -5.9212  -5.8548  -5.6568  -5.3892  -5.1593  -5.0487  -5.0030
    -4.9700  -4.9504  -4.8630  -4.5134  -4.4305  -4.3993  -4.3113  -4.1975
    -3.9073  -3.8445  -3.7854  -3.6848  -3.6502  -3.4584  -3.3782  -3.2121
    -3.1412  -2.9956  -2.9154  -2.5527  -2.4992  -2.3396  -1.9417  -1.7319
    -1.4817  -1.4225  -1.3044  -1.2283  -1.0679  -0.8244  -0.6642  -0.2693
    -0.2325  -0.1617  -0.1373  -0.1161   0.0470   0.3649   0.4201   0.4633
     0.5629   0.5836   0.6230   0.6999   0.7863   0.8679   1.0296   1.1885
     1.2650   1.8422   2.7742   3.0775   3.4952   3.4978

          k = 0.2222 0.0000 0.0000 ( 37192 PWs)   bands (ev):

   -73.0780 -73.0390 -72.9553 -72.9453 -72.9435 -72.9391 -44.4123 -44.4019
   -44.3838 -44.3701 -44.3644 -44.3338 -44.3315 -44.3133 -44.2963 -44.2787
   -44.2395 -44.2357 -44.2096 -44.2058 -44.2035 -44.1933 -44.1823 -44.1794
   -23.2160 -18.6310 -18.3419 -18.1143 -17.7889 -17.4549 -17.3970 -17.3761
   -17.3081 -17.2414 -17.2192 -16.7294 -16.2488 -14.9649  -8.2512  -6.3597
    -6.3236  -6.2729  -5.9530  -5.5850  -5.5319  -5.4647  -5.4273  -5.3312
    -5.2659  -5.0169  -4.9644  -4.5016  -4.4753  -4.2930  -4.1454  -3.9084
    -3.7804  -3.7006  -3.5564  -3.5293  -3.3138  -3.2431  -2.9852  -2.8339
    -2.7243  -2.6111  -2.5504  -2.4781  -2.3414  -2.2668  -2.1554  -2.1032
    -1.9556  -1.9021  -1.5399  -1.2433  -1.1871  -0.7389  -0.6604  -0.3918
    -0.3087  -0.2896  -0.2355  -0.2057   0.0422   0.2802   0.3134   0.3650
     0.5327   0.6508   0.6803   0.8740   0.8967   1.0077   1.1054   1.2607
     1.3588   1.5984   2.3274   2.9221   3.2490   3.4257

          k = 0.2222 0.1166 0.0000 ( 37137 PWs)   bands (ev):

   -73.0780 -73.0390 -72.9553 -72.9452 -72.9435 -72.9392 -44.4118 -44.4019
   -44.3831 -44.3702 -44.3644 -44.3330 -44.3314 -44.3133 -44.2964 -44.2787
   -44.2391 -44.2353 -44.2105 -44.2067 -44.2028 -44.1933 -44.1862 -44.1769
   -23.2159 -18.5334 -18.2419 -18.0170 -17.9274 -17.6095 -17.4896 -17.4038
   -17.3122 -17.2870 -17.1211 -16.7263 -16.2439 -14.9642  -8.2490  -6.1020
    -6.0291  -5.9772  -5.8964  -5.5405  -5.4844  -5.4533  -5.3393  -5.2997
    -5.2341  -5.1560  -4.7217  -4.5410  -4.4054  -4.3234  -4.1776  -4.0684
    -3.9593  -3.8919  -3.7456  -3.6237  -3.4148  -3.2731  -3.0932  -3.0688
    -3.0149  -2.9021  -2.8333  -2.7226  -2.6299  -2.1934  -1.9870  -1.9042
    -1.8075  -1.7502  -1.5456  -1.3300  -1.1838  -0.8794  -0.5831  -0.3417
    -0.1952  -0.0624   0.0726   0.0983   0.1501   0.2539   0.3910   0.4184
     0.5315   0.5690   0.6632   0.8314   0.8707   0.9836   1.0257   1.1498
     1.2462   1.7348   2.4862   2.9524   3.0934   3.1531

          k = 0.2222-0.2332 0.0000 ( 37166 PWs)   bands (ev):

   -73.0780 -73.0390 -72.9553 -72.9451 -72.9435 -72.9393 -44.4112 -44.4019
   -44.3825 -44.3702 -44.3644 -44.3322 -44.3314 -44.3134 -44.2965 -44.2787
   -44.2386 -44.2349 -44.2115 -44.2076 -44.2020 -44.1933 -44.1888 -44.1759
   -23.2158 -18.3503 -18.1500 -18.0506 -17.8532 -17.8149 -17.6960 -17.4148
   -17.3361 -17.2608 -17.0842 -16.7240 -16.2395 -14.9637  -8.2473  -6.0149
    -5.6188  -5.6152  -5.5518  -5.4560  -5.4427  -5.3754  -5.2390  -5.2065
    -5.1381  -5.1128  -4.6478  -4.5657  -4.5069  -4.5051  -4.4314  -4.3253
    -4.1051  -4.0475  -3.9669  -3.6242  -3.5910  -3.4436  -3.2862  -3.2732
    -3.2222  -3.1600  -3.1156  -2.9291  -2.6418  -2.0833  -1.9021  -1.7133
    -1.5868  -1.5375  -1.4547  -1.4317  -1.2641  -1.1156  -0.3009  -0.2979
    -0.1925  -0.1077   0.0829   0.2228   0.3617   0.3944   0.4848   0.5612
     0.5834   0.6409   0.6874   0.7786   0.8166   0.9850   0.9972   1.0711
     1.0760   1.8304   2.6352   2.8404   2.8445   2.8923

          k = 0.3333 0.0000 0.0000 ( 37184 PWs)   bands (ev):

   -73.0736 -73.0345 -72.9509 -72.9407 -72.9391 -72.9347 -44.4234 -44.4072
   -44.3934 -44.3784 -44.3607 -44.3580 -44.3294 -44.3282 -44.2945 -44.2935
   -44.2887 -44.2765 -44.2596 -44.2332 -44.2014 -44.1976 -44.1845 -44.1741
   -22.9168 -18.2172 -18.0084 -17.8311 -17.5947 -17.5133 -17.4755 -17.3802
   -17.3222 -17.3199 -17.0676 -16.7857 -16.2365 -15.5607  -8.3710  -6.0920
    -5.9654  -5.8814  -5.7980  -5.7082  -5.5841  -5.4990  -5.4515  -5.3254
    -5.2173  -5.1306  -4.9654  -4.7047  -4.5355  -4.4383  -4.3159  -4.1810
    -4.0589  -3.9847  -3.8751  -3.4820  -3.4692  -3.2758  -3.1256  -3.0867
    -2.9961  -2.8244  -2.7906  -2.7229  -2.3921  -2.2470  -2.2157  -1.9092
    -1.7854  -1.6480  -1.3780  -1.3640  -0.8888  -0.8708  -0.6843  -0.3302
    -0.2761  -0.1540  -0.1495  -0.0680   0.1171   0.3353   0.4182   0.5031
     0.5190   0.6095   0.6662   0.7597   0.8803   0.9523   1.0346   1.2489
     1.2800   1.5124   2.3354   2.6643   3.2182   3.3457

          k = 0.3333 0.1166 0.0000 ( 37206 PWs)   bands (ev):

   -73.0736 -73.0345 -72.9509 -72.9407 -72.9391 -72.9347 -44.4235 -44.4078
   -44.3934 -44.3794 -44.3608 -44.3580 -44.3296 -44.3292 -44.2939 -44.2925
   -44.2879 -44.2766 -44.2577 -44.2338 -44.2017 -44.1978 -44.1845 -44.1741
   -22.9167 -18.1477 -17.9404 -17.7770 -17.6901 -17.5697 -17.4906 -17.4118
   -17.3970 -17.2899 -17.0528 -16.7845 -16.2357 -15.5600  -8.3707  -6.0727
    -5.7670  -5.6971  -5.6565  -5.6315  -5.5671  -5.5023  -5.4056  -5.3590
    -5.2267  -5.1696  -5.0016  -4.7019  -4.5465  -4.4019  -4.3298  -4.1979
    -4.1476  -4.0421  -3.7442  -3.6296  -3.4688  -3.3920  -3.1746  -3.1034
    -3.0201  -2.8454  -2.8027  -2.6836  -2.5573  -2.3360  -2.1439  -1.9286
    -1.7978  -1.7412  -1.3201  -1.2857  -1.1018  -0.8796  -0.6032  -0.5458
    -0.2154  -0.0973   0.0138   0.0190   0.0536   0.1519   0.2255   0.4113
     0.5068   0.5739   0.6960   0.9404   0.9640   1.0011   1.1488   1.1852
     1.2409   1.6094   2.4449   2.6016   2.7024   2.7575

          k = 0.3333-0.2332 0.0000 ( 37216 PWs)   bands (ev):

   -73.0736 -73.0345 -72.9509 -72.9406 -72.9391 -72.9347 -44.4236 -44.4085
   -44.3934 -44.3804 -44.3610 -44.3580 -44.3307 -44.3292 -44.2936 -44.2912
   -44.2870 -44.2766 -44.2558 -44.2344 -44.2020 -44.1981 -44.1845 -44.1742
   -22.9167 -18.0197 -17.8733 -17.7885 -17.7275 -17.6063 -17.5878 -17.4695
   -17.4123 -17.2762 -17.0421 -16.7835 -16.2350 -15.5595  -8.3706  -6.0725
    -5.6712  -5.6205  -5.5653  -5.4762  -5.4191  -5.4082  -5.3704  -5.2283
    -5.2235  -5.0574  -5.0504  -4.7185  -4.6909  -4.5394  -4.3447  -4.2303
    -4.1572  -4.0098  -3.8689  -3.7115  -3.5728  -3.2915  -3.2289  -3.1882
    -2.9945  -2.9804  -2.9794  -2.7972  -2.5549  -2.1586  -2.0722  -1.9693
    -1.9120  -1.5911  -1.5386  -1.1522  -1.0426  -0.8734  -0.7277  -0.6356
    -0.3684  -0.2208  -0.1224   0.1714   0.1854   0.2172   0.2371   0.4310
     0.5116   0.5498   0.6393   0.9412   0.9905   1.0417   1.1605   1.2771
     1.2878   1.6837   2.3291   2.3452   2.4203   2.5902

          k = 0.4444 0.0000 0.0000 ( 37180 PWs)   bands (ev):

   -73.0708 -73.0316 -72.9479 -72.9377 -72.9362 -72.9318 -44.4568 -44.4038
   -44.3955 -44.3906 -44.3750 -44.3526 -44.3334 -44.3252 -44.3246 -44.3237
   -44.2959 -44.2861 -44.2792 -44.2643 -44.1960 -44.1922 -44.1787 -44.1687
   -22.6959 -17.8326 -17.7321 -17.6489 -17.5984 -17.5277 -17.5224 -17.4276
   -17.3715 -17.3443 -17.0081 -16.7833 -16.2029 -15.9822  -8.3263  -6.3687
    -5.9467  -5.7324  -5.7030  -5.5990  -5.5657  -5.5427  -5.4107  -5.3584
    -5.2544  -5.2115  -5.0496  -4.8378  -4.6466  -4.4803  -4.4566  -4.3764
    -4.0229  -3.7804  -3.5995  -3.5837  -3.5571  -3.4546  -3.4120  -3.2467
    -2.8907  -2.7532  -2.5709  -2.5054  -2.4556  -2.2373  -2.2148  -2.0124
    -1.9571  -1.6015  -1.5343  -1.4268  -1.0708  -0.5603  -0.5027  -0.2784
    -0.2426  -0.1443  -0.1237  -0.1074   0.0364   0.0995   0.1277   0.3358
     0.3928   0.5469   0.6685   0.6712   0.8571   1.0611   1.1272   1.3608
     1.4056   1.4900   2.2418   2.5487   3.1185   3.3749

          k = 0.4444 0.1166 0.0000 ( 37248 PWs)   bands (ev):

   -73.0708 -73.0316 -72.9479 -72.9377 -72.9362 -72.9318 -44.4570 -44.4058
   -44.3957 -44.3906 -44.3783 -44.3525 -44.3315 -44.3294 -44.3232 -44.3223
   -44.2909 -44.2861 -44.2794 -44.2645 -44.1959 -44.1921 -44.1787 -44.1684
   -22.6959 -17.8116 -17.7230 -17.6721 -17.6156 -17.5311 -17.5112 -17.4322
   -17.3947 -17.3234 -17.0115 -16.7829 -16.2027 -15.9814  -8.3292  -6.3634
    -6.0312  -5.8851  -5.8355  -5.7501  -5.6618  -5.4209  -5.3797  -5.2352
    -5.1843  -5.0400  -4.9185  -4.6247  -4.5870  -4.5030  -4.3053  -4.1265
    -3.9754  -3.9222  -3.7713  -3.7215  -3.5731  -3.3482  -3.2927  -3.0935
    -2.9551  -2.7284  -2.5353  -2.4924  -2.3067  -2.2789  -2.1844  -2.1032
    -1.8624  -1.8155  -1.5509  -1.3585  -1.1411  -0.7259  -0.5578  -0.3834
    -0.2509  -0.2290  -0.1580  -0.1207  -0.0965  -0.0940  -0.0788   0.0556
     0.1014   0.3270   0.5949   1.0646   1.1692   1.2310   1.3175   1.3373
     1.4363   1.4977   2.3259   2.4360   2.5593   2.5713

          k = 0.4444-0.2332 0.0000 ( 37264 PWs)   bands (ev):

   -73.0708 -73.0316 -72.9479 -72.9377 -72.9362 -72.9318 -44.4571 -44.4076
   -44.3959 -44.3906 -44.3812 -44.3524 -44.3332 -44.3302 -44.3212 -44.3207
   -44.2870 -44.2861 -44.2795 -44.2648 -44.1958 -44.1920 -44.1787 -44.1680
   -22.6958 -17.7718 -17.7442 -17.6655 -17.6484 -17.5402 -17.4950 -17.4382
   -17.4099 -17.3114 -17.0147 -16.7824 -16.2024 -15.9806  -8.3322  -6.3624
    -6.1141  -6.0784  -5.9620  -5.7840  -5.6305  -5.2150  -5.1535  -5.1464
    -5.0791  -5.0002  -4.9892  -4.8402  -4.5343  -4.2435  -4.1817  -4.0393
    -4.0327  -3.9386  -3.8116  -3.5653  -3.4686  -3.3526  -3.1328  -3.1083
    -2.8168  -2.7426  -2.7067  -2.6472  -2.4330  -2.3432  -2.1225  -2.0005
    -1.8914  -1.4872  -1.4384  -1.4268  -1.2425  -0.8245  -0.7948  -0.6975
    -0.6940  -0.4912  -0.2139  -0.1038  -0.0965  -0.0819  -0.0644   0.0596
     0.1003   0.1571   0.6038   1.1007   1.2063   1.3459   1.4230   1.4723
     1.4870   1.5541   2.1375   2.1607   2.2305   2.4192

 ------ SPIN DOWN ----------


          k = 0.0000 0.0000 0.0000 ( 37133 PWs)   bands (ev):

   -71.0557 -70.9196 -70.6971 -70.5945 -70.5395 -70.2833 -42.5025 -42.4522
   -42.3683 -42.2656 -42.2247 -42.2005 -42.1746 -42.1310 -42.0492 -42.0335
   -41.8456 -41.8404 -41.8123 -41.7783 -41.7128 -41.6696 -41.5845 -41.4689
   -23.9026 -19.0868 -18.7449 -18.4788 -18.1276 -17.6651 -17.5547 -17.4341
   -17.3635 -17.2857 -17.2160 -16.8206 -16.4430 -14.8364  -7.8544  -6.4890
    -6.3515  -6.2934  -5.9323  -5.7090  -5.3331  -5.1825  -4.9711  -4.7227
    -4.5181  -4.4580  -4.4245  -4.3963  -4.3903  -4.1816  -4.1275  -3.9402
    -3.6113  -3.4736  -3.2363  -3.1517  -2.9476  -2.9461  -2.7603  -2.6143
    -2.3539  -2.2558  -2.1780  -2.1368  -1.9400  -1.8605  -1.5030  -1.4709
    -1.3447  -1.1688  -0.9931  -0.9442  -0.7325  -0.6047  -0.1291   1.4998
     1.5188   1.5303   1.6119   1.6129   1.6800   1.7772   1.7863   1.9420
     2.1299   2.1688   2.2230   2.2629   2.2849   2.6979   2.8102   3.0559
     3.2327   3.4010   3.4662   4.0996   4.6836   4.9181

          k = 0.0000 0.1166 0.0000 ( 37130 PWs)   bands (ev):

   -71.0557 -70.9196 -70.6971 -70.5945 -70.5395 -70.2833 -42.5018 -42.4516
   -42.3683 -42.2644 -42.2247 -42.2005 -42.1746 -42.1310 -42.0492 -42.0335
   -41.8456 -41.8416 -41.8131 -41.7782 -41.7129 -41.6696 -41.5852 -41.4690
   -23.9025 -18.9717 -18.6253 -18.3640 -18.2805 -17.8681 -17.6974 -17.4366
   -17.3223 -17.2853 -17.1965 -16.8172 -16.4335 -14.8356  -7.8507  -6.2417
    -6.0765  -6.0121  -5.8859  -5.6546  -5.3318  -5.1315  -4.8398  -4.7293
    -4.4762  -4.3951  -4.3894  -4.3552  -4.2740  -4.1824  -4.1245  -3.9392
    -3.8531  -3.6015  -3.5309  -3.4009  -3.2241  -2.8702  -2.7928  -2.7202
    -2.4091  -2.3940  -2.2492  -2.0748  -2.0248  -1.8322  -1.7815  -1.6067
    -1.4457  -1.2975  -1.2592  -1.0130  -0.9620  -0.6974  -0.1512   1.5271
     1.7546   1.8568   1.8619   1.9099   1.9270   1.9489   1.9655   2.0634
     2.1360   2.2061   2.2560   2.2922   2.3459   2.7065   2.9044   2.9681
     3.0745   3.3237   3.6399   4.2671   4.7385   4.9207

          k = 0.0000-0.2332 0.0000 ( 37126 PWs)   bands (ev):

   -71.0557 -70.9196 -70.6971 -70.5945 -70.5395 -70.2833 -42.5012 -42.4511
   -42.3683 -42.2632 -42.2247 -42.2005 -42.1746 -42.1310 -42.0492 -42.0335
   -41.8456 -41.8429 -41.8139 -41.7780 -41.7130 -41.6696 -41.5858 -41.4690
   -23.9025 -18.7478 -18.5506 -18.3953 -18.1613 -18.1209 -17.9531 -17.4325
   -17.3178 -17.2894 -17.1660 -16.8154 -16.4251 -14.8350  -7.8483  -6.0819
    -5.7216  -5.6982  -5.5922  -5.5787  -5.3405  -5.1282  -4.7426  -4.4723
    -4.4316  -4.3923  -4.3381  -4.3201  -4.2477  -4.1828  -4.1198  -4.1052
    -3.8235  -3.8101  -3.7917  -3.7124  -3.4723  -3.4648  -2.7288  -2.7079
    -2.6153  -2.4563  -2.4261  -2.1352  -2.1338  -1.9340  -1.7248  -1.6632
    -1.5019  -1.4029  -1.3499  -1.0708  -0.9498  -0.8557  -0.1708   1.5273
     1.8874   2.0002   2.0775   2.1008   2.1163   2.1206   2.1582   2.2112
     2.2596   2.3093   2.3807   2.3811   2.4095   2.5322   2.7999   2.9565
     3.0758   3.2874   4.0343   4.1556   4.8154   4.9533

          k = 0.1111 0.0000 0.0000 ( 37175 PWs)   bands (ev):

   -71.0540 -70.9179 -70.6954 -70.5928 -70.5378 -70.2816 -42.5008 -42.4505
   -42.3670 -42.2638 -42.2441 -42.1974 -42.1724 -42.1291 -42.0709 -42.0298
   -41.8444 -41.8366 -41.8083 -41.7995 -41.7349 -41.6921 -41.5803 -41.4924
   -23.8183 -18.9760 -18.6457 -18.3895 -18.0534 -17.6072 -17.5201 -17.4347
   -17.3891 -17.3109 -17.2430 -16.8479 -16.4589 -14.9975  -8.0548  -6.3534
    -6.2380  -6.1858  -5.8344  -5.6338  -5.2694  -5.1930  -5.1419  -4.9452
    -4.8722  -4.6542  -4.6526  -4.5719  -4.1563  -4.1234  -4.0740  -3.4064
    -3.2965  -3.2392  -3.0988  -2.9757  -2.9160  -2.8186  -2.7733  -2.7336
    -2.6191  -2.5370  -2.2654  -2.1970  -2.0490  -1.8622  -1.7669  -1.6982
    -1.6256  -1.3795  -1.2026  -0.9492  -0.9249  -0.6531  -0.1964   1.5221
     1.6705   1.7012   1.7445   1.8037   1.8506   1.8725   1.8937   2.0071
     2.1551   2.2488   2.2939   2.3495   2.4432   2.6026   2.9316   2.9615
     3.1458   3.3808   3.4717   4.1511   4.6499   4.7334

          k = 0.1111 0.1166 0.0000 ( 37124 PWs)   bands (ev):

   -71.0540 -70.9179 -70.6954 -70.5928 -70.5378 -70.2816 -42.5002 -42.4500
   -42.3670 -42.2628 -42.2441 -42.1973 -42.1724 -42.1291 -42.0709 -42.0298
   -41.8445 -41.8378 -41.8090 -41.7992 -41.7349 -41.6921 -41.5808 -41.4923
   -23.8182 -18.8657 -18.5311 -18.2787 -18.2017 -17.8080 -17.6490 -17.4541
   -17.3422 -17.3117 -17.2119 -16.8445 -16.4503 -14.9968  -8.0522  -6.1118
    -5.9554  -5.8974  -5.7837  -5.5847  -5.2739  -5.1962  -5.0804  -4.9174
    -4.7500  -4.6864  -4.5743  -4.4268  -4.1516  -4.1184  -4.0299  -3.5474
    -3.4539  -3.4063  -3.2996  -3.2766  -3.0376  -2.9570  -2.8286  -2.7803
    -2.7293  -2.7083  -2.4328  -2.3106  -2.0872  -1.9531  -1.8325  -1.7500
    -1.6497  -1.4480  -1.2672  -0.9852  -0.9477  -0.7551  -0.2052   1.6547
     1.6656   1.8734   1.9306   1.9515   1.9871   2.0817   2.1222   2.1779
     2.2298   2.2775   2.3881   2.4483   2.4630   2.6550   2.8263   2.9785
     3.0668   3.2609   3.6671   4.2747   4.6377   4.6966

          k = 0.1111-0.2332 0.0000 ( 37144 PWs)   bands (ev):

   -71.0540 -70.9179 -70.6954 -70.5928 -70.5378 -70.2816 -42.4997 -42.4496
   -42.3670 -42.2618 -42.2441 -42.1973 -42.1724 -42.1291 -42.0709 -42.0298
   -41.8445 -41.8391 -41.8097 -41.7989 -41.7350 -41.6921 -41.5814 -41.4923
   -23.8181 -18.6524 -18.4573 -18.3092 -18.0916 -18.0468 -17.8937 -17.4523
   -17.3435 -17.3096 -17.1786 -16.8426 -16.4427 -14.9961  -8.0504  -5.9715
    -5.6119  -5.5553  -5.4961  -5.4623  -5.2826  -5.1969  -5.1164  -4.8112
    -4.6399  -4.5584  -4.5569  -4.2223  -4.1218  -4.1024  -3.9911  -3.9482
    -3.6280  -3.5957  -3.5163  -3.4466  -3.4311  -3.2589  -3.1057  -2.9260
    -2.8334  -2.6833  -2.6137  -2.4612  -2.1599  -1.9898  -1.9174  -1.6818
    -1.4622  -1.3637  -1.2509  -1.0475  -0.9878  -0.8943  -0.2144   1.6486
     1.8174   1.9274   2.0049   2.0532   2.0844   2.2106   2.2730   2.3146
     2.3773   2.4874   2.5149   2.5541   2.5860   2.6347   2.7580   2.8965
     2.9950   3.3182   3.9859   4.1772   4.5244   4.5837

          k = 0.2222 0.0000 0.0000 ( 37192 PWs)   bands (ev):

   -71.0498 -70.9137 -70.6912 -70.5885 -70.5334 -70.2771 -42.4965 -42.4462
   -42.3702 -42.2862 -42.2591 -42.1901 -42.1664 -42.1253 -42.1244 -42.0203
   -41.8572 -41.8372 -41.8269 -41.7982 -41.7905 -41.7488 -41.5695 -41.5513
   -23.5900 -18.6738 -18.3826 -18.1563 -17.8675 -17.5474 -17.4714 -17.4555
   -17.3748 -17.3381 -17.3117 -16.9162 -16.4843 -15.4427  -8.3849  -5.9986
    -5.9557  -5.9304  -5.7499  -5.4742  -5.4642  -5.2640  -5.1387  -5.0978
    -5.0703  -4.7975  -4.7252  -4.4475  -4.2459  -4.0330  -3.8845  -3.6811
    -3.5469  -3.4784  -3.2572  -3.2025  -3.0571  -2.8808  -2.7362  -2.5923
    -2.5743  -2.4423  -2.3865  -2.2647  -2.1337  -1.9994  -1.9088  -1.8056
    -1.7686  -1.6125  -1.5729  -1.1385  -1.0139  -0.8178  -0.3709   1.4490
     1.6800   1.9825   1.9950   2.1048   2.1151   2.1476   2.2074   2.2846
     2.3439   2.3645   2.4335   2.4402   2.5301   2.6439   2.7381   2.9415
     3.1068   3.1398   3.6341   4.0933   4.4184   4.5009

          k = 0.2222 0.1166 0.0000 ( 37137 PWs)   bands (ev):

   -71.0498 -70.9137 -70.6912 -70.5885 -70.5334 -70.2771 -42.4962 -42.4460
   -42.3702 -42.2862 -42.2587 -42.1901 -42.1664 -42.1253 -42.1244 -42.0203
   -41.8578 -41.8375 -41.8267 -41.7986 -41.7903 -41.7487 -41.5699 -41.5512
   -23.5900 -18.5787 -18.2844 -18.0608 -17.9994 -17.6860 -17.5634 -17.4835
   -17.3881 -17.3722 -17.2270 -16.9132 -16.4790 -15.4420  -8.3834  -5.8531
    -5.7154  -5.6518  -5.5819  -5.4514  -5.4167  -5.1397  -5.1169  -5.0557
    -4.9927  -4.8954  -4.7408  -4.2533  -4.1871  -4.0450  -3.9650  -3.8218
    -3.6815  -3.6257  -3.4272  -3.3248  -3.1288  -3.0638  -2.9028  -2.8447
    -2.8190  -2.6704  -2.5302  -2.4791  -2.2357  -1.8955  -1.8207  -1.6892
    -1.5963  -1.5584  -1.4464  -1.1435  -1.0544  -0.8912  -0.3535   1.4681
     1.7466   1.9296   1.9721   2.1013   2.1095   2.2092   2.3353   2.3887
     2.4403   2.4803   2.5625   2.6276   2.6391   2.6553   2.7538   2.8815
     3.0089   3.2278   3.7509   4.1088   4.2782   4.3606

          k = 0.2222-0.2332 0.0000 ( 37166 PWs)   bands (ev):

   -71.0498 -70.9137 -70.6912 -70.5885 -70.5334 -70.2771 -42.4960 -42.4458
   -42.3702 -42.2862 -42.2582 -42.1901 -42.1664 -42.1253 -42.1244 -42.0203
   -41.8585 -41.8378 -41.8264 -41.7990 -41.7901 -41.7485 -41.5702 -41.5511
   -23.5899 -18.3990 -18.2138 -18.0883 -17.9305 -17.8594 -17.7611 -17.5009
   -17.4100 -17.3506 -17.1927 -16.9113 -16.4743 -15.4413  -8.3822  -5.8284
    -5.5729  -5.3824  -5.3159  -5.2116  -5.1105  -5.0974  -5.0696  -4.9832
    -4.8395  -4.7445  -4.7285  -4.2781  -4.1839  -4.1641  -4.0951  -4.0517
    -3.9329  -3.7522  -3.6754  -3.4423  -3.4375  -3.2810  -3.1229  -2.9724
    -2.8808  -2.8408  -2.6804  -2.6480  -2.2765  -1.8236  -1.7953  -1.6059
    -1.4536  -1.3364  -1.3129  -1.1048  -1.0939  -1.0761  -0.3377   1.5781
     1.6998   1.8289   1.9724   2.0352   2.1182   2.2696   2.3511   2.4869
     2.5899   2.6399   2.6594   2.6653   2.7486   2.8422   2.9065   2.9099
     2.9541   3.3155   3.8736   3.9526   4.0493   4.0506

          k = 0.3333 0.0000 0.0000 ( 37184 PWs)   bands (ev):

   -71.0449 -70.9089 -70.6864 -70.5837 -70.5285 -70.2720 -42.4915 -42.4414
   -42.3985 -42.3087 -42.2538 -42.1932 -42.1767 -42.1582 -42.1193 -42.0094
   -41.9162 -41.8532 -41.8350 -41.8159 -41.8127 -41.7866 -41.6178 -41.5572
   -23.2986 -18.2665 -18.0535 -17.8769 -17.6795 -17.5931 -17.5334 -17.4476
   -17.4195 -17.3906 -17.1906 -16.9839 -16.4770 -16.0072  -8.5221  -6.2007
    -5.6879  -5.5846  -5.5010  -5.4095  -5.3127  -5.3111  -5.2721  -5.0190
    -5.0153  -4.8135  -4.7238  -4.6734  -4.3800  -4.2558  -4.0034  -3.9171
    -3.9001  -3.7243  -3.5706  -3.3148  -3.1918  -3.0764  -2.8363  -2.8065
    -2.6921  -2.5010  -2.4646  -2.4344  -2.1355  -2.0336  -1.9455  -1.7325
    -1.6229  -1.4937  -1.3351  -1.2521  -1.0110  -0.9641  -0.5520   1.5202
     1.5506   1.9051   2.1874   2.2000   2.2523   2.3267   2.3295   2.4665
     2.4750   2.5063   2.5334   2.5941   2.7060   2.7544   2.7785   2.8480
     2.9331   3.1137   3.6555   3.8513   4.3696   4.4761

          k = 0.3333 0.1166 0.0000 ( 37206 PWs)   bands (ev):

   -71.0449 -70.9089 -70.6864 -70.5837 -70.5285 -70.2720 -42.4916 -42.4415
   -42.3985 -42.3087 -42.2541 -42.1933 -42.1767 -42.1582 -42.1193 -42.0094
   -41.9165 -41.8527 -41.8350 -41.8157 -41.8124 -41.7868 -41.6175 -41.5573
   -23.2985 -18.2003 -17.9887 -17.8330 -17.7572 -17.6435 -17.5565 -17.4764
   -17.4716 -17.3848 -17.1734 -16.9827 -16.4762 -16.0064  -8.5220  -6.1959
    -5.4569  -5.3958  -5.3699  -5.3427  -5.2688  -5.2433  -5.1876  -5.0528
    -4.9890  -4.8830  -4.7862  -4.6798  -4.4382  -4.2512  -4.0936  -3.9840
    -3.8488  -3.8390  -3.4926  -3.4301  -3.2005  -3.1630  -2.9411  -2.9131
    -2.7987  -2.6501  -2.5021  -2.2790  -2.2408  -1.9888  -1.9535  -1.6900
    -1.6051  -1.5405  -1.2619  -1.2276  -1.0839  -0.9638  -0.5307   1.4083
     1.4940   1.7250   1.9507   2.0000   2.2563   2.2761   2.4299   2.4545
     2.5303   2.6091   2.6758   2.7265   2.7892   2.8275   2.8325   2.9271
     2.9744   3.2139   3.7133   3.8521   3.9684   4.0420

          k = 0.3333-0.2332 0.0000 ( 37216 PWs)   bands (ev):

   -71.0449 -70.9089 -70.6864 -70.5837 -70.5285 -70.2720 -42.4918 -42.4416
   -42.3986 -42.3087 -42.2543 -42.1933 -42.1767 -42.1582 -42.1193 -42.0094
   -41.9169 -41.8522 -41.8350 -41.8156 -41.8121 -41.7869 -41.6172 -41.5574
   -23.2985 -18.0789 -17.9379 -17.8430 -17.7919 -17.6565 -17.6482 -17.5464
   -17.4820 -17.3729 -17.1615 -16.9818 -16.4754 -16.0057  -8.5220  -6.1947
    -5.3213  -5.2933  -5.2426  -5.1830  -5.1352  -5.1214  -5.1073  -5.0259
    -4.9445  -4.8633  -4.7105  -4.6276  -4.4594  -4.4466  -4.3141  -4.0497
    -3.8260  -3.8203  -3.7300  -3.5723  -3.4024  -3.1018  -3.0148  -2.8976
    -2.8269  -2.7683  -2.5765  -2.4887  -2.1747  -1.9682  -1.7365  -1.7157
    -1.6437  -1.4507  -1.3034  -1.1498  -1.1378  -0.9638  -0.5061   1.2977
     1.4492   1.4830   1.7801   2.0359   2.2581   2.2634   2.3382   2.4699
     2.5351   2.7029   2.7463   2.8233   2.8611   2.8925   3.0329   3.0391
     3.0528   3.3140   3.5828   3.6534   3.7542   3.8268

          k = 0.4444 0.0000 0.0000 ( 37180 PWs)   bands (ev):

   -71.0417 -70.9057 -70.6833 -70.5805 -70.5253 -70.2687 -42.4883 -42.4383
   -42.4301 -42.3100 -42.2504 -42.2294 -42.1760 -42.1526 -42.1161 -42.0024
   -41.9552 -41.8938 -41.8541 -41.8324 -41.8087 -41.7791 -41.6608 -41.5492
   -23.0841 -17.8873 -17.7857 -17.7152 -17.6621 -17.5899 -17.5855 -17.4953
   -17.4529 -17.4424 -17.1317 -16.9915 -16.4467 -16.4058  -8.4928  -6.4997
    -5.6829  -5.4414  -5.4003  -5.3964  -5.3246  -5.2581  -5.2045  -5.0848
    -4.9762  -4.9383  -4.8376  -4.5177  -4.4823  -4.4032  -4.1746  -4.1327
    -4.0550  -3.5870  -3.3179  -3.3026  -3.2924  -3.2799  -3.1334  -3.0775
    -2.6051  -2.5457  -2.3264  -2.2241  -2.1550  -2.1372  -1.9874  -1.8536
    -1.7558  -1.4282  -1.4071  -1.3896  -1.0452  -0.6516  -0.6355   1.5958
     1.6906   1.8109   1.9768   2.0036   2.1581   2.3267   2.3727   2.5023
     2.5283   2.6314   2.6420   2.6809   2.7458   2.7843   2.9371   2.9611
     3.0796   3.1583   3.5185   3.7708   4.2859   4.4587

          k = 0.4444 0.1166 0.0000 ( 37248 PWs)   bands (ev):

   -71.0417 -70.9057 -70.6833 -70.5805 -70.5253 -70.2687 -42.4887 -42.4386
   -42.4302 -42.3100 -42.2511 -42.2295 -42.1760 -42.1526 -42.1161 -42.0024
   -41.9555 -41.8930 -41.8537 -41.8325 -41.8083 -41.7790 -41.6604 -41.5491
   -23.0841 -17.8686 -17.7779 -17.7464 -17.6858 -17.6011 -17.5615 -17.5074
   -17.4638 -17.4137 -17.1349 -16.9910 -16.4465 -16.4045  -8.4951  -6.4937
    -5.6970  -5.5754  -5.4998  -5.3861  -5.3621  -5.1339  -5.1008  -5.0476
    -4.9745  -4.9086  -4.7327  -4.5764  -4.3626  -4.2818  -4.1636  -3.9310
    -3.8610  -3.7400  -3.5629  -3.5232  -3.3665  -3.1871  -3.1165  -2.8363
    -2.7224  -2.5128  -2.2733  -2.2099  -2.1574  -2.0423  -1.9563  -1.9125
    -1.7344  -1.6021  -1.4275  -1.3449  -1.1689  -0.6620  -0.6235   1.4155
     1.4537   1.6189   1.6821   1.7515   2.1452   2.1758   2.3823   2.5115
     2.6075   2.6754   2.7533   2.7593   2.8909   2.9389   2.9571   2.9978
     3.1292   3.2242   3.5768   3.7751   3.8143   3.8696

          k = 0.4444-0.2332 0.0000 ( 37264 PWs)   bands (ev):

   -71.0417 -70.9057 -70.6833 -70.5805 -70.5253 -70.2687 -42.4890 -42.4389
   -42.4303 -42.3100 -42.2518 -42.2296 -42.1760 -42.1526 -42.1161 -42.0024
   -41.9559 -41.8922 -41.8532 -41.8325 -41.8080 -41.7790 -41.6600 -41.5491
   -23.0841 -17.8246 -17.8167 -17.7331 -17.7251 -17.6119 -17.5400 -17.5228
   -17.4641 -17.3978 -17.1381 -16.9904 -16.4464 -16.4033  -8.4974  -6.4891
    -5.7173  -5.7162  -5.5917  -5.4632  -5.3200  -5.0038  -4.9764  -4.8714
    -4.8442  -4.7563  -4.6762  -4.6250  -4.5214  -4.1931  -4.0266  -4.0124
    -3.9124  -3.8420  -3.6583  -3.4518  -3.3527  -3.1183  -3.0364  -2.9619
    -2.5759  -2.4034  -2.3523  -2.3508  -2.1851  -2.0773  -1.9653  -1.8172
    -1.7544  -1.4988  -1.4593  -1.4452  -1.2503  -0.6519  -0.6358   1.1591
     1.2246   1.3469   1.5316   1.7648   2.0382   2.1728   2.3879   2.5014
     2.6140   2.7106   2.7754   2.7829   2.8504   2.8666   3.1285   3.1740
     3.2009   3.3196   3.4984   3.5850   3.6566   3.6768

     the Fermi energy is     0.6044 ev

!    total energy              =   -1637.89546419 Ry
     estimated scf accuracy    <       0.00000083 Ry
     smearing contrib. (-TS)   =      -0.00087849 Ry
     internal energy E=F+TS    =   -1637.89458570 Ry

     The total energy is F=E-TS. E is the sum of the following terms:
     one-electron contribution =  -15565.35083099 Ry
     hartree contribution      =    7810.23591095 Ry
     xc contribution           =    -238.52353918 Ry
     ewald contribution        =    6489.03319546 Ry
     one-center paw contrib.   =    -133.28932194 Ry

     total magnetization       =    11.00 Bohr mag/cell
     absolute magnetization    =    14.58 Bohr mag/cell

     convergence has been achieved in  47 iterations

     negative rho (up, down):  2.006E-03 1.961E-02

     Forces acting on atoms (cartesian axes, Ry/au):

     atom    1 type  1   force =    -0.00001732    0.00000000    0.10032618
     atom    2 type  1   force =    -0.00009171    0.00000000   -0.09824078
     atom    3 type  1   force =    -0.00038835    0.00000000    0.01424843
     atom    4 type  1   force =     0.00068362    0.00000000   -0.00104808
     atom    5 type  1   force =    -0.00336063    0.00000000    0.00596346
     atom    6 type  1   force =     0.00090289    0.00000000    0.03658561
     atom    7 type  3   force =     0.00042459    0.00000000    0.04274012
     atom    8 type  3   force =     0.00010718    0.00000000    0.06467269
     atom    9 type  3   force =     0.00000246    0.01701014   -0.03640660
     atom   10 type  3   force =     0.00000246   -0.01701014   -0.03640660
     atom   11 type  3   force =     0.00045425    0.00000000    0.00109864
     atom   12 type  3   force =    -0.00065686    0.00000000   -0.01028923
     atom   13 type  3   force =    -0.00047628    0.00396122   -0.00213113
     atom   14 type  3   force =    -0.00047628   -0.00396122   -0.00213113
     atom   15 type  3   force =     0.00037492    0.00000000   -0.04608500
     atom   16 type  3   force =    -0.00123030    0.00000000   -0.01158187
     atom   17 type  3   force =     0.00385288    0.00743152   -0.00152604
     atom   18 type  3   force =     0.00385288   -0.00743152   -0.00152604
     atom   19 type  3   force =    -0.01178597    0.00000000   -0.02456683
     atom   20 type  3   force =     0.00597350    0.00000000    0.00509130
     atom   21 type  2   force =     0.00185207    0.00000000    0.00121289

     Total force =     0.069618     Total SCF correction =     0.003683

     Writing all to output data dir ./tmp_s0_OOH__u000__sp2m050/s0_OOH__u000__sp2m050.save/ :
     XML data file, charge density, pseudopotentials, collected wavefunctions

     init_run     :      4.16s CPU      4.29s WALL (       1 calls)
     electrons    :    161.96s CPU    164.08s WALL (       1 calls)
     forces       :      0.71s CPU      0.72s WALL (       1 calls)

     Called by init_run:
     wfcinit      :      1.82s CPU      1.88s WALL (       1 calls)
     potinit      :      1.50s CPU      1.52s WALL (       1 calls)
     hinit0       :      0.50s CPU      0.53s WALL (       1 calls)

     Called by electrons:
     c_bands      :    122.08s CPU    123.55s WALL (      47 calls)
     sum_band     :     24.81s CPU     25.20s WALL (      47 calls)
     v_of_rho     :      4.99s CPU      5.06s WALL (      48 calls)
     newd         :      2.38s CPU      2.41s WALL (      48 calls)
     PAW_pot      :      2.77s CPU      2.78s WALL (      48 calls)
     mix_rho      :      4.67s CPU      4.74s WALL (      47 calls)

     Called by c_bands:
     init_us_2    :      3.10s CPU      3.15s WALL (     768 calls)
     cegterg      :    104.31s CPU    105.59s WALL (     376 calls)

     Called by *egterg:
     cdiaghg      :     13.58s CPU     13.66s WALL (    1255 calls)
     h_psi        :     66.04s CPU     67.08s WALL (    1263 calls)
     s_psi        :      5.45s CPU      5.50s WALL (    1263 calls)
     g_psi        :      0.36s CPU      0.37s WALL (     879 calls)

     Called by h_psi:
     h_psi:calbec :      7.38s CPU      7.45s WALL (    1263 calls)
     vloc_psi     :     52.61s CPU     53.52s WALL (    1263 calls)
                                        0.00s GPU  (    1263 calls)
     add_vuspsi   :      5.31s CPU      5.36s WALL (    1263 calls)

     General routines
     calbec       :     10.86s CPU     10.96s WALL (    1671 calls)
     fft          :      3.22s CPU      3.27s WALL (    1213 calls)
     ffts         :      3.06s CPU      3.10s WALL (    5848 calls)
     fftw         :     60.95s CPU     62.01s WALL (  198636 calls)
     interpolate  :      0.92s CPU      0.92s WALL (      96 calls)

     Parallel routines

     PWSCF        :   2m47.50s CPU   2m50.02s WALL


   This run was terminated on:   3:35:15   1Sep2026            

=------------------------------------------------------------------------------=
   JOB DONE.
=------------------------------------------------------------------------------=
Note: The following floating-point exceptions are signalling: IEEE_DENORMAL
Note: The following floating-point exceptions are signalling: IEEE_DENORMAL
Note: The following floating-point exceptions are signalling: IEEE_DENORMAL
Note: The following floating-point exceptions are signalling: IEEE_DENORMAL
Note: The following floating-point exceptions are signalling: IEEE_DENORMAL
Note: The following floating-point exceptions are signalling: IEEE_DENORMAL
Note: The following floating-point exceptions are signalling: IEEE_DENORMAL
Note: The following floating-point exceptions are signalling: IEEE_DENORMAL
Note: The following floating-point exceptions are signalling: IEEE_DENORMAL
Note: The following floating-point exceptions are signalling: IEEE_DENORMAL
Note: The following floating-point exceptions are signalling: IEEE_DENORMAL
Note: The following floating-point exceptions are signalling: IEEE_DENORMAL
Note: The following floating-point exceptions are signalling: IEEE_DENORMAL
Note: The following floating-point exceptions are signalling: IEEE_DENORMAL
