
     Program PWSCF v.7.5 starts on  8Aug2026 at  8:57:13 

     This program is part of the open-source Quantum ESPRESSO suite
     for quantum simulation of materials; please cite
         "P. Giannozzi et al., J. Phys.:Condens. Matter 21 395502 (2009);
         "P. Giannozzi et al., J. Phys.:Condens. Matter 29 465901 (2017);
         "P. Giannozzi et al., J. Chem. Phys. 152 154105 (2020);
          URL http://www.quantum-espresso.org", 
     in publications or presentations arising from this work. More details at
     http://www.quantum-espresso.org/quote

     Parallel version (MPI & OpenMP), running on       4 processor cores
     Number of MPI processes:                 4
     Threads/MPI process:                     1

     MPI processes distributed on     1 nodes
     18281 MiB available memory on the printing compute node when the environment starts

     Reading input from slab__u0.5.run.in

     Current dimensions of program PWSCF are:
     Max number of different atomic species (ntypx) = 10
     Max number of k-points (npk) =  40000
     Max angular momentum in pseudopotentials (lmaxx) =  4
     file O.pbe-n-kjpaw_psl.0.1.UPF: wavefunction(s)  2P renormalized

     K-points division:     npool     =       4
     Subspace diagonalization in iterative solution of the eigenvalue problem:
     a serial algorithm will be used


     G-vector sticks info
     --------------------
     sticks:   dense  smooth     PW     G-vecs:    dense   smooth      PW
     Sum        3427    1711    489               877873   310209   47305

     Using Slab Decomposition



     bravais-lattice index     =            0
     lattice parameter (alat)  =       5.6503  a.u.
     unit-cell volume          =    3210.9053 (a.u.)^3
     number of atoms/cell      =           18
     number of atomic types    =            2
     number of electrons       =       174.00
     number of Kohn-Sham states=          104
     kinetic-energy cutoff     =      80.0000  Ry
     charge density cutoff     =     640.0000  Ry
     scf convergence threshold =      1.0E-06
     mixing beta               =       0.3000
     number of iterations used =            8  local-TF  mixing
     Exchange-correlation= SLA  PW   PBX  PBC
                           (   1   4   3   4   0   0   0)
     Hubbard projectors: atomic
     Hubbard parameters of DFT+U (Dudarev formulation) in eV:
     U(Co-3d) =  1.6600

     Internal variables: lda_plus_u =T, lda_plus_u_kind = 0

     Internal variables: orbital_resolved =F, hub_pot_fix =F, apply_U = F

     celldm(1)=   5.650281  celldm(2)=   0.000000  celldm(3)=   0.000000
     celldm(4)=   0.000000  celldm(5)=   0.000000  celldm(6)=   0.000000

     crystal axes: (cart. coord. in units of alat)
               a(1) = (   1.000000   0.000000   0.000000 )  
               a(2) = (   0.000000   2.109496   0.000000 )  
               a(3) = (   0.000000   0.000000   8.437983 )  

     reciprocal axes: (cart. coord. in units 2 pi/alat)
               b(1) = (  1.000000  0.000000  0.000000 )  
               b(2) = (  0.000000  0.474047  0.000000 )  
               b(3) = (  0.000000  0.000000  0.118512 )  


     PseudoPot. # 1 for Co read from file:
     /usr/share/espresso/pseudo/Co_pbe_v1.2.uspp.F.UPF
     MD5 check sum: 5f91765df6ddd3222702df6e7b74a16d
     Pseudo is Ultrasoft + core correction, Zval = 17.0
     Generated by new atomic code, or converted to UPF format
     Using radial grid of  863 points,  6 beta functions with: 
                l(1) =   0
                l(2) =   0
                l(3) =   1
                l(4) =   1
                l(5) =   2
                l(6) =   2
     Q(r) pseudized with  8 coefficients,  rinner =    1.200   1.200   1.200
                                                       1.200   1.200

     PseudoPot. # 2 for O  read from file:
     /usr/share/espresso/pseudo/O.pbe-n-kjpaw_psl.0.1.UPF
     MD5 check sum: 0234752ac141de4415c5fc33072bef88
     Pseudo is Projector augmented-wave + core cor, Zval =  6.0
     Generated using "atomic" code by A. Dal Corso  v.5.0.99 svn rev. 10869
     Shape of augmentation charge: BESSEL
     Using radial grid of 1095 points,  4 beta functions with: 
                l(1) =   0
                l(2) =   0
                l(3) =   1
                l(4) =   1
     Q(r) pseudized with 0 coefficients 


     atomic species   valence    mass     pseudopotential
     Co               17.00    58.93300     Co( 1.00)
     O                 6.00    15.99900     O ( 1.00)

     Starting magnetic structure 
     atomic species   magnetization
     Co              0.400
     O               0.000

     No symmetry found



   Cartesian axes

     site n.     atom                  positions (alat units)
         1        Co     tau(   1) = (   0.0000000   1.5821219   3.1642437  )
         2        Co     tau(   2) = (   0.5000000   0.5273740   3.1642437  )
         3        Co     tau(   3) = (   0.0000000   0.5273740   4.2189916  )
         4        Co     tau(   4) = (   0.5000000   1.5821219   4.2189916  )
         5        Co     tau(   5) = (  -0.0000000   1.5820438   5.2236037  )
         6        Co     tau(   6) = (   0.5000000   0.5271923   5.2477324  )
         7        O      tau(   7) = (   0.0000000   0.5273740   3.5755954  )
         8        O      tau(   8) = (   0.0000000   0.5273740   2.7528920  )
         9        O      tau(   9) = (   0.5000000   1.1707702   3.1642437  )
        10        O      tau(  10) = (   0.5000000   1.9934735   3.1642437  )
        11        O      tau(  11) = (  -0.0000000   1.5822281   4.6019545  )
        12        O      tau(  12) = (   0.0000000   1.5821219   3.8076399  )
        13        O      tau(  13) = (   0.5000000   0.1160223   4.2189916  )
        14        O      tau(  14) = (   0.5000000   0.9376100   4.2175647  )
        15        O      tau(  15) = (  -0.0000000   0.5274131   5.6205393  )
        16        O      tau(  16) = (   0.0000000   0.5270494   4.8491277  )
        17        O      tau(  17) = (   0.5000000   1.1814583   5.2825066  )
        18        O      tau(  18) = (   0.5000000   1.9825762   5.2829140  )

     number of k points=    32  Marzari-Vanderbilt smearing, width (Ry)=  0.0100
                       cart. coord. in units 2pi/alat
        k(    1) = (   0.0000000   0.0000000   0.0000000), wk =   0.0312500
        k(    2) = (   0.0000000   0.1185117   0.0000000), wk =   0.0312500
        k(    3) = (   0.0000000  -0.2370235   0.0000000), wk =   0.0312500
        k(    4) = (   0.0000000  -0.1185117   0.0000000), wk =   0.0312500
        k(    5) = (   0.1250000   0.0000000   0.0000000), wk =   0.0312500
        k(    6) = (   0.1250000   0.1185117   0.0000000), wk =   0.0312500
        k(    7) = (   0.1250000  -0.2370235   0.0000000), wk =   0.0312500
        k(    8) = (   0.1250000  -0.1185117   0.0000000), wk =   0.0312500
        k(    9) = (   0.2500000   0.0000000   0.0000000), wk =   0.0312500
        k(   10) = (   0.2500000   0.1185117   0.0000000), wk =   0.0312500
        k(   11) = (   0.2500000  -0.2370235   0.0000000), wk =   0.0312500
        k(   12) = (   0.2500000  -0.1185117   0.0000000), wk =   0.0312500
        k(   13) = (   0.3750000   0.0000000   0.0000000), wk =   0.0312500
        k(   14) = (   0.3750000   0.1185117   0.0000000), wk =   0.0312500
        k(   15) = (   0.3750000  -0.2370235   0.0000000), wk =   0.0312500
        k(   16) = (   0.3750000  -0.1185117   0.0000000), wk =   0.0312500
        k(   17) = (  -0.5000000   0.0000000   0.0000000), wk =   0.0312500
        k(   18) = (  -0.5000000   0.1185117   0.0000000), wk =   0.0312500
        k(   19) = (  -0.5000000  -0.2370235   0.0000000), wk =   0.0312500
        k(   20) = (  -0.5000000  -0.1185117   0.0000000), wk =   0.0312500
        k(   21) = (  -0.3750000   0.0000000   0.0000000), wk =   0.0312500
        k(   22) = (  -0.3750000   0.1185117   0.0000000), wk =   0.0312500
        k(   23) = (  -0.3750000  -0.2370235   0.0000000), wk =   0.0312500
        k(   24) = (  -0.3750000  -0.1185117   0.0000000), wk =   0.0312500
        k(   25) = (  -0.2500000   0.0000000   0.0000000), wk =   0.0312500
        k(   26) = (  -0.2500000   0.1185117   0.0000000), wk =   0.0312500
        k(   27) = (  -0.2500000  -0.2370235   0.0000000), wk =   0.0312500
        k(   28) = (  -0.2500000  -0.1185117   0.0000000), wk =   0.0312500
        k(   29) = (  -0.1250000   0.0000000   0.0000000), wk =   0.0312500
        k(   30) = (  -0.1250000   0.1185117   0.0000000), wk =   0.0312500
        k(   31) = (  -0.1250000  -0.2370235   0.0000000), wk =   0.0312500
        k(   32) = (  -0.1250000  -0.1185117   0.0000000), wk =   0.0312500

     Dense  grid:   877873 G-vectors     FFT dimensions: (  45,  96, 384)

     Smooth grid:   310209 G-vectors     FFT dimensions: (  36,  72, 288)

     Estimated max dynamical RAM per process >       2.98 GB

     Estimated total dynamical RAM >      10.68 GB

     Check: negative core charge=   -0.000015
     Generating pointlists ...
     new r_m :   0.2564 (alat units)  1.4489 (a.u.) for type    1
     new r_m :   0.2564 (alat units)  1.4489 (a.u.) for type    2

     Initial potential from superposition of free atoms

     starting charge     167.9999, renormalised to     174.0000

     negative rho (up, down):  2.259E-04 1.054E-04

     STARTING HUBBARD OCCUPATIONS:

     =================== HUBBARD OCCUPATIONS ===================
     ------------------------ ATOM    1 ------------------------
     Tr[ns(  1)] (up, down, total) =   5.00000  2.00000  7.00000
     Atomic magnetic moment for atom   1 =   3.00000
     SPIN  1
     eigenvalues:
       1.000  1.000  1.000  1.000  1.000
     eigenvectors (columns):
       1.000  0.000  0.000  0.000  0.000
       0.000  1.000  0.000  0.000  0.000
       0.000  0.000  1.000  0.000  0.000
       0.000  0.000  0.000  1.000  0.000
       0.000  0.000  0.000  0.000  1.000
     occupation matrix ns (before diag.):
       1.000  0.000  0.000  0.000  0.000
       0.000  1.000  0.000  0.000  0.000
       0.000  0.000  1.000  0.000  0.000
       0.000  0.000  0.000  1.000  0.000
       0.000  0.000  0.000  0.000  1.000
     SPIN  2
     eigenvalues:
       0.400  0.400  0.400  0.400  0.400
     eigenvectors (columns):
       1.000  0.000  0.000  0.000  0.000
       0.000  1.000  0.000  0.000  0.000
       0.000  0.000  1.000  0.000  0.000
       0.000  0.000  0.000  1.000  0.000
       0.000  0.000  0.000  0.000  1.000
     occupation matrix ns (before diag.):
       0.400  0.000  0.000  0.000  0.000
       0.000  0.400  0.000  0.000  0.000
       0.000  0.000  0.400  0.000  0.000
       0.000  0.000  0.000  0.400  0.000
       0.000  0.000  0.000  0.000  0.400
     ------------------------ ATOM    2 ------------------------
     Tr[ns(  2)] (up, down, total) =   5.00000  2.00000  7.00000
     Atomic magnetic moment for atom   2 =   3.00000
     SPIN  1
     eigenvalues:
       1.000  1.000  1.000  1.000  1.000
     eigenvectors (columns):
       1.000  0.000  0.000  0.000  0.000
       0.000  1.000  0.000  0.000  0.000
       0.000  0.000  1.000  0.000  0.000
       0.000  0.000  0.000  1.000  0.000
       0.000  0.000  0.000  0.000  1.000
     occupation matrix ns (before diag.):
       1.000  0.000  0.000  0.000  0.000
       0.000  1.000  0.000  0.000  0.000
       0.000  0.000  1.000  0.000  0.000
       0.000  0.000  0.000  1.000  0.000
       0.000  0.000  0.000  0.000  1.000
     SPIN  2
     eigenvalues:
       0.400  0.400  0.400  0.400  0.400
     eigenvectors (columns):
       1.000  0.000  0.000  0.000  0.000
       0.000  1.000  0.000  0.000  0.000
       0.000  0.000  1.000  0.000  0.000
       0.000  0.000  0.000  1.000  0.000
       0.000  0.000  0.000  0.000  1.000
     occupation matrix ns (before diag.):
       0.400  0.000  0.000  0.000  0.000
       0.000  0.400  0.000  0.000  0.000
       0.000  0.000  0.400  0.000  0.000
       0.000  0.000  0.000  0.400  0.000
       0.000  0.000  0.000  0.000  0.400
     ------------------------ ATOM    3 ------------------------
     Tr[ns(  3)] (up, down, total) =   5.00000  2.00000  7.00000
     Atomic magnetic moment for atom   3 =   3.00000
     SPIN  1
     eigenvalues:
       1.000  1.000  1.000  1.000  1.000
     eigenvectors (columns):
       1.000  0.000  0.000  0.000  0.000
       0.000  1.000  0.000  0.000  0.000
       0.000  0.000  1.000  0.000  0.000
       0.000  0.000  0.000  1.000  0.000
       0.000  0.000  0.000  0.000  1.000
     occupation matrix ns (before diag.):
       1.000  0.000  0.000  0.000  0.000
       0.000  1.000  0.000  0.000  0.000
       0.000  0.000  1.000  0.000  0.000
       0.000  0.000  0.000  1.000  0.000
       0.000  0.000  0.000  0.000  1.000
     SPIN  2
     eigenvalues:
       0.400  0.400  0.400  0.400  0.400
     eigenvectors (columns):
       1.000  0.000  0.000  0.000  0.000
       0.000  1.000  0.000  0.000  0.000
       0.000  0.000  1.000  0.000  0.000
       0.000  0.000  0.000  1.000  0.000
       0.000  0.000  0.000  0.000  1.000
     occupation matrix ns (before diag.):
       0.400  0.000  0.000  0.000  0.000
       0.000  0.400  0.000  0.000  0.000
       0.000  0.000  0.400  0.000  0.000
       0.000  0.000  0.000  0.400  0.000
       0.000  0.000  0.000  0.000  0.400
     ------------------------ ATOM    4 ------------------------
     Tr[ns(  4)] (up, down, total) =   5.00000  2.00000  7.00000
     Atomic magnetic moment for atom   4 =   3.00000
     SPIN  1
     eigenvalues:
       1.000  1.000  1.000  1.000  1.000
     eigenvectors (columns):
       1.000  0.000  0.000  0.000  0.000
       0.000  1.000  0.000  0.000  0.000
       0.000  0.000  1.000  0.000  0.000
       0.000  0.000  0.000  1.000  0.000
       0.000  0.000  0.000  0.000  1.000
     occupation matrix ns (before diag.):
       1.000  0.000  0.000  0.000  0.000
       0.000  1.000  0.000  0.000  0.000
       0.000  0.000  1.000  0.000  0.000
       0.000  0.000  0.000  1.000  0.000
       0.000  0.000  0.000  0.000  1.000
     SPIN  2
     eigenvalues:
       0.400  0.400  0.400  0.400  0.400
     eigenvectors (columns):
       1.000  0.000  0.000  0.000  0.000
       0.000  1.000  0.000  0.000  0.000
       0.000  0.000  1.000  0.000  0.000
       0.000  0.000  0.000  1.000  0.000
       0.000  0.000  0.000  0.000  1.000
     occupation matrix ns (before diag.):
       0.400  0.000  0.000  0.000  0.000
       0.000  0.400  0.000  0.000  0.000
       0.000  0.000  0.400  0.000  0.000
       0.000  0.000  0.000  0.400  0.000
       0.000  0.000  0.000  0.000  0.400
     ------------------------ ATOM    5 ------------------------
     Tr[ns(  5)] (up, down, total) =   5.00000  2.00000  7.00000
     Atomic magnetic moment for atom   5 =   3.00000
     SPIN  1
     eigenvalues:
       1.000  1.000  1.000  1.000  1.000
     eigenvectors (columns):
       1.000  0.000  0.000  0.000  0.000
       0.000  1.000  0.000  0.000  0.000
       0.000  0.000  1.000  0.000  0.000
       0.000  0.000  0.000  1.000  0.000
       0.000  0.000  0.000  0.000  1.000
     occupation matrix ns (before diag.):
       1.000  0.000  0.000  0.000  0.000
       0.000  1.000  0.000  0.000  0.000
       0.000  0.000  1.000  0.000  0.000
       0.000  0.000  0.000  1.000  0.000
       0.000  0.000  0.000  0.000  1.000
     SPIN  2
     eigenvalues:
       0.400  0.400  0.400  0.400  0.400
     eigenvectors (columns):
       1.000  0.000  0.000  0.000  0.000
       0.000  1.000  0.000  0.000  0.000
       0.000  0.000  1.000  0.000  0.000
       0.000  0.000  0.000  1.000  0.000
       0.000  0.000  0.000  0.000  1.000
     occupation matrix ns (before diag.):
       0.400  0.000  0.000  0.000  0.000
       0.000  0.400  0.000  0.000  0.000
       0.000  0.000  0.400  0.000  0.000
       0.000  0.000  0.000  0.400  0.000
       0.000  0.000  0.000  0.000  0.400
     ------------------------ ATOM    6 ------------------------
     Tr[ns(  6)] (up, down, total) =   5.00000  2.00000  7.00000
     Atomic magnetic moment for atom   6 =   3.00000
     SPIN  1
     eigenvalues:
       1.000  1.000  1.000  1.000  1.000
     eigenvectors (columns):
       1.000  0.000  0.000  0.000  0.000
       0.000  1.000  0.000  0.000  0.000
       0.000  0.000  1.000  0.000  0.000
       0.000  0.000  0.000  1.000  0.000
       0.000  0.000  0.000  0.000  1.000
     occupation matrix ns (before diag.):
       1.000  0.000  0.000  0.000  0.000
       0.000  1.000  0.000  0.000  0.000
       0.000  0.000  1.000  0.000  0.000
       0.000  0.000  0.000  1.000  0.000
       0.000  0.000  0.000  0.000  1.000
     SPIN  2
     eigenvalues:
       0.400  0.400  0.400  0.400  0.400
     eigenvectors (columns):
       1.000  0.000  0.000  0.000  0.000
       0.000  1.000  0.000  0.000  0.000
       0.000  0.000  1.000  0.000  0.000
       0.000  0.000  0.000  1.000  0.000
       0.000  0.000  0.000  0.000  1.000
     occupation matrix ns (before diag.):
       0.400  0.000  0.000  0.000  0.000
       0.000  0.400  0.000  0.000  0.000
       0.000  0.000  0.400  0.000  0.000
       0.000  0.000  0.000  0.400  0.000
       0.000  0.000  0.000  0.000  0.400

     Number of occupied Hubbard levels =   42.0000

     Atomic wfc used for Hubbard projectors are NOT orthogonalized

     Starting wfcs are  126 randomized atomic wfcs
     Checking if some PAW data can be deallocated... 

     total cpu time spent up to now is      141.3 secs

     per-process dynamical memory:  1904.5 Mb

     Self-consistent Calculation

     iteration #  1     ecut=    80.00 Ry     beta= 0.30
     Davidson diagonalization with overlap
     ethr =  1.00E-02,  avg # of iterations =  7.1

     =================== HUBBARD OCCUPATIONS ===================
     ------------------------ ATOM    1 ------------------------
     Tr[ns(  1)] (up, down, total) =   4.81227  0.37425  5.18653
     Atomic magnetic moment for atom   1 =   4.43802
     SPIN  1
     eigenvalues:
       0.872  0.982  0.982  0.987  0.988
     eigenvectors (columns):
       0.960 -0.278 -0.016  0.000 -0.000
      -0.000  0.000  0.001  1.000  0.002
       0.000 -0.000 -0.000 -0.002  1.000
      -0.279 -0.959 -0.059  0.000 -0.000
      -0.001 -0.062  0.998 -0.001  0.000
     occupation matrix ns (before diag.):
       0.880  0.000 -0.000  0.030  0.000
       0.000  0.987  0.000  0.000 -0.000
      -0.000  0.000  0.988  0.000  0.000
       0.030  0.000  0.000  0.974 -0.000
       0.000 -0.000  0.000 -0.000  0.982
     SPIN  2
     eigenvalues:
       0.035  0.042  0.042  0.116  0.139
     eigenvectors (columns):
      -0.000  0.231  0.010 -0.973  0.000
      -0.001 -0.046  0.999 -0.000 -0.000
       1.000 -0.000  0.001 -0.000  0.000
       0.000  0.972  0.045  0.231 -0.000
      -0.000 -0.000  0.000  0.000  1.000
     occupation matrix ns (before diag.):
       0.112  0.000  0.000 -0.017  0.000
       0.000  0.042  0.000  0.000 -0.000
       0.000  0.000  0.035 -0.000  0.000
      -0.017  0.000 -0.000  0.046 -0.000
       0.000 -0.000  0.000 -0.000  0.139
     ------------------------ ATOM    2 ------------------------
     Tr[ns(  2)] (up, down, total) =   4.82993  0.42379  5.25373
     Atomic magnetic moment for atom   2 =   4.40614
     SPIN  1
     eigenvalues:
       0.908  0.970  0.980  0.984  0.987
     eigenvectors (columns):
       0.320 -0.000  0.947  0.000 -0.001
       0.002  1.000 -0.000 -0.001 -0.000
      -0.000 -0.000 -0.001 -0.001 -1.000
       0.947 -0.002 -0.320 -0.000  0.000
       0.000  0.001 -0.000  1.000 -0.001
     occupation matrix ns (before diag.):
       0.973 -0.000  0.000 -0.022 -0.000
      -0.000  0.970  0.000 -0.000 -0.000
       0.000  0.000  0.987  0.000  0.000
      -0.022 -0.000  0.000  0.916 -0.000
      -0.000 -0.000  0.000 -0.000  0.984
     SPIN  2
     eigenvalues:
       0.045  0.046  0.051  0.140  0.141
     eigenvectors (columns):
       0.002 -0.925  0.000 -0.012  0.381
      -0.000  0.000  0.000 -0.999 -0.032
      -1.000 -0.003  0.000  0.000 -0.000
      -0.001  0.381  0.000 -0.030  0.924
       0.000  0.000  1.000  0.000 -0.000
     occupation matrix ns (before diag.):
       0.060  0.000  0.000  0.033 -0.000
       0.000  0.140 -0.000 -0.000 -0.000
       0.000 -0.000  0.045 -0.000  0.000
       0.033 -0.000 -0.000  0.127 -0.000
      -0.000 -0.000  0.000 -0.000  0.051
     ------------------------ ATOM    3 ------------------------
     Tr[ns(  3)] (up, down, total) =   4.82829  0.42782  5.25611
     Atomic magnetic moment for atom   3 =   4.40046
     SPIN  1
     eigenvalues:
       0.891  0.979  0.982  0.988  0.988
     eigenvectors (columns):
       0.991  0.133  0.000 -0.000  0.003
       0.000  0.000 -1.000  0.002  0.002
      -0.001  0.005 -0.002 -1.000 -0.012
      -0.133  0.991  0.000  0.005 -0.000
       0.003  0.000 -0.002  0.012 -1.000
     occupation matrix ns (before diag.):
       0.893 -0.000  0.000  0.012 -0.000
      -0.000  0.982 -0.000 -0.000 -0.000
       0.000 -0.000  0.988 -0.000  0.000
       0.012 -0.000 -0.000  0.977  0.000
      -0.000 -0.000  0.000  0.000  0.988
     SPIN  2
     eigenvalues:
       0.043  0.047  0.052  0.137  0.149
     eigenvectors (columns):
       0.117  0.000  0.000  0.003  0.993
       0.001  0.002 -1.000 -0.002  0.000
       0.002  1.000  0.002 -0.000 -0.000
       0.993 -0.002  0.001 -0.000 -0.117
      -0.000 -0.000  0.002 -1.000  0.003
     occupation matrix ns (before diag.):
       0.147  0.000 -0.000 -0.012  0.000
       0.000  0.052 -0.000 -0.000  0.000
      -0.000 -0.000  0.047 -0.000  0.000
      -0.012 -0.000 -0.000  0.044  0.000
       0.000  0.000  0.000  0.000  0.137
     ------------------------ ATOM    4 ------------------------
     Tr[ns(  4)] (up, down, total) =   4.90555  0.43458  5.34013
     Atomic magnetic moment for atom   4 =   4.47096
     SPIN  1
     eigenvalues:
       0.959  0.980  0.986  0.988  0.992
     eigenvectors (columns):
      -0.011  1.000  0.003  0.006 -0.000
      -0.001 -0.000 -0.000  0.000 -1.000
       0.000  0.006 -0.001 -1.000 -0.000
       1.000  0.011  0.002  0.000 -0.001
      -0.002 -0.003  1.000 -0.001 -0.000
     occupation matrix ns (before diag.):
       0.980  0.000 -0.000  0.000  0.000
       0.000  0.992  0.000  0.000  0.000
      -0.000  0.000  0.988 -0.000  0.000
       0.000  0.000 -0.000  0.959  0.000
       0.000  0.000  0.000  0.000  0.986
     SPIN  2
     eigenvalues:
       0.046  0.046  0.053  0.144  0.146
     eigenvectors (columns):
       0.932 -0.032 -0.001 -0.014  0.362
       0.000  0.000  0.000  0.999  0.037
       0.034  0.999 -0.001 -0.000  0.001
      -0.362  0.011  0.001 -0.035  0.931
       0.001  0.001  1.000 -0.000 -0.000
     occupation matrix ns (before diag.):
       0.059  0.000  0.000  0.034 -0.000
       0.000  0.144 -0.000  0.000 -0.000
       0.000 -0.000  0.046  0.000 -0.000
       0.034  0.000  0.000  0.132  0.000
      -0.000 -0.000 -0.000  0.000  0.053
     ------------------------ ATOM    5 ------------------------
     Tr[ns(  5)] (up, down, total) =   4.82158  0.38903  5.21061
     Atomic magnetic moment for atom   5 =   4.43255
     SPIN  1
     eigenvalues:
       0.889  0.977  0.980  0.987  0.988
     eigenvectors (columns):
      -0.949 -0.002  0.316  0.000  0.001
      -0.000 -0.001 -0.000 -1.000 -0.002
      -0.001  0.000  0.000  0.002 -1.000
       0.316 -0.002  0.949 -0.000 -0.000
      -0.001  1.000  0.003 -0.001  0.000
     occupation matrix ns (before diag.):
       0.898 -0.000 -0.000  0.027 -0.000
      -0.000  0.987  0.000  0.000  0.000
      -0.000  0.000  0.988  0.000 -0.000
       0.027  0.000  0.000  0.971  0.000
      -0.000  0.000 -0.000  0.000  0.977
     SPIN  2
     eigenvalues:
       0.041  0.044  0.049  0.113  0.142
     eigenvectors (columns):
      -0.002 -0.251 -0.000 -0.968 -0.000
      -0.002 -0.001 -1.000  0.000 -0.000
       1.000 -0.005 -0.002 -0.000 -0.000
      -0.005 -0.968  0.001  0.251  0.000
       0.000  0.000 -0.000 -0.000  1.000
     occupation matrix ns (before diag.):
       0.108 -0.000  0.000 -0.017 -0.000
      -0.000  0.049  0.000  0.000 -0.000
       0.000  0.000  0.041  0.000 -0.000
      -0.017  0.000  0.000  0.048  0.000
      -0.000 -0.000 -0.000  0.000  0.142
     ------------------------ ATOM    6 ------------------------
     Tr[ns(  6)] (up, down, total) =   4.55247  0.44407  4.99653
     Atomic magnetic moment for atom   6 =   4.10840
     SPIN  1
     eigenvalues:
       0.723  0.882  0.976  0.985  0.987
     eigenvectors (columns):
      -0.000 -0.271 -0.963  0.000 -0.001
       1.000 -0.002 -0.000  0.001  0.000
      -0.000  0.001 -0.001  0.001  1.000
      -0.001 -0.963  0.271  0.000  0.001
      -0.001  0.000  0.000  1.000 -0.001
     occupation matrix ns (before diag.):
       0.969  0.000  0.000 -0.025  0.000
       0.000  0.723  0.000  0.000  0.000
       0.000  0.000  0.987  0.000 -0.000
      -0.025  0.000  0.000  0.889  0.000
       0.000  0.000 -0.000  0.000  0.985
     SPIN  2
     eigenvalues:
       0.045  0.052  0.055  0.139  0.154
     eigenvectors (columns):
      -0.003  0.950  0.005 -0.312  0.000
       0.000 -0.000  0.001 -0.001 -1.000
      -1.000 -0.003  0.000  0.001 -0.000
       0.000 -0.312 -0.002 -0.950  0.001
       0.000 -0.006  1.000 -0.000  0.001
     occupation matrix ns (before diag.):
       0.060  0.000 -0.000  0.026  0.000
       0.000  0.154  0.000 -0.000 -0.000
      -0.000  0.000  0.045 -0.000  0.000
       0.026 -0.000 -0.000  0.130  0.000
       0.000 -0.000  0.000  0.000  0.055

     Number of occupied Hubbard levels =   31.2436

     negative rho (up, down):  3.058E-02 1.366E-03

     total cpu time spent up to now is      485.8 secs

     total energy              =   -2290.75997574 Ry
     estimated scf accuracy    <      39.81568787 Ry

     total magnetization       =    28.46 Bohr mag/cell
     absolute magnetization    =    29.02 Bohr mag/cell

     iteration #  2     ecut=    80.00 Ry     beta= 0.30
     Davidson diagonalization with overlap
     ethr =  1.00E-02,  avg # of iterations =  1.2

     negative rho (up, down):  3.597E-02 3.073E-02

     total cpu time spent up to now is      739.2 secs

     total energy              =   -2284.17008056 Ry
     estimated scf accuracy    <      17.34081928 Ry

     total magnetization       =    30.00 Bohr mag/cell
     absolute magnetization    =    30.00 Bohr mag/cell

     iteration #  3     ecut=    80.00 Ry     beta= 0.30
     Davidson diagonalization with overlap
     ethr =  9.97E-03,  avg # of iterations =  2.5

     negative rho (up, down):  2.805E-02 1.395E-02

     total cpu time spent up to now is     1042.7 secs

     total energy              =   -2287.42615726 Ry
     estimated scf accuracy    <      55.75920259 Ry

     total magnetization       =     7.07 Bohr mag/cell
     absolute magnetization    =     7.26 Bohr mag/cell

     iteration #  4     ecut=    80.00 Ry     beta= 0.30
     Davidson diagonalization with overlap
     ethr =  9.97E-03,  avg # of iterations =  1.0

     negative rho (up, down):  2.765E-02 1.525E-02

     total cpu time spent up to now is     1251.7 secs

     total energy              =   -2289.22589821 Ry
     estimated scf accuracy    <       6.51109018 Ry

     total magnetization       =    17.04 Bohr mag/cell
     absolute magnetization    =    17.62 Bohr mag/cell

     iteration #  5     ecut=    80.00 Ry     beta= 0.30
     Davidson diagonalization with overlap
     ethr =  3.74E-03,  avg # of iterations =  1.0

     negative rho (up, down):  2.383E-02 1.419E-02

     total cpu time spent up to now is     1459.1 secs

     total energy              =   -2289.31416668 Ry
     estimated scf accuracy    <       8.48586967 Ry

     total magnetization       =    15.45 Bohr mag/cell
     absolute magnetization    =    15.96 Bohr mag/cell

     iteration #  6     ecut=    80.00 Ry     beta= 0.30
     Davidson diagonalization with overlap
     ethr =  3.74E-03,  avg # of iterations =  1.0

     negative rho (up, down):  2.245E-02 1.616E-02

     total cpu time spent up to now is     1659.6 secs

     total energy              =   -2289.49630288 Ry
     estimated scf accuracy    <       6.05962736 Ry

     total magnetization       =    15.57 Bohr mag/cell
     absolute magnetization    =    16.09 Bohr mag/cell

     iteration #  7     ecut=    80.00 Ry     beta= 0.30
     Davidson diagonalization with overlap
     ethr =  3.48E-03,  avg # of iterations =  1.0

     negative rho (up, down):  2.264E-02 2.477E-02

     total cpu time spent up to now is     1859.8 secs

     total energy              =   -2289.51013141 Ry
     estimated scf accuracy    <       5.62314501 Ry

     total magnetization       =    15.29 Bohr mag/cell
     absolute magnetization    =    15.86 Bohr mag/cell

     iteration #  8     ecut=    80.00 Ry     beta= 0.30
     Davidson diagonalization with overlap
     ethr =  3.23E-03,  avg # of iterations =  1.0

     negative rho (up, down):  2.123E-02 2.603E-02

     total cpu time spent up to now is     2059.8 secs

     total energy              =   -2289.67977476 Ry
     estimated scf accuracy    <       2.53387131 Ry

     total magnetization       =    14.88 Bohr mag/cell
     absolute magnetization    =    15.72 Bohr mag/cell

     iteration #  9     ecut=    80.00 Ry     beta= 0.30
     Davidson diagonalization with overlap
     ethr =  1.46E-03,  avg # of iterations =  1.0

     negative rho (up, down):  2.009E-02 2.422E-02

     total cpu time spent up to now is     2260.7 secs

     total energy              =   -2289.64387011 Ry
     estimated scf accuracy    <       2.41685116 Ry

     total magnetization       =    14.18 Bohr mag/cell
     absolute magnetization    =    15.06 Bohr mag/cell

     iteration # 10     ecut=    80.00 Ry     beta= 0.30
     Davidson diagonalization with overlap
     ethr =  1.39E-03,  avg # of iterations =  1.0

     negative rho (up, down):  1.877E-02 2.183E-02

     total cpu time spent up to now is     2459.1 secs

     total energy              =   -2289.57821971 Ry
     estimated scf accuracy    <       1.38221518 Ry

     total magnetization       =    14.05 Bohr mag/cell
     absolute magnetization    =    14.98 Bohr mag/cell

     iteration # 11     ecut=    80.00 Ry     beta= 0.30
     Davidson diagonalization with overlap
     ethr =  7.94E-04,  avg # of iterations =  1.0

     negative rho (up, down):  1.849E-02 2.028E-02

     total cpu time spent up to now is     2657.8 secs

     total energy              =   -2289.60544898 Ry
     estimated scf accuracy    <       0.38528833 Ry

     total magnetization       =    13.68 Bohr mag/cell
     absolute magnetization    =    14.75 Bohr mag/cell

     iteration # 12     ecut=    80.00 Ry     beta= 0.30
     Davidson diagonalization with overlap
     ethr =  2.21E-04,  avg # of iterations =  1.0

     negative rho (up, down):  1.499E-02 1.671E-02

     total cpu time spent up to now is     2859.1 secs

     total energy              =   -2289.62547355 Ry
     estimated scf accuracy    <       0.23727398 Ry

     total magnetization       =    13.85 Bohr mag/cell
     absolute magnetization    =    14.91 Bohr mag/cell

     iteration # 13     ecut=    80.00 Ry     beta= 0.30
     Davidson diagonalization with overlap
     ethr =  1.36E-04,  avg # of iterations =  1.2

     negative rho (up, down):  1.139E-02 1.231E-02

     total cpu time spent up to now is     3064.4 secs

     total energy              =   -2289.64860503 Ry
     estimated scf accuracy    <       0.14512107 Ry

     total magnetization       =    12.85 Bohr mag/cell
     absolute magnetization    =    13.96 Bohr mag/cell

     iteration # 14     ecut=    80.00 Ry     beta= 0.30
     Davidson diagonalization with overlap
     ethr =  8.34E-05,  avg # of iterations =  1.5

     negative rho (up, down):  1.141E-02 1.250E-02

     total cpu time spent up to now is     3274.5 secs

     total energy              =   -2289.66217520 Ry
     estimated scf accuracy    <       0.09341153 Ry

     total magnetization       =    12.02 Bohr mag/cell
     absolute magnetization    =    13.07 Bohr mag/cell

     iteration # 15     ecut=    80.00 Ry     beta= 0.30
     Davidson diagonalization with overlap
     ethr =  5.37E-05,  avg # of iterations =  2.4

     negative rho (up, down):  1.031E-02 1.107E-02

     total cpu time spent up to now is     3490.6 secs

     total energy              =   -2289.67189612 Ry
     estimated scf accuracy    <       0.07129055 Ry

     total magnetization       =    12.07 Bohr mag/cell
     absolute magnetization    =    13.08 Bohr mag/cell

     iteration # 16     ecut=    80.00 Ry     beta= 0.30
     Davidson diagonalization with overlap
     ethr =  4.10E-05,  avg # of iterations =  2.6

     negative rho (up, down):  8.891E-03 9.547E-03

     total cpu time spent up to now is     3710.3 secs

     total energy              =   -2289.68043753 Ry
     estimated scf accuracy    <       0.04719671 Ry

     total magnetization       =    11.61 Bohr mag/cell
     absolute magnetization    =    12.53 Bohr mag/cell

     iteration # 17     ecut=    80.00 Ry     beta= 0.30
     Davidson diagonalization with overlap
     ethr =  2.71E-05,  avg # of iterations =  1.4

     negative rho (up, down):  7.086E-03 7.524E-03

     total cpu time spent up to now is     3918.0 secs

     total energy              =   -2289.68519730 Ry
     estimated scf accuracy    <       0.02097883 Ry

     total magnetization       =    11.17 Bohr mag/cell
     absolute magnetization    =    11.98 Bohr mag/cell

     iteration # 18     ecut=    80.00 Ry     beta= 0.30
     Davidson diagonalization with overlap
     ethr =  1.21E-05,  avg # of iterations =  3.2

     negative rho (up, down):  6.337E-03 6.397E-03

     total cpu time spent up to now is     4137.3 secs

     total energy              =   -2289.68782280 Ry
     estimated scf accuracy    <       0.01243423 Ry

     total magnetization       =    10.92 Bohr mag/cell
     absolute magnetization    =    11.68 Bohr mag/cell

     iteration # 19     ecut=    80.00 Ry     beta= 0.30
     Davidson diagonalization with overlap
     ethr =  7.15E-06,  avg # of iterations =  2.7

     negative rho (up, down):  5.251E-03 5.104E-03

     total cpu time spent up to now is     4352.6 secs

     total energy              =   -2289.68948099 Ry
     estimated scf accuracy    <       0.00805204 Ry

     total magnetization       =    10.87 Bohr mag/cell
     absolute magnetization    =    11.60 Bohr mag/cell

     iteration # 20     ecut=    80.00 Ry     beta= 0.30
     Davidson diagonalization with overlap
     ethr =  4.63E-06,  avg # of iterations =  3.9

     negative rho (up, down):  4.935E-03 4.648E-03

     total cpu time spent up to now is     4570.2 secs

     total energy              =   -2289.68985306 Ry
     estimated scf accuracy    <       0.00643638 Ry

     total magnetization       =    10.78 Bohr mag/cell
     absolute magnetization    =    11.46 Bohr mag/cell

     iteration # 21     ecut=    80.00 Ry     beta= 0.30
     Davidson diagonalization with overlap
     ethr =  3.70E-06,  avg # of iterations =  2.2

     negative rho (up, down):  4.325E-03 4.053E-03

     total cpu time spent up to now is     4783.2 secs

     total energy              =   -2289.69101870 Ry
     estimated scf accuracy    <       0.00502822 Ry

     total magnetization       =    10.82 Bohr mag/cell
     absolute magnetization    =    11.50 Bohr mag/cell

     iteration # 22     ecut=    80.00 Ry     beta= 0.30
     Davidson diagonalization with overlap
     ethr =  2.89E-06,  avg # of iterations =  3.6

     negative rho (up, down):  3.617E-03 3.456E-03

     total cpu time spent up to now is     5002.2 secs

     total energy              =   -2289.69169513 Ry
     estimated scf accuracy    <       0.00202559 Ry

     total magnetization       =    10.78 Bohr mag/cell
     absolute magnetization    =    11.41 Bohr mag/cell

     iteration # 23     ecut=    80.00 Ry     beta= 0.30
     Davidson diagonalization with overlap
     ethr =  1.16E-06,  avg # of iterations =  3.6

     negative rho (up, down):  3.287E-03 3.202E-03

     total cpu time spent up to now is     5221.3 secs

     total energy              =   -2289.69214346 Ry
     estimated scf accuracy    <       0.00119948 Ry

     total magnetization       =    10.73 Bohr mag/cell
     absolute magnetization    =    11.32 Bohr mag/cell

     iteration # 24     ecut=    80.00 Ry     beta= 0.30
     Davidson diagonalization with overlap
     ethr =  6.89E-07,  avg # of iterations =  1.9

     negative rho (up, down):  3.109E-03 3.104E-03

     total cpu time spent up to now is     5433.5 secs

     total energy              =   -2289.69231825 Ry
     estimated scf accuracy    <       0.00093953 Ry

     total magnetization       =    10.72 Bohr mag/cell
     absolute magnetization    =    11.30 Bohr mag/cell

     iteration # 25     ecut=    80.00 Ry     beta= 0.30
     Davidson diagonalization with overlap
     ethr =  5.40E-07,  avg # of iterations =  1.2

     negative rho (up, down):  2.785E-03 2.800E-03

     total cpu time spent up to now is     5641.3 secs

     total energy              =   -2289.69249610 Ry
     estimated scf accuracy    <       0.00074822 Ry

     total magnetization       =    10.72 Bohr mag/cell
     absolute magnetization    =    11.29 Bohr mag/cell

     iteration # 26     ecut=    80.00 Ry     beta= 0.30
     Davidson diagonalization with overlap
     ethr =  4.30E-07,  avg # of iterations =  1.3

     negative rho (up, down):  2.237E-03 2.290E-03

     total cpu time spent up to now is     5849.8 secs

     total energy              =   -2289.69261061 Ry
     estimated scf accuracy    <       0.00049240 Ry

     total magnetization       =    10.68 Bohr mag/cell
     absolute magnetization    =    11.23 Bohr mag/cell

     iteration # 27     ecut=    80.00 Ry     beta= 0.30
     Davidson diagonalization with overlap
     ethr =  2.83E-07,  avg # of iterations =  2.8

     negative rho (up, down):  1.888E-03 1.924E-03

     total cpu time spent up to now is     6062.7 secs

     total energy              =   -2289.69284419 Ry
     estimated scf accuracy    <       0.00038984 Ry

     total magnetization       =    10.62 Bohr mag/cell
     absolute magnetization    =    11.15 Bohr mag/cell

     iteration # 28     ecut=    80.00 Ry     beta= 0.30
     Davidson diagonalization with overlap
     ethr =  2.24E-07,  avg # of iterations =  2.0

     negative rho (up, down):  1.620E-03 1.621E-03

     total cpu time spent up to now is     6272.2 secs

     total energy              =   -2289.69299436 Ry
     estimated scf accuracy    <       0.00022918 Ry

     total magnetization       =    10.55 Bohr mag/cell
     absolute magnetization    =    11.08 Bohr mag/cell

     iteration # 29     ecut=    80.00 Ry     beta= 0.30
     Davidson diagonalization with overlap
     ethr =  1.32E-07,  avg # of iterations =  1.4

     negative rho (up, down):  1.374E-03 1.364E-03

     total cpu time spent up to now is     6478.8 secs

     total energy              =   -2289.69306677 Ry
     estimated scf accuracy    <       0.00030332 Ry

     total magnetization       =    10.52 Bohr mag/cell
     absolute magnetization    =    11.03 Bohr mag/cell

     iteration # 30     ecut=    80.00 Ry     beta= 0.30
     Davidson diagonalization with overlap
     ethr =  1.32E-07,  avg # of iterations =  1.0

     negative rho (up, down):  7.800E-04 7.478E-04

     total cpu time spent up to now is     6677.7 secs

     total energy              =   -2289.69300588 Ry
     estimated scf accuracy    <       0.00023077 Ry

     total magnetization       =    10.49 Bohr mag/cell
     absolute magnetization    =    11.00 Bohr mag/cell

     iteration # 31     ecut=    80.00 Ry     beta= 0.30
     Davidson diagonalization with overlap
     ethr =  1.32E-07,  avg # of iterations =  2.3

     negative rho (up, down):  6.581E-04 6.207E-04

     total cpu time spent up to now is     6897.9 secs

     total energy              =   -2289.69321539 Ry
     estimated scf accuracy    <       0.00010312 Ry

     total magnetization       =    10.44 Bohr mag/cell
     absolute magnetization    =    10.94 Bohr mag/cell

     iteration # 32     ecut=    80.00 Ry     beta= 0.30
     Davidson diagonalization with overlap
     ethr =  5.93E-08,  avg # of iterations =  1.0

     negative rho (up, down):  5.915E-04 5.494E-04

     total cpu time spent up to now is     7097.6 secs

     total energy              =   -2289.69323812 Ry
     estimated scf accuracy    <       0.00015436 Ry

     total magnetization       =    10.43 Bohr mag/cell
     absolute magnetization    =    10.93 Bohr mag/cell

     iteration # 33     ecut=    80.00 Ry     beta= 0.30
     Davidson diagonalization with overlap
     ethr =  5.93E-08,  avg # of iterations =  1.0

     negative rho (up, down):  5.191E-04 4.718E-04

     total cpu time spent up to now is     7298.3 secs

     total energy              =   -2289.69325444 Ry
     estimated scf accuracy    <       0.00013409 Ry

     total magnetization       =    10.42 Bohr mag/cell
     absolute magnetization    =    10.93 Bohr mag/cell

     iteration # 34     ecut=    80.00 Ry     beta= 0.30
     Davidson diagonalization with overlap
     ethr =  5.93E-08,  avg # of iterations =  1.0

     negative rho (up, down):  3.637E-04 3.124E-04

     total cpu time spent up to now is     7498.3 secs

     total energy              =   -2289.69325428 Ry
     estimated scf accuracy    <       0.00013141 Ry

     total magnetization       =    10.41 Bohr mag/cell
     absolute magnetization    =    10.92 Bohr mag/cell

     iteration # 35     ecut=    80.00 Ry     beta= 0.30
     Davidson diagonalization with overlap
     ethr =  5.93E-08,  avg # of iterations =  1.9

     negative rho (up, down):  3.229E-04 2.711E-04

     total cpu time spent up to now is     7710.0 secs

     total energy              =   -2289.69331741 Ry
     estimated scf accuracy    <       0.00009259 Ry

     total magnetization       =    10.40 Bohr mag/cell
     absolute magnetization    =    10.90 Bohr mag/cell

     iteration # 36     ecut=    80.00 Ry     beta= 0.30
     Davidson diagonalization with overlap
     ethr =  5.32E-08,  avg # of iterations =  1.0

     negative rho (up, down):  3.190E-04 2.668E-04

     total cpu time spent up to now is     7909.1 secs

     total energy              =   -2289.69332635 Ry
     estimated scf accuracy    <       0.00007342 Ry

     total magnetization       =    10.39 Bohr mag/cell
     absolute magnetization    =    10.90 Bohr mag/cell

     iteration # 37     ecut=    80.00 Ry     beta= 0.30
     Davidson diagonalization with overlap
     ethr =  4.22E-08,  avg # of iterations =  1.0

     negative rho (up, down):  2.245E-04 1.734E-04

     total cpu time spent up to now is     8109.1 secs

     total energy              =   -2289.69331434 Ry
     estimated scf accuracy    <       0.00008458 Ry

     total magnetization       =    10.39 Bohr mag/cell
     absolute magnetization    =    10.90 Bohr mag/cell

     iteration # 38     ecut=    80.00 Ry     beta= 0.30
     Davidson diagonalization with overlap
     ethr =  4.22E-08,  avg # of iterations =  1.6

     negative rho (up, down):  2.890E-04 2.282E-04

     total cpu time spent up to now is     8317.5 secs

     total energy              =   -2289.69334286 Ry
     estimated scf accuracy    <       0.00004274 Ry

     total magnetization       =    10.37 Bohr mag/cell
     absolute magnetization    =    10.87 Bohr mag/cell

     iteration # 39     ecut=    80.00 Ry     beta= 0.30
     Davidson diagonalization with overlap
     ethr =  2.46E-08,  avg # of iterations =  1.0

     negative rho (up, down):  1.889E-04 1.329E-04

     total cpu time spent up to now is     8517.2 secs

     total energy              =   -2289.69333555 Ry
     estimated scf accuracy    <       0.00008456 Ry

     total magnetization       =    10.38 Bohr mag/cell
     absolute magnetization    =    10.89 Bohr mag/cell

     iteration # 40     ecut=    80.00 Ry     beta= 0.30
     Davidson diagonalization with overlap
     ethr =  2.46E-08,  avg # of iterations =  1.7

     negative rho (up, down):  1.169E-04 6.848E-05

     total cpu time spent up to now is     8730.3 secs

     total energy              =   -2289.69335246 Ry
     estimated scf accuracy    <       0.00003816 Ry

     total magnetization       =    10.35 Bohr mag/cell
     absolute magnetization    =    10.86 Bohr mag/cell

     iteration # 41     ecut=    80.00 Ry     beta= 0.30
     Davidson diagonalization with overlap
     ethr =  2.19E-08,  avg # of iterations =  2.0

     negative rho (up, down):  1.348E-04 8.011E-05

     total cpu time spent up to now is     8949.7 secs

     total energy              =   -2289.69337183 Ry
     estimated scf accuracy    <       0.00002458 Ry

     total magnetization       =    10.34 Bohr mag/cell
     absolute magnetization    =    10.85 Bohr mag/cell

     iteration # 42     ecut=    80.00 Ry     beta= 0.30
     Davidson diagonalization with overlap
     ethr =  1.41E-08,  avg # of iterations =  1.5

     negative rho (up, down):  8.845E-05 4.389E-05

     total cpu time spent up to now is     9157.9 secs

     total energy              =   -2289.69336440 Ry
     estimated scf accuracy    <       0.00003840 Ry

     total magnetization       =    10.35 Bohr mag/cell
     absolute magnetization    =    10.86 Bohr mag/cell

     iteration # 43     ecut=    80.00 Ry     beta= 0.30
     Davidson diagonalization with overlap
     ethr =  1.41E-08,  avg # of iterations =  2.0

     negative rho (up, down):  9.755E-05 4.956E-05

     total cpu time spent up to now is     9384.5 secs

     total energy              =   -2289.69339865 Ry
     estimated scf accuracy    <       0.00001564 Ry

     total magnetization       =    10.34 Bohr mag/cell
     absolute magnetization    =    10.85 Bohr mag/cell

     iteration # 44     ecut=    80.00 Ry     beta= 0.30
     Davidson diagonalization with overlap
     ethr =  8.99E-09,  avg # of iterations =  1.0

     negative rho (up, down):  1.052E-04 5.678E-05

     total cpu time spent up to now is     9584.2 secs

     total energy              =   -2289.69338368 Ry
     estimated scf accuracy    <       0.00001711 Ry

     total magnetization       =    10.35 Bohr mag/cell
     absolute magnetization    =    10.86 Bohr mag/cell

     iteration # 45     ecut=    80.00 Ry     beta= 0.30
     Davidson diagonalization with overlap
     ethr =  8.99E-09,  avg # of iterations =  2.0

     negative rho (up, down):  1.127E-04 6.230E-05

     total cpu time spent up to now is     9824.5 secs

     total energy              =   -2289.69342079 Ry
     estimated scf accuracy    <       0.00000947 Ry

     total magnetization       =    10.36 Bohr mag/cell
     absolute magnetization    =    10.87 Bohr mag/cell

     iteration # 46     ecut=    80.00 Ry     beta= 0.30
     Davidson diagonalization with overlap
     ethr =  5.44E-09,  avg # of iterations =  2.0

     negative rho (up, down):  1.219E-04 6.970E-05

     total cpu time spent up to now is    10039.4 secs

     total energy              =   -2289.69342203 Ry
     estimated scf accuracy    <       0.00000767 Ry

     total magnetization       =    10.36 Bohr mag/cell
     absolute magnetization    =    10.87 Bohr mag/cell

     iteration # 47     ecut=    80.00 Ry     beta= 0.30
     Davidson diagonalization with overlap
     ethr =  4.41E-09,  avg # of iterations =  2.1

     negative rho (up, down):  1.634E-04 1.036E-04

     total cpu time spent up to now is    10265.0 secs

     total energy              =   -2289.69343118 Ry
     estimated scf accuracy    <       0.00000501 Ry

     total magnetization       =    10.37 Bohr mag/cell
     absolute magnetization    =    10.88 Bohr mag/cell

     iteration # 48     ecut=    80.00 Ry     beta= 0.30
     Davidson diagonalization with overlap
     ethr =  2.88E-09,  avg # of iterations =  2.0

     negative rho (up, down):  1.738E-04 1.137E-04

     total cpu time spent up to now is    10482.7 secs

     total energy              =   -2289.69342678 Ry
     estimated scf accuracy    <       0.00000433 Ry

     total magnetization       =    10.38 Bohr mag/cell
     absolute magnetization    =    10.89 Bohr mag/cell

     iteration # 49     ecut=    80.00 Ry     beta= 0.30
     Davidson diagonalization with overlap
     ethr =  2.49E-09,  avg # of iterations =  2.1

     negative rho (up, down):  1.876E-04 1.252E-04

     total cpu time spent up to now is    10721.3 secs

     total energy              =   -2289.69343856 Ry
     estimated scf accuracy    <       0.00000201 Ry

     total magnetization       =    10.38 Bohr mag/cell
     absolute magnetization    =    10.90 Bohr mag/cell

     iteration # 50     ecut=    80.00 Ry     beta= 0.30
     Davidson diagonalization with overlap
     ethr =  1.16E-09,  avg # of iterations =  1.5

     negative rho (up, down):  1.938E-04 1.306E-04

     total cpu time spent up to now is    10932.9 secs

     total energy              =   -2289.69343646 Ry
     estimated scf accuracy    <       0.00000175 Ry

     total magnetization       =    10.39 Bohr mag/cell
     absolute magnetization    =    10.90 Bohr mag/cell

     iteration # 51     ecut=    80.00 Ry     beta= 0.30
     Davidson diagonalization with overlap
     ethr =  1.00E-09,  avg # of iterations =  2.1

     negative rho (up, down):  2.381E-04 1.713E-04

     Magnetic moment per site  (integrated on atomic sphere of radius R)
     atom   1 (R=0.256)  charge= 13.8580  magn=  2.0025
     atom   2 (R=0.256)  charge= 13.8555  magn=  0.8356
     atom   3 (R=0.256)  charge= 13.8623  magn=  0.7075
     atom   4 (R=0.256)  charge= 13.8734  magn=  0.8939
     atom   5 (R=0.256)  charge= 13.8753  magn=  1.5995
     atom   6 (R=0.256)  charge= 13.8668  magn=  0.7921
     atom   7 (R=0.256)  charge=  5.0337  magn=  0.2089
     atom   8 (R=0.256)  charge=  4.9124  magn=  0.3836
     atom   9 (R=0.256)  charge=  5.0403  magn=  0.1760
     atom  10 (R=0.256)  charge=  5.0403  magn=  0.1760
     atom  11 (R=0.256)  charge=  5.0772  magn=  0.1897
     atom  12 (R=0.256)  charge=  5.0291  magn=  0.3090
     atom  13 (R=0.256)  charge=  5.0310  magn=  0.1762
     atom  14 (R=0.256)  charge=  5.0313  magn=  0.1759
     atom  15 (R=0.256)  charge=  4.9568  magn=  0.3888
     atom  16 (R=0.256)  charge=  5.0599  magn=  0.2030
     atom  17 (R=0.256)  charge=  5.0357  magn=  0.1076
     atom  18 (R=0.256)  charge=  5.0357  magn=  0.1073

     total cpu time spent up to now is    11163.6 secs

     End of self-consistent calculation

     =================== HUBBARD OCCUPATIONS ===================
     ------------------------ ATOM    1 ------------------------
     Tr[ns(  1)] (up, down, total) =   4.72187  2.76677  7.48864
     Atomic magnetic moment for atom   1 =   1.95510
     SPIN  1
     eigenvalues:
       0.766  0.965  0.992  0.998  1.000
     eigenvectors (columns):
      -0.000 -0.951 -0.309  0.000  0.000
      -0.000  0.000  0.000  1.000 -0.000
       0.000 -0.000 -0.000 -0.000 -1.000
       0.000  0.309 -0.951  0.000  0.000
       1.000 -0.000 -0.000  0.000  0.000
     occupation matrix ns (before diag.):
       0.968  0.000 -0.000  0.008  0.000
       0.000  0.998  0.000  0.000  0.000
      -0.000  0.000  1.000  0.000 -0.000
       0.008  0.000  0.000  0.990 -0.000
       0.000  0.000 -0.000 -0.000  0.766
     SPIN  2
     eigenvalues:
       0.386  0.394  0.434  0.578  0.975
     eigenvectors (columns):
      -0.000  0.999 -0.000  0.001 -0.042
      -1.000 -0.000  0.000 -0.000 -0.000
       0.000  0.001  0.000 -1.000 -0.000
      -0.000  0.042 -0.000 -0.000  0.999
      -0.000 -0.000 -1.000 -0.000 -0.000
     occupation matrix ns (before diag.):
       0.395 -0.000 -0.000 -0.024  0.000
      -0.000  0.386  0.000 -0.000 -0.000
      -0.000  0.000  0.578 -0.000  0.000
      -0.024 -0.000 -0.000  0.974 -0.000
       0.000 -0.000  0.000 -0.000  0.434
     ------------------------ ATOM    2 ------------------------
     Tr[ns(  2)] (up, down, total) =   4.21153  3.44327  7.65480
     Atomic magnetic moment for atom   2 =   0.76827
     SPIN  1
     eigenvalues:
       0.586  0.653  0.984  0.989  0.999
     eigenvectors (columns):
      -0.000  0.395  0.919  0.000  0.000
       1.000  0.000  0.000 -0.000  0.000
       0.000  0.000  0.000  0.000 -1.000
      -0.000  0.919 -0.395 -0.000  0.000
       0.000 -0.000 -0.000  1.000  0.000
     occupation matrix ns (before diag.):
       0.932  0.000 -0.000 -0.120  0.000
       0.000  0.586 -0.000 -0.000 -0.000
      -0.000 -0.000  0.999 -0.000 -0.000
      -0.120 -0.000 -0.000  0.705  0.000
       0.000 -0.000 -0.000  0.000  0.989
     SPIN  2
     eigenvalues:
       0.522  0.528  0.610  0.796  0.986
     eigenvectors (columns):
      -0.000  0.426 -0.000 -0.000 -0.905
       1.000  0.000  0.000 -0.000  0.000
      -0.000 -0.000  1.000  0.000 -0.000
      -0.000  0.905  0.000 -0.000  0.426
      -0.000 -0.000  0.000 -1.000  0.000
     occupation matrix ns (before diag.):
       0.903 -0.000  0.000 -0.177  0.000
      -0.000  0.522  0.000  0.000  0.000
       0.000  0.000  0.610 -0.000 -0.000
      -0.177  0.000 -0.000  0.612  0.000
       0.000  0.000 -0.000  0.000  0.796
     ------------------------ ATOM    3 ------------------------
     Tr[ns(  3)] (up, down, total) =   4.15630  3.51083  7.66714
     Atomic magnetic moment for atom   3 =   0.64547
     SPIN  1
     eigenvalues:
       0.586  0.601  0.980  0.991  0.999
     eigenvectors (columns):
      -0.000  0.998 -0.069  0.000 -0.000
      -0.000  0.000 -0.000 -1.000  0.000
       0.000 -0.001 -0.000 -0.000 -1.000
       0.000 -0.069 -0.998  0.000  0.001
       1.000  0.000 -0.000 -0.000  0.000
     occupation matrix ns (before diag.):
       0.602 -0.000  0.000  0.026  0.000
      -0.000  0.991 -0.000 -0.000  0.000
       0.000 -0.000  0.999 -0.000 -0.000
       0.026 -0.000 -0.000  0.978  0.000
       0.000  0.000 -0.000  0.000  0.586
     SPIN  2
     eigenvalues:
       0.482  0.538  0.650  0.860  0.981
     eigenvectors (columns):
       0.000 -0.998  0.002 -0.000 -0.058
       0.002 -0.000  0.000  1.000 -0.000
       0.000  0.002  1.000 -0.000  0.000
      -0.000  0.058 -0.000 -0.000 -0.998
       1.000  0.000 -0.000 -0.002 -0.000
     occupation matrix ns (before diag.):
       0.540 -0.000  0.000  0.026 -0.000
      -0.000  0.860 -0.000  0.000 -0.001
       0.000 -0.000  0.650 -0.000 -0.000
       0.026  0.000 -0.000  0.979  0.000
      -0.000 -0.001 -0.000  0.000  0.482
     ------------------------ ATOM    4 ------------------------
     Tr[ns(  4)] (up, down, total) =   4.24796  3.42111  7.66908
     Atomic magnetic moment for atom   4 =   0.82685
     SPIN  1
     eigenvalues:
       0.636  0.641  0.982  0.989  1.000
     eigenvectors (columns):
       0.353 -0.000  0.936 -0.000 -0.001
      -0.000 -1.000  0.000 -0.000 -0.000
       0.000  0.000 -0.001 -0.000 -1.000
       0.936 -0.000 -0.353  0.000  0.000
       0.000 -0.000  0.000  1.000 -0.000
     occupation matrix ns (before diag.):
       0.939  0.000  0.000 -0.114 -0.000
       0.000  0.641  0.000  0.000 -0.000
       0.000  0.000  1.000 -0.000  0.000
      -0.114  0.000 -0.000  0.679 -0.000
      -0.000 -0.000  0.000 -0.000  0.989
     SPIN  2
     eigenvalues:
       0.462  0.498  0.625  0.870  0.967
     eigenvectors (columns):
      -0.000 -0.449 -0.002 -0.000 -0.894
       1.000 -0.000 -0.000 -0.000 -0.000
       0.000 -0.004  1.000 -0.000 -0.000
      -0.000 -0.894 -0.003 -0.000  0.449
       0.000 -0.000  0.000  1.000 -0.000
     occupation matrix ns (before diag.):
       0.872  0.000 -0.000 -0.188 -0.000
       0.000  0.462 -0.000  0.000 -0.000
      -0.000 -0.000  0.625 -0.001 -0.000
      -0.188  0.000 -0.001  0.593 -0.000
      -0.000 -0.000 -0.000 -0.000  0.870
     ------------------------ ATOM    5 ------------------------
     Tr[ns(  5)] (up, down, total) =   4.56015  3.00008  7.56023
     Atomic magnetic moment for atom   5 =   1.56006
     SPIN  1
     eigenvalues:
       0.683  0.901  0.989  0.990  0.997
     eigenvectors (columns):
       0.000  0.955 -0.295  0.000  0.000
      -0.000 -0.000  0.000  1.000 -0.000
      -0.000  0.000  0.001 -0.000 -1.000
       0.000 -0.295 -0.955  0.000 -0.001
       1.000 -0.000  0.000  0.000 -0.000
     occupation matrix ns (before diag.):
       0.909  0.000 -0.000  0.025 -0.000
       0.000  0.990  0.000 -0.000  0.000
      -0.000  0.000  0.997  0.000  0.000
       0.025 -0.000  0.000  0.981 -0.000
      -0.000  0.000  0.000 -0.000  0.683
     SPIN  2
     eigenvalues:
       0.392  0.446  0.449  0.736  0.977
     eigenvectors (columns):
       0.995  0.004 -0.000  0.000  0.104
      -0.000  0.000  0.001  1.000 -0.000
       0.004 -1.000 -0.000  0.000  0.000
      -0.104 -0.000  0.000  0.000  0.995
      -0.000  0.000 -1.000  0.001 -0.000
     occupation matrix ns (before diag.):
       0.399  0.000 -0.000  0.061  0.000
       0.000  0.736  0.000 -0.000  0.000
      -0.000  0.000  0.446  0.000  0.000
       0.061 -0.000  0.000  0.971 -0.000
       0.000  0.000  0.000 -0.000  0.449
     ------------------------ ATOM    6 ------------------------
     Tr[ns(  6)] (up, down, total) =   4.19386  3.47469  7.66855
     Atomic magnetic moment for atom   6 =   0.71916
     SPIN  1
     eigenvalues:
       0.584  0.643  0.982  0.993  0.993
     eigenvectors (columns):
      -0.000 -0.368 -0.930 -0.000 -0.000
      -1.000  0.000  0.000 -0.000 -0.000
      -0.000  0.000 -0.000  1.000  0.000
      -0.000 -0.930  0.368  0.001  0.000
       0.000  0.000  0.000  0.000 -1.000
     occupation matrix ns (before diag.):
       0.936 -0.000  0.000 -0.116  0.000
      -0.000  0.584 -0.000  0.000  0.000
       0.000 -0.000  0.993  0.000 -0.000
      -0.116  0.000  0.000  0.689  0.000
       0.000  0.000 -0.000  0.000  0.993
     SPIN  2
     eigenvalues:
       0.535  0.538  0.661  0.776  0.965
     eigenvectors (columns):
      -0.000  0.381 -0.001 -0.000  0.925
      -1.000 -0.000  0.000 -0.001  0.000
      -0.000 -0.001 -1.000 -0.000 -0.000
      -0.000  0.925 -0.001  0.000 -0.381
       0.001 -0.000  0.000 -1.000 -0.000
     occupation matrix ns (before diag.):
       0.903  0.000 -0.000 -0.150 -0.000
       0.000  0.535 -0.000 -0.000  0.000
      -0.000 -0.000  0.661  0.000  0.000
      -0.150 -0.000  0.000  0.600  0.000
      -0.000  0.000  0.000  0.000  0.776

     Number of occupied Hubbard levels =   45.7084

 ------ SPIN UP ------------


          k = 0.0000 0.0000 0.0000 ( 38699 PWs)   bands (ev):

   -98.4282 -97.8817 -97.3487 -97.2159 -97.2138 -97.1875 -62.2001 -61.5304
   -61.4683 -61.1916 -60.9701 -60.8104 -60.7667 -60.7643 -60.7103 -60.6727
   -60.5591 -60.4315 -60.3861 -60.3232 -60.2479 -60.1868 -60.1771 -60.1684
   -20.4173 -19.9808 -19.7417 -19.4681 -19.0500 -18.8122 -18.6857 -18.6034
   -18.5102 -18.3996 -18.2433 -18.1079  -8.2504  -8.0880  -7.8651  -7.7463
    -7.2378  -7.0412  -6.7291  -6.7112  -6.5556  -6.4742  -6.4251  -6.2214
    -6.0707  -5.8025  -5.7254  -5.6330  -5.2776  -5.2370  -5.1014  -4.8311
    -4.7109  -4.6433  -4.5680  -4.4758  -4.3257  -4.2996  -4.1296  -4.1049
    -3.9873  -3.9073  -3.8657  -3.8058  -3.7567  -3.7321  -3.6738  -3.5261
    -3.5151  -3.2961  -3.2762  -3.2367  -2.7548  -2.7464  -2.4886  -2.4590
    -2.4341  -2.4319  -2.2190  -2.1281  -1.9983  -1.9328  -1.9176  -1.8653
    -1.8084  -1.6114  -1.5840  -1.3452  -0.5840  -0.1519   0.1612   0.3843
     0.7049   0.8538   0.9649   1.0934   1.1690   1.4535   3.9159   4.4779

          k = 0.0000 0.1185 0.0000 ( 38644 PWs)   bands (ev):

   -98.4282 -97.8817 -97.3487 -97.2158 -97.2138 -97.1875 -62.2001 -61.5304
   -61.4683 -61.1916 -60.9701 -60.8104 -60.7667 -60.7644 -60.7104 -60.6727
   -60.5591 -60.4315 -60.3861 -60.3232 -60.2479 -60.1868 -60.1771 -60.1684
   -20.3264 -19.8976 -19.7439 -19.5036 -19.2313 -18.9581 -18.7469 -18.5081
   -18.4503 -18.4001 -18.1954 -18.0956  -8.1667  -7.8743  -7.6968  -7.6082
    -7.2287  -6.9129  -6.6948  -6.6729  -6.5556  -6.3876  -6.3064  -6.2195
    -6.0144  -5.8118  -5.7245  -5.7137  -5.5361  -5.4669  -5.2663  -5.0956
    -5.0458  -4.8055  -4.6290  -4.4880  -4.4411  -4.3348  -4.3029  -4.1630
    -4.1183  -4.0796  -3.9476  -3.8025  -3.5943  -3.5279  -3.5254  -3.4695
    -3.2807  -3.2326  -2.9778  -2.9737  -2.8264  -2.8013  -2.6705  -2.5698
    -2.4679  -2.4040  -2.2250  -2.1515  -2.1013  -2.0552  -2.0068  -1.9501
    -1.8252  -1.7207  -1.6602  -1.0163  -0.1945   0.1306   0.2910   0.3507
     0.6362   0.8447   0.8960   1.0943   1.1041   1.4554   4.0987   4.6891

          k = 0.0000-0.2370 0.0000 ( 38702 PWs)   bands (ev):

   -98.4282 -97.8817 -97.3487 -97.2158 -97.2138 -97.1875 -62.2001 -61.5304
   -61.4683 -61.1916 -60.9701 -60.8104 -60.7667 -60.7644 -60.7104 -60.6727
   -60.5591 -60.4315 -60.3861 -60.3232 -60.2479 -60.1868 -60.1771 -60.1684
   -20.1607 -19.9613 -19.5973 -19.5711 -19.3423 -19.1973 -18.7511 -18.4608
   -18.4198 -18.3928 -18.1568 -18.0828  -8.1199  -7.5713  -7.4775  -7.4612
    -7.1758  -6.8561  -6.6313  -6.5555  -6.3485  -6.3337  -6.3232  -6.2150
    -5.9513  -5.8966  -5.8836  -5.7846  -5.7236  -5.4677  -5.4543  -5.3042
    -5.2461  -5.1390  -5.0006  -4.7207  -4.5788  -4.5626  -4.2930  -4.2721
    -4.1736  -4.1114  -3.7831  -3.5468  -3.4281  -3.4185  -3.3824  -3.3667
    -3.3220  -3.0904  -3.0033  -2.8861  -2.7654  -2.6395  -2.5901  -2.5488
    -2.4500  -2.4253  -2.4225  -2.3518  -2.1606  -2.1494  -2.0489  -2.0179
    -1.8026  -1.7793  -1.6941  -0.8571   0.0131   0.1900   0.5324   0.5646
     0.5860   0.7886   0.8695   0.9241   1.0947   1.4570   4.3330   5.0054

          k = 0.0000-0.1185 0.0000 ( 38644 PWs)   bands (ev):

   -98.4282 -97.8817 -97.3487 -97.2158 -97.2138 -97.1875 -62.2001 -61.5304
   -61.4683 -61.1916 -60.9701 -60.8104 -60.7667 -60.7644 -60.7104 -60.6727
   -60.5591 -60.4315 -60.3861 -60.3232 -60.2479 -60.1868 -60.1771 -60.1684
   -20.3264 -19.8976 -19.7439 -19.5036 -19.2313 -18.9581 -18.7469 -18.5081
   -18.4503 -18.4001 -18.1954 -18.0956  -8.1667  -7.8743  -7.6968  -7.6082
    -7.2287  -6.9129  -6.6948  -6.6729  -6.5556  -6.3876  -6.3064  -6.2195
    -6.0144  -5.8118  -5.7245  -5.7137  -5.5361  -5.4669  -5.2663  -5.0956
    -5.0458  -4.8055  -4.6290  -4.4880  -4.4411  -4.3348  -4.3029  -4.1630
    -4.1183  -4.0796  -3.9476  -3.8025  -3.5943  -3.5279  -3.5254  -3.4695
    -3.2807  -3.2326  -2.9778  -2.9737  -2.8264  -2.8013  -2.6705  -2.5698
    -2.4679  -2.4040  -2.2250  -2.1515  -2.1013  -2.0552  -2.0068  -1.9501
    -1.8252  -1.7207  -1.6602  -1.0163  -0.1945   0.1306   0.2910   0.3507
     0.6362   0.8447   0.8960   1.0943   1.1041   1.4554   4.0987   4.6891

          k = 0.1250 0.0000 0.0000 ( 38714 PWs)   bands (ev):

   -98.4279 -97.8814 -97.3484 -97.2156 -97.2135 -97.1873 -62.1999 -61.5302
   -61.4718 -61.1911 -60.9697 -60.8102 -60.7704 -60.7641 -60.7101 -60.6725
   -60.5586 -60.4310 -60.3902 -60.3272 -60.2475 -60.1863 -60.1808 -60.1721
   -20.3011 -19.8746 -19.6544 -19.3951 -18.9986 -18.8046 -18.6688 -18.6071
   -18.5124 -18.4051 -18.2614 -18.1121  -8.0917  -7.9507  -7.7325  -7.6385
    -7.1418  -6.9489  -6.7635  -6.7486  -6.6130  -6.5892  -6.5702  -6.1508
    -6.0098  -5.8247  -5.7262  -5.6072  -5.4535  -5.1415  -5.0560  -4.9770
    -4.8195  -4.7819  -4.7421  -4.5166  -4.4364  -4.2373  -4.2257  -4.1678
    -4.0201  -4.0113  -3.9813  -3.8892  -3.8732  -3.8231  -3.7637  -3.7206
    -3.6341  -3.3947  -3.2037  -3.0650  -2.8850  -2.6981  -2.6569  -2.4413
    -2.4109  -2.2318  -2.1598  -2.0810  -1.9791  -1.8997  -1.8746  -1.8543
    -1.7866  -1.6883  -1.6356  -1.2499  -0.4329  -0.0799   0.0370   0.1310
     0.4707   0.6550   0.6852   0.7348   1.0230   1.2998   4.2179   4.7943

          k = 0.1250 0.1185 0.0000 ( 38773 PWs)   bands (ev):

   -98.4279 -97.8814 -97.3484 -97.2156 -97.2135 -97.1873 -62.1999 -61.5302
   -61.4718 -61.1911 -60.9697 -60.8102 -60.7704 -60.7641 -60.7101 -60.6725
   -60.5586 -60.4310 -60.3902 -60.3272 -60.2475 -60.1863 -60.1808 -60.1721
   -20.2153 -19.7965 -19.6593 -19.4201 -19.1661 -18.9161 -18.7515 -18.5146
   -18.4619 -18.4153 -18.2157 -18.1009  -8.0220  -7.7211  -7.5534  -7.4818
    -7.1317  -6.8347  -6.7885  -6.7357  -6.5465  -6.4690  -6.4253  -6.1492
    -6.0226  -5.8482  -5.7306  -5.6072  -5.5040  -5.3939  -5.2930  -5.1556
    -5.0371  -4.9653  -4.8002  -4.7304  -4.5882  -4.5702  -4.4309  -4.3053
    -4.1906  -4.1559  -3.9564  -3.8723  -3.7764  -3.7118  -3.5565  -3.5034
    -3.4894  -3.0929  -3.0605  -2.8659  -2.7847  -2.7107  -2.6100  -2.5262
    -2.3851  -2.3606  -2.1931  -2.1797  -2.1182  -2.0468  -1.9321  -1.8629
    -1.7541  -1.7163  -1.6844  -1.0559  -0.1917  -0.1108   0.0618   0.2793
     0.4920   0.6581   0.6861   0.7744   1.0339   1.2796   4.3673   4.9787

          k = 0.1250-0.2370 0.0000 ( 38716 PWs)   bands (ev):

   -98.4279 -97.8814 -97.3484 -97.2156 -97.2135 -97.1873 -62.1999 -61.5302
   -61.4718 -61.1911 -60.9696 -60.8102 -60.7704 -60.7641 -60.7101 -60.6725
   -60.5586 -60.4311 -60.3902 -60.3272 -60.2475 -60.1863 -60.1808 -60.1721
   -20.0629 -19.8582 -19.5144 -19.4832 -19.2674 -19.1320 -18.7590 -18.4777
   -18.4331 -18.4120 -18.1810 -18.0898  -7.9858  -7.3908  -7.3566  -7.2940
    -7.0644  -6.8413  -6.7660  -6.6449  -6.3920  -6.2289  -6.2126  -6.1375
    -6.0879  -6.0119  -5.8538  -5.6770  -5.6546  -5.4379  -5.2820  -5.2682
    -5.2344  -5.2253  -5.1092  -5.1027  -5.0397  -4.8260  -4.5690  -4.5023
    -4.1789  -4.1503  -3.9427  -3.8265  -3.6428  -3.4676  -3.3862  -3.3467
    -3.1643  -2.9669  -2.9106  -2.8101  -2.7619  -2.7334  -2.6075  -2.5058
    -2.4547  -2.3598  -2.2724  -2.2562  -2.1472  -2.1353  -2.0611  -1.9187
    -1.7808  -1.6984  -1.6632  -0.9483  -0.2901   0.0183   0.1418   0.1743
     0.6315   0.7152   0.7810   0.8859   0.9951   1.2282   4.5544   5.2481

          k = 0.1250-0.1185 0.0000 ( 38773 PWs)   bands (ev):

   -98.4279 -97.8814 -97.3484 -97.2156 -97.2135 -97.1873 -62.1999 -61.5302
   -61.4718 -61.1911 -60.9697 -60.8102 -60.7704 -60.7641 -60.7101 -60.6725
   -60.5586 -60.4310 -60.3902 -60.3272 -60.2475 -60.1863 -60.1808 -60.1721
   -20.2153 -19.7965 -19.6593 -19.4201 -19.1661 -18.9161 -18.7515 -18.5146
   -18.4619 -18.4153 -18.2157 -18.1009  -8.0220  -7.7211  -7.5534  -7.4818
    -7.1317  -6.8347  -6.7885  -6.7357  -6.5465  -6.4690  -6.4253  -6.1492
    -6.0226  -5.8482  -5.7306  -5.6072  -5.5040  -5.3939  -5.2930  -5.1556
    -5.0371  -4.9653  -4.8002  -4.7304  -4.5882  -4.5702  -4.4309  -4.3053
    -4.1906  -4.1559  -3.9564  -3.8723  -3.7764  -3.7118  -3.5565  -3.5034
    -3.4894  -3.0929  -3.0605  -2.8659  -2.7847  -2.7107  -2.6100  -2.5262
    -2.3851  -2.3606  -2.1931  -2.1797  -2.1182  -2.0468  -1.9321  -1.8629
    -1.7541  -1.7163  -1.6844  -1.0559  -0.1917  -0.1108   0.0618   0.2793
     0.4920   0.6581   0.6861   0.7744   1.0339   1.2796   4.3673   4.9787

          k = 0.2500 0.0000 0.0000 ( 38776 PWs)   bands (ev):

   -98.4274 -97.8809 -97.3479 -97.2150 -97.2130 -97.1867 -62.1994 -61.5296
   -61.4803 -61.1900 -60.9685 -60.8096 -60.7794 -60.7636 -60.7095 -60.6719
   -60.5573 -60.4299 -60.4001 -60.3368 -60.2463 -60.1899 -60.1849 -60.1810
   -19.9884 -19.5938 -19.4357 -19.2120 -18.8897 -18.8056 -18.6342 -18.6184
   -18.5162 -18.4189 -18.3075 -18.1195  -7.6927  -7.5840  -7.3903  -7.3743
    -6.9686  -6.9603  -6.9107  -6.8767  -6.6773  -6.5212  -6.4841  -6.4121
    -6.1446  -5.8370  -5.7657  -5.7150  -5.5298  -5.4613  -5.1840  -5.1475
    -5.1465  -4.9474  -4.9074  -4.8036  -4.7121  -4.6834  -4.6708  -4.5080
    -4.3502  -4.2676  -3.9728  -3.8629  -3.8322  -3.6405  -3.5632  -3.4269
    -3.3206  -3.3037  -3.2010  -2.9595  -2.9377  -2.7502  -2.5958  -2.4822
    -2.3590  -2.3586  -2.3002  -2.0994  -2.0208  -2.0206  -1.8975  -1.8885
    -1.8391  -1.7707  -1.7022  -1.3547  -0.3442  -0.3398  -0.1436  -0.0073
     0.0430   0.0685   0.3136   0.4116   0.5772   1.1704   4.9571   5.5985

          k = 0.2500 0.1185 0.0000 ( 38814 PWs)   bands (ev):

   -98.4274 -97.8809 -97.3479 -97.2150 -97.2130 -97.1867 -62.1994 -61.5296
   -61.4803 -61.1900 -60.9685 -60.8096 -60.7794 -60.7636 -60.7095 -60.6719
   -60.5573 -60.4299 -60.4001 -60.3368 -60.2463 -60.1899 -60.1849 -60.1810
   -19.9188 -19.5316 -19.4424 -19.2078 -19.0104 -18.8393 -18.7530 -18.5339
   -18.5004 -18.4560 -18.2706 -18.1121  -7.6567  -7.3319  -7.2068  -7.1497
    -6.9472  -6.9094  -6.8589  -6.7889  -6.6620  -6.6267  -6.4922  -6.2486
    -6.1267  -5.9586  -5.8016  -5.7010  -5.6213  -5.5566  -5.4044  -5.2958
    -5.1828  -5.0301  -5.0127  -4.9411  -4.7437  -4.7258  -4.6118  -4.5110
    -4.4107  -4.3288  -4.2068  -3.9566  -3.8476  -3.7420  -3.6962  -3.4594
    -3.2285  -3.1148  -2.8746  -2.8608  -2.7291  -2.6314  -2.5580  -2.4699
    -2.4327  -2.3922  -2.3459  -2.2510  -2.1770  -2.0629  -1.9545  -1.9252
    -1.7965  -1.7666  -1.6887  -1.2813  -0.8504  -0.5341  -0.3708  -0.1801
     0.2488   0.5219   0.5714   0.6680   0.7343   1.2014   5.0490   5.7332

          k = 0.2500-0.2370 0.0000 ( 38832 PWs)   bands (ev):

   -98.4274 -97.8809 -97.3479 -97.2150 -97.2130 -97.1867 -62.1994 -61.5296
   -61.4803 -61.1900 -60.9685 -60.8096 -60.7794 -60.7636 -60.7095 -60.6719
   -60.5573 -60.4299 -60.4001 -60.3368 -60.2463 -60.1899 -60.1849 -60.1810
   -19.8073 -19.5843 -19.3049 -19.2548 -19.0827 -18.9725 -18.7793 -18.5306
   -18.4730 -18.4701 -18.2476 -18.1054  -7.6392  -7.0855  -6.9665  -6.9251
    -6.8740  -6.8616  -6.7957  -6.6425  -6.5413  -6.4508  -6.3815  -6.3003
    -6.2461  -6.0934  -5.8984  -5.8166  -5.7619  -5.6322  -5.4895  -5.4418
    -5.2750  -5.2123  -5.0415  -5.0231  -4.9480  -4.8727  -4.8246  -4.6318
    -4.5054  -4.3320  -4.1821  -3.9377  -3.9161  -3.7277  -3.6732  -3.3860
    -3.1178  -2.8743  -2.6617  -2.6194  -2.5970  -2.5919  -2.5479  -2.4644
    -2.4566  -2.4422  -2.3817  -2.3806  -2.2641  -2.2117  -2.0000  -1.9466
    -1.8648  -1.7309  -1.6637  -1.2260  -1.1458  -0.7532  -0.5885  -0.1811
     0.3072   0.5516   0.7707   0.9421   1.0370   1.2156   5.1566   5.9128

          k = 0.2500-0.1185 0.0000 ( 38814 PWs)   bands (ev):

   -98.4274 -97.8809 -97.3479 -97.2150 -97.2130 -97.1867 -62.1994 -61.5296
   -61.4803 -61.1900 -60.9685 -60.8096 -60.7794 -60.7636 -60.7095 -60.6719
   -60.5573 -60.4299 -60.4001 -60.3368 -60.2463 -60.1899 -60.1849 -60.1810
   -19.9188 -19.5316 -19.4424 -19.2078 -19.0104 -18.8393 -18.7530 -18.5339
   -18.5004 -18.4560 -18.2706 -18.1121  -7.6567  -7.3319  -7.2068  -7.1497
    -6.9472  -6.9094  -6.8589  -6.7889  -6.6620  -6.6267  -6.4922  -6.2486
    -6.1267  -5.9586  -5.8016  -5.7010  -5.6213  -5.5566  -5.4044  -5.2958
    -5.1828  -5.0301  -5.0127  -4.9411  -4.7437  -4.7258  -4.6118  -4.5110
    -4.4107  -4.3288  -4.2068  -3.9566  -3.8476  -3.7420  -3.6962  -3.4594
    -3.2285  -3.1148  -2.8746  -2.8608  -2.7291  -2.6314  -2.5580  -2.4699
    -2.4327  -2.3922  -2.3459  -2.2510  -2.1770  -2.0629  -1.9545  -1.9252
    -1.7965  -1.7666  -1.6887  -1.2813  -0.8504  -0.5341  -0.3708  -0.1801
     0.2488   0.5219   0.5714   0.6680   0.7343   1.2014   5.0490   5.7332

          k = 0.3750 0.0000 0.0000 ( 38844 PWs)   bands (ev):

   -98.4270 -97.8805 -97.3474 -97.2144 -97.2126 -97.1863 -62.1988 -61.5290
   -61.4886 -61.1889 -60.9674 -60.8090 -60.7882 -60.7630 -60.7089 -60.6713
   -60.5561 -60.4288 -60.4099 -60.3463 -60.2452 -60.1988 -60.1899 -60.1837
   -19.5931 -19.2472 -19.2018 -19.0099 -18.8469 -18.8369 -18.6388 -18.6321
   -18.5182 -18.4330 -18.3575 -18.1222  -7.3859  -7.2956  -7.1652  -7.0716
    -7.0694  -6.9886  -6.9208  -6.8409  -6.8182  -6.6270  -6.5923  -6.5498
    -6.2756  -6.0517  -5.9495  -5.8343  -5.6993  -5.5850  -5.3122  -5.2180
    -5.1872  -5.0223  -4.9698  -4.8743  -4.7846  -4.7582  -4.6534  -4.5251
    -4.4802  -4.4113  -4.0798  -3.8602  -3.7756  -3.7355  -3.5276  -3.4638
    -3.3438  -3.2454  -3.2431  -3.0114  -2.7122  -2.7013  -2.6638  -2.5761
    -2.5404  -2.3816  -2.3630  -2.2880  -2.2549  -2.2315  -2.1144  -2.0486
    -1.9082  -1.6671  -1.6281  -1.6149  -0.6796  -0.6386  -0.2474  -0.2447
    -0.0847   0.0202   0.1235   0.2479   0.3516   1.1846   5.8749   6.6753

          k = 0.3750 0.1185 0.0000 ( 38855 PWs)   bands (ev):

   -98.4270 -97.8805 -97.3474 -97.2144 -97.2126 -97.1863 -62.1988 -61.5290
   -61.4886 -61.1889 -60.9674 -60.8090 -60.7883 -60.7630 -60.7089 -60.6713
   -60.5561 -60.4288 -60.4099 -60.3463 -60.2452 -60.1988 -60.1899 -60.1837
   -19.5549 -19.2204 -19.1790 -18.9731 -18.8735 -18.8359 -18.7370 -18.5803
   -18.5599 -18.4910 -18.3415 -18.1202  -7.2989  -7.2714  -7.2079  -7.1519
    -7.0410  -6.9618  -6.8897  -6.7998  -6.7497  -6.6419  -6.5895  -6.3975
    -6.1311  -5.9848  -5.8650  -5.7768  -5.7085  -5.5738  -5.3419  -5.2864
    -5.1577  -5.0292  -4.9957  -4.8032  -4.7724  -4.7065  -4.6919  -4.5862
    -4.4907  -4.2628  -4.1850  -4.0003  -3.8651  -3.7472  -3.7078  -3.5793
    -3.3738  -3.3029  -3.1997  -2.9122  -2.7911  -2.7169  -2.6822  -2.6378
    -2.5668  -2.5146  -2.4350  -2.3607  -2.3078  -2.2100  -2.0257  -1.9902
    -1.7322  -1.6782  -1.6625  -1.5619  -1.4136  -1.0461  -0.8272  -0.6206
     0.1644   0.3473   0.6585   0.7759   0.8821   1.2176   5.9323   6.7550

          k = 0.3750-0.2370 0.0000 ( 38886 PWs)   bands (ev):

   -98.4270 -97.8805 -97.3474 -97.2144 -97.2126 -97.1863 -62.1988 -61.5290
   -61.4886 -61.1889 -60.9674 -60.8090 -60.7883 -60.7630 -60.7089 -60.6713
   -60.5561 -60.4288 -60.4099 -60.3463 -60.2452 -60.1988 -60.1898 -60.1837
   -19.5077 -19.2407 -19.0697 -18.9826 -18.8976 -18.8151 -18.8074 -18.6146
   -18.5753 -18.5326 -18.3341 -18.1186  -7.2789  -7.2433  -7.2195  -7.2063
    -7.1425  -6.9588  -6.9291  -6.7593  -6.5976  -6.3100  -6.2977  -6.2496
    -6.1737  -6.0296  -5.9520  -5.7742  -5.5950  -5.4968  -5.3557  -5.3208
    -5.2278  -5.1109  -4.9649  -4.9619  -4.7474  -4.6440  -4.6009  -4.5598
    -4.5207  -4.3989  -4.2545  -4.0695  -3.9300  -3.9202  -3.7673  -3.5921
    -3.4316  -3.2514  -3.0890  -2.8564  -2.8041  -2.7968  -2.7670  -2.7171
    -2.6438  -2.5011  -2.4811  -2.4570  -2.2759  -2.1579  -1.9653  -1.9385
    -1.8896  -1.7781  -1.6595  -1.5709  -1.5252  -1.3689  -1.2239  -0.6104
     0.1906   0.3459   1.0370   1.1570   1.2245   1.2847   5.9938   6.8455

          k = 0.3750-0.1185 0.0000 ( 38855 PWs)   bands (ev):

   -98.4270 -97.8805 -97.3474 -97.2144 -97.2126 -97.1863 -62.1988 -61.5290
   -61.4886 -61.1889 -60.9674 -60.8090 -60.7883 -60.7630 -60.7089 -60.6713
   -60.5561 -60.4288 -60.4099 -60.3463 -60.2452 -60.1988 -60.1899 -60.1837
   -19.5549 -19.2204 -19.1790 -18.9731 -18.8735 -18.8359 -18.7370 -18.5803
   -18.5599 -18.4910 -18.3415 -18.1202  -7.2989  -7.2714  -7.2079  -7.1519
    -7.0410  -6.9618  -6.8897  -6.7998  -6.7497  -6.6419  -6.5895  -6.3975
    -6.1311  -5.9848  -5.8650  -5.7768  -5.7085  -5.5738  -5.3419  -5.2864
    -5.1577  -5.0292  -4.9957  -4.8032  -4.7724  -4.7065  -4.6919  -4.5862
    -4.4907  -4.2628  -4.1850  -4.0003  -3.8651  -3.7472  -3.7078  -3.5793
    -3.3738  -3.3029  -3.1997  -2.9122  -2.7911  -2.7169  -2.6822  -2.6378
    -2.5668  -2.5146  -2.4350  -2.3607  -2.3078  -2.2100  -2.0257  -1.9902
    -1.7322  -1.6782  -1.6625  -1.5619  -1.4136  -1.0461  -0.8272  -0.6206
     0.1644   0.3473   0.6585   0.7759   0.8821   1.2176   5.9323   6.7550

          k =-0.5000 0.0000 0.0000 ( 38896 PWs)   bands (ev):

   -98.4268 -97.8804 -97.3472 -97.2142 -97.2124 -97.1861 -62.1986 -61.5288
   -61.4921 -61.1884 -60.9669 -60.8087 -60.7919 -60.7628 -60.7087 -60.6711
   -60.5556 -60.4283 -60.4140 -60.3502 -60.2447 -60.2024 -60.1935 -60.1831
   -19.3710 -19.0440 -19.0156 -18.9668 -18.9195 -18.8991 -18.6497 -18.6384
   -18.5186 -18.4389 -18.3816 -18.1225  -7.5247  -7.2645  -7.2003  -7.0971
    -7.0358  -6.9468  -6.8782  -6.8444  -6.7719  -6.6812  -6.5354  -6.4566
    -6.2886  -6.2280  -6.0678  -6.0362  -5.5471  -5.4355  -5.2884  -5.2567
    -5.1947  -5.0709  -4.9965  -4.9658  -4.9303  -4.6617  -4.5525  -4.4522
    -4.3573  -4.2361  -3.9790  -3.8208  -3.8192  -3.7994  -3.5955  -3.5805
    -3.4675  -3.3194  -3.2223  -3.1651  -3.0596  -2.9530  -2.7690  -2.6653
    -2.6279  -2.5968  -2.3602  -2.3104  -2.2148  -2.2026  -2.1873  -1.9744
    -1.8198  -1.6538  -1.5543  -1.5103  -0.8170  -0.7978  -0.3615  -0.3050
    -0.0826  -0.0050   0.1441   0.1441   0.3199   1.2242   6.4261   7.3839

          k =-0.5000 0.1185 0.0000 ( 38866 PWs)   bands (ev):

   -98.4268 -97.8804 -97.3472 -97.2142 -97.2124 -97.1861 -62.1986 -61.5288
   -61.4921 -61.1884 -60.9669 -60.8087 -60.7919 -60.7627 -60.7086 -60.6711
   -60.5556 -60.4283 -60.4140 -60.3502 -60.2447 -60.2024 -60.1935 -60.1831
   -19.3649 -19.0199 -18.9916 -18.9152 -18.9136 -18.8537 -18.6952 -18.6570
   -18.5778 -18.4963 -18.3824 -18.1226  -7.4869  -7.4201  -7.3304  -7.2596
    -7.2175  -6.9528  -6.8485  -6.7929  -6.6017  -6.5501  -6.4582  -6.4213
    -6.0680  -5.9633  -5.8458  -5.6109  -5.5435  -5.5012  -5.3624  -5.2563
    -5.2380  -5.1237  -5.0533  -4.8580  -4.7072  -4.5836  -4.5764  -4.4490
    -4.3821  -4.2054  -4.0567  -4.0228  -3.9439  -3.8216  -3.7134  -3.5800
    -3.5338  -3.4979  -3.2268  -3.1772  -3.0590  -2.9592  -2.8713  -2.6821
    -2.6345  -2.5980  -2.5631  -2.5392  -2.5258  -2.0731  -1.9711  -1.7919
    -1.7614  -1.6818  -1.5929  -1.5397  -1.5232  -1.2464  -1.0573  -0.7772
     0.1582   0.3205   0.7049   0.8336   0.9558   1.2484   6.4919   7.4385

          k =-0.5000-0.2370 0.0000 ( 38900 PWs)   bands (ev):

   -98.4269 -97.8804 -97.3472 -97.2142 -97.2124 -97.1861 -62.1986 -61.5288
   -61.4921 -61.1884 -60.9669 -60.8087 -60.7919 -60.7627 -60.7086 -60.6711
   -60.5556 -60.4283 -60.4140 -60.3502 -60.2447 -60.2024 -60.1935 -60.1831
   -19.3586 -19.0247 -18.9070 -18.8896 -18.8400 -18.8191 -18.7636 -18.6647
   -18.6606 -18.5806 -18.3830 -18.1228  -7.5144  -7.4938  -7.4605  -7.4387
    -7.1620  -7.0278  -6.8697  -6.6182  -6.5418  -6.3981  -6.3692  -6.2102
    -6.1102  -5.7333  -5.5695  -5.5620  -5.5041  -5.3295  -5.2588  -5.1727
    -5.1625  -5.1532  -5.0220  -4.8615  -4.6283  -4.5306  -4.5053  -4.4524
    -4.4371  -4.3842  -4.3346  -4.1601  -3.9659  -3.8628  -3.7457  -3.6677
    -3.6505  -3.5796  -3.2368  -3.1918  -3.0594  -2.9734  -2.9542  -2.8127
    -2.6943  -2.6926  -2.6897  -2.6640  -2.4847  -2.2101  -1.9818  -1.8780
    -1.7303  -1.6673  -1.6568  -1.6405  -1.5336  -1.4998  -1.4403  -0.7588
     0.1720   0.3212   1.1657   1.2718   1.2896   1.3106   6.5602   7.4952

          k =-0.5000-0.1185 0.0000 ( 38866 PWs)   bands (ev):

   -98.4268 -97.8804 -97.3472 -97.2142 -97.2124 -97.1861 -62.1986 -61.5288
   -61.4921 -61.1884 -60.9669 -60.8087 -60.7919 -60.7627 -60.7086 -60.6711
   -60.5556 -60.4283 -60.4140 -60.3502 -60.2447 -60.2024 -60.1935 -60.1831
   -19.3649 -19.0199 -18.9916 -18.9152 -18.9136 -18.8537 -18.6952 -18.6570
   -18.5778 -18.4963 -18.3824 -18.1226  -7.4869  -7.4201  -7.3304  -7.2596
    -7.2175  -6.9528  -6.8485  -6.7929  -6.6017  -6.5501  -6.4582  -6.4213
    -6.0680  -5.9633  -5.8458  -5.6109  -5.5435  -5.5012  -5.3624  -5.2563
    -5.2380  -5.1237  -5.0533  -4.8580  -4.7072  -4.5836  -4.5764  -4.4490
    -4.3821  -4.2054  -4.0567  -4.0228  -3.9439  -3.8216  -3.7134  -3.5800
    -3.5338  -3.4979  -3.2268  -3.1772  -3.0590  -2.9592  -2.8713  -2.6821
    -2.6345  -2.5980  -2.5631  -2.5392  -2.5258  -2.0731  -1.9711  -1.7919
    -1.7614  -1.6818  -1.5929  -1.5397  -1.5232  -1.2464  -1.0573  -0.7772
     0.1582   0.3205   0.7049   0.8336   0.9558   1.2484   6.4919   7.4385

          k =-0.3750 0.0000 0.0000 ( 38844 PWs)   bands (ev):

   -98.4270 -97.8805 -97.3474 -97.2144 -97.2126 -97.1863 -62.1988 -61.5290
   -61.4886 -61.1889 -60.9674 -60.8090 -60.7882 -60.7630 -60.7089 -60.6713
   -60.5561 -60.4288 -60.4099 -60.3463 -60.2452 -60.1988 -60.1899 -60.1837
   -19.5931 -19.2472 -19.2018 -19.0099 -18.8469 -18.8369 -18.6388 -18.6321
   -18.5182 -18.4330 -18.3575 -18.1222  -7.3859  -7.2956  -7.1652  -7.0716
    -7.0694  -6.9886  -6.9208  -6.8409  -6.8182  -6.6270  -6.5923  -6.5498
    -6.2756  -6.0517  -5.9495  -5.8343  -5.6993  -5.5850  -5.3122  -5.2180
    -5.1872  -5.0223  -4.9698  -4.8743  -4.7846  -4.7582  -4.6534  -4.5251
    -4.4802  -4.4113  -4.0798  -3.8602  -3.7756  -3.7355  -3.5276  -3.4638
    -3.3438  -3.2454  -3.2431  -3.0114  -2.7122  -2.7013  -2.6638  -2.5761
    -2.5404  -2.3816  -2.3630  -2.2880  -2.2549  -2.2315  -2.1144  -2.0486
    -1.9082  -1.6671  -1.6281  -1.6149  -0.6796  -0.6386  -0.2474  -0.2447
    -0.0847   0.0202   0.1235   0.2479   0.3516   1.1846   5.8749   6.6753

          k =-0.3750 0.1185 0.0000 ( 38855 PWs)   bands (ev):

   -98.4270 -97.8805 -97.3474 -97.2144 -97.2126 -97.1863 -62.1988 -61.5290
   -61.4886 -61.1889 -60.9674 -60.8090 -60.7883 -60.7630 -60.7089 -60.6713
   -60.5561 -60.4288 -60.4099 -60.3463 -60.2452 -60.1988 -60.1899 -60.1837
   -19.5549 -19.2204 -19.1790 -18.9731 -18.8735 -18.8359 -18.7370 -18.5803
   -18.5599 -18.4910 -18.3415 -18.1202  -7.2989  -7.2714  -7.2079  -7.1519
    -7.0410  -6.9618  -6.8897  -6.7998  -6.7497  -6.6419  -6.5895  -6.3975
    -6.1311  -5.9848  -5.8650  -5.7768  -5.7085  -5.5738  -5.3419  -5.2864
    -5.1577  -5.0292  -4.9957  -4.8032  -4.7724  -4.7065  -4.6919  -4.5862
    -4.4907  -4.2628  -4.1850  -4.0003  -3.8651  -3.7472  -3.7078  -3.5793
    -3.3738  -3.3029  -3.1997  -2.9122  -2.7911  -2.7169  -2.6822  -2.6378
    -2.5668  -2.5146  -2.4350  -2.3607  -2.3078  -2.2100  -2.0257  -1.9902
    -1.7322  -1.6782  -1.6625  -1.5619  -1.4136  -1.0461  -0.8272  -0.6206
     0.1644   0.3473   0.6585   0.7759   0.8821   1.2176   5.9323   6.7550

          k =-0.3750-0.2370 0.0000 ( 38886 PWs)   bands (ev):

   -98.4270 -97.8805 -97.3474 -97.2144 -97.2126 -97.1863 -62.1988 -61.5290
   -61.4886 -61.1889 -60.9674 -60.8090 -60.7883 -60.7630 -60.7089 -60.6713
   -60.5561 -60.4288 -60.4099 -60.3463 -60.2452 -60.1988 -60.1898 -60.1837
   -19.5077 -19.2407 -19.0697 -18.9826 -18.8976 -18.8151 -18.8074 -18.6146
   -18.5753 -18.5326 -18.3341 -18.1186  -7.2789  -7.2433  -7.2195  -7.2063
    -7.1425  -6.9588  -6.9291  -6.7593  -6.5976  -6.3100  -6.2977  -6.2496
    -6.1737  -6.0296  -5.9520  -5.7742  -5.5950  -5.4968  -5.3557  -5.3208
    -5.2278  -5.1109  -4.9649  -4.9619  -4.7474  -4.6440  -4.6009  -4.5598
    -4.5207  -4.3989  -4.2545  -4.0695  -3.9300  -3.9202  -3.7673  -3.5921
    -3.4316  -3.2514  -3.0890  -2.8564  -2.8041  -2.7968  -2.7670  -2.7171
    -2.6438  -2.5011  -2.4811  -2.4570  -2.2759  -2.1579  -1.9653  -1.9385
    -1.8896  -1.7781  -1.6595  -1.5709  -1.5252  -1.3689  -1.2239  -0.6104
     0.1906   0.3459   1.0370   1.1570   1.2245   1.2847   5.9938   6.8455

          k =-0.3750-0.1185 0.0000 ( 38855 PWs)   bands (ev):

   -98.4270 -97.8805 -97.3474 -97.2144 -97.2126 -97.1863 -62.1988 -61.5290
   -61.4886 -61.1889 -60.9674 -60.8090 -60.7883 -60.7630 -60.7089 -60.6713
   -60.5561 -60.4288 -60.4099 -60.3463 -60.2452 -60.1988 -60.1899 -60.1837
   -19.5549 -19.2204 -19.1790 -18.9731 -18.8735 -18.8359 -18.7370 -18.5803
   -18.5599 -18.4910 -18.3415 -18.1202  -7.2989  -7.2714  -7.2079  -7.1519
    -7.0410  -6.9618  -6.8897  -6.7998  -6.7497  -6.6419  -6.5895  -6.3975
    -6.1311  -5.9848  -5.8650  -5.7768  -5.7085  -5.5738  -5.3419  -5.2864
    -5.1577  -5.0292  -4.9957  -4.8032  -4.7724  -4.7065  -4.6919  -4.5862
    -4.4907  -4.2628  -4.1850  -4.0003  -3.8651  -3.7472  -3.7078  -3.5793
    -3.3738  -3.3029  -3.1997  -2.9122  -2.7911  -2.7169  -2.6822  -2.6378
    -2.5668  -2.5146  -2.4350  -2.3607  -2.3078  -2.2100  -2.0257  -1.9902
    -1.7322  -1.6782  -1.6625  -1.5619  -1.4136  -1.0461  -0.8272  -0.6206
     0.1644   0.3473   0.6585   0.7759   0.8821   1.2176   5.9323   6.7550

          k =-0.2500 0.0000 0.0000 ( 38776 PWs)   bands (ev):

   -98.4274 -97.8809 -97.3479 -97.2150 -97.2130 -97.1867 -62.1994 -61.5296
   -61.4803 -61.1900 -60.9685 -60.8096 -60.7794 -60.7636 -60.7095 -60.6719
   -60.5573 -60.4299 -60.4001 -60.3368 -60.2463 -60.1899 -60.1849 -60.1810
   -19.9884 -19.5938 -19.4357 -19.2120 -18.8897 -18.8056 -18.6342 -18.6184
   -18.5162 -18.4189 -18.3075 -18.1195  -7.6927  -7.5840  -7.3903  -7.3743
    -6.9686  -6.9603  -6.9107  -6.8767  -6.6773  -6.5212  -6.4841  -6.4121
    -6.1446  -5.8370  -5.7657  -5.7150  -5.5298  -5.4613  -5.1840  -5.1475
    -5.1465  -4.9474  -4.9074  -4.8036  -4.7121  -4.6834  -4.6708  -4.5080
    -4.3502  -4.2676  -3.9728  -3.8629  -3.8322  -3.6405  -3.5632  -3.4269
    -3.3206  -3.3037  -3.2010  -2.9595  -2.9377  -2.7502  -2.5958  -2.4822
    -2.3590  -2.3586  -2.3002  -2.0994  -2.0208  -2.0206  -1.8975  -1.8885
    -1.8391  -1.7707  -1.7022  -1.3547  -0.3442  -0.3398  -0.1436  -0.0073
     0.0430   0.0685   0.3136   0.4116   0.5772   1.1704   4.9571   5.5985

          k =-0.2500 0.1185 0.0000 ( 38814 PWs)   bands (ev):

   -98.4274 -97.8809 -97.3479 -97.2150 -97.2130 -97.1867 -62.1994 -61.5296
   -61.4803 -61.1900 -60.9685 -60.8096 -60.7794 -60.7636 -60.7095 -60.6719
   -60.5573 -60.4299 -60.4001 -60.3368 -60.2463 -60.1899 -60.1849 -60.1810
   -19.9188 -19.5316 -19.4424 -19.2078 -19.0104 -18.8393 -18.7530 -18.5339
   -18.5004 -18.4560 -18.2706 -18.1121  -7.6567  -7.3319  -7.2068  -7.1497
    -6.9472  -6.9094  -6.8589  -6.7889  -6.6620  -6.6267  -6.4922  -6.2486
    -6.1267  -5.9586  -5.8016  -5.7010  -5.6213  -5.5566  -5.4044  -5.2958
    -5.1828  -5.0301  -5.0127  -4.9411  -4.7437  -4.7258  -4.6118  -4.5110
    -4.4107  -4.3288  -4.2068  -3.9566  -3.8476  -3.7420  -3.6962  -3.4594
    -3.2285  -3.1148  -2.8746  -2.8608  -2.7291  -2.6314  -2.5580  -2.4699
    -2.4327  -2.3922  -2.3459  -2.2510  -2.1770  -2.0629  -1.9545  -1.9252
    -1.7965  -1.7666  -1.6887  -1.2813  -0.8504  -0.5341  -0.3708  -0.1801
     0.2488   0.5219   0.5714   0.6680   0.7343   1.2014   5.0490   5.7332

          k =-0.2500-0.2370 0.0000 ( 38832 PWs)   bands (ev):

   -98.4274 -97.8809 -97.3479 -97.2150 -97.2130 -97.1867 -62.1994 -61.5296
   -61.4803 -61.1900 -60.9685 -60.8096 -60.7794 -60.7636 -60.7095 -60.6719
   -60.5573 -60.4299 -60.4001 -60.3368 -60.2463 -60.1899 -60.1849 -60.1810
   -19.8073 -19.5843 -19.3049 -19.2548 -19.0827 -18.9725 -18.7793 -18.5306
   -18.4730 -18.4701 -18.2476 -18.1054  -7.6392  -7.0855  -6.9665  -6.9251
    -6.8740  -6.8616  -6.7957  -6.6425  -6.5413  -6.4508  -6.3815  -6.3003
    -6.2461  -6.0934  -5.8984  -5.8166  -5.7619  -5.6322  -5.4895  -5.4418
    -5.2750  -5.2123  -5.0415  -5.0231  -4.9480  -4.8727  -4.8246  -4.6318
    -4.5054  -4.3320  -4.1821  -3.9377  -3.9161  -3.7277  -3.6732  -3.3860
    -3.1178  -2.8743  -2.6617  -2.6194  -2.5970  -2.5919  -2.5479  -2.4644
    -2.4566  -2.4422  -2.3817  -2.3806  -2.2641  -2.2117  -2.0000  -1.9466
    -1.8648  -1.7309  -1.6637  -1.2260  -1.1458  -0.7532  -0.5885  -0.1811
     0.3072   0.5516   0.7707   0.9421   1.0370   1.2156   5.1566   5.9128

          k =-0.2500-0.1185 0.0000 ( 38814 PWs)   bands (ev):

   -98.4274 -97.8809 -97.3479 -97.2150 -97.2130 -97.1867 -62.1994 -61.5296
   -61.4803 -61.1900 -60.9685 -60.8096 -60.7794 -60.7636 -60.7095 -60.6719
   -60.5573 -60.4299 -60.4001 -60.3368 -60.2463 -60.1899 -60.1849 -60.1810
   -19.9188 -19.5316 -19.4424 -19.2078 -19.0104 -18.8393 -18.7530 -18.5339
   -18.5004 -18.4560 -18.2706 -18.1121  -7.6567  -7.3319  -7.2068  -7.1497
    -6.9472  -6.9094  -6.8589  -6.7889  -6.6620  -6.6267  -6.4922  -6.2486
    -6.1267  -5.9586  -5.8016  -5.7010  -5.6213  -5.5566  -5.4044  -5.2958
    -5.1828  -5.0301  -5.0127  -4.9411  -4.7437  -4.7258  -4.6118  -4.5110
    -4.4107  -4.3288  -4.2068  -3.9566  -3.8476  -3.7420  -3.6962  -3.4594
    -3.2285  -3.1148  -2.8746  -2.8608  -2.7291  -2.6314  -2.5580  -2.4699
    -2.4327  -2.3922  -2.3459  -2.2510  -2.1770  -2.0629  -1.9545  -1.9252
    -1.7965  -1.7666  -1.6887  -1.2813  -0.8504  -0.5341  -0.3708  -0.1801
     0.2488   0.5219   0.5714   0.6680   0.7343   1.2014   5.0490   5.7332

          k =-0.1250 0.0000 0.0000 ( 38714 PWs)   bands (ev):

   -98.4279 -97.8814 -97.3484 -97.2156 -97.2135 -97.1873 -62.1999 -61.5302
   -61.4718 -61.1911 -60.9697 -60.8102 -60.7704 -60.7641 -60.7101 -60.6725
   -60.5586 -60.4310 -60.3902 -60.3272 -60.2475 -60.1863 -60.1808 -60.1721
   -20.3011 -19.8746 -19.6544 -19.3951 -18.9986 -18.8046 -18.6688 -18.6071
   -18.5124 -18.4051 -18.2614 -18.1121  -8.0917  -7.9507  -7.7325  -7.6385
    -7.1418  -6.9489  -6.7635  -6.7486  -6.6130  -6.5892  -6.5702  -6.1508
    -6.0098  -5.8247  -5.7262  -5.6072  -5.4535  -5.1415  -5.0560  -4.9770
    -4.8195  -4.7819  -4.7421  -4.5166  -4.4364  -4.2373  -4.2257  -4.1678
    -4.0201  -4.0113  -3.9813  -3.8892  -3.8732  -3.8231  -3.7637  -3.7206
    -3.6341  -3.3947  -3.2037  -3.0650  -2.8850  -2.6981  -2.6569  -2.4413
    -2.4109  -2.2318  -2.1598  -2.0810  -1.9791  -1.8997  -1.8746  -1.8543
    -1.7866  -1.6883  -1.6356  -1.2499  -0.4329  -0.0799   0.0370   0.1310
     0.4707   0.6550   0.6852   0.7348   1.0230   1.2998   4.2179   4.7943

          k =-0.1250 0.1185 0.0000 ( 38773 PWs)   bands (ev):

   -98.4279 -97.8814 -97.3484 -97.2156 -97.2135 -97.1873 -62.1999 -61.5302
   -61.4718 -61.1911 -60.9697 -60.8102 -60.7704 -60.7641 -60.7101 -60.6725
   -60.5586 -60.4310 -60.3902 -60.3272 -60.2475 -60.1863 -60.1808 -60.1721
   -20.2153 -19.7965 -19.6593 -19.4201 -19.1661 -18.9161 -18.7515 -18.5146
   -18.4619 -18.4153 -18.2157 -18.1009  -8.0220  -7.7211  -7.5534  -7.4818
    -7.1317  -6.8347  -6.7885  -6.7357  -6.5465  -6.4690  -6.4253  -6.1492
    -6.0226  -5.8482  -5.7306  -5.6072  -5.5040  -5.3939  -5.2930  -5.1556
    -5.0371  -4.9653  -4.8002  -4.7304  -4.5882  -4.5702  -4.4309  -4.3053
    -4.1906  -4.1559  -3.9564  -3.8723  -3.7764  -3.7118  -3.5565  -3.5034
    -3.4894  -3.0929  -3.0605  -2.8659  -2.7847  -2.7107  -2.6100  -2.5262
    -2.3851  -2.3606  -2.1931  -2.1797  -2.1182  -2.0468  -1.9321  -1.8629
    -1.7541  -1.7163  -1.6844  -1.0559  -0.1917  -0.1108   0.0618   0.2793
     0.4920   0.6581   0.6861   0.7744   1.0339   1.2796   4.3673   4.9787

          k =-0.1250-0.2370 0.0000 ( 38716 PWs)   bands (ev):

   -98.4279 -97.8814 -97.3484 -97.2156 -97.2135 -97.1873 -62.1999 -61.5302
   -61.4718 -61.1911 -60.9696 -60.8102 -60.7704 -60.7641 -60.7101 -60.6725
   -60.5586 -60.4311 -60.3902 -60.3272 -60.2475 -60.1863 -60.1808 -60.1721
   -20.0629 -19.8582 -19.5144 -19.4832 -19.2674 -19.1320 -18.7590 -18.4777
   -18.4331 -18.4120 -18.1810 -18.0898  -7.9858  -7.3908  -7.3566  -7.2940
    -7.0644  -6.8413  -6.7660  -6.6449  -6.3920  -6.2289  -6.2126  -6.1375
    -6.0879  -6.0119  -5.8538  -5.6770  -5.6546  -5.4379  -5.2820  -5.2682
    -5.2344  -5.2253  -5.1092  -5.1027  -5.0397  -4.8260  -4.5690  -4.5023
    -4.1789  -4.1503  -3.9427  -3.8265  -3.6428  -3.4676  -3.3862  -3.3467
    -3.1643  -2.9669  -2.9106  -2.8101  -2.7619  -2.7334  -2.6075  -2.5058
    -2.4547  -2.3598  -2.2724  -2.2562  -2.1472  -2.1353  -2.0611  -1.9187
    -1.7808  -1.6984  -1.6632  -0.9483  -0.2901   0.0183   0.1418   0.1743
     0.6315   0.7152   0.7810   0.8859   0.9951   1.2282   4.5544   5.2481

          k =-0.1250-0.1185 0.0000 ( 38773 PWs)   bands (ev):

   -98.4279 -97.8814 -97.3484 -97.2156 -97.2135 -97.1873 -62.1999 -61.5302
   -61.4718 -61.1911 -60.9697 -60.8102 -60.7704 -60.7641 -60.7101 -60.6725
   -60.5586 -60.4310 -60.3902 -60.3272 -60.2475 -60.1863 -60.1808 -60.1721
   -20.2153 -19.7965 -19.6593 -19.4201 -19.1661 -18.9161 -18.7515 -18.5146
   -18.4619 -18.4153 -18.2157 -18.1009  -8.0220  -7.7211  -7.5534  -7.4818
    -7.1317  -6.8347  -6.7885  -6.7357  -6.5465  -6.4690  -6.4253  -6.1492
    -6.0226  -5.8482  -5.7306  -5.6072  -5.5040  -5.3939  -5.2930  -5.1556
    -5.0371  -4.9653  -4.8002  -4.7304  -4.5882  -4.5702  -4.4309  -4.3053
    -4.1906  -4.1559  -3.9564  -3.8723  -3.7764  -3.7118  -3.5565  -3.5034
    -3.4894  -3.0929  -3.0605  -2.8659  -2.7847  -2.7107  -2.6100  -2.5262
    -2.3851  -2.3606  -2.1931  -2.1797  -2.1182  -2.0468  -1.9321  -1.8629
    -1.7541  -1.7163  -1.6844  -1.0559  -0.1917  -0.1108   0.0618   0.2793
     0.4920   0.6581   0.6861   0.7744   1.0339   1.2796   4.3673   4.9787

 ------ SPIN DOWN ----------


          k = 0.0000 0.0000 0.0000 ( 38699 PWs)   bands (ev):

   -96.2040 -96.0915 -96.0695 -95.9967 -95.5910 -95.5577 -59.5206 -59.5030
   -59.4606 -59.4170 -59.4163 -59.3756 -59.3309 -59.3305 -59.2795 -59.2201
   -59.2011 -59.1485 -58.9980 -58.9644 -58.9249 -58.8149 -58.8072 -58.7418
   -20.0931 -19.6335 -19.3489 -19.1527 -18.6368 -18.3838 -18.2877 -18.2316
   -18.1842 -18.1554 -17.6340 -17.4595  -7.9480  -7.5762  -7.4678  -7.3243
    -6.8467  -6.4132  -5.8780  -5.8280  -5.7680  -5.6124  -5.4781  -5.4299
    -5.2521  -5.1592  -4.5587  -4.4052  -4.2362  -4.2071  -4.1506  -3.9820
    -3.8400  -3.7434  -3.6578  -3.5829  -3.4271  -3.3598  -3.2206  -3.1950
    -3.1886  -2.7893  -2.5894  -2.5567  -2.5481  -2.5429  -2.5069  -2.3898
    -2.3369  -2.2357  -2.2089  -2.0403  -2.0164  -1.9310  -1.7077  -1.6723
    -1.4801  -1.4252  -1.3064  -1.1133  -0.8109  -0.4727  -0.3954  -0.2338
    -0.1276  -0.0391   0.0682   0.2303   0.5114   0.7214   1.2113   1.5820
     1.7391   1.8240   1.9196   1.9451   1.9774   2.0741   4.3362   4.7155

          k = 0.0000 0.1185 0.0000 ( 38644 PWs)   bands (ev):

   -96.2040 -96.0915 -96.0695 -95.9967 -95.5910 -95.5577 -59.5206 -59.5030
   -59.4606 -59.4168 -59.4163 -59.3758 -59.3309 -59.3305 -59.2795 -59.2201
   -59.2011 -59.1485 -58.9980 -58.9644 -58.9249 -58.8149 -58.8072 -58.7418
   -19.9957 -19.5337 -19.3709 -19.2023 -18.8579 -18.5843 -18.2626 -18.1793
   -18.1329 -18.0612 -17.6074 -17.4452  -7.7877  -7.3536  -7.3296  -7.2399
    -6.8412  -6.4439  -5.8263  -5.7758  -5.6817  -5.5606  -5.4418  -5.3831
    -5.2472  -5.0235  -4.6794  -4.6320  -4.5949  -4.5203  -4.2833  -4.1948
    -3.9908  -3.7943  -3.7410  -3.7340  -3.6153  -3.4998  -3.4261  -3.3225
    -2.9912  -2.8609  -2.7254  -2.5881  -2.4091  -2.3474  -2.2487  -2.2008
    -2.1757  -2.0800  -2.0778  -2.0159  -1.8445  -1.8182  -1.7010  -1.6402
    -1.6060  -1.5965  -1.3918  -1.1143  -0.9082  -0.4378  -0.3850  -0.2424
    -0.1560  -0.1151  -0.0340   0.5443   0.7211   0.9542   1.2471   1.4925
     1.7385   1.8241   1.8551   1.8751   1.8972   2.0806   4.5597   4.9492

          k = 0.0000-0.2370 0.0000 ( 38702 PWs)   bands (ev):

   -96.2040 -96.0915 -96.0694 -95.9967 -95.5910 -95.5577 -59.5206 -59.5030
   -59.4606 -59.4167 -59.4163 -59.3759 -59.3309 -59.3305 -59.2795 -59.2201
   -59.2011 -59.1485 -58.9980 -58.9644 -58.9249 -58.8149 -58.8072 -58.7418
   -19.8061 -19.6143 -19.2879 -19.1831 -19.0357 -18.8243 -18.2723 -18.1296
   -18.0643 -18.0346 -17.5821 -17.4311  -7.6412  -7.2532  -7.0530  -6.9601
    -6.8634  -6.5054  -5.8233  -5.7831  -5.5032  -5.4041  -5.3375  -5.2666
    -5.2349  -5.0817  -5.0111  -5.0062  -4.8333  -4.7132  -4.4588  -4.2291
    -4.0802  -4.0620  -4.0020  -3.8111  -3.6354  -3.6323  -3.5860  -3.4588
    -2.9564  -2.6908  -2.6496  -2.4821  -2.4470  -2.2241  -2.2051  -2.0804
    -2.0426  -1.9836  -1.9349  -1.8309  -1.8189  -1.7953  -1.7525  -1.6625
    -1.6469  -1.5232  -1.3987  -1.1173  -0.8420  -0.6647  -0.4599  -0.3835
    -0.1415  -0.1328   0.0465   0.6886   0.8537   1.2475   1.3978   1.5367
     1.5739   1.7339   1.8044   1.8138   1.8270   2.0838   4.8855   5.3574

          k = 0.0000-0.1185 0.0000 ( 38644 PWs)   bands (ev):

   -96.2040 -96.0915 -96.0695 -95.9967 -95.5910 -95.5577 -59.5206 -59.5030
   -59.4606 -59.4168 -59.4163 -59.3758 -59.3309 -59.3305 -59.2795 -59.2201
   -59.2011 -59.1485 -58.9980 -58.9644 -58.9249 -58.8149 -58.8072 -58.7418
   -19.9957 -19.5337 -19.3709 -19.2023 -18.8579 -18.5843 -18.2626 -18.1793
   -18.1329 -18.0612 -17.6074 -17.4452  -7.7877  -7.3536  -7.3296  -7.2399
    -6.8412  -6.4439  -5.8263  -5.7758  -5.6817  -5.5606  -5.4418  -5.3831
    -5.2472  -5.0235  -4.6794  -4.6320  -4.5949  -4.5203  -4.2833  -4.1948
    -3.9908  -3.7943  -3.7410  -3.7340  -3.6153  -3.4998  -3.4261  -3.3225
    -2.9912  -2.8609  -2.7254  -2.5881  -2.4091  -2.3474  -2.2487  -2.2008
    -2.1757  -2.0800  -2.0778  -2.0159  -1.8445  -1.8182  -1.7010  -1.6402
    -1.6060  -1.5965  -1.3918  -1.1143  -0.9082  -0.4378  -0.3850  -0.2424
    -0.1560  -0.1151  -0.0340   0.5443   0.7211   0.9542   1.2471   1.4925
     1.7385   1.8241   1.8551   1.8751   1.8972   2.0806   4.5597   4.9493

          k = 0.1250 0.0000 0.0000 ( 38714 PWs)   bands (ev):

   -96.2038 -96.0912 -96.0692 -95.9965 -95.5907 -95.5575 -59.5250 -59.5027
   -59.4645 -59.4205 -59.4164 -59.3754 -59.3345 -59.3306 -59.2793 -59.2195
   -59.2006 -59.1480 -59.0022 -58.9686 -58.9243 -58.8143 -58.8069 -58.7415
   -19.9746 -19.5290 -19.2634 -19.0812 -18.5859 -18.3666 -18.2798 -18.2264
   -18.1811 -18.1529 -17.6449 -17.4542  -7.7837  -7.4536  -7.3624  -7.2133
    -6.7490  -6.3271  -5.9654  -5.9574  -5.8523  -5.7003  -5.6730  -5.5101
    -5.2861  -4.8290  -4.7583  -4.5252  -4.4065  -4.1056  -4.1036  -4.0377
    -3.9520  -3.9091  -3.8489  -3.7195  -3.6608  -3.5901  -3.2965  -3.2455
    -3.2163  -3.1536  -3.0307  -2.7829  -2.6313  -2.4840  -2.4485  -2.3347
    -2.3329  -2.2557  -2.1325  -1.9498  -1.7927  -1.7867  -1.5691  -1.4960
    -1.2965  -1.2589  -1.0734  -1.0239  -0.8838  -0.5068  -0.3124  -0.3080
    -0.2270  -0.1180  -0.0140   0.3321   0.6092   0.7904   1.0318   1.3682
     1.3732   1.6346   1.7310   1.7577   1.7768   1.9652   4.6332   5.0161

          k = 0.1250 0.1185 0.0000 ( 38773 PWs)   bands (ev):

   -96.2038 -96.0912 -96.0692 -95.9965 -95.5907 -95.5575 -59.5250 -59.5027
   -59.4645 -59.4206 -59.4163 -59.3755 -59.3345 -59.3306 -59.2793 -59.2195
   -59.2006 -59.1480 -59.0022 -58.9686 -58.9243 -58.8143 -58.8069 -58.7415
   -19.8820 -19.4333 -19.2874 -19.1211 -18.7912 -18.5441 -18.2651 -18.1829
   -18.1341 -18.0712 -17.6202 -17.4414  -7.6252  -7.2203  -7.2081  -7.1210
    -6.7369  -6.3578  -5.9774  -5.8493  -5.7601  -5.6651  -5.6060  -5.3894
    -5.2665  -4.9524  -4.6757  -4.5780  -4.4820  -4.4387  -4.3744  -4.2934
    -4.2594  -4.1678  -4.0940  -3.9453  -3.7661  -3.6871  -3.4890  -3.3552
    -3.3216  -2.9674  -2.8269  -2.7589  -2.5399  -2.3590  -2.3485  -2.2636
    -2.1198  -2.0416  -1.9253  -1.8463  -1.7930  -1.6259  -1.4900  -1.4605
    -1.3643  -1.3183  -1.2370  -1.0101  -0.9669  -0.5417  -0.4510  -0.3108
    -0.2174  -0.1308  -0.0195   0.5465   0.7478   0.9081   1.0691   1.2123
     1.4528   1.6354   1.6620   1.7265   1.7843   1.9665   4.8268   5.2295

          k = 0.1250-0.2370 0.0000 ( 38716 PWs)   bands (ev):

   -96.2038 -96.0912 -96.0692 -95.9965 -95.5907 -95.5575 -59.5250 -59.5027
   -59.4645 -59.4206 -59.4161 -59.3756 -59.3345 -59.3306 -59.2792 -59.2195
   -59.2006 -59.1480 -59.0022 -58.9686 -58.9244 -58.8143 -58.8069 -58.7415
   -19.7058 -19.5097 -19.2032 -19.0943 -18.9685 -18.7589 -18.2793 -18.1400
   -18.0772 -18.0444 -17.5974 -17.4290  -7.4914  -7.1213  -6.8933  -6.8092
    -6.7521  -6.4217  -5.9829  -5.7389  -5.6736  -5.5406  -5.5221  -5.3077
    -5.0944  -4.9236  -4.8998  -4.8575  -4.7992  -4.7438  -4.6358  -4.5907
    -4.5567  -4.3373  -4.1306  -4.0379  -3.9677  -3.7672  -3.6918  -3.3748
    -3.3368  -2.7569  -2.6322  -2.5318  -2.4360  -2.3497  -2.3370  -2.2943
    -2.0427  -1.8732  -1.7497  -1.7461  -1.6381  -1.5546  -1.5543  -1.4652
    -1.4087  -1.3183  -1.2755  -0.9680  -0.8783  -0.6996  -0.5396  -0.4810
    -0.2409  -0.2236   0.1597   0.7259   0.7399   0.9542   1.0733   1.1879
     1.5294   1.6468   1.6775   1.7176   1.7817   1.8977   5.1010   5.5934

          k = 0.1250-0.1185 0.0000 ( 38773 PWs)   bands (ev):

   -96.2038 -96.0912 -96.0692 -95.9965 -95.5907 -95.5575 -59.5250 -59.5027
   -59.4645 -59.4206 -59.4163 -59.3755 -59.3345 -59.3306 -59.2793 -59.2195
   -59.2006 -59.1480 -59.0022 -58.9686 -58.9243 -58.8143 -58.8069 -58.7415
   -19.8820 -19.4333 -19.2874 -19.1211 -18.7912 -18.5441 -18.2651 -18.1829
   -18.1341 -18.0712 -17.6202 -17.4414  -7.6252  -7.2203  -7.2081  -7.1210
    -6.7369  -6.3578  -5.9774  -5.8493  -5.7601  -5.6651  -5.6060  -5.3894
    -5.2665  -4.9524  -4.6757  -4.5780  -4.4820  -4.4387  -4.3744  -4.2934
    -4.2594  -4.1678  -4.0940  -3.9453  -3.7661  -3.6871  -3.4890  -3.3552
    -3.3216  -2.9674  -2.8269  -2.7589  -2.5399  -2.3590  -2.3485  -2.2636
    -2.1198  -2.0416  -1.9253  -1.8463  -1.7930  -1.6259  -1.4900  -1.4605
    -1.3643  -1.3183  -1.2370  -1.0101  -0.9669  -0.5417  -0.4510  -0.3108
    -0.2174  -0.1308  -0.0195   0.5465   0.7478   0.9081   1.0691   1.2123
     1.4528   1.6354   1.6620   1.7265   1.7843   1.9665   4.8268   5.2295

          k = 0.2500 0.0000 0.0000 ( 38776 PWs)   bands (ev):

   -96.2032 -96.0906 -96.0686 -95.9959 -95.5901 -95.5568 -59.5356 -59.5021
   -59.4740 -59.4307 -59.4151 -59.3748 -59.3439 -59.3300 -59.2786 -59.2182
   -59.1992 -59.1467 -59.0124 -58.9786 -58.9230 -58.8130 -58.8063 -58.7408
   -19.6540 -19.2525 -19.0501 -18.9040 -18.4886 -18.3297 -18.2609 -18.2142
   -18.1897 -18.1470 -17.6690 -17.4371  -7.3437  -7.1778  -7.1069  -6.9602
    -6.5266  -6.3208  -6.3125  -6.0493  -6.0423  -5.8701  -5.6836  -5.5066
    -5.3555  -5.1558  -5.0917  -5.0695  -4.8213  -4.7165  -4.4703  -4.3640
    -4.2895  -3.7479  -3.7114  -3.6655  -3.6434  -3.6197  -3.5018  -3.4785
    -3.3381  -3.1836  -3.1664  -3.1523  -2.7255  -2.6496  -2.3966  -2.2520
    -2.1380  -2.1031  -2.0992  -1.9502  -1.5534  -1.5483  -1.5019  -1.3835
    -1.3793  -1.1680  -0.8000  -0.7708  -0.7219  -0.6595  -0.5197  -0.4498
    -0.3193  -0.1972  -0.0576   0.2974   0.5837   0.7400   0.8687   0.9063
     0.9868   1.2043   1.4196   1.4242   1.5279   1.7962   5.3917   5.8147

          k = 0.2500 0.1185 0.0000 ( 38814 PWs)   bands (ev):

   -96.2032 -96.0905 -96.0685 -95.9959 -95.5901 -95.5568 -59.5356 -59.5021
   -59.4740 -59.4307 -59.4150 -59.3749 -59.3439 -59.3300 -59.2786 -59.2182
   -59.1992 -59.1467 -59.0124 -58.9786 -58.9230 -58.8130 -58.8063 -58.7408
   -19.5766 -19.1691 -19.0745 -18.9166 -18.6293 -18.4617 -18.2696 -18.1997
   -18.1444 -18.1097 -17.6516 -17.4290  -7.1983  -6.9457  -6.8808  -6.8466
    -6.4826  -6.2989  -6.2250  -6.1024  -5.9988  -5.8928  -5.6251  -5.5341
    -5.3734  -5.1968  -5.1847  -5.0265  -4.9365  -4.8543  -4.5882  -4.3394
    -4.3266  -4.1521  -4.0869  -4.0306  -3.9024  -3.6710  -3.6424  -3.3710
    -3.3285  -3.1711  -2.9721  -2.9573  -2.7499  -2.5596  -2.2744  -2.1924
    -2.1000  -2.0205  -1.8792  -1.8292  -1.6180  -1.5386  -1.4641  -1.4532
    -1.3424  -1.0786  -0.9318  -0.7877  -0.7190  -0.6417  -0.5772  -0.4836
    -0.4051  -0.3097   0.1195   0.3272   0.5102   0.5733   0.6641   0.7080
     1.2033   1.3614   1.4292   1.6105   1.7126   1.8872   5.5301   5.9904

          k = 0.2500-0.2370 0.0000 ( 38832 PWs)   bands (ev):

   -96.2032 -96.0905 -96.0685 -95.9959 -95.5901 -95.5568 -59.5356 -59.5021
   -59.4741 -59.4307 -59.4149 -59.3750 -59.3439 -59.3300 -59.2786 -59.2182
   -59.1992 -59.1467 -59.0124 -58.9786 -58.9230 -58.8130 -58.8063 -58.7408
   -19.4423 -19.2307 -18.9839 -18.8642 -18.8058 -18.6003 -18.3011 -18.1784
   -18.1221 -18.0806 -17.6363 -17.4214  -7.1097  -6.8136  -6.5193  -6.5153
    -6.4433  -6.2871  -6.1507  -5.8299  -5.8259  -5.7612  -5.6468  -5.6364
    -5.5932  -5.4898  -5.4320  -5.2416  -5.0421  -4.8400  -4.7065  -4.6142
    -4.5142  -4.3552  -4.2019  -4.1420  -4.0527  -3.8241  -3.7317  -3.3528
    -3.2389  -3.0433  -2.8704  -2.7628  -2.7524  -2.5000  -2.2992  -2.2558
    -2.0912  -1.8962  -1.6650  -1.6330  -1.6081  -1.5414  -1.4313  -1.4261
    -1.3607  -1.1779  -0.9645  -0.7452  -0.6855  -0.6795  -0.6315  -0.4980
    -0.4732  -0.4372   0.2136   0.2607   0.4739   0.4914   0.5367   0.5732
     1.2194   1.4553   1.5161   1.8046   1.8560   1.9875   5.7108   6.2641

          k = 0.2500-0.1185 0.0000 ( 38814 PWs)   bands (ev):

   -96.2032 -96.0905 -96.0685 -95.9959 -95.5901 -95.5568 -59.5356 -59.5021
   -59.4740 -59.4307 -59.4150 -59.3749 -59.3439 -59.3300 -59.2786 -59.2182
   -59.1992 -59.1467 -59.0124 -58.9786 -58.9230 -58.8130 -58.8063 -58.7408
   -19.5766 -19.1691 -19.0745 -18.9166 -18.6293 -18.4617 -18.2696 -18.1997
   -18.1444 -18.1097 -17.6516 -17.4290  -7.1983  -6.9457  -6.8808  -6.8466
    -6.4826  -6.2988  -6.2250  -6.1024  -5.9988  -5.8928  -5.6251  -5.5341
    -5.3734  -5.1968  -5.1847  -5.0265  -4.9365  -4.8543  -4.5882  -4.3394
    -4.3266  -4.1521  -4.0869  -4.0306  -3.9024  -3.6710  -3.6424  -3.3710
    -3.3285  -3.1711  -2.9721  -2.9573  -2.7499  -2.5596  -2.2744  -2.1924
    -2.1000  -2.0205  -1.8792  -1.8292  -1.6180  -1.5386  -1.4641  -1.4532
    -1.3424  -1.0786  -0.9318  -0.7877  -0.7190  -0.6417  -0.5772  -0.4836
    -0.4051  -0.3097   0.1195   0.3272   0.5102   0.5733   0.6641   0.7080
     1.2033   1.3614   1.4292   1.6105   1.7126   1.8872   5.5301   5.9904

          k = 0.3750 0.0000 0.0000 ( 38844 PWs)   bands (ev):

   -96.2027 -96.0900 -96.0680 -95.9954 -95.5896 -95.5563 -59.5460 -59.5014
   -59.4834 -59.4408 -59.4137 -59.3743 -59.3533 -59.3293 -59.2780 -59.2168
   -59.1978 -59.1455 -59.0224 -58.9886 -58.9217 -58.8117 -58.8056 -58.7402
   -19.2385 -18.9121 -18.8329 -18.7130 -18.4987 -18.2762 -18.2458 -18.2423
   -18.2024 -18.1415 -17.6894 -17.4135  -7.1138  -6.8915  -6.8605  -6.7482
    -6.5756  -6.4940  -6.3459  -6.2606  -6.1066  -6.0511  -5.8772  -5.8620
    -5.6183  -5.4754  -5.3328  -5.2141  -4.9167  -4.6903  -4.5284  -4.4679
    -4.3679  -4.2107  -4.1162  -3.6902  -3.6446  -3.5773  -3.3942  -3.3888
    -3.2290  -3.1813  -3.1468  -2.8762  -2.6528  -2.6037  -2.4632  -2.4516
    -2.3515  -2.2042  -2.1730  -2.0118  -1.9405  -1.9088  -1.6139  -1.2611
    -1.0549  -0.9494  -0.8488  -0.8046  -0.7415  -0.6276  -0.5231  -0.3851
    -0.3006  -0.2194  -0.0926   0.0054   0.2969   0.6562   0.7252   0.7936
     0.9722   1.0188   1.1770   1.1906   1.4141   1.7725   6.4225   6.9789

          k = 0.3750 0.1185 0.0000 ( 38855 PWs)   bands (ev):

   -96.2027 -96.0900 -96.0680 -95.9954 -95.5896 -95.5563 -59.5460 -59.5014
   -59.4834 -59.4408 -59.4137 -59.3743 -59.3533 -59.3293 -59.2780 -59.2168
   -59.1978 -59.1455 -59.0224 -58.9886 -58.9217 -58.8117 -58.8056 -58.7402
   -19.1909 -18.8506 -18.8308 -18.6983 -18.5126 -18.3839 -18.2792 -18.2376
   -18.1910 -18.1680 -17.6836 -17.4111  -6.9189  -6.9007  -6.6793  -6.6502
    -6.5051  -6.4522  -6.4343  -6.3619  -6.1823  -6.1352  -5.8005  -5.6614
    -5.4696  -5.3898  -5.2796  -5.2256  -4.9311  -4.8123  -4.7013  -4.4934
    -4.3435  -4.3268  -4.1307  -3.9340  -3.6571  -3.6244  -3.5440  -3.4666
    -3.2978  -3.1246  -3.0952  -2.8970  -2.6609  -2.4694  -2.4439  -2.3850
    -2.3233  -2.1246  -2.1103  -2.0044  -1.9311  -1.9213  -1.7185  -1.4832
    -1.4385  -1.0778  -0.9197  -0.7285  -0.6426  -0.5459  -0.5116  -0.3284
    -0.2798  -0.2389  -0.0090   0.0265   0.0722   0.3291   0.3434   0.3583
     1.0116   1.3920   1.5187   1.7212   1.7779   1.8416   6.5150   7.1045

          k = 0.3750-0.2370 0.0000 ( 38886 PWs)   bands (ev):

   -96.2027 -96.0900 -96.0680 -95.9953 -95.5896 -95.5563 -59.5460 -59.5014
   -59.4835 -59.4408 -59.4136 -59.3743 -59.3533 -59.3293 -59.2780 -59.2168
   -59.1978 -59.1455 -59.0224 -58.9886 -58.9217 -58.8117 -58.8056 -58.7402
   -19.1270 -18.8746 -18.7249 -18.6538 -18.5942 -18.4455 -18.3305 -18.2605
   -18.2108 -18.1595 -17.6787 -17.4089  -6.8555  -6.8380  -6.6747  -6.5965
    -6.5419  -6.3931  -6.3722  -6.0797  -6.0724  -5.8480  -5.6897  -5.6611
    -5.5774  -5.5292  -5.3721  -5.2462  -5.0844  -4.9026  -4.7964  -4.6086
    -4.4065  -4.3135  -4.0601  -3.8794  -3.8532  -3.7427  -3.7211  -3.4007
    -3.3015  -3.2343  -3.0826  -2.9527  -2.5193  -2.3802  -2.3688  -2.2738
    -2.1836  -2.0531  -2.0466  -2.0094  -1.9701  -1.9294  -1.8769  -1.7822
    -1.5346  -1.3813  -0.8932  -0.8002  -0.5543  -0.4937  -0.4270  -0.3993
    -0.2887  -0.2849  -0.1500   0.0675   0.0918   0.1192   0.1278   0.3482
     1.0155   1.4204   1.7347   1.9677   2.0378   2.1138   6.6221   7.2666

          k = 0.3750-0.1185 0.0000 ( 38855 PWs)   bands (ev):

   -96.2027 -96.0900 -96.0680 -95.9954 -95.5896 -95.5563 -59.5460 -59.5014
   -59.4834 -59.4408 -59.4137 -59.3743 -59.3533 -59.3293 -59.2780 -59.2168
   -59.1978 -59.1455 -59.0224 -58.9886 -58.9217 -58.8117 -58.8056 -58.7402
   -19.1909 -18.8506 -18.8308 -18.6983 -18.5126 -18.3839 -18.2792 -18.2376
   -18.1910 -18.1680 -17.6836 -17.4111  -6.9189  -6.9007  -6.6793  -6.6502
    -6.5051  -6.4522  -6.4343  -6.3619  -6.1823  -6.1352  -5.8005  -5.6614
    -5.4696  -5.3898  -5.2796  -5.2256  -4.9311  -4.8123  -4.7013  -4.4934
    -4.3435  -4.3268  -4.1307  -3.9340  -3.6571  -3.6244  -3.5440  -3.4666
    -3.2978  -3.1246  -3.0952  -2.8970  -2.6609  -2.4694  -2.4439  -2.3850
    -2.3233  -2.1246  -2.1103  -2.0044  -1.9311  -1.9213  -1.7185  -1.4832
    -1.4385  -1.0778  -0.9197  -0.7285  -0.6426  -0.5459  -0.5116  -0.3284
    -0.2798  -0.2389  -0.0090   0.0265   0.0722   0.3291   0.3434   0.3583
     1.0116   1.3920   1.5187   1.7212   1.7779   1.8416   6.5150   7.1046

          k =-0.5000 0.0000 0.0000 ( 38896 PWs)   bands (ev):

   -96.2025 -96.0898 -96.0678 -95.9952 -95.5894 -95.5561 -59.5503 -59.5012
   -59.4873 -59.4449 -59.4132 -59.3741 -59.3572 -59.3290 -59.2777 -59.2163
   -59.1973 -59.1449 -59.0266 -58.9927 -58.9212 -58.8111 -58.8053 -58.7399
   -18.9740 -18.7509 -18.7110 -18.6128 -18.6034 -18.3610 -18.2347 -18.2137
   -18.1977 -18.1393 -17.6976 -17.4019  -7.1966  -6.9445  -6.9293  -6.5594
    -6.5287  -6.4266  -6.3717  -6.3479  -6.2860  -6.0839  -6.0393  -5.7797
    -5.7218  -5.4858  -5.4487  -5.1436  -4.8118  -4.8008  -4.6282  -4.4953
    -4.4717  -4.4492  -3.6558  -3.5979  -3.5516  -3.3968  -3.3774  -3.3517
    -3.3081  -3.2729  -3.0080  -2.9734  -2.7683  -2.6724  -2.4982  -2.4962
    -2.4536  -2.3488  -2.2931  -2.2583  -2.2076  -2.1440  -1.4563  -1.1433
    -1.1266  -0.9282  -0.8756  -0.8714  -0.8487  -0.5301  -0.3914  -0.3748
    -0.1732  -0.1100  -0.1043  -0.0902   0.1838   0.5847   0.6265   0.7991
     0.9817   1.0025   1.0775   1.1107   1.3789   1.8039   7.1649   7.9273

          k =-0.5000 0.1185 0.0000 ( 38866 PWs)   bands (ev):

   -96.2025 -96.0898 -96.0678 -95.9952 -95.5894 -95.5561 -59.5503 -59.5012
   -59.4873 -59.4449 -59.4132 -59.3740 -59.3572 -59.3290 -59.2777 -59.2163
   -59.1973 -59.1449 -59.0265 -58.9927 -58.9212 -58.8111 -58.8053 -58.7399
   -18.9673 -18.6990 -18.6582 -18.6098 -18.5662 -18.3431 -18.2936 -18.2557
   -18.2323 -18.2012 -17.6976 -17.4018  -7.0743  -7.0586  -6.8465  -6.7229
    -6.6519  -6.4342  -6.3538  -6.2418  -6.2383  -6.1730  -5.7065  -5.5965
    -5.4758  -5.2710  -5.1295  -5.0331  -5.0039  -4.8612  -4.7760  -4.7165
    -4.7100  -4.3816  -3.8677  -3.6243  -3.6002  -3.5616  -3.3682  -3.3272
    -3.2238  -3.1737  -3.1091  -2.9877  -2.7282  -2.5212  -2.5008  -2.5003
    -2.4913  -2.2993  -2.2820  -2.2594  -2.2102  -2.0920  -1.6488  -1.5728
    -1.4230  -1.2009  -1.1319  -0.8739  -0.4589  -0.3688  -0.3505  -0.3473
    -0.2064  -0.1446  -0.1090  -0.0549   0.0824   0.1864   0.2056   0.2151
     0.9827   1.4002   1.6200   1.7661   1.8281   1.8305   7.2548   8.0033

          k =-0.5000-0.2370 0.0000 ( 38900 PWs)   bands (ev):

   -96.2025 -96.0898 -96.0678 -95.9952 -95.5894 -95.5561 -59.5503 -59.5012
   -59.4873 -59.4449 -59.4131 -59.3740 -59.3572 -59.3290 -59.2777 -59.2163
   -59.1973 -59.1449 -59.0265 -58.9927 -58.9212 -58.8111 -58.8053 -58.7399
   -18.9602 -18.6248 -18.6166 -18.5694 -18.5210 -18.3592 -18.3164 -18.3146
   -18.3105 -18.2615 -17.6977 -17.4016  -7.0874  -6.9730  -6.9298  -6.8900
    -6.7777  -6.2851  -6.2808  -6.2380  -5.8859  -5.6649  -5.6303  -5.5248
    -5.4047  -5.3466  -5.2303  -5.1952  -5.1810  -4.9806  -4.6954  -4.5904
    -4.4472  -4.2968  -4.0819  -3.9568  -3.8737  -3.5494  -3.4406  -3.3513
    -3.3282  -3.3144  -2.9203  -2.8507  -2.5537  -2.5038  -2.4972  -2.4924
    -2.3380  -2.2905  -2.2608  -2.2110  -2.1276  -1.9723  -1.9430  -1.8751
    -1.7633  -1.6496  -1.1289  -0.9022  -0.4817  -0.3321  -0.3178  -0.2884
    -0.2652  -0.2162  -0.1108  -0.0878  -0.0631  -0.0108   0.1881   0.2469
     0.9837   1.4211   1.8516   2.0464   2.1080   2.1838   7.3508   8.0852

          k =-0.5000-0.1185 0.0000 ( 38866 PWs)   bands (ev):

   -96.2025 -96.0898 -96.0678 -95.9952 -95.5894 -95.5561 -59.5503 -59.5012
   -59.4873 -59.4449 -59.4132 -59.3740 -59.3572 -59.3290 -59.2777 -59.2163
   -59.1973 -59.1449 -59.0265 -58.9927 -58.9212 -58.8111 -58.8053 -58.7399
   -18.9673 -18.6990 -18.6582 -18.6098 -18.5662 -18.3431 -18.2936 -18.2557
   -18.2323 -18.2012 -17.6976 -17.4018  -7.0743  -7.0586  -6.8465  -6.7229
    -6.6519  -6.4342  -6.3538  -6.2418  -6.2383  -6.1730  -5.7065  -5.5965
    -5.4758  -5.2710  -5.1295  -5.0331  -5.0039  -4.8612  -4.7760  -4.7165
    -4.7100  -4.3816  -3.8677  -3.6243  -3.6002  -3.5616  -3.3682  -3.3272
    -3.2238  -3.1737  -3.1091  -2.9877  -2.7282  -2.5212  -2.5008  -2.5003
    -2.4913  -2.2993  -2.2820  -2.2594  -2.2102  -2.0920  -1.6488  -1.5728
    -1.4230  -1.2009  -1.1319  -0.8739  -0.4589  -0.3688  -0.3505  -0.3473
    -0.2064  -0.1446  -0.1090  -0.0549   0.0824   0.1864   0.2056   0.2151
     0.9827   1.4002   1.6200   1.7661   1.8281   1.8305   7.2548   8.0033

          k =-0.3750 0.0000 0.0000 ( 38844 PWs)   bands (ev):

   -96.2027 -96.0900 -96.0680 -95.9954 -95.5896 -95.5563 -59.5460 -59.5014
   -59.4834 -59.4408 -59.4137 -59.3743 -59.3533 -59.3293 -59.2780 -59.2168
   -59.1978 -59.1455 -59.0224 -58.9886 -58.9217 -58.8117 -58.8056 -58.7402
   -19.2385 -18.9121 -18.8329 -18.7130 -18.4987 -18.2762 -18.2458 -18.2423
   -18.2024 -18.1415 -17.6894 -17.4135  -7.1138  -6.8915  -6.8605  -6.7482
    -6.5756  -6.4940  -6.3459  -6.2606  -6.1066  -6.0511  -5.8772  -5.8620
    -5.6183  -5.4754  -5.3328  -5.2141  -4.9167  -4.6903  -4.5284  -4.4679
    -4.3679  -4.2107  -4.1162  -3.6902  -3.6446  -3.5773  -3.3942  -3.3888
    -3.2290  -3.1813  -3.1468  -2.8762  -2.6528  -2.6037  -2.4632  -2.4516
    -2.3515  -2.2042  -2.1730  -2.0118  -1.9405  -1.9088  -1.6139  -1.2611
    -1.0549  -0.9494  -0.8488  -0.8046  -0.7415  -0.6276  -0.5231  -0.3851
    -0.3006  -0.2194  -0.0926   0.0054   0.2969   0.6562   0.7252   0.7936
     0.9722   1.0188   1.1770   1.1906   1.4141   1.7725   6.4225   6.9789

          k =-0.3750 0.1185 0.0000 ( 38855 PWs)   bands (ev):

   -96.2027 -96.0900 -96.0680 -95.9954 -95.5896 -95.5563 -59.5460 -59.5014
   -59.4834 -59.4408 -59.4137 -59.3743 -59.3533 -59.3293 -59.2780 -59.2168
   -59.1978 -59.1455 -59.0224 -58.9886 -58.9217 -58.8117 -58.8056 -58.7402
   -19.1909 -18.8506 -18.8308 -18.6983 -18.5126 -18.3839 -18.2792 -18.2376
   -18.1910 -18.1680 -17.6836 -17.4111  -6.9189  -6.9007  -6.6793  -6.6502
    -6.5051  -6.4522  -6.4343  -6.3619  -6.1823  -6.1352  -5.8005  -5.6614
    -5.4696  -5.3898  -5.2796  -5.2256  -4.9311  -4.8123  -4.7013  -4.4934
    -4.3435  -4.3268  -4.1307  -3.9340  -3.6571  -3.6244  -3.5440  -3.4666
    -3.2978  -3.1246  -3.0952  -2.8970  -2.6609  -2.4694  -2.4439  -2.3850
    -2.3233  -2.1246  -2.1103  -2.0044  -1.9311  -1.9213  -1.7185  -1.4832
    -1.4385  -1.0778  -0.9197  -0.7285  -0.6426  -0.5459  -0.5116  -0.3284
    -0.2798  -0.2389  -0.0090   0.0265   0.0722   0.3291   0.3434   0.3583
     1.0116   1.3920   1.5187   1.7212   1.7779   1.8416   6.5150   7.1045

          k =-0.3750-0.2370 0.0000 ( 38886 PWs)   bands (ev):

   -96.2027 -96.0900 -96.0680 -95.9953 -95.5896 -95.5563 -59.5460 -59.5014
   -59.4835 -59.4408 -59.4136 -59.3743 -59.3533 -59.3293 -59.2780 -59.2168
   -59.1978 -59.1455 -59.0224 -58.9886 -58.9217 -58.8117 -58.8056 -58.7402
   -19.1270 -18.8746 -18.7249 -18.6538 -18.5942 -18.4455 -18.3305 -18.2605
   -18.2108 -18.1595 -17.6787 -17.4089  -6.8555  -6.8380  -6.6747  -6.5965
    -6.5419  -6.3931  -6.3722  -6.0797  -6.0724  -5.8480  -5.6897  -5.6611
    -5.5774  -5.5292  -5.3721  -5.2462  -5.0844  -4.9026  -4.7964  -4.6086
    -4.4065  -4.3135  -4.0601  -3.8794  -3.8532  -3.7427  -3.7211  -3.4007
    -3.3015  -3.2343  -3.0826  -2.9527  -2.5193  -2.3802  -2.3688  -2.2738
    -2.1836  -2.0531  -2.0466  -2.0094  -1.9701  -1.9294  -1.8769  -1.7822
    -1.5346  -1.3813  -0.8932  -0.8002  -0.5543  -0.4937  -0.4270  -0.3993
    -0.2887  -0.2849  -0.1500   0.0675   0.0918   0.1192   0.1278   0.3482
     1.0155   1.4204   1.7347   1.9677   2.0378   2.1138   6.6221   7.2666

          k =-0.3750-0.1185 0.0000 ( 38855 PWs)   bands (ev):

   -96.2027 -96.0900 -96.0680 -95.9954 -95.5896 -95.5563 -59.5460 -59.5014
   -59.4834 -59.4408 -59.4137 -59.3743 -59.3533 -59.3293 -59.2780 -59.2168
   -59.1978 -59.1455 -59.0224 -58.9886 -58.9217 -58.8117 -58.8056 -58.7402
   -19.1909 -18.8506 -18.8308 -18.6983 -18.5126 -18.3839 -18.2792 -18.2376
   -18.1910 -18.1680 -17.6836 -17.4111  -6.9189  -6.9007  -6.6793  -6.6502
    -6.5051  -6.4522  -6.4343  -6.3619  -6.1823  -6.1352  -5.8005  -5.6614
    -5.4696  -5.3898  -5.2796  -5.2256  -4.9311  -4.8123  -4.7013  -4.4934
    -4.3435  -4.3268  -4.1307  -3.9340  -3.6571  -3.6244  -3.5440  -3.4666
    -3.2978  -3.1246  -3.0952  -2.8970  -2.6609  -2.4694  -2.4439  -2.3850
    -2.3233  -2.1246  -2.1103  -2.0044  -1.9311  -1.9213  -1.7185  -1.4832
    -1.4385  -1.0778  -0.9197  -0.7285  -0.6426  -0.5459  -0.5116  -0.3284
    -0.2798  -0.2389  -0.0090   0.0265   0.0722   0.3291   0.3434   0.3583
     1.0116   1.3920   1.5187   1.7212   1.7779   1.8416   6.5150   7.1046

          k =-0.2500 0.0000 0.0000 ( 38776 PWs)   bands (ev):

   -96.2032 -96.0906 -96.0686 -95.9959 -95.5901 -95.5568 -59.5356 -59.5021
   -59.4740 -59.4307 -59.4151 -59.3748 -59.3439 -59.3300 -59.2786 -59.2182
   -59.1992 -59.1467 -59.0124 -58.9786 -58.9230 -58.8130 -58.8063 -58.7408
   -19.6540 -19.2525 -19.0501 -18.9040 -18.4886 -18.3297 -18.2609 -18.2142
   -18.1897 -18.1470 -17.6690 -17.4371  -7.3437  -7.1778  -7.1069  -6.9602
    -6.5266  -6.3208  -6.3125  -6.0493  -6.0423  -5.8701  -5.6836  -5.5066
    -5.3555  -5.1558  -5.0917  -5.0695  -4.8213  -4.7165  -4.4703  -4.3640
    -4.2895  -3.7479  -3.7114  -3.6655  -3.6434  -3.6197  -3.5018  -3.4785
    -3.3381  -3.1836  -3.1664  -3.1523  -2.7255  -2.6496  -2.3966  -2.2520
    -2.1380  -2.1031  -2.0992  -1.9502  -1.5534  -1.5483  -1.5019  -1.3835
    -1.3793  -1.1680  -0.8000  -0.7708  -0.7219  -0.6595  -0.5197  -0.4498
    -0.3193  -0.1972  -0.0576   0.2974   0.5837   0.7400   0.8687   0.9063
     0.9868   1.2043   1.4196   1.4242   1.5279   1.7962   5.3917   5.8147

          k =-0.2500 0.1185 0.0000 ( 38814 PWs)   bands (ev):

   -96.2032 -96.0905 -96.0685 -95.9959 -95.5901 -95.5568 -59.5356 -59.5021
   -59.4740 -59.4307 -59.4150 -59.3749 -59.3439 -59.3300 -59.2786 -59.2182
   -59.1992 -59.1467 -59.0124 -58.9786 -58.9230 -58.8130 -58.8063 -58.7408
   -19.5766 -19.1691 -19.0745 -18.9166 -18.6293 -18.4617 -18.2696 -18.1997
   -18.1444 -18.1097 -17.6516 -17.4290  -7.1983  -6.9457  -6.8808  -6.8466
    -6.4826  -6.2988  -6.2250  -6.1024  -5.9988  -5.8928  -5.6251  -5.5341
    -5.3734  -5.1968  -5.1847  -5.0265  -4.9365  -4.8543  -4.5882  -4.3394
    -4.3266  -4.1521  -4.0869  -4.0306  -3.9024  -3.6710  -3.6424  -3.3710
    -3.3285  -3.1711  -2.9721  -2.9573  -2.7499  -2.5596  -2.2744  -2.1924
    -2.1000  -2.0205  -1.8792  -1.8292  -1.6180  -1.5386  -1.4641  -1.4532
    -1.3424  -1.0786  -0.9318  -0.7877  -0.7190  -0.6417  -0.5772  -0.4836
    -0.4051  -0.3097   0.1195   0.3272   0.5102   0.5733   0.6641   0.7080
     1.2033   1.3614   1.4292   1.6105   1.7126   1.8872   5.5301   5.9904

          k =-0.2500-0.2370 0.0000 ( 38832 PWs)   bands (ev):

   -96.2032 -96.0905 -96.0685 -95.9959 -95.5901 -95.5568 -59.5356 -59.5021
   -59.4741 -59.4307 -59.4149 -59.3750 -59.3439 -59.3300 -59.2786 -59.2182
   -59.1992 -59.1467 -59.0124 -58.9786 -58.9230 -58.8130 -58.8063 -58.7408
   -19.4423 -19.2307 -18.9839 -18.8642 -18.8058 -18.6003 -18.3011 -18.1784
   -18.1221 -18.0806 -17.6363 -17.4214  -7.1097  -6.8136  -6.5193  -6.5153
    -6.4433  -6.2871  -6.1507  -5.8299  -5.8259  -5.7612  -5.6468  -5.6364
    -5.5932  -5.4898  -5.4320  -5.2416  -5.0421  -4.8400  -4.7065  -4.6142
    -4.5142  -4.3552  -4.2019  -4.1420  -4.0527  -3.8241  -3.7317  -3.3528
    -3.2389  -3.0433  -2.8704  -2.7628  -2.7524  -2.5000  -2.2992  -2.2558
    -2.0912  -1.8962  -1.6650  -1.6330  -1.6081  -1.5414  -1.4313  -1.4261
    -1.3607  -1.1779  -0.9645  -0.7452  -0.6855  -0.6795  -0.6315  -0.4980
    -0.4732  -0.4372   0.2136   0.2607   0.4739   0.4914   0.5367   0.5732
     1.2194   1.4553   1.5161   1.8046   1.8560   1.9875   5.7108   6.2641

          k =-0.2500-0.1185 0.0000 ( 38814 PWs)   bands (ev):

   -96.2032 -96.0905 -96.0685 -95.9959 -95.5901 -95.5568 -59.5356 -59.5021
   -59.4740 -59.4307 -59.4150 -59.3749 -59.3439 -59.3300 -59.2786 -59.2182
   -59.1992 -59.1467 -59.0124 -58.9786 -58.9230 -58.8130 -58.8063 -58.7408
   -19.5766 -19.1691 -19.0745 -18.9166 -18.6293 -18.4617 -18.2696 -18.1997
   -18.1444 -18.1097 -17.6516 -17.4290  -7.1983  -6.9457  -6.8808  -6.8466
    -6.4826  -6.2989  -6.2250  -6.1024  -5.9988  -5.8928  -5.6251  -5.5341
    -5.3734  -5.1968  -5.1847  -5.0265  -4.9365  -4.8543  -4.5882  -4.3394
    -4.3266  -4.1521  -4.0869  -4.0306  -3.9024  -3.6710  -3.6424  -3.3710
    -3.3285  -3.1711  -2.9721  -2.9573  -2.7499  -2.5596  -2.2744  -2.1924
    -2.1000  -2.0205  -1.8792  -1.8292  -1.6180  -1.5386  -1.4641  -1.4532
    -1.3424  -1.0786  -0.9318  -0.7877  -0.7190  -0.6417  -0.5772  -0.4836
    -0.4051  -0.3097   0.1195   0.3272   0.5102   0.5733   0.6641   0.7080
     1.2033   1.3614   1.4292   1.6105   1.7126   1.8872   5.5301   5.9904

          k =-0.1250 0.0000 0.0000 ( 38714 PWs)   bands (ev):

   -96.2038 -96.0912 -96.0692 -95.9965 -95.5907 -95.5575 -59.5250 -59.5027
   -59.4645 -59.4205 -59.4164 -59.3754 -59.3345 -59.3306 -59.2793 -59.2195
   -59.2006 -59.1480 -59.0022 -58.9686 -58.9243 -58.8143 -58.8069 -58.7415
   -19.9746 -19.5290 -19.2634 -19.0812 -18.5859 -18.3666 -18.2798 -18.2264
   -18.1811 -18.1529 -17.6449 -17.4542  -7.7837  -7.4536  -7.3624  -7.2133
    -6.7490  -6.3271  -5.9654  -5.9574  -5.8523  -5.7003  -5.6730  -5.5101
    -5.2861  -4.8290  -4.7583  -4.5252  -4.4065  -4.1056  -4.1036  -4.0377
    -3.9520  -3.9091  -3.8489  -3.7195  -3.6608  -3.5901  -3.2965  -3.2455
    -3.2163  -3.1536  -3.0307  -2.7829  -2.6313  -2.4840  -2.4485  -2.3347
    -2.3329  -2.2557  -2.1325  -1.9498  -1.7927  -1.7867  -1.5691  -1.4960
    -1.2965  -1.2589  -1.0734  -1.0239  -0.8838  -0.5068  -0.3124  -0.3080
    -0.2270  -0.1180  -0.0140   0.3321   0.6092   0.7904   1.0318   1.3682
     1.3732   1.6346   1.7310   1.7577   1.7768   1.9652   4.6332   5.0161

          k =-0.1250 0.1185 0.0000 ( 38773 PWs)   bands (ev):

   -96.2038 -96.0912 -96.0692 -95.9965 -95.5907 -95.5575 -59.5250 -59.5027
   -59.4645 -59.4206 -59.4163 -59.3755 -59.3345 -59.3306 -59.2793 -59.2195
   -59.2006 -59.1480 -59.0022 -58.9686 -58.9243 -58.8143 -58.8069 -58.7415
   -19.8820 -19.4333 -19.2874 -19.1211 -18.7912 -18.5441 -18.2651 -18.1829
   -18.1341 -18.0712 -17.6202 -17.4414  -7.6252  -7.2203  -7.2081  -7.1210
    -6.7369  -6.3578  -5.9774  -5.8493  -5.7601  -5.6651  -5.6060  -5.3894
    -5.2665  -4.9524  -4.6757  -4.5780  -4.4820  -4.4387  -4.3744  -4.2934
    -4.2594  -4.1678  -4.0940  -3.9453  -3.7661  -3.6871  -3.4890  -3.3552
    -3.3216  -2.9674  -2.8269  -2.7589  -2.5399  -2.3590  -2.3485  -2.2636
    -2.1198  -2.0416  -1.9253  -1.8463  -1.7930  -1.6259  -1.4900  -1.4605
    -1.3643  -1.3183  -1.2370  -1.0101  -0.9669  -0.5417  -0.4510  -0.3108
    -0.2174  -0.1308  -0.0195   0.5465   0.7478   0.9081   1.0691   1.2123
     1.4528   1.6354   1.6620   1.7265   1.7843   1.9665   4.8268   5.2295

          k =-0.1250-0.2370 0.0000 ( 38716 PWs)   bands (ev):

   -96.2038 -96.0912 -96.0692 -95.9965 -95.5907 -95.5575 -59.5250 -59.5027
   -59.4645 -59.4206 -59.4161 -59.3756 -59.3345 -59.3306 -59.2792 -59.2195
   -59.2006 -59.1480 -59.0022 -58.9686 -58.9244 -58.8143 -58.8069 -58.7415
   -19.7058 -19.5097 -19.2032 -19.0943 -18.9685 -18.7589 -18.2793 -18.1400
   -18.0772 -18.0444 -17.5974 -17.4290  -7.4914  -7.1213  -6.8933  -6.8092
    -6.7521  -6.4217  -5.9829  -5.7389  -5.6736  -5.5406  -5.5221  -5.3077
    -5.0944  -4.9236  -4.8998  -4.8575  -4.7992  -4.7438  -4.6358  -4.5907
    -4.5567  -4.3373  -4.1306  -4.0379  -3.9677  -3.7672  -3.6918  -3.3748
    -3.3368  -2.7569  -2.6322  -2.5318  -2.4360  -2.3497  -2.3370  -2.2943
    -2.0427  -1.8732  -1.7497  -1.7461  -1.6381  -1.5546  -1.5543  -1.4652
    -1.4087  -1.3183  -1.2755  -0.9680  -0.8783  -0.6996  -0.5396  -0.4810
    -0.2409  -0.2236   0.1597   0.7259   0.7399   0.9542   1.0733   1.1879
     1.5294   1.6468   1.6775   1.7176   1.7817   1.8977   5.1010   5.5934

          k =-0.1250-0.1185 0.0000 ( 38773 PWs)   bands (ev):

   -96.2038 -96.0912 -96.0692 -95.9965 -95.5907 -95.5575 -59.5250 -59.5027
   -59.4645 -59.4206 -59.4163 -59.3755 -59.3345 -59.3306 -59.2793 -59.2195
   -59.2006 -59.1480 -59.0022 -58.9686 -58.9243 -58.8143 -58.8069 -58.7415
   -19.8820 -19.4333 -19.2874 -19.1211 -18.7912 -18.5441 -18.2651 -18.1829
   -18.1341 -18.0712 -17.6202 -17.4414  -7.6252  -7.2203  -7.2081  -7.1210
    -6.7369  -6.3578  -5.9774  -5.8493  -5.7601  -5.6651  -5.6060  -5.3894
    -5.2665  -4.9524  -4.6757  -4.5780  -4.4820  -4.4387  -4.3744  -4.2934
    -4.2594  -4.1678  -4.0940  -3.9453  -3.7661  -3.6871  -3.4890  -3.3552
    -3.3216  -2.9674  -2.8269  -2.7589  -2.5399  -2.3590  -2.3485  -2.2636
    -2.1198  -2.0416  -1.9253  -1.8463  -1.7930  -1.6259  -1.4900  -1.4605
    -1.3643  -1.3183  -1.2370  -1.0101  -0.9669  -0.5417  -0.4510  -0.3108
    -0.2174  -0.1308  -0.0195   0.5465   0.7478   0.9081   1.0691   1.2123
     1.4528   1.6354   1.6620   1.7265   1.7843   1.9665   4.8268   5.2295

     the Fermi energy is    -1.1912 ev

!    total energy              =   -2289.69344079 Ry
     estimated scf accuracy    <       0.00000075 Ry
     smearing contrib. (-TS)   =       0.00153524 Ry
     internal energy E=F+TS    =   -2289.69497603 Ry

     The total energy is F=E-TS. E is the sum of the following terms:
     one-electron contribution =  -19816.27073207 Ry
     hartree contribution      =    9930.17247817 Ry
     xc contribution           =    -282.64843560 Ry
     ewald contribution        =    7992.89473280 Ry
     Hubbard energy            =       0.49290759 Ry
     one-center paw contrib.   =    -114.33592691 Ry

     total magnetization       =    10.39 Bohr mag/cell
     absolute magnetization    =    10.91 Bohr mag/cell

     convergence has been achieved in  51 iterations

     negative rho (up, down):  2.381E-04 1.713E-04
     force_hub    :     65.87s CPU     66.15s WALL (       1 calls)
     dndtau       :     52.71s CPU     52.80s WALL (     864 calls)
     dprojdtau    :      4.52s CPU      4.53s WALL (    5184 calls)
     matel_dSdtau :     48.12s CPU     48.21s WALL (     864 calls)

     Forces acting on atoms (cartesian axes, Ry/au):

     atom    1 type  1   force =    -0.00000004   -0.00000550    0.06543990
     atom    2 type  1   force =    -0.00000001    0.00000716   -0.01004801
     atom    3 type  1   force =    -0.00000010   -0.00114022   -0.00896640
     atom    4 type  1   force =     0.00000001   -0.00018002   -0.04080701
     atom    5 type  1   force =     0.00000002   -0.00004220   -0.01431498
     atom    6 type  1   force =     0.00000020    0.00006779   -0.00610899
     atom    7 type  2   force =    -0.00000000   -0.00018841   -0.00920758
     atom    8 type  2   force =    -0.00000004   -0.00000737    0.05966167
     atom    9 type  2   force =     0.00000000    0.01659248   -0.03192941
     atom   10 type  2   force =    -0.00000001   -0.01658911   -0.03192395
     atom   11 type  2   force =    -0.00000001   -0.00037584    0.00940054
     atom   12 type  2   force =    -0.00000002   -0.00002076    0.03069267
     atom   13 type  2   force =     0.00000001    0.00846314   -0.00043444
     atom   14 type  2   force =     0.00000000   -0.00672532    0.00042970
     atom   15 type  2   force =    -0.00000001   -0.00002040   -0.00026179
     atom   16 type  2   force =    -0.00000002    0.00019658   -0.00839563
     atom   17 type  2   force =     0.00000003    0.00975271   -0.00158177
     atom   18 type  2   force =    -0.00000004   -0.00978471   -0.00164453

     Total force =     0.025354     Total SCF correction =     0.002468

     Writing all to output data dir ./tmp_slab__u0.5/slab__u0.5.save/ :
     XML data file, charge density, pseudopotentials, collected wavefunctions

     init_run     :    137.13s CPU    141.13s WALL (       1 calls)
     electrons    :  10814.99s CPU  11022.43s WALL (       1 calls)
     forces       :     90.99s CPU     92.35s WALL (       1 calls)

     Called by init_run:
     wfcinit      :    105.21s CPU    107.99s WALL (       1 calls)
     potinit      :      5.82s CPU      6.35s WALL (       1 calls)
     hinit0       :      3.69s CPU      3.81s WALL (       1 calls)

     Called by electrons:
     c_bands      :   8412.50s CPU   8555.07s WALL (      51 calls)
     sum_band     :   1868.72s CPU   1899.95s WALL (      51 calls)
     v_of_rho     :    131.15s CPU    139.85s WALL (      52 calls)
     newd         :     78.73s CPU    100.87s WALL (      52 calls)
     PAW_pot      :     49.08s CPU     49.11s WALL (      52 calls)
     mix_rho      :    266.93s CPU    270.53s WALL (      51 calls)

     Called by c_bands:
     init_us_2    :    145.93s CPU    146.52s WALL (    1696 calls)
     cegterg      :   7710.24s CPU   7848.57s WALL (     816 calls)

     Called by *egterg:
     cdiaghg      :     33.99s CPU     34.05s WALL (    2193 calls)
     h_psi        :   6169.09s CPU   6229.81s WALL (    2209 calls)
     s_psi        :    343.13s CPU    343.22s WALL (    2241 calls)
     g_psi        :     47.67s CPU     47.74s WALL (    1377 calls)

     Called by h_psi:
     h_psi:calbec :    357.24s CPU    358.24s WALL (    2209 calls)
     vloc_psi     :   5261.93s CPU   5269.04s WALL (    2209 calls)
                                        0.00s GPU  (    2209 calls)
     add_vuspsi   :    336.84s CPU    336.91s WALL (    2209 calls)
     vhpsi        :    179.63s CPU    180.40s WALL (    2209 calls)

     General routines
     calbec       :    681.00s CPU    683.00s WALL (    9618 calls)
     fft          :     49.24s CPU     49.27s WALL (    1313 calls)
     ffts         :     92.33s CPU     92.41s WALL (    6356 calls)
     fftw         :   4938.71s CPU   4943.40s WALL (  441096 calls)
     interpolate  :      8.37s CPU      8.40s WALL (     104 calls)

     Parallel routines

     Hubbard U routines
     new_ns       :     51.84s CPU     53.85s WALL (      51 calls)
     vhpsi        :    179.63s CPU    180.40s WALL (    2209 calls)
     force_hub    :     65.87s CPU     66.15s WALL (       1 calls)

     PWSCF        :      3h 4m CPU      3h 7m WALL


   This run was terminated on:  12: 4:51   8Aug2026            

=------------------------------------------------------------------------------=
   JOB DONE.
=------------------------------------------------------------------------------=
Note: The following floating-point exceptions are signalling: IEEE_DENORMAL
Note: The following floating-point exceptions are signalling: IEEE_DENORMAL
