
     Program PWSCF v.7.5 starts on 16Sep2026 at 21:45:11 

     This program is part of the open-source Quantum ESPRESSO suite
     for quantum simulation of materials; please cite
         "P. Giannozzi et al., J. Phys.:Condens. Matter 21 395502 (2009);
         "P. Giannozzi et al., J. Phys.:Condens. Matter 29 465901 (2017);
         "P. Giannozzi et al., J. Chem. Phys. 152 154105 (2020);
          URL http://www.quantum-espresso.org", 
     in publications or presentations arising from this work. More details at
     http://www.quantum-espresso.org/quote

     Parallel version (MPI & OpenMP), running on     128 processor cores
     Number of MPI processes:               128
     Threads/MPI process:                     1

     MPI processes distributed on     1 nodes
     142868 MiB available memory on the printing compute node when the environment starts

     Reading input from /anvil/projects/x-che260157/sts/runs/hea/branch_panel/equiatomic_pull2.10__atomic.run.in

     Current dimensions of program PWSCF are:
     Max number of different atomic species (ntypx) = 10
     Max number of k-points (npk) =  40000
     Max angular momentum in pseudopotentials (lmaxx) =  4
     file Fe.pbe-spn-kjpaw_psl.0.2.1.UPF: wavefunction(s)  3D renormalized
     file O.pbe-n-kjpaw_psl.0.1.UPF: wavefunction(s)  2P renormalized

     K-points division:     npool     =       8
     R & G space division:  proc/nbgrp/npool/nimage =      16
     Subspace diagonalization in iterative solution of the eigenvalue problem:
     one sub-group per band group will be used
     ELPA distributed-memory algorithm (size of sub-group:  4*  4 procs)


     Parallelization info
     --------------------
     sticks:   dense  smooth     PW     G-vecs:    dense   smooth      PW
     Min         851     424    113               217728    76960   10655
     Max         853     425    114               217730    76971   10662
     Sum       13625    6793   1823              3483667  1231447  170547

     Using Slab Decomposition



     bravais-lattice index     =            0
     lattice parameter (alat)  =      11.2354  a.u.
     unit-cell volume          =   12742.3381 (a.u.)^3
     number of atoms/cell      =           75
     number of atomic types    =            6
     number of electrons       =       691.00
     number of Kohn-Sham states=          415
     kinetic-energy cutoff     =      80.0000  Ry
     charge density cutoff     =     640.0000  Ry
     scf convergence threshold =      1.0E-06
     mixing beta               =       0.3000
     number of iterations used =            8  local-TF  mixing
     Exchange-correlation= PBE
                           (   1   4   3   4   0   0   0)
     Hubbard projectors: atomic
     Hubbard parameters of DFT+U (Dudarev formulation) in eV:
     U(Co-3d) =  3.3200
     U(Cr-3d) =  3.7000
     U(Fe-3d) =  5.3000
     U(Ni-3d) =  6.2000

     Internal variables: lda_plus_u =T, lda_plus_u_kind = 0

     Internal variables: orbital_resolved =F, hub_pot_fix =F, apply_U = F

     celldm(1)=  11.235367  celldm(2)=   0.000000  celldm(3)=   0.000000
     celldm(4)=   0.000000  celldm(5)=   0.000000  celldm(6)=   0.000000

     crystal axes: (cart. coord. in units of alat)
               a(1) = (   1.000000   0.000000   0.000000 )  
               a(2) = (   0.000000   2.119477   0.000000 )  
               a(3) = (   0.000000   0.000000   4.238954 )  

     reciprocal axes: (cart. coord. in units 2 pi/alat)
               b(1) = (  1.000000 -0.000000  0.000000 )  
               b(2) = (  0.000000  0.471815  0.000000 )  
               b(3) = ( -0.000000 -0.000000  0.235907 )  


     PseudoPot. # 1 for Co read from file:
     /anvil/projects/x-che260157/pseudo/Co_pbe_v1.2.uspp.F.UPF
     MD5 check sum: 5f91765df6ddd3222702df6e7b74a16d
     Pseudo is Ultrasoft + core correction, Zval = 17.0
     Generated by new atomic code, or converted to UPF format
     Using radial grid of  863 points,  6 beta functions with: 
                l(1) =   0
                l(2) =   0
                l(3) =   1
                l(4) =   1
                l(5) =   2
                l(6) =   2
     Q(r) pseudized with  8 coefficients,  rinner =    1.200   1.200   1.200
                                                       1.200   1.200

     PseudoPot. # 2 for Cr read from file:
     /anvil/projects/x-che260157/pseudo/cr_pbe_v1.5.uspp.F.UPF
     MD5 check sum: 0d52af634a40206e4dee301ad30da4bf
     Pseudo is Ultrasoft + core correction, Zval = 14.0
     Generated by new atomic code, or converted to UPF format
     Using radial grid of  857 points,  6 beta functions with: 
                l(1) =   0
                l(2) =   0
                l(3) =   1
                l(4) =   1
                l(5) =   2
                l(6) =   2
     Q(r) pseudized with  8 coefficients,  rinner =    0.950   0.950   0.950
                                                       0.950   0.950

     PseudoPot. # 3 for Fe read from file:
     /anvil/projects/x-che260157/pseudo/Fe.pbe-spn-kjpaw_psl.0.2.1.UPF
     MD5 check sum: e86618425769142926afa95317d90200
     Pseudo is Projector augmented-wave + core cor, Zval = 16.0
     Generated using "atomic" code by A. Dal Corso  v.5.0.99 svn rev. 10869
     Shape of augmentation charge: PSQ
     Using radial grid of 1191 points,  6 beta functions with: 
                l(1) =   0
                l(2) =   0
                l(3) =   1
                l(4) =   1
                l(5) =   2
                l(6) =   2
     Q(r) pseudized with 0 coefficients 


     PseudoPot. # 4 for Ni read from file:
     /anvil/projects/x-che260157/pseudo/ni_pbe_v1.4.uspp.F.UPF
     MD5 check sum: 1ee80287db30b12d2bc1f57a5b5d6409
     Pseudo is Ultrasoft + core correction, Zval = 18.0
     Generated by new atomic code, or converted to UPF format
     Using radial grid of  865 points,  6 beta functions with: 
                l(1) =   0
                l(2) =   0
                l(3) =   1
                l(4) =   1
                l(5) =   2
                l(6) =   2
     Q(r) pseudized with 10 coefficients,  rinner =    0.980   0.980   0.980
                                                       0.980   0.980

     PseudoPot. # 5 for O  read from file:
     /anvil/projects/x-che260157/pseudo/O.pbe-n-kjpaw_psl.0.1.UPF
     MD5 check sum: 0234752ac141de4415c5fc33072bef88
     Pseudo is Projector augmented-wave + core cor, Zval =  6.0
     Generated using "atomic" code by A. Dal Corso  v.5.0.99 svn rev. 10869
     Shape of augmentation charge: BESSEL
     Using radial grid of 1095 points,  4 beta functions with: 
                l(1) =   0
                l(2) =   0
                l(3) =   1
                l(4) =   1
     Q(r) pseudized with 0 coefficients 


     PseudoPot. # 6 for H  read from file:
     /anvil/projects/x-che260157/pseudo/H.pbe-rrkjus_psl.1.0.0.UPF
     MD5 check sum: f52b6d4d1c606e5624b1dc7b2218f220
     Pseudo is Ultrasoft, Zval =  1.0
     Generated using "atomic" code by A. Dal Corso  v.5.1
     Using radial grid of  929 points,  2 beta functions with: 
                l(1) =   0
                l(2) =   0
     Q(r) pseudized with 0 coefficients 


     atomic species   valence    mass     pseudopotential
     Co               17.00    58.93300     Co( 1.00)
     Cr               14.00    51.99600     Cr( 1.00)
     Fe               16.00    55.84500     Fe( 1.00)
     Ni               18.00    58.69300     Ni( 1.00)
     O                 6.00    15.99900     O ( 1.00)
     H                 1.00     1.00800     H ( 1.00)

     Starting magnetic structure 
     atomic species   magnetization
     Co              0.400
     Cr              0.600
     Fe              0.500
     Ni              0.300
     O               0.000
     H               0.000

     No symmetry found



   Cartesian axes

     site n.     atom                  positions (alat units)
         1        Cr     tau(   1) = (   0.0000000   0.2649346   1.5896077  )
         2        Cr     tau(   2) = (   0.0000000   1.3246731   1.5896077  )
         3        Cr     tau(   3) = (   0.5000000   0.2649346   1.5896077  )
         4        Ni     tau(   4) = (   0.5000000   1.3246731   1.5896077  )
         5        Ni     tau(   5) = (   0.2500000   0.7948038   1.5896077  )
         6        Co     tau(   6) = (   0.2500000   1.8545423   1.5896077  )
         7        Co     tau(   7) = (   0.7500000   0.7948038   1.5896077  )
         8        Cr     tau(   8) = (   0.7500000   1.8545423   1.5896077  )
         9        Ni     tau(   9) = (   0.0050490   0.7908041   2.1262958  )
        10        Cr     tau(  10) = (   0.0067675   1.8559971   2.1313359  )
        11        Fe     tau(  11) = (   0.5054837   0.7992747   2.1273099  )
        12        Co     tau(  12) = (   0.5026487   1.8515441   2.1392044  )
        13        Co     tau(  13) = (   0.2515840   0.2696368   2.1308542  )
        14        Ni     tau(  14) = (   0.2535231   1.3175336   2.1260013  )
        15        Fe     tau(  15) = (   0.7509292   0.2707841   2.1210876  )
        16        Ni     tau(  16) = (   0.7463403   1.3213312   2.1279512  )
        17        Cr     tau(  17) = (   0.0011421   0.2729379   2.6672805  )
        18        Ni     tau(  18) = (   0.0025437   1.3217095   2.6590046  )
        19        Co     tau(  19) = (   0.5012192   0.2736742   2.6395150  )
        20        Fe     tau(  20) = (   0.5037098   1.3245876   2.6536579  )
        21        Fe     tau(  21) = (   0.2488881   0.8125114   2.6684328  )
        22        Fe     tau(  22) = (   0.2487614   1.8462467   2.6828287  )
        23        Co     tau(  23) = (   0.7505015   0.8033279   2.6759900  )
        24        Fe     tau(  24) = (   0.7516752   1.8440524   2.6863011  )
        25        O      tau(  25) = (   0.0000000   0.7948038   1.7962567  )
        26        O      tau(  26) = (   0.0000000   1.8545423   1.7962567  )
        27        O      tau(  27) = (   0.5000000   0.7948038   1.7962567  )
        28        O      tau(  28) = (   0.5000000   1.8545423   1.7962567  )
        29        O      tau(  29) = (   0.0000000   0.7948038   1.3829587  )
        30        O      tau(  30) = (   0.0000000   1.8545423   1.3829587  )
        31        O      tau(  31) = (   0.5000000   0.7948038   1.3829587  )
        32        O      tau(  32) = (   0.5000000   1.8545423   1.3829587  )
        33        O      tau(  33) = (   0.2500000   0.0582856   1.5896077  )
        34        O      tau(  34) = (   0.2500000   1.1180241   1.5896077  )
        35        O      tau(  35) = (   0.7500000   0.0582856   1.5896077  )
        36        O      tau(  36) = (   0.7500000   1.1180241   1.5896077  )
        37        O      tau(  37) = (   0.2500000   0.4715836   1.5896077  )
        38        O      tau(  38) = (   0.2500000   1.5313221   1.5896077  )
        39        O      tau(  39) = (   0.7500000   0.4715836   1.5896077  )
        40        O      tau(  40) = (   0.7500000   1.5313221   1.5896077  )
        41        O      tau(  41) = (   0.0001461   0.2661810   2.3449260  )
        42        O      tau(  42) = (   0.0026490   1.3269936   2.3235734  )
        43        O      tau(  43) = (   0.5059724   0.2643255   2.3358266  )
        44        O      tau(  44) = (   0.4992112   1.3113677   2.3306970  )
        45        O      tau(  45) = (   0.0000000   0.2649346   1.9128279  )
        46        O      tau(  46) = (   0.0000000   1.3246731   1.9128279  )
        47        O      tau(  47) = (   0.5000000   0.2649346   1.9128279  )
        48        O      tau(  48) = (   0.5000000   1.3246731   1.9128279  )
        49        O      tau(  49) = (   0.2599062   0.5754940   2.1356093  )
        50        O      tau(  50) = (   0.2384992   1.6609294   2.1249649  )
        51        O      tau(  51) = (   0.7481323   0.5922699   2.1295388  )
        52        O      tau(  52) = (   0.7468931   1.6579362   2.1295125  )
        53        O      tau(  53) = (   0.2595753   0.9894413   2.1271795  )
        54        O      tau(  54) = (   0.2506024   2.0681638   2.1281693  )
        55        O      tau(  55) = (   0.7482380   0.9982716   2.1187888  )
        56        O      tau(  56) = (   0.7632458   2.0553006   2.1277312  )
        57        O      tau(  57) = (  -0.0082872   0.7819468   2.8594043  )
        58        O      tau(  58) = (   0.0054157   1.8795559   2.8757663  )
        59        O      tau(  59) = (   0.5124683   0.7983054   2.8554861  )
        60        O      tau(  60) = (   0.4974614   1.8541497   2.8716633  )
        61        O      tau(  61) = (   0.0042859   0.8040946   2.4645994  )
        62        O      tau(  62) = (   0.0022941   1.8542585   2.4650184  )
        63        O      tau(  63) = (   0.5016010   0.8136660   2.4546986  )
        64        O      tau(  64) = (   0.5004307   1.8440232   2.4448979  )
        65        O      tau(  65) = (   0.2667675   0.0736431   2.6721975  )
        66        O      tau(  66) = (   0.2510483   1.1274345   2.7124286  )
        67        O      tau(  67) = (   0.7367694   0.0791437   2.6832511  )
        68        O      tau(  68) = (   0.7562335   1.1147676   2.7019572  )
        69        O      tau(  69) = (   0.2672628   0.4690899   2.6800647  )
        70        O      tau(  70) = (   0.2486003   1.5243996   2.6998739  )
        71        O      tau(  71) = (   0.7380227   0.4765932   2.6756534  )
        72        O      tau(  72) = (   0.7546830   1.5170003   2.7058525  )
        73        O      tau(  73) = (  -0.0060392   0.2810427   2.9993576  )
        74        O      tau(  74) = (   0.2070987   0.2707897   3.0872977  )
        75        H      tau(  75) = (   0.1770417   0.2547594   3.2507720  )

     number of k points=     8  Marzari-Vanderbilt smearing, width (Ry)=  0.0100
                       cart. coord. in units 2pi/alat
        k(    1) = (   0.0000000   0.0000000   0.0000000), wk =   0.1250000
        k(    2) = (   0.0000000  -0.2359073   0.0000000), wk =   0.1250000
        k(    3) = (   0.2500000  -0.0000000   0.0000000), wk =   0.1250000
        k(    4) = (   0.2500000  -0.2359073   0.0000000), wk =   0.1250000
        k(    5) = (  -0.5000000   0.0000000   0.0000000), wk =   0.1250000
        k(    6) = (  -0.5000000  -0.2359073   0.0000000), wk =   0.1250000
        k(    7) = (  -0.2500000   0.0000000   0.0000000), wk =   0.1250000
        k(    8) = (  -0.2500000  -0.2359073   0.0000000), wk =   0.1250000

     Dense  grid:  3483667 G-vectors     FFT dimensions: (  96, 192, 384)

     Smooth grid:  1231447 G-vectors     FFT dimensions: (  64, 135, 288)

     Estimated max dynamical RAM per process >     979.55 MB

     Estimated total dynamical RAM >     110.82 GB

     Check: negative core charge=   -0.000007
     Generating pointlists ...
     new r_m :   0.1230 (alat units)  1.3819 (a.u.) for type    1
     new r_m :   0.1250 (alat units)  1.4041 (a.u.) for type    2
     new r_m :   0.1282 (alat units)  1.4407 (a.u.) for type    3
     new r_m :   0.1316 (alat units)  1.4785 (a.u.) for type    4
     new r_m :   0.0689 (alat units)  0.7739 (a.u.) for type    5
     new r_m :   0.0689 (alat units)  0.7739 (a.u.) for type    6

     Initial potential from superposition of free atoms

     starting charge     666.9972, renormalised to     691.0000

     negative rho (up, down):  5.624E-03 1.548E-03

     STARTING HUBBARD OCCUPATIONS:

     =================== HUBBARD OCCUPATIONS ===================
     ------------------------ ATOM    1 ------------------------
     Tr[ns(  1)] (up, down, total) =   3.40000  0.00000  3.40000
     Atomic magnetic moment for atom   1 =   3.40000
     SPIN  1
     eigenvalues:
       0.680  0.680  0.680  0.680  0.680
     eigenvectors (columns):
       1.000  0.000  0.000  0.000  0.000
       0.000  1.000  0.000  0.000  0.000
       0.000  0.000  1.000  0.000  0.000
       0.000  0.000  0.000  1.000  0.000
       0.000  0.000  0.000  0.000  1.000
     occupation matrix ns (before diag.):
       0.680  0.000  0.000  0.000  0.000
       0.000  0.680  0.000  0.000  0.000
       0.000  0.000  0.680  0.000  0.000
       0.000  0.000  0.000  0.680  0.000
       0.000  0.000  0.000  0.000  0.680
     SPIN  2
     eigenvalues:
       0.000  0.000  0.000  0.000  0.000
     eigenvectors (columns):
       1.000  0.000  0.000  0.000  0.000
       0.000  1.000  0.000  0.000  0.000
       0.000  0.000  1.000  0.000  0.000
       0.000  0.000  0.000  1.000  0.000
       0.000  0.000  0.000  0.000  1.000
     occupation matrix ns (before diag.):
       0.000  0.000  0.000  0.000  0.000
       0.000  0.000  0.000  0.000  0.000
       0.000  0.000  0.000  0.000  0.000
       0.000  0.000  0.000  0.000  0.000
       0.000  0.000  0.000  0.000  0.000
     ------------------------ ATOM    2 ------------------------
     Tr[ns(  2)] (up, down, total) =   3.40000  0.00000  3.40000
     Atomic magnetic moment for atom   2 =   3.40000
     SPIN  1
     eigenvalues:
       0.680  0.680  0.680  0.680  0.680
     eigenvectors (columns):
       1.000  0.000  0.000  0.000  0.000
       0.000  1.000  0.000  0.000  0.000
       0.000  0.000  1.000  0.000  0.000
       0.000  0.000  0.000  1.000  0.000
       0.000  0.000  0.000  0.000  1.000
     occupation matrix ns (before diag.):
       0.680  0.000  0.000  0.000  0.000
       0.000  0.680  0.000  0.000  0.000
       0.000  0.000  0.680  0.000  0.000
       0.000  0.000  0.000  0.680  0.000
       0.000  0.000  0.000  0.000  0.680
     SPIN  2
     eigenvalues:
       0.000  0.000  0.000  0.000  0.000
     eigenvectors (columns):
       1.000  0.000  0.000  0.000  0.000
       0.000  1.000  0.000  0.000  0.000
       0.000  0.000  1.000  0.000  0.000
       0.000  0.000  0.000  1.000  0.000
       0.000  0.000  0.000  0.000  1.000
     occupation matrix ns (before diag.):
       0.000  0.000  0.000  0.000  0.000
       0.000  0.000  0.000  0.000  0.000
       0.000  0.000  0.000  0.000  0.000
       0.000  0.000  0.000  0.000  0.000
       0.000  0.000  0.000  0.000  0.000
     ------------------------ ATOM    3 ------------------------
     Tr[ns(  3)] (up, down, total) =   3.40000  0.00000  3.40000
     Atomic magnetic moment for atom   3 =   3.40000
     SPIN  1
     eigenvalues:
       0.680  0.680  0.680  0.680  0.680
     eigenvectors (columns):
       1.000  0.000  0.000  0.000  0.000
       0.000  1.000  0.000  0.000  0.000
       0.000  0.000  1.000  0.000  0.000
       0.000  0.000  0.000  1.000  0.000
       0.000  0.000  0.000  0.000  1.000
     occupation matrix ns (before diag.):
       0.680  0.000  0.000  0.000  0.000
       0.000  0.680  0.000  0.000  0.000
       0.000  0.000  0.680  0.000  0.000
       0.000  0.000  0.000  0.680  0.000
       0.000  0.000  0.000  0.000  0.680
     SPIN  2
     eigenvalues:
       0.000  0.000  0.000  0.000  0.000
     eigenvectors (columns):
       1.000  0.000  0.000  0.000  0.000
       0.000  1.000  0.000  0.000  0.000
       0.000  0.000  1.000  0.000  0.000
       0.000  0.000  0.000  1.000  0.000
       0.000  0.000  0.000  0.000  1.000
     occupation matrix ns (before diag.):
       0.000  0.000  0.000  0.000  0.000
       0.000  0.000  0.000  0.000  0.000
       0.000  0.000  0.000  0.000  0.000
       0.000  0.000  0.000  0.000  0.000
       0.000  0.000  0.000  0.000  0.000
     ------------------------ ATOM    4 ------------------------
     Tr[ns(  4)] (up, down, total) =   5.00000  3.00000  8.00000
     Atomic magnetic moment for atom   4 =   2.00000
     SPIN  1
     eigenvalues:
       1.000  1.000  1.000  1.000  1.000
     eigenvectors (columns):
       1.000  0.000  0.000  0.000  0.000
       0.000  1.000  0.000  0.000  0.000
       0.000  0.000  1.000  0.000  0.000
       0.000  0.000  0.000  1.000  0.000
       0.000  0.000  0.000  0.000  1.000
     occupation matrix ns (before diag.):
       1.000  0.000  0.000  0.000  0.000
       0.000  1.000  0.000  0.000  0.000
       0.000  0.000  1.000  0.000  0.000
       0.000  0.000  0.000  1.000  0.000
       0.000  0.000  0.000  0.000  1.000
     SPIN  2
     eigenvalues:
       0.600  0.600  0.600  0.600  0.600
     eigenvectors (columns):
       1.000  0.000  0.000  0.000  0.000
       0.000  1.000  0.000  0.000  0.000
       0.000  0.000  1.000  0.000  0.000
       0.000  0.000  0.000  1.000  0.000
       0.000  0.000  0.000  0.000  1.000
     occupation matrix ns (before diag.):
       0.600  0.000  0.000  0.000  0.000
       0.000  0.600  0.000  0.000  0.000
       0.000  0.000  0.600  0.000  0.000
       0.000  0.000  0.000  0.600  0.000
       0.000  0.000  0.000  0.000  0.600
     ------------------------ ATOM    5 ------------------------
     Tr[ns(  5)] (up, down, total) =   5.00000  3.00000  8.00000
     Atomic magnetic moment for atom   5 =   2.00000
     SPIN  1
     eigenvalues:
       1.000  1.000  1.000  1.000  1.000
     eigenvectors (columns):
       1.000  0.000  0.000  0.000  0.000
       0.000  1.000  0.000  0.000  0.000
       0.000  0.000  1.000  0.000  0.000
       0.000  0.000  0.000  1.000  0.000
       0.000  0.000  0.000  0.000  1.000
     occupation matrix ns (before diag.):
       1.000  0.000  0.000  0.000  0.000
       0.000  1.000  0.000  0.000  0.000
       0.000  0.000  1.000  0.000  0.000
       0.000  0.000  0.000  1.000  0.000
       0.000  0.000  0.000  0.000  1.000
     SPIN  2
     eigenvalues:
       0.600  0.600  0.600  0.600  0.600
     eigenvectors (columns):
       1.000  0.000  0.000  0.000  0.000
       0.000  1.000  0.000  0.000  0.000
       0.000  0.000  1.000  0.000  0.000
       0.000  0.000  0.000  1.000  0.000
       0.000  0.000  0.000  0.000  1.000
     occupation matrix ns (before diag.):
       0.600  0.000  0.000  0.000  0.000
       0.000  0.600  0.000  0.000  0.000
       0.000  0.000  0.600  0.000  0.000
       0.000  0.000  0.000  0.600  0.000
       0.000  0.000  0.000  0.000  0.600
     ------------------------ ATOM    6 ------------------------
     Tr[ns(  6)] (up, down, total) =   5.00000  2.00000  7.00000
     Atomic magnetic moment for atom   6 =   3.00000
     SPIN  1
     eigenvalues:
       1.000  1.000  1.000  1.000  1.000
     eigenvectors (columns):
       1.000  0.000  0.000  0.000  0.000
       0.000  1.000  0.000  0.000  0.000
       0.000  0.000  1.000  0.000  0.000
       0.000  0.000  0.000  1.000  0.000
       0.000  0.000  0.000  0.000  1.000
     occupation matrix ns (before diag.):
       1.000  0.000  0.000  0.000  0.000
       0.000  1.000  0.000  0.000  0.000
       0.000  0.000  1.000  0.000  0.000
       0.000  0.000  0.000  1.000  0.000
       0.000  0.000  0.000  0.000  1.000
     SPIN  2
     eigenvalues:
       0.400  0.400  0.400  0.400  0.400
     eigenvectors (columns):
       1.000  0.000  0.000  0.000  0.000
       0.000  1.000  0.000  0.000  0.000
       0.000  0.000  1.000  0.000  0.000
       0.000  0.000  0.000  1.000  0.000
       0.000  0.000  0.000  0.000  1.000
     occupation matrix ns (before diag.):
       0.400  0.000  0.000  0.000  0.000
       0.000  0.400  0.000  0.000  0.000
       0.000  0.000  0.400  0.000  0.000
       0.000  0.000  0.000  0.400  0.000
       0.000  0.000  0.000  0.000  0.400
     ------------------------ ATOM    7 ------------------------
     Tr[ns(  7)] (up, down, total) =   5.00000  2.00000  7.00000
     Atomic magnetic moment for atom   7 =   3.00000
     SPIN  1
     eigenvalues:
       1.000  1.000  1.000  1.000  1.000
     eigenvectors (columns):
       1.000  0.000  0.000  0.000  0.000
       0.000  1.000  0.000  0.000  0.000
       0.000  0.000  1.000  0.000  0.000
       0.000  0.000  0.000  1.000  0.000
       0.000  0.000  0.000  0.000  1.000
     occupation matrix ns (before diag.):
       1.000  0.000  0.000  0.000  0.000
       0.000  1.000  0.000  0.000  0.000
       0.000  0.000  1.000  0.000  0.000
       0.000  0.000  0.000  1.000  0.000
       0.000  0.000  0.000  0.000  1.000
     SPIN  2
     eigenvalues:
       0.400  0.400  0.400  0.400  0.400
     eigenvectors (columns):
       1.000  0.000  0.000  0.000  0.000
       0.000  1.000  0.000  0.000  0.000
       0.000  0.000  1.000  0.000  0.000
       0.000  0.000  0.000  1.000  0.000
       0.000  0.000  0.000  0.000  1.000
     occupation matrix ns (before diag.):
       0.400  0.000  0.000  0.000  0.000
       0.000  0.400  0.000  0.000  0.000
       0.000  0.000  0.400  0.000  0.000
       0.000  0.000  0.000  0.400  0.000
       0.000  0.000  0.000  0.000  0.400
     ------------------------ ATOM    8 ------------------------
     Tr[ns(  8)] (up, down, total) =   3.40000  0.00000  3.40000
     Atomic magnetic moment for atom   8 =   3.40000
     SPIN  1
     eigenvalues:
       0.680  0.680  0.680  0.680  0.680
     eigenvectors (columns):
       1.000  0.000  0.000  0.000  0.000
       0.000  1.000  0.000  0.000  0.000
       0.000  0.000  1.000  0.000  0.000
       0.000  0.000  0.000  1.000  0.000
       0.000  0.000  0.000  0.000  1.000
     occupation matrix ns (before diag.):
       0.680  0.000  0.000  0.000  0.000
       0.000  0.680  0.000  0.000  0.000
       0.000  0.000  0.680  0.000  0.000
       0.000  0.000  0.000  0.680  0.000
       0.000  0.000  0.000  0.000  0.680
     SPIN  2
     eigenvalues:
       0.000  0.000  0.000  0.000  0.000
     eigenvectors (columns):
       1.000  0.000  0.000  0.000  0.000
       0.000  1.000  0.000  0.000  0.000
       0.000  0.000  1.000  0.000  0.000
       0.000  0.000  0.000  1.000  0.000
       0.000  0.000  0.000  0.000  1.000
     occupation matrix ns (before diag.):
       0.000  0.000  0.000  0.000  0.000
       0.000  0.000  0.000  0.000  0.000
       0.000  0.000  0.000  0.000  0.000
       0.000  0.000  0.000  0.000  0.000
       0.000  0.000  0.000  0.000  0.000
     ------------------------ ATOM    9 ------------------------
     Tr[ns(  9)] (up, down, total) =   5.00000  3.00000  8.00000
     Atomic magnetic moment for atom   9 =   2.00000
     SPIN  1
     eigenvalues:
       1.000  1.000  1.000  1.000  1.000
     eigenvectors (columns):
       1.000  0.000  0.000  0.000  0.000
       0.000  1.000  0.000  0.000  0.000
       0.000  0.000  1.000  0.000  0.000
       0.000  0.000  0.000  1.000  0.000
       0.000  0.000  0.000  0.000  1.000
     occupation matrix ns (before diag.):
       1.000  0.000  0.000  0.000  0.000
       0.000  1.000  0.000  0.000  0.000
       0.000  0.000  1.000  0.000  0.000
       0.000  0.000  0.000  1.000  0.000
       0.000  0.000  0.000  0.000  1.000
     SPIN  2
     eigenvalues:
       0.600  0.600  0.600  0.600  0.600
     eigenvectors (columns):
       1.000  0.000  0.000  0.000  0.000
       0.000  1.000  0.000  0.000  0.000
       0.000  0.000  1.000  0.000  0.000
       0.000  0.000  0.000  1.000  0.000
       0.000  0.000  0.000  0.000  1.000
     occupation matrix ns (before diag.):
       0.600  0.000  0.000  0.000  0.000
       0.000  0.600  0.000  0.000  0.000
       0.000  0.000  0.600  0.000  0.000
       0.000  0.000  0.000  0.600  0.000
       0.000  0.000  0.000  0.000  0.600
     ------------------------ ATOM   10 ------------------------
     Tr[ns( 10)] (up, down, total) =   3.40000  0.00000  3.40000
     Atomic magnetic moment for atom  10 =   3.40000
     SPIN  1
     eigenvalues:
       0.680  0.680  0.680  0.680  0.680
     eigenvectors (columns):
       1.000  0.000  0.000  0.000  0.000
       0.000  1.000  0.000  0.000  0.000
       0.000  0.000  1.000  0.000  0.000
       0.000  0.000  0.000  1.000  0.000
       0.000  0.000  0.000  0.000  1.000
     occupation matrix ns (before diag.):
       0.680  0.000  0.000  0.000  0.000
       0.000  0.680  0.000  0.000  0.000
       0.000  0.000  0.680  0.000  0.000
       0.000  0.000  0.000  0.680  0.000
       0.000  0.000  0.000  0.000  0.680
     SPIN  2
     eigenvalues:
       0.000  0.000  0.000  0.000  0.000
     eigenvectors (columns):
       1.000  0.000  0.000  0.000  0.000
       0.000  1.000  0.000  0.000  0.000
       0.000  0.000  1.000  0.000  0.000
       0.000  0.000  0.000  1.000  0.000
       0.000  0.000  0.000  0.000  1.000
     occupation matrix ns (before diag.):
       0.000  0.000  0.000  0.000  0.000
       0.000  0.000  0.000  0.000  0.000
       0.000  0.000  0.000  0.000  0.000
       0.000  0.000  0.000  0.000  0.000
       0.000  0.000  0.000  0.000  0.000
     ------------------------ ATOM   11 ------------------------
     Tr[ns( 11)] (up, down, total) =   5.00000  1.00000  6.00000
     Atomic magnetic moment for atom  11 =   4.00000
     SPIN  1
     eigenvalues:
       1.000  1.000  1.000  1.000  1.000
     eigenvectors (columns):
       1.000  0.000  0.000  0.000  0.000
       0.000  1.000  0.000  0.000  0.000
       0.000  0.000  1.000  0.000  0.000
       0.000  0.000  0.000  1.000  0.000
       0.000  0.000  0.000  0.000  1.000
     occupation matrix ns (before diag.):
       1.000  0.000  0.000  0.000  0.000
       0.000  1.000  0.000  0.000  0.000
       0.000  0.000  1.000  0.000  0.000
       0.000  0.000  0.000  1.000  0.000
       0.000  0.000  0.000  0.000  1.000
     SPIN  2
     eigenvalues:
       0.200  0.200  0.200  0.200  0.200
     eigenvectors (columns):
       1.000  0.000  0.000  0.000  0.000
       0.000  1.000  0.000  0.000  0.000
       0.000  0.000  1.000  0.000  0.000
       0.000  0.000  0.000  1.000  0.000
       0.000  0.000  0.000  0.000  1.000
     occupation matrix ns (before diag.):
       0.200  0.000  0.000  0.000  0.000
       0.000  0.200  0.000  0.000  0.000
       0.000  0.000  0.200  0.000  0.000
       0.000  0.000  0.000  0.200  0.000
       0.000  0.000  0.000  0.000  0.200
     ------------------------ ATOM   12 ------------------------
     Tr[ns( 12)] (up, down, total) =   5.00000  2.00000  7.00000
     Atomic magnetic moment for atom  12 =   3.00000
     SPIN  1
     eigenvalues:
       1.000  1.000  1.000  1.000  1.000
     eigenvectors (columns):
       1.000  0.000  0.000  0.000  0.000
       0.000  1.000  0.000  0.000  0.000
       0.000  0.000  1.000  0.000  0.000
       0.000  0.000  0.000  1.000  0.000
       0.000  0.000  0.000  0.000  1.000
     occupation matrix ns (before diag.):
       1.000  0.000  0.000  0.000  0.000
       0.000  1.000  0.000  0.000  0.000
       0.000  0.000  1.000  0.000  0.000
       0.000  0.000  0.000  1.000  0.000
       0.000  0.000  0.000  0.000  1.000
     SPIN  2
     eigenvalues:
       0.400  0.400  0.400  0.400  0.400
     eigenvectors (columns):
       1.000  0.000  0.000  0.000  0.000
       0.000  1.000  0.000  0.000  0.000
       0.000  0.000  1.000  0.000  0.000
       0.000  0.000  0.000  1.000  0.000
       0.000  0.000  0.000  0.000  1.000
     occupation matrix ns (before diag.):
       0.400  0.000  0.000  0.000  0.000
       0.000  0.400  0.000  0.000  0.000
       0.000  0.000  0.400  0.000  0.000
       0.000  0.000  0.000  0.400  0.000
       0.000  0.000  0.000  0.000  0.400
     ------------------------ ATOM   13 ------------------------
     Tr[ns( 13)] (up, down, total) =   5.00000  2.00000  7.00000
     Atomic magnetic moment for atom  13 =   3.00000
     SPIN  1
     eigenvalues:
       1.000  1.000  1.000  1.000  1.000
     eigenvectors (columns):
       1.000  0.000  0.000  0.000  0.000
       0.000  1.000  0.000  0.000  0.000
       0.000  0.000  1.000  0.000  0.000
       0.000  0.000  0.000  1.000  0.000
       0.000  0.000  0.000  0.000  1.000
     occupation matrix ns (before diag.):
       1.000  0.000  0.000  0.000  0.000
       0.000  1.000  0.000  0.000  0.000
       0.000  0.000  1.000  0.000  0.000
       0.000  0.000  0.000  1.000  0.000
       0.000  0.000  0.000  0.000  1.000
     SPIN  2
     eigenvalues:
       0.400  0.400  0.400  0.400  0.400
     eigenvectors (columns):
       1.000  0.000  0.000  0.000  0.000
       0.000  1.000  0.000  0.000  0.000
       0.000  0.000  1.000  0.000  0.000
       0.000  0.000  0.000  1.000  0.000
       0.000  0.000  0.000  0.000  1.000
     occupation matrix ns (before diag.):
       0.400  0.000  0.000  0.000  0.000
       0.000  0.400  0.000  0.000  0.000
       0.000  0.000  0.400  0.000  0.000
       0.000  0.000  0.000  0.400  0.000
       0.000  0.000  0.000  0.000  0.400
     ------------------------ ATOM   14 ------------------------
     Tr[ns( 14)] (up, down, total) =   5.00000  3.00000  8.00000
     Atomic magnetic moment for atom  14 =   2.00000
     SPIN  1
     eigenvalues:
       1.000  1.000  1.000  1.000  1.000
     eigenvectors (columns):
       1.000  0.000  0.000  0.000  0.000
       0.000  1.000  0.000  0.000  0.000
       0.000  0.000  1.000  0.000  0.000
       0.000  0.000  0.000  1.000  0.000
       0.000  0.000  0.000  0.000  1.000
     occupation matrix ns (before diag.):
       1.000  0.000  0.000  0.000  0.000
       0.000  1.000  0.000  0.000  0.000
       0.000  0.000  1.000  0.000  0.000
       0.000  0.000  0.000  1.000  0.000
       0.000  0.000  0.000  0.000  1.000
     SPIN  2
     eigenvalues:
       0.600  0.600  0.600  0.600  0.600
     eigenvectors (columns):
       1.000  0.000  0.000  0.000  0.000
       0.000  1.000  0.000  0.000  0.000
       0.000  0.000  1.000  0.000  0.000
       0.000  0.000  0.000  1.000  0.000
       0.000  0.000  0.000  0.000  1.000
     occupation matrix ns (before diag.):
       0.600  0.000  0.000  0.000  0.000
       0.000  0.600  0.000  0.000  0.000
       0.000  0.000  0.600  0.000  0.000
       0.000  0.000  0.000  0.600  0.000
       0.000  0.000  0.000  0.000  0.600
     ------------------------ ATOM   15 ------------------------
     Tr[ns( 15)] (up, down, total) =   5.00000  1.00000  6.00000
     Atomic magnetic moment for atom  15 =   4.00000
     SPIN  1
     eigenvalues:
       1.000  1.000  1.000  1.000  1.000
     eigenvectors (columns):
       1.000  0.000  0.000  0.000  0.000
       0.000  1.000  0.000  0.000  0.000
       0.000  0.000  1.000  0.000  0.000
       0.000  0.000  0.000  1.000  0.000
       0.000  0.000  0.000  0.000  1.000
     occupation matrix ns (before diag.):
       1.000  0.000  0.000  0.000  0.000
       0.000  1.000  0.000  0.000  0.000
       0.000  0.000  1.000  0.000  0.000
       0.000  0.000  0.000  1.000  0.000
       0.000  0.000  0.000  0.000  1.000
     SPIN  2
     eigenvalues:
       0.200  0.200  0.200  0.200  0.200
     eigenvectors (columns):
       1.000  0.000  0.000  0.000  0.000
       0.000  1.000  0.000  0.000  0.000
       0.000  0.000  1.000  0.000  0.000
       0.000  0.000  0.000  1.000  0.000
       0.000  0.000  0.000  0.000  1.000
     occupation matrix ns (before diag.):
       0.200  0.000  0.000  0.000  0.000
       0.000  0.200  0.000  0.000  0.000
       0.000  0.000  0.200  0.000  0.000
       0.000  0.000  0.000  0.200  0.000
       0.000  0.000  0.000  0.000  0.200
     ------------------------ ATOM   16 ------------------------
     Tr[ns( 16)] (up, down, total) =   5.00000  3.00000  8.00000
     Atomic magnetic moment for atom  16 =   2.00000
     SPIN  1
     eigenvalues:
       1.000  1.000  1.000  1.000  1.000
     eigenvectors (columns):
       1.000  0.000  0.000  0.000  0.000
       0.000  1.000  0.000  0.000  0.000
       0.000  0.000  1.000  0.000  0.000
       0.000  0.000  0.000  1.000  0.000
       0.000  0.000  0.000  0.000  1.000
     occupation matrix ns (before diag.):
       1.000  0.000  0.000  0.000  0.000
       0.000  1.000  0.000  0.000  0.000
       0.000  0.000  1.000  0.000  0.000
       0.000  0.000  0.000  1.000  0.000
       0.000  0.000  0.000  0.000  1.000
     SPIN  2
     eigenvalues:
       0.600  0.600  0.600  0.600  0.600
     eigenvectors (columns):
       1.000  0.000  0.000  0.000  0.000
       0.000  1.000  0.000  0.000  0.000
       0.000  0.000  1.000  0.000  0.000
       0.000  0.000  0.000  1.000  0.000
       0.000  0.000  0.000  0.000  1.000
     occupation matrix ns (before diag.):
       0.600  0.000  0.000  0.000  0.000
       0.000  0.600  0.000  0.000  0.000
       0.000  0.000  0.600  0.000  0.000
       0.000  0.000  0.000  0.600  0.000
       0.000  0.000  0.000  0.000  0.600
     ------------------------ ATOM   17 ------------------------
     Tr[ns( 17)] (up, down, total) =   3.40000  0.00000  3.40000
     Atomic magnetic moment for atom  17 =   3.40000
     SPIN  1
     eigenvalues:
       0.680  0.680  0.680  0.680  0.680
     eigenvectors (columns):
       1.000  0.000  0.000  0.000  0.000
       0.000  1.000  0.000  0.000  0.000
       0.000  0.000  1.000  0.000  0.000
       0.000  0.000  0.000  1.000  0.000
       0.000  0.000  0.000  0.000  1.000
     occupation matrix ns (before diag.):
       0.680  0.000  0.000  0.000  0.000
       0.000  0.680  0.000  0.000  0.000
       0.000  0.000  0.680  0.000  0.000
       0.000  0.000  0.000  0.680  0.000
       0.000  0.000  0.000  0.000  0.680
     SPIN  2
     eigenvalues:
       0.000  0.000  0.000  0.000  0.000
     eigenvectors (columns):
       1.000  0.000  0.000  0.000  0.000
       0.000  1.000  0.000  0.000  0.000
       0.000  0.000  1.000  0.000  0.000
       0.000  0.000  0.000  1.000  0.000
       0.000  0.000  0.000  0.000  1.000
     occupation matrix ns (before diag.):
       0.000  0.000  0.000  0.000  0.000
       0.000  0.000  0.000  0.000  0.000
       0.000  0.000  0.000  0.000  0.000
       0.000  0.000  0.000  0.000  0.000
       0.000  0.000  0.000  0.000  0.000
     ------------------------ ATOM   18 ------------------------
     Tr[ns( 18)] (up, down, total) =   5.00000  3.00000  8.00000
     Atomic magnetic moment for atom  18 =   2.00000
     SPIN  1
     eigenvalues:
       1.000  1.000  1.000  1.000  1.000
     eigenvectors (columns):
       1.000  0.000  0.000  0.000  0.000
       0.000  1.000  0.000  0.000  0.000
       0.000  0.000  1.000  0.000  0.000
       0.000  0.000  0.000  1.000  0.000
       0.000  0.000  0.000  0.000  1.000
     occupation matrix ns (before diag.):
       1.000  0.000  0.000  0.000  0.000
       0.000  1.000  0.000  0.000  0.000
       0.000  0.000  1.000  0.000  0.000
       0.000  0.000  0.000  1.000  0.000
       0.000  0.000  0.000  0.000  1.000
     SPIN  2
     eigenvalues:
       0.600  0.600  0.600  0.600  0.600
     eigenvectors (columns):
       1.000  0.000  0.000  0.000  0.000
       0.000  1.000  0.000  0.000  0.000
       0.000  0.000  1.000  0.000  0.000
       0.000  0.000  0.000  1.000  0.000
       0.000  0.000  0.000  0.000  1.000
     occupation matrix ns (before diag.):
       0.600  0.000  0.000  0.000  0.000
       0.000  0.600  0.000  0.000  0.000
       0.000  0.000  0.600  0.000  0.000
       0.000  0.000  0.000  0.600  0.000
       0.000  0.000  0.000  0.000  0.600
     ------------------------ ATOM   19 ------------------------
     Tr[ns( 19)] (up, down, total) =   5.00000  2.00000  7.00000
     Atomic magnetic moment for atom  19 =   3.00000
     SPIN  1
     eigenvalues:
       1.000  1.000  1.000  1.000  1.000
     eigenvectors (columns):
       1.000  0.000  0.000  0.000  0.000
       0.000  1.000  0.000  0.000  0.000
       0.000  0.000  1.000  0.000  0.000
       0.000  0.000  0.000  1.000  0.000
       0.000  0.000  0.000  0.000  1.000
     occupation matrix ns (before diag.):
       1.000  0.000  0.000  0.000  0.000
       0.000  1.000  0.000  0.000  0.000
       0.000  0.000  1.000  0.000  0.000
       0.000  0.000  0.000  1.000  0.000
       0.000  0.000  0.000  0.000  1.000
     SPIN  2
     eigenvalues:
       0.400  0.400  0.400  0.400  0.400
     eigenvectors (columns):
       1.000  0.000  0.000  0.000  0.000
       0.000  1.000  0.000  0.000  0.000
       0.000  0.000  1.000  0.000  0.000
       0.000  0.000  0.000  1.000  0.000
       0.000  0.000  0.000  0.000  1.000
     occupation matrix ns (before diag.):
       0.400  0.000  0.000  0.000  0.000
       0.000  0.400  0.000  0.000  0.000
       0.000  0.000  0.400  0.000  0.000
       0.000  0.000  0.000  0.400  0.000
       0.000  0.000  0.000  0.000  0.400
     ------------------------ ATOM   20 ------------------------
     Tr[ns( 20)] (up, down, total) =   5.00000  1.00000  6.00000
     Atomic magnetic moment for atom  20 =   4.00000
     SPIN  1
     eigenvalues:
       1.000  1.000  1.000  1.000  1.000
     eigenvectors (columns):
       1.000  0.000  0.000  0.000  0.000
       0.000  1.000  0.000  0.000  0.000
       0.000  0.000  1.000  0.000  0.000
       0.000  0.000  0.000  1.000  0.000
       0.000  0.000  0.000  0.000  1.000
     occupation matrix ns (before diag.):
       1.000  0.000  0.000  0.000  0.000
       0.000  1.000  0.000  0.000  0.000
       0.000  0.000  1.000  0.000  0.000
       0.000  0.000  0.000  1.000  0.000
       0.000  0.000  0.000  0.000  1.000
     SPIN  2
     eigenvalues:
       0.200  0.200  0.200  0.200  0.200
     eigenvectors (columns):
       1.000  0.000  0.000  0.000  0.000
       0.000  1.000  0.000  0.000  0.000
       0.000  0.000  1.000  0.000  0.000
       0.000  0.000  0.000  1.000  0.000
       0.000  0.000  0.000  0.000  1.000
     occupation matrix ns (before diag.):
       0.200  0.000  0.000  0.000  0.000
       0.000  0.200  0.000  0.000  0.000
       0.000  0.000  0.200  0.000  0.000
       0.000  0.000  0.000  0.200  0.000
       0.000  0.000  0.000  0.000  0.200
     ------------------------ ATOM   21 ------------------------
     Tr[ns( 21)] (up, down, total) =   5.00000  1.00000  6.00000
     Atomic magnetic moment for atom  21 =   4.00000
     SPIN  1
     eigenvalues:
       1.000  1.000  1.000  1.000  1.000
     eigenvectors (columns):
       1.000  0.000  0.000  0.000  0.000
       0.000  1.000  0.000  0.000  0.000
       0.000  0.000  1.000  0.000  0.000
       0.000  0.000  0.000  1.000  0.000
       0.000  0.000  0.000  0.000  1.000
     occupation matrix ns (before diag.):
       1.000  0.000  0.000  0.000  0.000
       0.000  1.000  0.000  0.000  0.000
       0.000  0.000  1.000  0.000  0.000
       0.000  0.000  0.000  1.000  0.000
       0.000  0.000  0.000  0.000  1.000
     SPIN  2
     eigenvalues:
       0.200  0.200  0.200  0.200  0.200
     eigenvectors (columns):
       1.000  0.000  0.000  0.000  0.000
       0.000  1.000  0.000  0.000  0.000
       0.000  0.000  1.000  0.000  0.000
       0.000  0.000  0.000  1.000  0.000
       0.000  0.000  0.000  0.000  1.000
     occupation matrix ns (before diag.):
       0.200  0.000  0.000  0.000  0.000
       0.000  0.200  0.000  0.000  0.000
       0.000  0.000  0.200  0.000  0.000
       0.000  0.000  0.000  0.200  0.000
       0.000  0.000  0.000  0.000  0.200
     ------------------------ ATOM   22 ------------------------
     Tr[ns( 22)] (up, down, total) =   5.00000  1.00000  6.00000
     Atomic magnetic moment for atom  22 =   4.00000
     SPIN  1
     eigenvalues:
       1.000  1.000  1.000  1.000  1.000
     eigenvectors (columns):
       1.000  0.000  0.000  0.000  0.000
       0.000  1.000  0.000  0.000  0.000
       0.000  0.000  1.000  0.000  0.000
       0.000  0.000  0.000  1.000  0.000
       0.000  0.000  0.000  0.000  1.000
     occupation matrix ns (before diag.):
       1.000  0.000  0.000  0.000  0.000
       0.000  1.000  0.000  0.000  0.000
       0.000  0.000  1.000  0.000  0.000
       0.000  0.000  0.000  1.000  0.000
       0.000  0.000  0.000  0.000  1.000
     SPIN  2
     eigenvalues:
       0.200  0.200  0.200  0.200  0.200
     eigenvectors (columns):
       1.000  0.000  0.000  0.000  0.000
       0.000  1.000  0.000  0.000  0.000
       0.000  0.000  1.000  0.000  0.000
       0.000  0.000  0.000  1.000  0.000
       0.000  0.000  0.000  0.000  1.000
     occupation matrix ns (before diag.):
       0.200  0.000  0.000  0.000  0.000
       0.000  0.200  0.000  0.000  0.000
       0.000  0.000  0.200  0.000  0.000
       0.000  0.000  0.000  0.200  0.000
       0.000  0.000  0.000  0.000  0.200
     ------------------------ ATOM   23 ------------------------
     Tr[ns( 23)] (up, down, total) =   5.00000  2.00000  7.00000
     Atomic magnetic moment for atom  23 =   3.00000
     SPIN  1
     eigenvalues:
       1.000  1.000  1.000  1.000  1.000
     eigenvectors (columns):
       1.000  0.000  0.000  0.000  0.000
       0.000  1.000  0.000  0.000  0.000
       0.000  0.000  1.000  0.000  0.000
       0.000  0.000  0.000  1.000  0.000
       0.000  0.000  0.000  0.000  1.000
     occupation matrix ns (before diag.):
       1.000  0.000  0.000  0.000  0.000
       0.000  1.000  0.000  0.000  0.000
       0.000  0.000  1.000  0.000  0.000
       0.000  0.000  0.000  1.000  0.000
       0.000  0.000  0.000  0.000  1.000
     SPIN  2
     eigenvalues:
       0.400  0.400  0.400  0.400  0.400
     eigenvectors (columns):
       1.000  0.000  0.000  0.000  0.000
       0.000  1.000  0.000  0.000  0.000
       0.000  0.000  1.000  0.000  0.000
       0.000  0.000  0.000  1.000  0.000
       0.000  0.000  0.000  0.000  1.000
     occupation matrix ns (before diag.):
       0.400  0.000  0.000  0.000  0.000
       0.000  0.400  0.000  0.000  0.000
       0.000  0.000  0.400  0.000  0.000
       0.000  0.000  0.000  0.400  0.000
       0.000  0.000  0.000  0.000  0.400
     ------------------------ ATOM   24 ------------------------
     Tr[ns( 24)] (up, down, total) =   5.00000  1.00000  6.00000
     Atomic magnetic moment for atom  24 =   4.00000
     SPIN  1
     eigenvalues:
       1.000  1.000  1.000  1.000  1.000
     eigenvectors (columns):
       1.000  0.000  0.000  0.000  0.000
       0.000  1.000  0.000  0.000  0.000
       0.000  0.000  1.000  0.000  0.000
       0.000  0.000  0.000  1.000  0.000
       0.000  0.000  0.000  0.000  1.000
     occupation matrix ns (before diag.):
       1.000  0.000  0.000  0.000  0.000
       0.000  1.000  0.000  0.000  0.000
       0.000  0.000  1.000  0.000  0.000
       0.000  0.000  0.000  1.000  0.000
       0.000  0.000  0.000  0.000  1.000
     SPIN  2
     eigenvalues:
       0.200  0.200  0.200  0.200  0.200
     eigenvectors (columns):
       1.000  0.000  0.000  0.000  0.000
       0.000  1.000  0.000  0.000  0.000
       0.000  0.000  1.000  0.000  0.000
       0.000  0.000  0.000  1.000  0.000
       0.000  0.000  0.000  0.000  1.000
     occupation matrix ns (before diag.):
       0.200  0.000  0.000  0.000  0.000
       0.000  0.200  0.000  0.000  0.000
       0.000  0.000  0.200  0.000  0.000
       0.000  0.000  0.000  0.200  0.000
       0.000  0.000  0.000  0.000  0.200

     Number of occupied Hubbard levels =  146.4000

     Atomic wfc used for Hubbard projectors are NOT orthogonalized

     Starting wfcs are  495 randomized atomic wfcs
     Checking if some PAW data can be deallocated... 

     total cpu time spent up to now is       33.8 secs

     per-process dynamical memory:   571.6 Mb

     Self-consistent Calculation

     iteration #  1     ecut=    80.00 Ry     beta= 0.30
     Davidson diagonalization with overlap
     ethr =  1.00E-02,  avg # of iterations = 10.5

     =================== HUBBARD OCCUPATIONS ===================
     ------------------------ ATOM    1 ------------------------
     Tr[ns(  1)] (up, down, total) =   4.97119  3.36687  8.33805
     Atomic magnetic moment for atom   1 =   1.60432
     SPIN  1
     eigenvalues:
       0.992  0.994  0.995  0.995  0.996
     eigenvectors (columns):
       0.380  0.105  0.869 -0.270  0.130
       0.157 -0.949  0.023 -0.174 -0.211
       0.201 -0.101  0.236  0.935 -0.143
       0.889  0.143 -0.429 -0.063  0.026
      -0.011 -0.242 -0.066  0.139  0.958
     occupation matrix ns (before diag.):
       0.994 -0.000 -0.000 -0.001  0.000
      -0.000  0.994 -0.000 -0.000 -0.000
      -0.000 -0.000  0.995 -0.000 -0.000
      -0.001 -0.000 -0.000  0.993  0.000
       0.000 -0.000 -0.000  0.000  0.996
     SPIN  2
     eigenvalues:
       0.377  0.461  0.833  0.844  0.852
     eigenvectors (columns):
       0.058 -0.981  0.135 -0.115 -0.047
      -0.009 -0.019 -0.105 -0.348  0.931
       0.007 -0.046 -0.838 -0.470 -0.271
       0.016  0.178  0.517 -0.802 -0.238
       0.998  0.054 -0.011  0.020  0.017
     occupation matrix ns (before diag.):
       0.473 -0.007 -0.016  0.066 -0.007
      -0.007  0.851 -0.003  0.000  0.005
      -0.016 -0.003  0.836  0.009 -0.002
       0.066  0.000  0.009  0.829 -0.011
      -0.007  0.005 -0.002 -0.011  0.378
     ------------------------ ATOM    2 ------------------------
     Tr[ns(  2)] (up, down, total) =   4.99129  4.86546  9.85675
     Atomic magnetic moment for atom   2 =   0.12583
     SPIN  1
     eigenvalues:
       0.998  0.998  0.998  0.999  0.999
     eigenvectors (columns):
       0.328  0.152  0.086  0.893  0.253
       0.017 -0.019 -0.993  0.105 -0.042
      -0.003 -0.003  0.069  0.267 -0.961
      -0.877 -0.317  0.023  0.345  0.101
      -0.350  0.936 -0.027 -0.025 -0.011
     occupation matrix ns (before diag.):
       0.998  0.000 -0.000  0.000 -0.000
       0.000  0.998  0.000  0.000  0.000
      -0.000  0.000  0.999 -0.000  0.000
       0.000  0.000 -0.000  0.998 -0.000
      -0.000  0.000  0.000 -0.000  0.998
     SPIN  2
     eigenvalues:
       0.960  0.965  0.970  0.984  0.986
     eigenvectors (columns):
      -0.007 -0.001  0.036  0.988 -0.149
       0.014 -0.999 -0.050 -0.002 -0.017
       0.084 -0.049  0.995 -0.036 -0.000
      -0.996 -0.018  0.083 -0.010 -0.003
      -0.004 -0.017  0.005  0.149  0.989
     occupation matrix ns (before diag.):
       0.984  0.000 -0.000 -0.000 -0.000
       0.000  0.965 -0.000  0.000 -0.000
      -0.000 -0.000  0.970  0.001 -0.000
      -0.000  0.000  0.001  0.961 -0.000
      -0.000 -0.000 -0.000 -0.000  0.986
     ------------------------ ATOM    3 ------------------------
     Tr[ns(  3)] (up, down, total) =   4.97035  3.25724  8.22759
     Atomic magnetic moment for atom   3 =   1.71310
     SPIN  1
     eigenvalues:
       0.992  0.993  0.994  0.995  0.996
     eigenvectors (columns):
      -0.416  0.080  0.899  0.028  0.106
       0.134  0.956 -0.040 -0.173  0.190
      -0.154 -0.123 -0.012 -0.968 -0.157
      -0.886  0.123 -0.428  0.126  0.028
      -0.020  0.221  0.081  0.131 -0.963
     occupation matrix ns (before diag.):
       0.994  0.000 -0.000 -0.001 -0.000
       0.000  0.993  0.000  0.000 -0.000
      -0.000  0.000  0.995 -0.000  0.000
      -0.001  0.000 -0.000  0.992 -0.000
      -0.000 -0.000  0.000 -0.000  0.996
     SPIN  2
     eigenvalues:
       0.323  0.436  0.813  0.838  0.847
     eigenvectors (columns):
      -0.025 -0.984 -0.105 -0.032 -0.139
      -0.006  0.017 -0.110  0.960 -0.258
       0.002 -0.028  0.884 -0.024 -0.466
      -0.021  0.174 -0.442 -0.278 -0.835
       0.999 -0.020 -0.015 -0.000 -0.022
     occupation matrix ns (before diag.):
       0.448  0.007 -0.008  0.069  0.005
       0.007  0.838  0.004 -0.000  0.003
      -0.008  0.004  0.820  0.015 -0.001
       0.069 -0.000  0.015  0.827  0.012
       0.005  0.003 -0.001  0.012  0.324
     ------------------------ ATOM    4 ------------------------
     Tr[ns(  4)] (up, down, total) =   4.97851  4.89041  9.86892
     Atomic magnetic moment for atom   4 =   0.08810
     SPIN  1
     eigenvalues:
       0.995  0.995  0.996  0.996  0.997
     eigenvectors (columns):
       0.169 -0.020 -0.165  0.932  0.275
      -0.051 -0.998 -0.006 -0.020  0.023
      -0.105  0.014 -0.983 -0.147 -0.024
      -0.979  0.047  0.078  0.176  0.054
       0.006  0.027  0.019 -0.280  0.959
     occupation matrix ns (before diag.):
       0.996 -0.000 -0.000  0.000  0.000
      -0.000  0.995  0.000 -0.000  0.000
      -0.000  0.000  0.996 -0.000  0.000
       0.000 -0.000 -0.000  0.995  0.000
       0.000  0.000  0.000  0.000  0.997
     SPIN  2
     eigenvalues:
       0.972  0.973  0.976  0.983  0.986
     eigenvectors (columns):
      -0.052  0.001 -0.021 -0.998  0.011
       0.024 -0.999 -0.028 -0.002 -0.010
       0.080 -0.026  0.996 -0.025 -0.002
       0.995  0.026 -0.080 -0.050  0.007
      -0.006 -0.010  0.002  0.012  1.000
     occupation matrix ns (before diag.):
       0.983  0.000  0.000  0.001  0.000
       0.000  0.973 -0.000 -0.000 -0.000
       0.000 -0.000  0.976 -0.000 -0.000
       0.001 -0.000 -0.000  0.972  0.000
       0.000 -0.000 -0.000  0.000  0.986
     ------------------------ ATOM    5 ------------------------
     Tr[ns(  5)] (up, down, total) =   4.96622  4.83556  9.80177
     Atomic magnetic moment for atom   5 =   0.13066
     SPIN  1
     eigenvalues:
       0.991  0.991  0.991  0.996  0.997
     eigenvectors (columns):
      -0.742 -0.456  0.084  0.484  0.027
       0.010  0.002 -0.033  0.078 -0.996
      -0.534  0.817 -0.218 -0.012  0.002
       0.404  0.262 -0.053  0.872  0.075
      -0.034  0.237  0.970  0.006 -0.032
     occupation matrix ns (before diag.):
       0.992  0.000 -0.000  0.002  0.000
       0.000  0.997 -0.000 -0.000  0.000
      -0.000 -0.000  0.991  0.000 -0.000
       0.002 -0.000  0.000  0.995  0.000
       0.000  0.000 -0.000  0.000  0.991
     SPIN  2
     eigenvalues:
       0.955  0.956  0.958  0.981  0.985
     eigenvectors (columns):
       0.162  0.751 -0.466  0.435  0.050
      -0.018  0.015  0.005  0.100 -0.995
       0.207  0.492  0.846 -0.020  0.006
      -0.092 -0.351  0.247  0.894  0.088
       0.960 -0.265 -0.080  0.019 -0.020
     occupation matrix ns (before diag.):
       0.961 -0.000 -0.001  0.010  0.000
      -0.000  0.985 -0.000 -0.000  0.001
      -0.001 -0.000  0.957  0.000 -0.000
       0.010 -0.000  0.000  0.976  0.000
       0.000  0.001 -0.000  0.000  0.955
     ------------------------ ATOM    6 ------------------------
     Tr[ns(  6)] (up, down, total) =   4.94484  4.40250  9.34735
     Atomic magnetic moment for atom   6 =   0.54234
     SPIN  1
     eigenvalues:
       0.984  0.985  0.987  0.994  0.995
     eigenvectors (columns):
       0.238  0.039 -0.845 -0.477  0.026
      -0.013 -0.033 -0.020  0.079  0.996
       0.942 -0.221  0.254  0.003  0.010
      -0.122  0.005  0.462 -0.875  0.077
       0.205  0.974  0.089  0.027  0.035
     occupation matrix ns (before diag.):
       0.988 -0.000 -0.001  0.003 -0.000
      -0.000  0.995  0.000  0.000  0.000
      -0.001  0.000  0.984  0.000 -0.000
       0.003  0.000  0.000  0.992 -0.000
      -0.000  0.000 -0.000 -0.000  0.985
     SPIN  2
     eigenvalues:
       0.836  0.859  0.875  0.894  0.939
     eigenvectors (columns):
       0.035  0.220 -0.837 -0.499 -0.040
      -0.092 -0.018 -0.025 -0.051  0.994
      -0.067  0.959  0.272 -0.040  0.016
       0.058 -0.166  0.474 -0.862 -0.030
       0.991  0.065  0.018  0.061  0.096
     occupation matrix ns (before diag.):
       0.879 -0.002 -0.003  0.009 -0.002
      -0.002  0.938  0.001 -0.001  0.010
      -0.003  0.001  0.860  0.003  0.002
       0.009 -0.001  0.003  0.888 -0.003
      -0.002  0.010  0.002 -0.003  0.838
     ------------------------ ATOM    7 ------------------------
     Tr[ns(  7)] (up, down, total) =   4.96152  4.68838  9.64990
     Atomic magnetic moment for atom   7 =   0.27314
     SPIN  1
     eigenvalues:
       0.989  0.989  0.991  0.996  0.997
     eigenvectors (columns):
      -0.830 -0.157  0.139 -0.516 -0.019
      -0.014 -0.014  0.014  0.068 -0.997
       0.203 -0.028  0.977 -0.054  0.007
       0.487  0.107 -0.145 -0.852 -0.068
      -0.180  0.981  0.066  0.010 -0.009
     occupation matrix ns (before diag.):
       0.991 -0.000  0.000  0.003 -0.000
      -0.000  0.997 -0.000  0.000  0.000
       0.000 -0.000  0.991  0.000  0.000
       0.003  0.000  0.000  0.994 -0.000
      -0.000  0.000  0.000 -0.000  0.989
     SPIN  2
     eigenvalues:
       0.908  0.915  0.925  0.966  0.974
     eigenvectors (columns):
       0.111 -0.806  0.379 -0.441 -0.006
      -0.004  0.006  0.002  0.003 -1.000
      -0.081  0.420  0.904 -0.012  0.005
      -0.032  0.393 -0.197 -0.897 -0.000
       0.990  0.138  0.025  0.019 -0.003
     occupation matrix ns (before diag.):
       0.926  0.000  0.004  0.020 -0.001
       0.000  0.974 -0.000 -0.000  0.000
       0.004 -0.000  0.923 -0.001  0.001
       0.020 -0.000 -0.001  0.957 -0.001
      -0.001  0.000  0.001 -0.001  0.908
     ------------------------ ATOM    8 ------------------------
     Tr[ns(  8)] (up, down, total) =   4.97627  4.57823  9.55450
     Atomic magnetic moment for atom   8 =   0.39803
     SPIN  1
     eigenvalues:
       0.994  0.994  0.995  0.996  0.997
     eigenvectors (columns):
      -0.094 -0.069 -0.409 -0.904 -0.040
      -0.144  0.039  0.055  0.031 -0.987
      -0.287 -0.953  0.035  0.086  0.009
      -0.009 -0.001  0.910 -0.413  0.039
       0.942 -0.291 -0.013 -0.063 -0.152
     occupation matrix ns (before diag.):
       0.996  0.000 -0.000  0.000  0.000
       0.000  0.997 -0.000 -0.000  0.000
      -0.000 -0.000  0.994 -0.000  0.000
       0.000 -0.000 -0.000  0.995  0.000
       0.000  0.000  0.000  0.000  0.994
     SPIN  2
     eigenvalues:
       0.880  0.896  0.913  0.933  0.955
     eigenvectors (columns):
      -0.065 -0.228  0.870  0.430 -0.046
      -0.067 -0.005 -0.032 -0.054 -0.996
       0.017 -0.962 -0.270  0.039  0.010
      -0.040  0.151 -0.409  0.898 -0.034
       0.995  0.007  0.043  0.060 -0.072
     occupation matrix ns (before diag.):
       0.916  0.001 -0.003  0.008  0.003
       0.001  0.955 -0.001  0.000  0.005
      -0.003 -0.001  0.897  0.003 -0.000
       0.008  0.000  0.003  0.929  0.002
       0.003  0.005 -0.000  0.002  0.881
     ------------------------ ATOM    9 ------------------------
     Tr[ns(  9)] (up, down, total) =   4.90238  3.21051  8.11289
     Atomic magnetic moment for atom   9 =   1.69187
     SPIN  1
     eigenvalues:
       0.971  0.974  0.980  0.986  0.991
     eigenvectors (columns):
      -0.092  0.322 -0.356  0.850  0.197
      -0.942  0.083  0.229  0.016 -0.230
       0.125  0.942  0.137 -0.273 -0.056
      -0.202  0.038 -0.893 -0.393 -0.073
      -0.218  0.012  0.069 -0.219  0.948
     occupation matrix ns (before diag.):
       0.984 -0.001 -0.003 -0.003  0.001
      -0.001  0.973  0.001 -0.001 -0.004
      -0.003  0.001  0.975  0.001 -0.000
      -0.003 -0.001  0.001  0.980 -0.001
       0.001 -0.004 -0.000 -0.001  0.990
     SPIN  2
     eigenvalues:
       0.343  0.456  0.715  0.826  0.871
     eigenvectors (columns):
      -0.070  0.970 -0.038 -0.041 -0.225
      -0.131 -0.022  0.127 -0.978  0.103
      -0.044 -0.104  0.803  0.052 -0.582
       0.082 -0.203 -0.572 -0.162 -0.773
       0.984  0.078  0.098 -0.117  0.036
     occupation matrix ns (before diag.):
       0.478  0.003  0.045  0.081  0.005
       0.003  0.816 -0.018  0.008  0.062
       0.045 -0.018  0.765  0.065  0.014
       0.081  0.008  0.065  0.798 -0.028
       0.005  0.062  0.014 -0.028  0.355
     ------------------------ ATOM   10 ------------------------
     Tr[ns( 10)] (up, down, total) =   4.53264  0.58062  5.11326
     Atomic magnetic moment for atom  10 =   3.95201
     SPIN  1
     eigenvalues:
       0.704  0.933  0.953  0.971  0.973
     eigenvectors (columns):
       0.167  0.642 -0.720 -0.039  0.200
       0.029 -0.017 -0.115 -0.831 -0.544
      -0.027 -0.474 -0.590  0.419 -0.502
      -0.079 -0.579 -0.336 -0.365  0.642
       0.982 -0.168  0.083  0.014  0.020
     occupation matrix ns (before diag.):
       0.938 -0.003  0.005  0.014 -0.039
      -0.003  0.971 -0.001 -0.001 -0.008
       0.005 -0.001  0.956 -0.015  0.005
       0.014 -0.001 -0.015  0.955  0.018
      -0.039 -0.008  0.005  0.018  0.712
     SPIN  2
     eigenvalues:
       0.055  0.076  0.089  0.144  0.216
     eigenvectors (columns):
      -0.035  0.070  0.282 -0.936  0.195
       0.387  0.908 -0.158  0.010  0.023
       0.896 -0.331  0.293  0.027 -0.014
      -0.213  0.246  0.900  0.283 -0.069
      -0.004 -0.022  0.015  0.206  0.978
     occupation matrix ns (before diag.):
       0.142 -0.000 -0.000 -0.017  0.014
      -0.000  0.073 -0.008 -0.000  0.003
      -0.000 -0.008  0.060  0.008 -0.001
      -0.017 -0.000  0.008  0.092 -0.005
       0.014  0.003 -0.001 -0.005  0.213
     ------------------------ ATOM   11 ------------------------
     Tr[ns( 11)] (up, down, total) =   4.68399  0.45515  5.13914
     Atomic magnetic moment for atom  11 =   4.22883
     SPIN  1
     eigenvalues:
       0.882  0.933  0.945  0.962  0.963
     eigenvectors (columns):
      -0.974 -0.001  0.011 -0.032 -0.223
       0.000 -0.056 -0.996 -0.060 -0.041
       0.100  0.844 -0.010 -0.354 -0.391
       0.151 -0.533  0.089 -0.602 -0.568
      -0.134  0.036  0.012 -0.712  0.688
     occupation matrix ns (before diag.):
       0.886  0.000  0.008  0.012 -0.011
       0.000  0.945  0.001  0.001  0.000
       0.008  0.001  0.940  0.012 -0.000
       0.012  0.001  0.012  0.952  0.002
      -0.011  0.000 -0.000  0.002  0.961
     SPIN  2
     eigenvalues:
       0.042  0.053  0.084  0.117  0.159
     eigenvectors (columns):
       0.110 -0.035 -0.309 -0.932  0.149
       0.353  0.933 -0.067  0.029 -0.001
       0.814 -0.270  0.511 -0.060  0.019
       0.448 -0.237 -0.799  0.314 -0.080
       0.005 -0.007 -0.028  0.168  0.985
     occupation matrix ns (before diag.):
       0.114 -0.002 -0.002 -0.013  0.006
      -0.002  0.052 -0.004  0.000  0.000
      -0.002 -0.004  0.054 -0.018  0.001
      -0.013  0.000 -0.018  0.078 -0.004
       0.006  0.000  0.001 -0.004  0.158
     ------------------------ ATOM   12 ------------------------
     Tr[ns( 12)] (up, down, total) =   3.19142  0.36941  3.56083
     Atomic magnetic moment for atom  12 =   2.82201
     SPIN  1
     eigenvalues:
       0.286  0.349  0.747  0.899  0.911
     eigenvectors (columns):
       0.972 -0.110 -0.025 -0.204 -0.037
       0.015  0.037 -0.062  0.236 -0.969
       0.136 -0.007 -0.672  0.696  0.215
      -0.149  0.087 -0.735 -0.646 -0.110
       0.121  0.989  0.060  0.030  0.043
     occupation matrix ns (before diag.):
       0.313 -0.007 -0.084  0.091 -0.012
      -0.007  0.909 -0.010 -0.006 -0.021
      -0.084 -0.010  0.819 -0.063 -0.000
       0.091 -0.006 -0.063  0.799 -0.030
      -0.012 -0.021 -0.000 -0.030  0.351
     SPIN  2
     eigenvalues:
       0.031  0.042  0.052  0.111  0.134
     eigenvectors (columns):
       0.095  0.029  0.210  0.966  0.115
       0.014 -0.995  0.093  0.004  0.039
      -0.936  0.020  0.351  0.015  0.001
       0.338  0.089  0.907 -0.235  0.016
      -0.016  0.034 -0.043 -0.109  0.992
     occupation matrix ns (before diag.):
       0.108  0.001  0.003 -0.014  0.003
       0.001  0.042  0.000  0.001  0.003
       0.003  0.000  0.034  0.006 -0.000
      -0.014  0.001  0.006  0.053  0.003
       0.003  0.003 -0.000  0.003  0.133
     ------------------------ ATOM   13 ------------------------
     Tr[ns( 13)] (up, down, total) =   0.51997  0.26855  0.78852
     Atomic magnetic moment for atom  13 =   0.25142
     SPIN  1
     eigenvalues:
       0.035  0.073  0.084  0.120  0.208
     eigenvectors (columns):
       0.897  0.040 -0.035 -0.005  0.439
      -0.015  0.019 -0.000 -1.000  0.017
       0.035 -0.137  0.990 -0.003  0.021
      -0.439 -0.023 -0.007  0.021  0.898
      -0.041  0.989  0.138  0.019  0.005
     occupation matrix ns (before diag.):
       0.068  0.002 -0.000  0.068  0.002
       0.002  0.120  0.000  0.001 -0.001
      -0.000  0.000  0.084  0.003  0.002
       0.068  0.001  0.003  0.175 -0.000
       0.002 -0.001  0.002 -0.000  0.073
     SPIN  2
     eigenvalues:
       0.017  0.030  0.033  0.073  0.116
     eigenvectors (columns):
      -0.895  0.009  0.013  0.014 -0.446
       0.019  0.006 -0.004  1.000 -0.005
      -0.005  0.003 -1.000 -0.004 -0.018
       0.446  0.008  0.014 -0.013 -0.895
       0.005  1.000  0.003 -0.006  0.011
     occupation matrix ns (before diag.):
       0.037  0.001  0.001  0.039 -0.000
       0.001  0.073 -0.000 -0.000 -0.000
       0.001 -0.000  0.033  0.001 -0.000
       0.039 -0.000  0.001  0.096 -0.001
      -0.000 -0.000 -0.000 -0.001  0.030
     ------------------------ ATOM   14 ------------------------
     Tr[ns( 14)] (up, down, total) =   4.95246  4.76983  9.72229
     Atomic magnetic moment for atom  14 =   0.18263
     SPIN  1
     eigenvalues:
       0.987  0.989  0.990  0.992  0.995
     eigenvectors (columns):
      -0.102 -0.911  0.022  0.019  0.399
      -0.137  0.035  0.016 -0.986  0.092
       0.080  0.011  0.997  0.004 -0.010
       0.031  0.398  0.002  0.095  0.912
       0.982 -0.103 -0.076 -0.139  0.026
     occupation matrix ns (before diag.):
       0.990  0.000  0.000  0.002  0.000
       0.000  0.992  0.000  0.000  0.001
       0.000  0.000  0.990 -0.000 -0.000
       0.002  0.000 -0.000  0.994  0.000
       0.000  0.001 -0.000  0.000  0.987
     SPIN  2
     eigenvalues:
       0.933  0.946  0.950  0.964  0.977
     eigenvectors (columns):
      -0.209 -0.888 -0.213  0.050 -0.347
      -0.073 -0.005  0.037 -0.991 -0.111
       0.015  0.242 -0.969 -0.034 -0.037
       0.033  0.334  0.115  0.104 -0.929
       0.975 -0.206 -0.032 -0.066 -0.051
     occupation matrix ns (before diag.):
       0.949  0.000  0.001  0.010  0.003
       0.000  0.964  0.001  0.001  0.002
       0.001  0.001  0.950  0.000  0.000
       0.010  0.001  0.000  0.973  0.001
       0.003  0.002  0.000  0.001  0.934
     ------------------------ ATOM   15 ------------------------
     Tr[ns( 15)] (up, down, total) =   0.64500  0.27009  0.91509
     Atomic magnetic moment for atom  15 =   0.37491
     SPIN  1
     eigenvalues:
       0.053  0.088  0.104  0.164  0.235
     eigenvectors (columns):
       0.909 -0.062 -0.025 -0.013 -0.410
      -0.001  0.017  0.006  0.999 -0.036
       0.035  0.181  0.983 -0.009 -0.009
      -0.411  0.006  0.005 -0.034 -0.911
       0.054  0.981 -0.183 -0.016 -0.018
     occupation matrix ns (before diag.):
       0.084  0.001 -0.001  0.068 -0.001
       0.001  0.164 -0.001  0.002 -0.001
      -0.001 -0.001  0.104  0.002 -0.003
       0.068  0.002  0.002  0.204  0.003
      -0.001 -0.001 -0.003  0.003  0.089
     SPIN  2
     eigenvalues:
       0.022  0.029  0.029  0.083  0.107
     eigenvectors (columns):
      -0.911 -0.002 -0.008 -0.040  0.411
      -0.008  0.005 -0.004  0.997  0.080
       0.008 -0.939 -0.345  0.002  0.006
       0.413  0.001  0.022 -0.069  0.908
       0.015  0.345 -0.938 -0.007  0.016
     occupation matrix ns (before diag.):
       0.036  0.000  0.000  0.032  0.001
       0.000  0.084  0.000  0.002 -0.000
       0.000  0.000  0.029  0.000  0.000
       0.032  0.002  0.000  0.092  0.001
       0.001 -0.000  0.000  0.001  0.029
     ------------------------ ATOM   16 ------------------------
     Tr[ns( 16)] (up, down, total) =   4.95148  4.76723  9.71870
     Atomic magnetic moment for atom  16 =   0.18425
     SPIN  1
     eigenvalues:
       0.986  0.988  0.990  0.992  0.995
     eigenvectors (columns):
       0.077  0.894  0.081 -0.010 -0.434
      -0.118  0.049 -0.099 -0.983  0.084
      -0.095 -0.092  0.987 -0.094 -0.018
      -0.056 -0.426 -0.070 -0.084 -0.897
       0.984 -0.097  0.074 -0.131 -0.008
     occupation matrix ns (before diag.):
       0.990 -0.000  0.000  0.003 -0.000
      -0.000  0.992  0.000 -0.000  0.001
       0.000  0.000  0.990  0.000  0.000
       0.003 -0.000  0.000  0.994  0.000
      -0.000  0.001  0.000  0.000  0.987
     SPIN  2
     eigenvalues:
       0.932  0.945  0.949  0.963  0.978
     eigenvectors (columns):
       0.114  0.899 -0.157  0.076 -0.384
      -0.068 -0.035  0.018  0.993  0.086
      -0.014 -0.195 -0.979  0.015 -0.057
      -0.047 -0.369  0.128  0.061 -0.917
       0.990 -0.126  0.012  0.063  0.006
     occupation matrix ns (before diag.):
       0.950  0.000  0.001  0.012 -0.001
       0.000  0.962  0.000 -0.002  0.002
       0.001  0.000  0.949  0.001  0.000
       0.012 -0.002  0.001  0.973  0.001
      -0.001  0.002  0.000  0.001  0.933
     ------------------------ ATOM   17 ------------------------
     Tr[ns( 17)] (up, down, total) =   0.17727  0.11470  0.29197
     Atomic magnetic moment for atom  17 =   0.06257
     SPIN  1
     eigenvalues:
       0.001  0.002  0.008  0.078  0.089
     eigenvectors (columns):
       0.050  0.049 -0.192 -0.270 -0.941
       0.212 -0.971 -0.110 -0.004 -0.015
       0.966  0.191  0.171 -0.004  0.027
       0.137  0.135 -0.960  0.024  0.203
      -0.015 -0.007  0.030 -0.963  0.269
     occupation matrix ns (before diag.):
       0.084  0.001 -0.002 -0.016 -0.002
       0.001  0.002 -0.000  0.000 -0.000
      -0.002 -0.000  0.002 -0.001  0.001
      -0.016  0.000 -0.001  0.011  0.003
      -0.002 -0.000  0.001  0.003  0.079
     SPIN  2
     eigenvalues:
       0.001  0.001  0.005  0.052  0.056
     eigenvectors (columns):
       0.046  0.031 -0.198 -0.352 -0.913
       0.173 -0.981 -0.082 -0.003 -0.006
       0.976  0.160  0.146 -0.002  0.024
       0.123  0.101 -0.965  0.043  0.202
      -0.014 -0.004  0.030 -0.935  0.353
     occupation matrix ns (before diag.):
       0.054  0.000 -0.001 -0.010 -0.001
       0.000  0.001 -0.000  0.000  0.000
      -0.001 -0.000  0.001 -0.000  0.001
      -0.010  0.000 -0.000  0.007  0.002
      -0.001  0.000  0.001  0.002  0.052
     ------------------------ ATOM   18 ------------------------
     Tr[ns( 18)] (up, down, total) =   0.69967  0.10550  0.80517
     Atomic magnetic moment for atom  18 =   0.59416
     SPIN  1
     eigenvalues:
       0.028  0.057  0.071  0.253  0.290
     eigenvectors (columns):
       0.020  0.066  0.900 -0.070 -0.425
       0.349  0.865 -0.046 -0.341  0.110
      -0.934  0.297  0.015 -0.185  0.064
      -0.037  0.305  0.232  0.833  0.399
       0.055 -0.259  0.366 -0.389  0.803
     occupation matrix ns (before diag.):
       0.112 -0.007 -0.003 -0.048 -0.069
      -0.007  0.079  0.023 -0.045  0.046
      -0.003  0.023  0.040 -0.025  0.028
      -0.048 -0.045 -0.025  0.230  0.012
      -0.069  0.046  0.028  0.012  0.238
     SPIN  2
     eigenvalues:
       0.004  0.005  0.007  0.038  0.051
     eigenvectors (columns):
      -0.163  0.002 -0.114 -0.976  0.093
       0.048 -0.998 -0.041 -0.006 -0.004
       0.646  0.062 -0.761 -0.020 -0.011
      -0.744 -0.011 -0.637  0.193 -0.059
      -0.021 -0.004 -0.036  0.102  0.994
     occupation matrix ns (before diag.):
       0.036  0.000  0.001 -0.006  0.001
       0.000  0.005  0.000  0.000 -0.000
       0.001  0.000  0.006  0.002 -0.000
      -0.006  0.000  0.002  0.007 -0.002
       0.001 -0.000 -0.000 -0.002  0.051
     ------------------------ ATOM   19 ------------------------
     Tr[ns( 19)] (up, down, total) =   0.12740  0.09467  0.22207
     Atomic magnetic moment for atom  19 =   0.03273
     SPIN  1
     eigenvalues:
       0.001  0.002  0.003  0.046  0.075
     eigenvectors (columns):
      -0.014  0.108 -0.200 -0.971  0.065
       0.494  0.746  0.446 -0.015  0.015
       0.862 -0.352 -0.365  0.023 -0.007
      -0.115  0.555 -0.792  0.224 -0.038
      -0.005  0.000 -0.027  0.073  0.997
     occupation matrix ns (before diag.):
       0.044  0.001 -0.001 -0.010  0.002
       0.001  0.002 -0.000 -0.000  0.001
      -0.001 -0.000  0.002  0.000 -0.000
      -0.010 -0.000  0.000  0.005 -0.002
       0.002  0.001 -0.000 -0.002  0.075
     SPIN  2
     eigenvalues:
       0.001  0.002  0.002  0.035  0.055
     eigenvectors (columns):
       0.001  0.073 -0.199 -0.975  0.065
       0.464  0.807  0.365 -0.012  0.013
       0.884 -0.394 -0.252  0.023 -0.007
      -0.061  0.434 -0.873  0.209 -0.037
      -0.002 -0.002 -0.026  0.072  0.997
     occupation matrix ns (before diag.):
       0.033  0.000 -0.001 -0.007  0.001
       0.000  0.002 -0.000 -0.000  0.001
      -0.001 -0.000  0.001  0.000 -0.000
      -0.007 -0.000  0.000  0.003 -0.001
       0.001  0.001 -0.000 -0.001  0.055
     ------------------------ ATOM   20 ------------------------
     Tr[ns( 20)] (up, down, total) =   0.29777  0.12467  0.42243
     Atomic magnetic moment for atom  20 =   0.17310
     SPIN  1
     eigenvalues:
       0.017  0.023  0.049  0.094  0.115
     eigenvectors (columns):
       0.066 -0.039 -0.510  0.336  0.788
       0.116 -0.990 -0.008  0.018 -0.072
       0.988  0.115  0.107 -0.006 -0.005
       0.082  0.039 -0.841 -0.353 -0.400
      -0.012 -0.053  0.142 -0.873  0.463
     occupation matrix ns (before diag.):
       0.095 -0.005 -0.002 -0.026  0.011
      -0.005  0.024 -0.001  0.002 -0.004
      -0.002 -0.001  0.017 -0.002  0.001
      -0.026  0.002 -0.002  0.065  0.002
       0.011 -0.004  0.001  0.002  0.097
     SPIN  2
     eigenvalues:
       0.006  0.009  0.010  0.048  0.052
     eigenvectors (columns):
       0.234  0.027 -0.013 -0.447 -0.863
       0.006 -0.083 -0.996  0.014  0.007
       0.079  0.992 -0.082  0.024  0.041
       0.968 -0.086  0.016  0.072  0.222
      -0.037  0.005 -0.011 -0.891  0.452
     occupation matrix ns (before diag.):
       0.048 -0.000 -0.002 -0.010 -0.001
      -0.000  0.010  0.000  0.000 -0.000
      -0.002  0.000  0.009  0.000 -0.000
      -0.010  0.000  0.000  0.009  0.002
      -0.001 -0.000 -0.000  0.002  0.048
     ------------------------ ATOM   21 ------------------------
     Tr[ns( 21)] (up, down, total) =   0.28904  0.14027  0.42931
     Atomic magnetic moment for atom  21 =   0.14877
     SPIN  1
     eigenvalues:
       0.008  0.033  0.034  0.087  0.127
     eigenvectors (columns):
      -0.083 -0.740  0.614  0.206 -0.162
      -0.052  0.006  0.056  0.511  0.856
       0.782  0.358  0.503  0.077 -0.033
      -0.096  0.213 -0.161  0.825 -0.489
       0.608 -0.528 -0.584  0.103  0.017
     occupation matrix ns (before diag.):
       0.038 -0.007  0.004  0.016  0.002
      -0.007  0.116  0.001 -0.017  0.005
       0.004  0.001  0.018  0.007 -0.012
       0.016 -0.017  0.007  0.092  0.005
       0.002  0.005 -0.012  0.005  0.025
     SPIN  2
     eigenvalues:
       0.001  0.013  0.013  0.048  0.065
     eigenvectors (columns):
      -0.088  0.141 -0.936  0.247  0.190
      -0.054  0.039 -0.017  0.540 -0.839
       0.726  0.682  0.057  0.065  0.026
      -0.072 -0.045  0.314  0.797  0.509
       0.676 -0.715 -0.151  0.090 -0.016
     occupation matrix ns (before diag.):
       0.017 -0.004  0.002  0.012  0.001
      -0.004  0.060  0.001 -0.007  0.003
       0.002  0.001  0.007  0.003 -0.006
       0.012 -0.007  0.003  0.049  0.003
       0.001  0.003 -0.006  0.003  0.008
     ------------------------ ATOM   22 ------------------------
     Tr[ns( 22)] (up, down, total) =   0.16556  0.09687  0.26243
     Atomic magnetic moment for atom  22 =   0.06869
     SPIN  1
     eigenvalues:
       0.001  0.002  0.007  0.070  0.086
     eigenvectors (columns):
       0.002 -0.007 -0.948  0.316 -0.049
      -0.003  0.075  0.024  0.225  0.971
      -0.877  0.474 -0.028 -0.071 -0.022
      -0.022  0.103  0.316  0.915 -0.228
       0.480  0.871 -0.032 -0.086 -0.045
     occupation matrix ns (before diag.):
       0.014  0.001 -0.001  0.019 -0.002
       0.001  0.084 -0.003 -0.005 -0.005
      -0.001 -0.003  0.002 -0.004  0.001
       0.019 -0.005 -0.004  0.064 -0.005
      -0.002 -0.005  0.001 -0.005  0.002
     SPIN  2
     eigenvalues:
       0.001  0.001  0.004  0.042  0.050
     eigenvectors (columns):
      -0.011  0.008  0.937  0.344  0.066
       0.061 -0.042 -0.010  0.217 -0.973
      -0.067 -0.995  0.031 -0.068  0.023
       0.078 -0.073 -0.346  0.907  0.214
       0.993 -0.058  0.040 -0.085  0.046
     occupation matrix ns (before diag.):
       0.009 -0.000 -0.001  0.013 -0.001
      -0.000  0.049 -0.002 -0.002 -0.003
      -0.001 -0.002  0.001 -0.002  0.000
       0.013 -0.002 -0.002  0.037 -0.003
      -0.001 -0.003  0.000 -0.003  0.001
     ------------------------ ATOM   23 ------------------------
     Tr[ns( 23)] (up, down, total) =   0.26593  0.13306  0.39899
     Atomic magnetic moment for atom  23 =   0.13287
     SPIN  1
     eigenvalues:
       0.012  0.019  0.025  0.088  0.121
     eigenvectors (columns):
       0.195  0.908  0.116  0.222  0.272
      -0.049  0.019 -0.064 -0.772  0.630
      -0.905  0.102  0.398  0.084  0.070
       0.024 -0.351 -0.108  0.587  0.721
       0.374 -0.203  0.901 -0.051  0.065
     occupation matrix ns (before diag.):
       0.030  0.006  0.005  0.029  0.001
       0.006  0.101 -0.000  0.015  0.007
       0.005 -0.000  0.016  0.008  0.005
       0.029  0.015  0.008  0.096  0.002
       0.001  0.007  0.005  0.002  0.024
     SPIN  2
     eigenvalues:
       0.001  0.009  0.010  0.048  0.065
     eigenvectors (columns):
       0.134  0.917  0.182 -0.295 -0.148
      -0.044  0.008 -0.035  0.435 -0.899
      -0.709 -0.052  0.702 -0.043 -0.014
       0.045 -0.337 -0.039 -0.844 -0.412
       0.689 -0.209  0.687  0.096 -0.015
     occupation matrix ns (before diag.):
       0.014  0.003  0.002  0.013 -0.002
       0.003  0.062 -0.000  0.007  0.003
       0.002 -0.000  0.005  0.002  0.005
       0.013  0.007  0.002  0.046 -0.003
      -0.002  0.003  0.005 -0.003  0.006
     ------------------------ ATOM   24 ------------------------
     Tr[ns( 24)] (up, down, total) =   0.15164  0.08877  0.24041
     Atomic magnetic moment for atom  24 =   0.06287
     SPIN  1
     eigenvalues:
       0.001  0.001  0.008  0.064  0.077
     eigenvectors (columns):
      -0.017 -0.013  0.957 -0.281 -0.067
       0.027 -0.075  0.025  0.315 -0.946
       0.682  0.727  0.042  0.068 -0.014
      -0.013  0.106 -0.285 -0.899 -0.316
       0.731 -0.674 -0.022 -0.098  0.041
     occupation matrix ns (before diag.):
       0.012 -0.001 -0.001  0.016  0.001
      -0.001  0.076  0.002  0.005 -0.005
      -0.001  0.002  0.002 -0.004 -0.001
       0.016  0.005 -0.004  0.060  0.005
       0.001 -0.005 -0.001  0.005  0.002
     SPIN  2
     eigenvalues:
       0.001  0.001  0.004  0.038  0.045
     eigenvectors (columns):
       0.003  0.038  0.947  0.310 -0.079
       0.067  0.041  0.012 -0.284 -0.955
       0.074 -0.993  0.059 -0.063 -0.018
      -0.074 -0.076 -0.315  0.901 -0.280
       0.992  0.066 -0.032  0.090  0.045
     occupation matrix ns (before diag.):
       0.008  0.000 -0.000  0.010  0.001
       0.000  0.044  0.001  0.002 -0.003
      -0.000  0.001  0.001 -0.002 -0.000
       0.010  0.002 -0.002  0.035  0.003
       0.001 -0.003 -0.000  0.003  0.001

     Number of occupied Hubbard levels =  120.7884

     negative rho (up, down):  3.906E-01 3.908E-01

     total cpu time spent up to now is      148.5 secs

     total energy              =   -8997.43559110 Ry
     estimated scf accuracy    <    7327.66908914 Ry

     total magnetization       =    26.30 Bohr mag/cell
     absolute magnetization    =    31.25 Bohr mag/cell

     iteration #  2     ecut=    80.00 Ry     beta= 0.30
     Davidson diagonalization with overlap
     ethr =  1.00E-02,  avg # of iterations =  5.9

     negative rho (up, down):  9.735E-01 1.016E+00

     total cpu time spent up to now is      209.2 secs

     total energy              =   -8849.41959590 Ry
     estimated scf accuracy    <    3423.33183129 Ry

     total magnetization       =    24.72 Bohr mag/cell
     absolute magnetization    =    37.37 Bohr mag/cell

     iteration #  3     ecut=    80.00 Ry     beta= 0.30
     Davidson diagonalization with overlap
     ethr =  1.00E-02,  avg # of iterations =  9.4

     negative rho (up, down):  7.810E-01 8.040E-01

     total cpu time spent up to now is      374.3 secs

     total energy              =   -8956.63917353 Ry
     estimated scf accuracy    <     421.85970410 Ry

     total magnetization       =    15.34 Bohr mag/cell
     absolute magnetization    =    23.52 Bohr mag/cell

     iteration #  4     ecut=    80.00 Ry     beta= 0.30
     Davidson diagonalization with overlap
     ethr =  1.00E-02,  avg # of iterations =  1.9

     negative rho (up, down):  7.346E-01 7.564E-01

     total cpu time spent up to now is      429.6 secs

     total energy              =   -8960.51548337 Ry
     estimated scf accuracy    <     164.94705505 Ry

     total magnetization       =    21.72 Bohr mag/cell
     absolute magnetization    =    32.39 Bohr mag/cell

     iteration #  5     ecut=    80.00 Ry     beta= 0.30
     Davidson diagonalization with overlap
     ethr =  1.00E-02,  avg # of iterations =  1.1

     negative rho (up, down):  6.459E-01 6.620E-01

     total cpu time spent up to now is      481.1 secs

     total energy              =   -8956.84562231 Ry
     estimated scf accuracy    <      92.71019520 Ry

     total magnetization       =    25.67 Bohr mag/cell
     absolute magnetization    =    38.54 Bohr mag/cell

     iteration #  6     ecut=    80.00 Ry     beta= 0.30
     Davidson diagonalization with overlap
     ethr =  1.00E-02,  avg # of iterations =  1.3

     negative rho (up, down):  5.267E-01 5.386E-01

     total cpu time spent up to now is      535.6 secs

     total energy              =   -8954.67011424 Ry
     estimated scf accuracy    <      47.21095733 Ry

     total magnetization       =    33.63 Bohr mag/cell
     absolute magnetization    =    42.28 Bohr mag/cell

     iteration #  7     ecut=    80.00 Ry     beta= 0.30
     Davidson diagonalization with overlap
     ethr =  6.83E-03,  avg # of iterations =  3.7

     negative rho (up, down):  5.003E-01 5.130E-01

     total cpu time spent up to now is      592.0 secs

     total energy              =   -8956.22651696 Ry
     estimated scf accuracy    <     131.76628390 Ry

     total magnetization       =    39.18 Bohr mag/cell
     absolute magnetization    =    49.91 Bohr mag/cell

     iteration #  8     ecut=    80.00 Ry     beta= 0.30
     Davidson diagonalization with overlap
     ethr =  6.83E-03,  avg # of iterations =  1.8

     negative rho (up, down):  4.644E-01 4.772E-01

     total cpu time spent up to now is      647.4 secs

     total energy              =   -8957.22571970 Ry
     estimated scf accuracy    <      30.20768916 Ry

     total magnetization       =    39.51 Bohr mag/cell
     absolute magnetization    =    46.27 Bohr mag/cell

     iteration #  9     ecut=    80.00 Ry     beta= 0.30
     Davidson diagonalization with overlap
     ethr =  4.37E-03,  avg # of iterations =  1.1

     negative rho (up, down):  4.159E-01 4.302E-01

     total cpu time spent up to now is      700.3 secs

     total energy              =   -8956.79545875 Ry
     estimated scf accuracy    <      35.68112893 Ry

     total magnetization       =    41.53 Bohr mag/cell
     absolute magnetization    =    49.89 Bohr mag/cell

     iteration # 10     ecut=    80.00 Ry     beta= 0.30
     Davidson diagonalization with overlap
     ethr =  4.37E-03,  avg # of iterations =  1.6

     negative rho (up, down):  3.860E-01 4.010E-01

     total cpu time spent up to now is      757.0 secs

     total energy              =   -8957.03551226 Ry
     estimated scf accuracy    <      13.45067737 Ry

     total magnetization       =    38.65 Bohr mag/cell
     absolute magnetization    =    48.23 Bohr mag/cell

     iteration # 11     ecut=    80.00 Ry     beta= 0.30
     Davidson diagonalization with overlap
     ethr =  1.95E-03,  avg # of iterations =  3.1

     negative rho (up, down):  3.155E-01 3.335E-01

     total cpu time spent up to now is      812.3 secs

     total energy              =   -8956.92852483 Ry
     estimated scf accuracy    <       9.27212483 Ry

     total magnetization       =    37.34 Bohr mag/cell
     absolute magnetization    =    48.19 Bohr mag/cell

     iteration # 12     ecut=    80.00 Ry     beta= 0.30
     Davidson diagonalization with overlap
     ethr =  1.34E-03,  avg # of iterations =  1.5

     negative rho (up, down):  2.635E-01 2.833E-01

     total cpu time spent up to now is      875.1 secs

     total energy              =   -8956.92675142 Ry
     estimated scf accuracy    <       8.09939640 Ry

     total magnetization       =    38.62 Bohr mag/cell
     absolute magnetization    =    51.22 Bohr mag/cell

     iteration # 13     ecut=    80.00 Ry     beta= 0.30
     Davidson diagonalization with overlap
     ethr =  1.17E-03,  avg # of iterations =  1.6

     negative rho (up, down):  2.335E-01 2.548E-01

     total cpu time spent up to now is      928.4 secs

     total energy              =   -8956.91506487 Ry
     estimated scf accuracy    <       7.22819586 Ry

     total magnetization       =    39.03 Bohr mag/cell
     absolute magnetization    =    53.98 Bohr mag/cell

     iteration # 14     ecut=    80.00 Ry     beta= 0.30
     Davidson diagonalization with overlap
     ethr =  1.05E-03,  avg # of iterations =  1.3

     negative rho (up, down):  1.969E-01 2.189E-01

     total cpu time spent up to now is      980.5 secs

     total energy              =   -8956.93479040 Ry
     estimated scf accuracy    <       4.31200894 Ry

     total magnetization       =    38.07 Bohr mag/cell
     absolute magnetization    =    55.22 Bohr mag/cell

     iteration # 15     ecut=    80.00 Ry     beta= 0.30
     Davidson diagonalization with overlap
     ethr =  6.24E-04,  avg # of iterations =  2.1

     negative rho (up, down):  1.325E-01 1.563E-01

     total cpu time spent up to now is     1033.7 secs

     total energy              =   -8956.88732851 Ry
     estimated scf accuracy    <       2.89284269 Ry

     total magnetization       =    37.02 Bohr mag/cell
     absolute magnetization    =    57.00 Bohr mag/cell

     iteration # 16     ecut=    80.00 Ry     beta= 0.30
     Davidson diagonalization with overlap
     ethr =  4.19E-04,  avg # of iterations =  1.4

     negative rho (up, down):  1.118E-01 1.359E-01

     total cpu time spent up to now is     1085.6 secs

     total energy              =   -8956.92473700 Ry
     estimated scf accuracy    <       2.10862146 Ry

     total magnetization       =    35.03 Bohr mag/cell
     absolute magnetization    =    60.47 Bohr mag/cell

     iteration # 17     ecut=    80.00 Ry     beta= 0.30
     Davidson diagonalization with overlap
     ethr =  3.05E-04,  avg # of iterations =  1.0

     negative rho (up, down):  5.521E-02 7.984E-02

     total cpu time spent up to now is     1135.0 secs

     total energy              =   -8956.88844571 Ry
     estimated scf accuracy    <       2.26051028 Ry

     total magnetization       =    35.10 Bohr mag/cell
     absolute magnetization    =    61.17 Bohr mag/cell

     iteration # 18     ecut=    80.00 Ry     beta= 0.30
     Davidson diagonalization with overlap
     ethr =  3.05E-04,  avg # of iterations =  1.6

     negative rho (up, down):  1.369E-02 4.067E-02

     total cpu time spent up to now is     1187.5 secs

     total energy              =   -8956.81867787 Ry
     estimated scf accuracy    <       1.77609744 Ry

     total magnetization       =    34.59 Bohr mag/cell
     absolute magnetization    =    63.28 Bohr mag/cell

     iteration # 19     ecut=    80.00 Ry     beta= 0.30
     Davidson diagonalization with overlap
     ethr =  2.57E-04,  avg # of iterations =  1.0

     negative rho (up, down):  1.065E-03 2.934E-02

     total cpu time spent up to now is     1237.1 secs

     total energy              =   -8956.70748836 Ry
     estimated scf accuracy    <       1.43972598 Ry

     total magnetization       =    34.40 Bohr mag/cell
     absolute magnetization    =    65.11 Bohr mag/cell

     iteration # 20     ecut=    80.00 Ry     beta= 0.30
     Davidson diagonalization with overlap
     ethr =  2.08E-04,  avg # of iterations =  1.5

     negative rho (up, down):  5.131E-03 3.449E-02

     total cpu time spent up to now is     1291.5 secs

     total energy              =   -8956.73473738 Ry
     estimated scf accuracy    <       0.79346951 Ry

     total magnetization       =    34.72 Bohr mag/cell
     absolute magnetization    =    66.92 Bohr mag/cell

     iteration # 21     ecut=    80.00 Ry     beta= 0.30
     Davidson diagonalization with overlap
     ethr =  1.15E-04,  avg # of iterations =  1.2

     negative rho (up, down):  4.311E-03 3.257E-02

     total cpu time spent up to now is     1345.9 secs

     total energy              =   -8956.73531878 Ry
     estimated scf accuracy    <       0.50510920 Ry

     total magnetization       =    34.77 Bohr mag/cell
     absolute magnetization    =    67.10 Bohr mag/cell

     iteration # 22     ecut=    80.00 Ry     beta= 0.30
     Davidson diagonalization with overlap
     ethr =  7.31E-05,  avg # of iterations =  2.0

     negative rho (up, down):  2.405E-03 3.008E-02

     total cpu time spent up to now is     1400.2 secs

     total energy              =   -8956.75448176 Ry
     estimated scf accuracy    <       0.29941372 Ry

     total magnetization       =    34.79 Bohr mag/cell
     absolute magnetization    =    66.66 Bohr mag/cell

     iteration # 23     ecut=    80.00 Ry     beta= 0.30
     Davidson diagonalization with overlap
     ethr =  4.33E-05,  avg # of iterations =  1.1

     negative rho (up, down):  1.242E-02 4.095E-02

     total cpu time spent up to now is     1451.0 secs

     total energy              =   -8956.74555737 Ry
     estimated scf accuracy    <       0.27464780 Ry

     total magnetization       =    34.81 Bohr mag/cell
     absolute magnetization    =    66.71 Bohr mag/cell

     iteration # 24     ecut=    80.00 Ry     beta= 0.30
     Davidson diagonalization with overlap
     ethr =  3.97E-05,  avg # of iterations =  1.8

     negative rho (up, down):  3.628E-02 6.563E-02

     total cpu time spent up to now is     1505.2 secs

     total energy              =   -8956.74182064 Ry
     estimated scf accuracy    <       0.20322512 Ry

     total magnetization       =    34.85 Bohr mag/cell
     absolute magnetization    =    67.15 Bohr mag/cell

     iteration # 25     ecut=    80.00 Ry     beta= 0.30
     Davidson diagonalization with overlap
     ethr =  2.94E-05,  avg # of iterations =  3.2

     negative rho (up, down):  5.145E-02 8.085E-02

     total cpu time spent up to now is     1562.2 secs

     total energy              =   -8956.73301973 Ry
     estimated scf accuracy    <       0.15247780 Ry

     total magnetization       =    34.88 Bohr mag/cell
     absolute magnetization    =    67.27 Bohr mag/cell

     iteration # 26     ecut=    80.00 Ry     beta= 0.30
     Davidson diagonalization with overlap
     ethr =  2.21E-05,  avg # of iterations =  2.5

     negative rho (up, down):  7.084E-02 1.003E-01

     total cpu time spent up to now is     1619.3 secs

     total energy              =   -8956.72972915 Ry
     estimated scf accuracy    <       0.12118532 Ry

     total magnetization       =    34.91 Bohr mag/cell
     absolute magnetization    =    67.30 Bohr mag/cell

     iteration # 27     ecut=    80.00 Ry     beta= 0.30
     Davidson diagonalization with overlap
     ethr =  1.75E-05,  avg # of iterations =  1.1

     negative rho (up, down):  5.210E-02 8.016E-02

     total cpu time spent up to now is     1672.2 secs

     total energy              =   -8956.71293609 Ry
     estimated scf accuracy    <       0.09549445 Ry

     total magnetization       =    34.91 Bohr mag/cell
     absolute magnetization    =    67.29 Bohr mag/cell

     iteration # 28     ecut=    80.00 Ry     beta= 0.30
     Davidson diagonalization with overlap
     ethr =  1.38E-05,  avg # of iterations =  2.4

     negative rho (up, down):  8.843E-02 1.161E-01

     total cpu time spent up to now is     1727.5 secs

     total energy              =   -8956.69546065 Ry
     estimated scf accuracy    <       0.07575477 Ry

     total magnetization       =    34.89 Bohr mag/cell
     absolute magnetization    =    67.11 Bohr mag/cell

     iteration # 29     ecut=    80.00 Ry     beta= 0.30
     Davidson diagonalization with overlap
     ethr =  1.10E-05,  avg # of iterations =  3.1

     negative rho (up, down):  1.040E-01 1.315E-01

     total cpu time spent up to now is     1784.3 secs

     total energy              =   -8956.68633257 Ry
     estimated scf accuracy    <       0.05958579 Ry

     total magnetization       =    34.89 Bohr mag/cell
     absolute magnetization    =    67.19 Bohr mag/cell

     iteration # 30     ecut=    80.00 Ry     beta= 0.30
     Davidson diagonalization with overlap
     ethr =  8.62E-06,  avg # of iterations =  6.3

     negative rho (up, down):  9.187E-02 1.191E-01

     total cpu time spent up to now is     1843.2 secs

     total energy              =   -8956.67477029 Ry
     estimated scf accuracy    <       0.04040732 Ry

     total magnetization       =    34.91 Bohr mag/cell
     absolute magnetization    =    67.35 Bohr mag/cell

     iteration # 31     ecut=    80.00 Ry     beta= 0.30
     Davidson diagonalization with overlap
     ethr =  5.85E-06,  avg # of iterations =  6.4

     negative rho (up, down):  9.392E-02 1.213E-01

     total cpu time spent up to now is     1902.3 secs

     total energy              =   -8956.67156829 Ry
     estimated scf accuracy    <       0.02835710 Ry

     total magnetization       =    34.93 Bohr mag/cell
     absolute magnetization    =    67.48 Bohr mag/cell

     iteration # 32     ecut=    80.00 Ry     beta= 0.30
     Davidson diagonalization with overlap
     ethr =  4.10E-06,  avg # of iterations =  3.5

     negative rho (up, down):  6.601E-02 9.335E-02

     total cpu time spent up to now is     1958.9 secs

     total energy              =   -8956.66626175 Ry
     estimated scf accuracy    <       0.01942565 Ry

     total magnetization       =    34.93 Bohr mag/cell
     absolute magnetization    =    67.50 Bohr mag/cell

     iteration # 33     ecut=    80.00 Ry     beta= 0.30
     Davidson diagonalization with overlap
     ethr =  2.81E-06,  avg # of iterations =  4.8

     negative rho (up, down):  3.225E-02 5.872E-02

     total cpu time spent up to now is     2018.3 secs

     total energy              =   -8956.66506382 Ry
     estimated scf accuracy    <       0.00815320 Ry

     total magnetization       =    34.92 Bohr mag/cell
     absolute magnetization    =    67.44 Bohr mag/cell

     iteration # 34     ecut=    80.00 Ry     beta= 0.30
     Davidson diagonalization with overlap
     ethr =  1.18E-06,  avg # of iterations =  3.8

     negative rho (up, down):  1.953E-02 4.536E-02

     total cpu time spent up to now is     2075.9 secs

     total energy              =   -8956.66584487 Ry
     estimated scf accuracy    <       0.00423746 Ry

     total magnetization       =    34.90 Bohr mag/cell
     absolute magnetization    =    67.25 Bohr mag/cell

     iteration # 35     ecut=    80.00 Ry     beta= 0.30
     Davidson diagonalization with overlap
     ethr =  6.13E-07,  avg # of iterations =  2.9

     negative rho (up, down):  8.368E-03 3.304E-02

     total cpu time spent up to now is     2132.4 secs

     total energy              =   -8956.66663144 Ry
     estimated scf accuracy    <       0.00196942 Ry

     total magnetization       =    34.90 Bohr mag/cell
     absolute magnetization    =    67.17 Bohr mag/cell

     iteration # 36     ecut=    80.00 Ry     beta= 0.30
     Davidson diagonalization with overlap
     ethr =  2.85E-07,  avg # of iterations =  3.4

     negative rho (up, down):  6.504E-03 3.087E-02

     total cpu time spent up to now is     2190.7 secs

     total energy              =   -8956.66707490 Ry
     estimated scf accuracy    <       0.00050793 Ry

     total magnetization       =    34.90 Bohr mag/cell
     absolute magnetization    =    67.02 Bohr mag/cell

     iteration # 37     ecut=    80.00 Ry     beta= 0.30
     Davidson diagonalization with overlap
     ethr =  7.35E-08,  avg # of iterations =  1.5

     negative rho (up, down):  5.468E-03 2.944E-02

     total cpu time spent up to now is     2245.1 secs

     total energy              =   -8956.66726454 Ry
     estimated scf accuracy    <       0.00031847 Ry

     total magnetization       =    34.90 Bohr mag/cell
     absolute magnetization    =    66.98 Bohr mag/cell

     iteration # 38     ecut=    80.00 Ry     beta= 0.30
     Davidson diagonalization with overlap
     ethr =  4.61E-08,  avg # of iterations =  1.2

     negative rho (up, down):  5.170E-03 2.871E-02

     total cpu time spent up to now is     2297.9 secs

     total energy              =   -8956.66741577 Ry
     estimated scf accuracy    <       0.00022741 Ry

     total magnetization       =    34.90 Bohr mag/cell
     absolute magnetization    =    66.95 Bohr mag/cell

     iteration # 39     ecut=    80.00 Ry     beta= 0.30
     Davidson diagonalization with overlap
     ethr =  3.29E-08,  avg # of iterations =  1.6

     negative rho (up, down):  4.725E-03 2.807E-02

     total cpu time spent up to now is     2351.6 secs

     total energy              =   -8956.66751160 Ry
     estimated scf accuracy    <       0.00011699 Ry

     total magnetization       =    34.90 Bohr mag/cell
     absolute magnetization    =    66.93 Bohr mag/cell

     iteration # 40     ecut=    80.00 Ry     beta= 0.30
     Davidson diagonalization with overlap
     ethr =  1.69E-08,  avg # of iterations =  2.0

     negative rho (up, down):  5.013E-03 2.822E-02

     total cpu time spent up to now is     2409.1 secs

     total energy              =   -8956.66760621 Ry
     estimated scf accuracy    <       0.00007757 Ry

     total magnetization       =    34.90 Bohr mag/cell
     absolute magnetization    =    66.90 Bohr mag/cell

     iteration # 41     ecut=    80.00 Ry     beta= 0.30
     Davidson diagonalization with overlap
     ethr =  1.12E-08,  avg # of iterations =  1.8

     negative rho (up, down):  5.178E-03 2.818E-02

     total cpu time spent up to now is     2463.4 secs

     total energy              =   -8956.66763449 Ry
     estimated scf accuracy    <       0.00004011 Ry

     total magnetization       =    34.90 Bohr mag/cell
     absolute magnetization    =    66.90 Bohr mag/cell

     iteration # 42     ecut=    80.00 Ry     beta= 0.30
     Davidson diagonalization with overlap
     ethr =  5.80E-09,  avg # of iterations =  2.0

     negative rho (up, down):  5.326E-03 2.826E-02

     total cpu time spent up to now is     2520.4 secs

     total energy              =   -8956.66766831 Ry
     estimated scf accuracy    <       0.00002249 Ry

     total magnetization       =    34.90 Bohr mag/cell
     absolute magnetization    =    66.89 Bohr mag/cell

     iteration # 43     ecut=    80.00 Ry     beta= 0.30
     Davidson diagonalization with overlap
     ethr =  3.26E-09,  avg # of iterations =  2.0

     negative rho (up, down):  5.332E-03 2.821E-02

     total cpu time spent up to now is     2576.0 secs

     total energy              =   -8956.66768486 Ry
     estimated scf accuracy    <       0.00001662 Ry

     total magnetization       =    34.90 Bohr mag/cell
     absolute magnetization    =    66.89 Bohr mag/cell

     iteration # 44     ecut=    80.00 Ry     beta= 0.30
     Davidson diagonalization with overlap
     ethr =  2.41E-09,  avg # of iterations =  1.8

     negative rho (up, down):  5.455E-03 2.835E-02

     total cpu time spent up to now is     2630.1 secs

     total energy              =   -8956.66769106 Ry
     estimated scf accuracy    <       0.00001203 Ry

     total magnetization       =    34.90 Bohr mag/cell
     absolute magnetization    =    66.89 Bohr mag/cell

     iteration # 45     ecut=    80.00 Ry     beta= 0.30
     Davidson diagonalization with overlap
     ethr =  1.74E-09,  avg # of iterations =  2.0

     negative rho (up, down):  5.439E-03 2.835E-02

     total cpu time spent up to now is     2687.2 secs

     total energy              =   -8956.66770723 Ry
     estimated scf accuracy    <       0.00000897 Ry

     total magnetization       =    34.90 Bohr mag/cell
     absolute magnetization    =    66.88 Bohr mag/cell

     iteration # 46     ecut=    80.00 Ry     beta= 0.30
     Davidson diagonalization with overlap
     ethr =  1.30E-09,  avg # of iterations =  2.0

     negative rho (up, down):  5.402E-03 2.831E-02

     total cpu time spent up to now is     2743.7 secs

     total energy              =   -8956.66771327 Ry
     estimated scf accuracy    <       0.00000530 Ry

     total magnetization       =    34.90 Bohr mag/cell
     absolute magnetization    =    66.88 Bohr mag/cell

     iteration # 47     ecut=    80.00 Ry     beta= 0.30
     Davidson diagonalization with overlap
     ethr =  7.68E-10,  avg # of iterations =  2.0

     negative rho (up, down):  5.349E-03 2.826E-02

     total cpu time spent up to now is     2800.0 secs

     total energy              =   -8956.66771736 Ry
     estimated scf accuracy    <       0.00000370 Ry

     total magnetization       =    34.90 Bohr mag/cell
     absolute magnetization    =    66.88 Bohr mag/cell

     iteration # 48     ecut=    80.00 Ry     beta= 0.30
     Davidson diagonalization with overlap
     ethr =  5.35E-10,  avg # of iterations =  2.5

     negative rho (up, down):  5.337E-03 2.825E-02

     total cpu time spent up to now is     2861.5 secs

     total energy              =   -8956.66772740 Ry
     estimated scf accuracy    <       0.00000268 Ry

     total magnetization       =    34.90 Bohr mag/cell
     absolute magnetization    =    66.88 Bohr mag/cell

     iteration # 49     ecut=    80.00 Ry     beta= 0.30
     Davidson diagonalization with overlap
     ethr =  3.88E-10,  avg # of iterations =  2.0

     negative rho (up, down):  5.323E-03 2.823E-02

     total cpu time spent up to now is     2917.0 secs

     total energy              =   -8956.66772974 Ry
     estimated scf accuracy    <       0.00000215 Ry

     total magnetization       =    34.90 Bohr mag/cell
     absolute magnetization    =    66.88 Bohr mag/cell

     iteration # 50     ecut=    80.00 Ry     beta= 0.30
     Davidson diagonalization with overlap
     ethr =  3.12E-10,  avg # of iterations =  2.0

     negative rho (up, down):  5.285E-03 2.819E-02

     total cpu time spent up to now is     2972.6 secs

     total energy              =   -8956.66773135 Ry
     estimated scf accuracy    <       0.00000157 Ry

     total magnetization       =    34.90 Bohr mag/cell
     absolute magnetization    =    66.88 Bohr mag/cell

     iteration # 51     ecut=    80.00 Ry     beta= 0.30
     Davidson diagonalization with overlap
     ethr =  2.27E-10,  avg # of iterations =  2.5

     negative rho (up, down):  5.240E-03 2.814E-02

     total cpu time spent up to now is     3029.8 secs

     total energy              =   -8956.66773423 Ry
     estimated scf accuracy    <       0.00000118 Ry

     total magnetization       =    34.90 Bohr mag/cell
     absolute magnetization    =    66.88 Bohr mag/cell

     iteration # 52     ecut=    80.00 Ry     beta= 0.30
     Davidson diagonalization with overlap
     ethr =  1.70E-10,  avg # of iterations =  2.0

     negative rho (up, down):  5.099E-03 2.798E-02

     Magnetic moment per site  (integrated on atomic sphere of radius R)
     atom   1 (R=0.125)  charge= 10.3304  magn=  2.2029
     atom   2 (R=0.125)  charge= 10.3110  magn=  2.1507
     atom   3 (R=0.125)  charge= 10.3316  magn=  2.2035
     atom   4 (R=0.132)  charge= 15.1394  magn=  1.3613
     atom   5 (R=0.132)  charge= 15.1235  magn=  0.8603
     atom   6 (R=0.123)  charge= 13.5987  magn= -0.4719
     atom   7 (R=0.123)  charge= 13.5854  magn= -0.6497
     atom   8 (R=0.125)  charge= 10.2675  magn=  1.9037
     atom   9 (R=0.132)  charge= 15.1177  magn=  1.2220
     atom  10 (R=0.125)  charge= 10.2588  magn=  1.8146
     atom  11 (R=0.128)  charge= 12.6022  magn=  3.1947
     atom  12 (R=0.123)  charge= 13.5949  magn=  1.3194
     atom  13 (R=0.123)  charge= 13.5944  magn=  1.3263
     atom  14 (R=0.132)  charge= 15.1138  magn=  1.1196
     atom  15 (R=0.128)  charge= 12.6901  magn=  2.4884
     atom  16 (R=0.132)  charge= 15.1147  magn=  1.0632
     atom  17 (R=0.125)  charge= 10.2800  magn=  2.0367
     atom  18 (R=0.132)  charge= 15.1288  magn=  1.2990
     atom  19 (R=0.123)  charge= 13.6213  magn=  1.1653
     atom  20 (R=0.128)  charge= 12.6051  magn=  3.4810
     atom  21 (R=0.128)  charge= 12.6025  magn=  3.1745
     atom  22 (R=0.128)  charge= 12.6015  magn=  3.1885
     atom  23 (R=0.123)  charge= 13.5942  magn=  0.9608
     atom  24 (R=0.128)  charge= 12.5953  magn=  3.3282
     atom  25 (R=0.069)  charge=  1.9729  magn= -0.1663
     atom  26 (R=0.069)  charge=  1.9863  magn= -0.1274
     atom  27 (R=0.069)  charge=  1.9771  magn= -0.1085
     atom  28 (R=0.069)  charge=  1.9786  magn= -0.1300
     atom  29 (R=0.069)  charge=  1.9572  magn= -0.2432
     atom  30 (R=0.069)  charge=  1.9661  magn= -0.2282
     atom  31 (R=0.069)  charge=  1.9575  magn= -0.2359
     atom  32 (R=0.069)  charge=  1.9659  magn= -0.2263
     atom  33 (R=0.069)  charge=  1.9888  magn= -0.1197
     atom  34 (R=0.069)  charge=  1.9815  magn= -0.1528
     atom  35 (R=0.069)  charge=  1.9973  magn= -0.1258
     atom  36 (R=0.069)  charge=  1.9818  magn= -0.1268
     atom  37 (R=0.069)  charge=  1.9887  magn= -0.1321
     atom  38 (R=0.069)  charge=  1.9820  magn= -0.1296
     atom  39 (R=0.069)  charge=  1.9888  magn= -0.1161
     atom  40 (R=0.069)  charge=  1.9905  magn= -0.1394
     atom  41 (R=0.069)  charge=  1.9815  magn= -0.1342
     atom  42 (R=0.069)  charge=  1.9751  magn= -0.1529
     atom  43 (R=0.069)  charge=  1.9830  magn= -0.0375
     atom  44 (R=0.069)  charge=  1.9846  magn= -0.0274
     atom  45 (R=0.069)  charge=  1.9837  magn= -0.1281
     atom  46 (R=0.069)  charge=  1.9772  magn= -0.1837
     atom  47 (R=0.069)  charge=  1.9833  magn= -0.1322
     atom  48 (R=0.069)  charge=  1.9752  magn= -0.1886
     atom  49 (R=0.069)  charge=  1.9830  magn= -0.0174
     atom  50 (R=0.069)  charge=  1.9833  magn= -0.1541
     atom  51 (R=0.069)  charge=  1.9881  magn= -0.0628
     atom  52 (R=0.069)  charge=  1.9819  magn= -0.1435
     atom  53 (R=0.069)  charge=  1.9840  magn= -0.0641
     atom  54 (R=0.069)  charge=  1.9811  magn= -0.1086
     atom  55 (R=0.069)  charge=  1.9821  magn= -0.0915
     atom  56 (R=0.069)  charge=  1.9860  magn= -0.1274
     atom  57 (R=0.069)  charge=  1.9735  magn= -0.0707
     atom  58 (R=0.069)  charge=  1.9773  magn=  0.0380
     atom  59 (R=0.069)  charge=  1.9725  magn= -0.1897
     atom  60 (R=0.069)  charge=  1.9781  magn= -0.0264
     atom  61 (R=0.069)  charge=  1.9773  magn= -0.0702
     atom  62 (R=0.069)  charge=  1.9855  magn= -0.0278
     atom  63 (R=0.069)  charge=  1.9797  magn= -0.0186
     atom  64 (R=0.069)  charge=  1.9807  magn=  0.0040
     atom  65 (R=0.069)  charge=  1.9824  magn= -0.1115
     atom  66 (R=0.069)  charge=  1.9873  magn= -0.0216
     atom  67 (R=0.069)  charge=  1.9833  magn= -0.0914
     atom  68 (R=0.069)  charge=  1.9818  magn= -0.0174
     atom  69 (R=0.069)  charge=  1.9843  magn= -0.0883
     atom  70 (R=0.069)  charge=  1.9851  magn= -0.0247
     atom  71 (R=0.069)  charge=  1.9816  magn= -0.0996
     atom  72 (R=0.069)  charge=  1.9871  magn= -0.0063
     atom  73 (R=0.069)  charge=  1.9665  magn= -0.1977
     atom  74 (R=0.069)  charge=  1.9805  magn= -0.0982
     atom  75 (R=0.069)  charge=  0.4015  magn=  0.0004

     total cpu time spent up to now is     3085.9 secs

     End of self-consistent calculation

     =================== HUBBARD OCCUPATIONS ===================
     ------------------------ ATOM    1 ------------------------
     Tr[ns(  1)] (up, down, total) =   3.76668  0.90236  4.66904
     Atomic magnetic moment for atom   1 =   2.86433
     SPIN  1
     eigenvalues:
       0.492  0.562  0.861  0.879  0.973
     eigenvectors (columns):
       0.041 -0.997  0.032 -0.015 -0.048
       0.003 -0.017 -0.081  0.997 -0.004
       0.002 -0.032 -0.995 -0.081  0.041
       0.000  0.046 -0.042 -0.006 -0.998
       0.999  0.041  0.001 -0.002  0.002
     occupation matrix ns (before diag.):
       0.563 -0.005 -0.010  0.019 -0.003
      -0.005  0.879 -0.002  0.001 -0.001
      -0.010 -0.002  0.861 -0.004 -0.000
       0.019  0.001 -0.004  0.972 -0.001
      -0.003 -0.001 -0.000 -0.001  0.492
     SPIN  2
     eigenvalues:
       0.089  0.101  0.111  0.250  0.351
     eigenvectors (columns):
       0.121  0.003 -0.004  0.993  0.002
      -0.004 -0.117  0.993  0.004  0.000
      -0.003 -0.993 -0.117  0.003  0.002
       0.993 -0.004  0.004 -0.121  0.008
      -0.008  0.002 -0.000 -0.001  1.000
     occupation matrix ns (before diag.):
       0.248  0.001  0.000 -0.019  0.000
       0.001  0.111 -0.001  0.000  0.000
       0.000 -0.001  0.101 -0.000  0.001
      -0.019  0.000 -0.000  0.091  0.002
       0.000  0.000  0.001  0.002  0.351
     ------------------------ ATOM    2 ------------------------
     Tr[ns(  2)] (up, down, total) =   3.74384  0.92566  4.66950
     Atomic magnetic moment for atom   2 =   2.81818
     SPIN  1
     eigenvalues:
       0.542  0.603  0.793  0.832  0.974
     eigenvectors (columns):
      -0.082 -0.991  0.040  0.012 -0.100
      -0.015 -0.021 -0.215 -0.976  0.010
      -0.004  0.040  0.975 -0.216 -0.026
       0.003  0.099 -0.032 -0.006 -0.995
       0.997 -0.082  0.004 -0.015 -0.005
     occupation matrix ns (before diag.):
       0.607 -0.005  0.008  0.037  0.005
      -0.005  0.830  0.008 -0.001  0.004
       0.008  0.008  0.795  0.004  0.002
       0.037 -0.001  0.004  0.970  0.002
       0.005  0.004  0.002  0.002  0.542
     SPIN  2
     eigenvalues:
       0.085  0.111  0.122  0.254  0.354
     eigenvectors (columns):
       0.118 -0.006  0.008  0.993  0.004
      -0.002  0.160 -0.987  0.009 -0.001
      -0.004 -0.987 -0.160 -0.005  0.001
       0.993 -0.003 -0.004 -0.118 -0.009
       0.009  0.001 -0.001 -0.005  1.000
     occupation matrix ns (before diag.):
       0.252  0.001 -0.001 -0.020  0.000
       0.001  0.121  0.002 -0.000 -0.000
      -0.001  0.002  0.111  0.000  0.000
      -0.020 -0.000  0.000  0.087 -0.002
       0.000 -0.000  0.000 -0.002  0.354
     ------------------------ ATOM    3 ------------------------
     Tr[ns(  3)] (up, down, total) =   3.75933  0.90377  4.66310
     Atomic magnetic moment for atom   3 =   2.85556
     SPIN  1
     eigenvalues:
       0.495  0.521  0.879  0.889  0.976
     eigenvectors (columns):
      -0.091 -0.995 -0.012  0.003 -0.050
       0.004  0.004 -0.114  0.993  0.002
      -0.002  0.012 -0.993 -0.114  0.005
       0.003  0.050 -0.005  0.001 -0.999
       0.996 -0.091 -0.003 -0.004 -0.002
     occupation matrix ns (before diag.):
       0.522  0.002  0.004  0.023  0.002
       0.002  0.889 -0.001 -0.000 -0.002
       0.004 -0.001  0.879 -0.001  0.001
       0.023 -0.000 -0.001  0.974  0.001
       0.002 -0.002  0.001  0.001  0.495
     SPIN  2
     eigenvalues:
       0.089  0.101  0.112  0.251  0.351
     eigenvectors (columns):
      -0.122 -0.001 -0.003 -0.993 -0.003
      -0.001 -0.124 -0.992  0.003  0.001
      -0.010  0.992 -0.124  0.000 -0.002
      -0.992 -0.010  0.002  0.122 -0.008
      -0.008  0.003  0.001 -0.002  1.000
     occupation matrix ns (before diag.):
       0.249 -0.000 -0.000 -0.020 -0.000
      -0.000  0.112  0.001  0.000  0.000
      -0.000  0.001  0.101 -0.000 -0.001
      -0.020  0.000 -0.000  0.092 -0.002
      -0.000  0.000 -0.001 -0.002  0.351
     ------------------------ ATOM    4 ------------------------
     Tr[ns(  4)] (up, down, total) =   4.85468  3.49084  8.34552
     Atomic magnetic moment for atom   4 =   1.36384
     SPIN  1
     eigenvalues:
       0.920  0.962  0.986  0.992  0.994
     eigenvectors (columns):
       0.004 -0.986  0.026  0.004 -0.164
      -0.021 -0.029 -0.998 -0.058  0.016
       0.018  0.002  0.057 -0.998 -0.025
       0.026  0.164 -0.023  0.024 -0.986
       0.999 -0.001 -0.022  0.016  0.027
     occupation matrix ns (before diag.):
       0.963 -0.001  0.000  0.005 -0.000
      -0.001  0.986  0.000 -0.000  0.001
       0.000  0.000  0.992  0.000 -0.001
       0.005 -0.000  0.000  0.994 -0.002
      -0.000  0.001 -0.001 -0.002  0.920
     SPIN  2
     eigenvalues:
       0.185  0.323  0.991  0.995  0.997
     eigenvectors (columns):
       1.000  0.006  0.013  0.009 -0.000
      -0.009  0.002 -0.010  0.996  0.091
      -0.001 -0.001 -0.011  0.091 -0.996
      -0.013  0.018  1.000  0.010 -0.010
      -0.006  1.000 -0.018 -0.002 -0.001
     occupation matrix ns (before diag.):
       0.185  0.007  0.001  0.011  0.001
       0.007  0.995 -0.000 -0.000 -0.001
       0.001 -0.000  0.997  0.000  0.001
       0.011 -0.000  0.000  0.990 -0.012
       0.001 -0.001  0.001 -0.012  0.323
     ------------------------ ATOM    5 ------------------------
     Tr[ns(  5)] (up, down, total) =   4.64235  3.78093  8.42328
     Atomic magnetic moment for atom   5 =   0.86142
     SPIN  1
     eigenvalues:
       0.836  0.842  0.984  0.987  0.995
     eigenvectors (columns):
      -0.129 -0.374  0.001 -0.009 -0.918
      -0.944  0.329  0.004  0.001 -0.001
       0.006  0.012  0.004  1.000 -0.016
      -0.302 -0.865 -0.065  0.019  0.395
      -0.016 -0.057  0.998 -0.003  0.027
     occupation matrix ns (before diag.):
       0.971 -0.001  0.001 -0.056 -0.004
      -0.001  0.836  0.000 -0.002  0.000
       0.001  0.000  0.986  0.002  0.000
      -0.056 -0.002  0.002  0.866 -0.008
      -0.004  0.000  0.000 -0.008  0.983
     SPIN  2
     eigenvalues:
       0.381  0.414  0.992  0.996  0.997
     eigenvectors (columns):
      -0.460  0.046  0.887  0.004 -0.002
       0.109  0.994  0.005 -0.001  0.002
      -0.003  0.002 -0.002 -0.333 -0.943
      -0.881  0.099 -0.462  0.016 -0.001
       0.016 -0.000  0.003  0.943 -0.333
     occupation matrix ns (before diag.):
       0.862  0.004 -0.001 -0.250  0.004
       0.004  0.414 -0.001  0.002 -0.001
      -0.001 -0.001  0.997 -0.002  0.000
      -0.250  0.002 -0.002  0.512  0.009
       0.004 -0.001  0.000  0.009  0.996
     ------------------------ ATOM    6 ------------------------
     Tr[ns(  6)] (up, down, total) =   3.64046  4.04716  7.68762
     Atomic magnetic moment for atom   6 =  -0.40670
     SPIN  1
     eigenvalues:
       0.551  0.581  0.639  0.883  0.986
     eigenvectors (columns):
       0.010 -0.411  0.045 -0.016 -0.910
       1.000  0.020  0.021 -0.005  0.003
      -0.022  0.073  0.997  0.014  0.016
       0.016 -0.908  0.060 -0.014  0.413
      -0.006  0.020  0.012 -1.000  0.009
     occupation matrix ns (before diag.):
       0.917 -0.002 -0.003 -0.152  0.001
      -0.002  0.551  0.002  0.000  0.002
      -0.003  0.002  0.639  0.006 -0.004
      -0.152  0.000  0.006  0.650  0.006
       0.001  0.002 -0.004  0.006  0.883
     SPIN  2
     eigenvalues:
       0.512  0.544  0.997  0.997  0.998
     eigenvectors (columns):
      -0.398 -0.006  0.084  0.913  0.013
      -0.003  1.000  0.001  0.006 -0.001
      -0.004  0.001 -0.174 -0.000  0.985
      -0.917 -0.000 -0.048 -0.395 -0.012
      -0.011 -0.001  0.980 -0.098  0.173
     occupation matrix ns (before diag.):
       0.920  0.002 -0.001 -0.177 -0.002
       0.002  0.544 -0.001 -0.001  0.000
      -0.001 -0.001  0.998 -0.002  0.000
      -0.177 -0.001 -0.002  0.589 -0.005
      -0.002  0.000  0.000 -0.005  0.997
     ------------------------ ATOM    7 ------------------------
     Tr[ns(  7)] (up, down, total) =   3.55591  4.12589  7.68180
     Atomic magnetic moment for atom   7 =  -0.56999
     SPIN  1
     eigenvalues:
       0.573  0.578  0.639  0.804  0.962
     eigenvectors (columns):
      -0.293  0.266  0.032 -0.043 -0.917
      -0.675 -0.738  0.001 -0.002  0.002
      -0.037  0.032 -0.998 -0.023 -0.012
      -0.676  0.620  0.040  0.007  0.397
       0.010 -0.006  0.022 -0.999  0.042
     occupation matrix ns (before diag.):
       0.901 -0.002  0.003 -0.141 -0.005
      -0.002  0.576 -0.000 -0.002  0.001
       0.003 -0.000  0.639 -0.004  0.004
      -0.141 -0.002 -0.004  0.637  0.005
      -0.005  0.001  0.004  0.005  0.804
     SPIN  2
     eigenvalues:
       0.567  0.567  0.995  0.998  0.999
     eigenvectors (columns):
      -0.138 -0.393  0.909  0.025 -0.008
       0.941 -0.338 -0.003 -0.005 -0.000
       0.002  0.000 -0.000  0.335  0.942
      -0.309 -0.855 -0.416 -0.018  0.007
       0.001 -0.008 -0.032  0.942 -0.335
     occupation matrix ns (before diag.):
       0.921 -0.001  0.000 -0.162 -0.001
      -0.001  0.567 -0.001  0.001 -0.002
       0.000 -0.001  0.999  0.000 -0.000
      -0.162  0.001  0.000  0.642 -0.003
      -0.001 -0.002 -0.000 -0.003  0.998
     ------------------------ ATOM    8 ------------------------
     Tr[ns(  8)] (up, down, total) =   3.60464  1.12608  4.73072
     Atomic magnetic moment for atom   8 =   2.47857
     SPIN  1
     eigenvalues:
       0.548  0.551  0.720  0.808  0.978
     eigenvectors (columns):
      -0.131  0.384  0.021 -0.019  0.914
       0.948  0.319  0.000  0.006  0.002
       0.005 -0.015  1.000  0.002 -0.016
      -0.291  0.866  0.007  0.009 -0.406
      -0.006 -0.003 -0.002  1.000  0.021
     occupation matrix ns (before diag.):
       0.907  0.001 -0.003 -0.158  0.003
       0.001  0.548  0.000  0.001  0.002
      -0.003  0.000  0.720  0.004  0.000
      -0.158  0.001  0.004  0.621 -0.001
       0.003  0.002  0.000 -0.001  0.808
     SPIN  2
     eigenvalues:
       0.102  0.127  0.133  0.381  0.384
     eigenvectors (columns):
      -0.917 -0.009 -0.007  0.391  0.080
       0.000  0.001  0.001 -0.200  0.980
       0.009 -1.000  0.009 -0.002  0.001
       0.399  0.002  0.007  0.899  0.183
      -0.009  0.009  1.000 -0.003 -0.001
     occupation matrix ns (before diag.):
       0.146  0.000 -0.000  0.102 -0.001
       0.000  0.384  0.000  0.001 -0.000
      -0.000  0.000  0.127 -0.001  0.000
       0.102  0.001 -0.001  0.336 -0.001
      -0.001 -0.000  0.000 -0.001  0.133
     ------------------------ ATOM    9 ------------------------
     Tr[ns(  9)] (up, down, total) =   4.78663  3.57820  8.36483
     Atomic magnetic moment for atom   9 =   1.20844
     SPIN  1
     eigenvalues:
       0.887  0.918  0.992  0.993  0.995
     eigenvectors (columns):
      -0.391  0.897  0.193 -0.073 -0.009
       0.025  0.012 -0.029  0.056 -0.998
       0.007 -0.040 -0.173 -0.983 -0.051
       0.121 -0.168  0.964 -0.160 -0.036
       0.912  0.407 -0.043 -0.004  0.029
     occupation matrix ns (before diag.):
       0.917  0.000  0.003  0.016  0.011
       0.000  0.995  0.000 -0.000 -0.003
       0.003  0.000  0.993 -0.000  0.001
       0.016 -0.000 -0.000  0.989 -0.007
       0.011 -0.003  0.001 -0.007  0.893
     SPIN  2
     eigenvalues:
       0.278  0.321  0.992  0.992  0.995
     eigenvectors (columns):
      -0.973 -0.227  0.004 -0.029  0.026
       0.002  0.019 -0.961 -0.244  0.131
       0.027 -0.003  0.126  0.037  0.991
       0.017  0.054  0.247 -0.967  0.005
      -0.229  0.972  0.006  0.052  0.006
     occupation matrix ns (before diag.):
       0.281  0.005  0.018  0.020 -0.011
       0.005  0.991  0.000 -0.001 -0.012
       0.018  0.000  0.995 -0.000  0.006
       0.020 -0.001 -0.000  0.990 -0.032
      -0.011 -0.012  0.006 -0.032  0.321
     ------------------------ ATOM   10 ------------------------
     Tr[ns( 10)] (up, down, total) =   3.54715  1.19772  4.74487
     Atomic magnetic moment for atom  10 =   2.34943
     SPIN  1
     eigenvalues:
       0.553  0.577  0.665  0.813  0.939
     eigenvectors (columns):
      -0.483 -0.872  0.005 -0.031  0.078
       0.014  0.011 -0.779 -0.626  0.015
       0.022  0.024  0.626 -0.777  0.056
       0.027  0.072 -0.024  0.055  0.995
       0.875 -0.484  0.001  0.011  0.011
     occupation matrix ns (before diag.):
       0.574  0.005  0.008  0.028  0.011
       0.005  0.723  0.072 -0.001 -0.002
       0.008  0.072  0.755  0.009 -0.002
       0.028 -0.001  0.009  0.936  0.003
       0.011 -0.002 -0.002  0.003  0.559
     SPIN  2
     eigenvalues:
       0.109  0.131  0.179  0.366  0.413
     eigenvectors (columns):
      -0.095 -0.003 -0.007 -0.889  0.448
      -0.005  0.546 -0.838  0.004 -0.002
      -0.011  0.838  0.546 -0.003  0.006
      -0.995 -0.012 -0.001  0.083 -0.048
      -0.005 -0.003 -0.003  0.451  0.893
     occupation matrix ns (before diag.):
       0.373 -0.001  0.001 -0.025  0.019
      -0.001  0.165 -0.022  0.000 -0.000
       0.001 -0.022  0.146 -0.000  0.001
      -0.025  0.000 -0.000  0.111 -0.003
       0.019 -0.000  0.001 -0.003  0.403
     ------------------------ ATOM   11 ------------------------
     Tr[ns( 11)] (up, down, total) =   4.78787  1.57095  6.35882
     Atomic magnetic moment for atom  11 =   3.21692
     SPIN  1
     eigenvalues:
       0.888  0.915  0.994  0.995  0.996
     eigenvectors (columns):
       0.359  0.921  0.140 -0.041 -0.032
       0.019 -0.023  0.037  0.460 -0.887
      -0.007 -0.047 -0.037 -0.886 -0.460
      -0.087 -0.118  0.988 -0.045  0.020
       0.929 -0.367  0.037 -0.005  0.029
     occupation matrix ns (before diag.):
       0.913  0.001  0.004  0.012 -0.009
       0.001  0.995 -0.000 -0.000 -0.003
       0.004 -0.000  0.995 -0.000 -0.001
       0.012 -0.000 -0.000  0.992  0.005
      -0.009 -0.003 -0.001  0.005  0.892
     SPIN  2
     eigenvalues:
       0.114  0.212  0.257  0.476  0.512
     eigenvectors (columns):
       0.070 -0.024 -0.004  0.983  0.167
      -0.009 -0.467  0.884 -0.009  0.010
      -0.005 -0.884 -0.467 -0.024  0.001
       0.996 -0.007  0.006 -0.061 -0.059
       0.048  0.009 -0.007 -0.170  0.984
     occupation matrix ns (before diag.):
       0.475 -0.002 -0.006 -0.026  0.005
      -0.002  0.247 -0.019  0.001  0.003
      -0.006 -0.019  0.222  0.001  0.002
      -0.026  0.001  0.001  0.117 -0.019
       0.005  0.003  0.002 -0.019  0.510
     ------------------------ ATOM   12 ------------------------
     Tr[ns( 12)] (up, down, total) =   4.46791  3.08966  7.55757
     Atomic magnetic moment for atom  12 =   1.37825
     SPIN  1
     eigenvalues:
       0.738  0.783  0.965  0.989  0.993
     eigenvectors (columns):
       0.203 -0.963 -0.010  0.172 -0.040
      -0.023 -0.021  0.999 -0.025  0.029
       0.008 -0.025 -0.027  0.077  0.996
       0.009  0.180  0.030  0.981 -0.070
       0.979  0.198  0.025 -0.046  0.001
     occupation matrix ns (before diag.):
       0.787 -0.003 -0.006  0.035 -0.011
      -0.003  0.965  0.001  0.000  0.006
      -0.006  0.001  0.993  0.001 -0.001
       0.035  0.000  0.001  0.982 -0.009
      -0.011  0.006 -0.001 -0.009  0.740
     SPIN  2
     eigenvalues:
       0.256  0.403  0.450  0.989  0.992
     eigenvectors (columns):
      -0.021 -0.459  0.867 -0.017 -0.190
      -0.065 -0.009 -0.016 -0.997  0.045
       0.997  0.008  0.017 -0.067 -0.044
      -0.045  0.136 -0.144 -0.040 -0.978
      -0.014  0.878  0.476 -0.012  0.053
     occupation matrix ns (before diag.):
       0.460  0.004  0.009  0.104  0.014
       0.004  0.986  0.047 -0.003  0.008
       0.009  0.047  0.261  0.034  0.002
       0.104 -0.003  0.034  0.968 -0.034
       0.014  0.008  0.002 -0.034  0.415
     ------------------------ ATOM   13 ------------------------
     Tr[ns( 13)] (up, down, total) =   4.46906  3.09624  7.56531
     Atomic magnetic moment for atom  13 =   1.37282
     SPIN  1
     eigenvalues:
       0.731  0.782  0.975  0.987  0.994
     eigenvectors (columns):
       0.416  0.079  0.018  0.904  0.052
       0.342 -0.936 -0.019 -0.074 -0.019
       0.002  0.015  0.051  0.054 -0.997
       0.842  0.341  0.025 -0.417 -0.015
      -0.022 -0.029  0.998 -0.010  0.050
     occupation matrix ns (before diag.):
       0.942 -0.021 -0.001 -0.095  0.003
      -0.021  0.777  0.003 -0.008 -0.003
      -0.001  0.003  0.994 -0.001 -0.001
      -0.095 -0.008 -0.001  0.781  0.006
       0.003 -0.003 -0.001  0.006  0.975
     SPIN  2
     eigenvalues:
       0.280  0.379  0.460  0.985  0.992
     eigenvectors (columns):
      -0.007  0.009  0.362  0.016 -0.932
       0.020 -1.000 -0.015  0.004 -0.015
       0.999  0.020 -0.013 -0.026 -0.013
       0.017 -0.019  0.932 -0.030  0.361
      -0.026 -0.003 -0.022 -0.999 -0.025
     occupation matrix ns (before diag.):
       0.922  0.008  0.008 -0.179  0.004
       0.008  0.379 -0.002 -0.005 -0.002
       0.008 -0.002  0.281 -0.005  0.018
      -0.179 -0.005 -0.005  0.530  0.011
       0.004 -0.002  0.018  0.011  0.985
     ------------------------ ATOM   14 ------------------------
     Tr[ns( 14)] (up, down, total) =   4.74118  3.62836  8.36954
     Atomic magnetic moment for atom  14 =   1.11282
     SPIN  1
     eigenvalues:
       0.853  0.913  0.988  0.993  0.994
     eigenvectors (columns):
      -0.065 -0.357  0.069  0.917 -0.147
      -0.961  0.272 -0.012  0.036 -0.019
       0.004 -0.003  0.468 -0.176 -0.866
      -0.266 -0.893 -0.050 -0.356  0.047
      -0.025 -0.018  0.879  0.001  0.475
     occupation matrix ns (before diag.):
       0.982 -0.001 -0.000 -0.028 -0.001
      -0.001  0.858  0.001 -0.016 -0.003
      -0.000  0.001  0.993 -0.000 -0.002
      -0.028 -0.016 -0.000  0.919 -0.002
      -0.001 -0.003 -0.002 -0.002  0.989
     SPIN  2
     eigenvalues:
       0.285  0.360  0.993  0.994  0.996
     eigenvectors (columns):
       0.471 -0.105  0.824 -0.292 -0.048
      -0.245 -0.969  0.013 -0.011 -0.000
       0.006  0.002 -0.151 -0.550  0.821
       0.847 -0.222 -0.460  0.145  0.007
       0.020 -0.010  0.293  0.769  0.568
     occupation matrix ns (before diag.):
       0.829  0.017 -0.002 -0.297 -0.008
       0.017  0.356  0.002  0.011 -0.003
      -0.002  0.002  0.996 -0.004  0.001
      -0.297  0.011 -0.004  0.454 -0.013
      -0.008 -0.003  0.001 -0.013  0.994
     ------------------------ ATOM   15 ------------------------
     Tr[ns( 15)] (up, down, total) =   4.60553  1.93133  6.53686
     Atomic magnetic moment for atom  15 =   2.67420
     SPIN  1
     eigenvalues:
       0.792  0.843  0.985  0.991  0.994
     eigenvectors (columns):
      -0.097 -0.480  0.872 -0.008  0.022
       0.994 -0.089  0.061 -0.002  0.013
       0.011 -0.001  0.027  0.136 -0.990
      -0.048 -0.872 -0.485  0.045 -0.007
      -0.002 -0.036 -0.026 -0.990 -0.137
     occupation matrix ns (before diag.):
       0.951  0.013 -0.000 -0.060 -0.002
       0.013  0.793 -0.002 -0.002 -0.000
      -0.000 -0.002  0.994  0.000  0.000
      -0.060 -0.002  0.000  0.877 -0.005
      -0.002 -0.000  0.000 -0.005  0.991
     SPIN  2
     eigenvalues:
       0.114  0.122  0.316  0.392  0.987
     eigenvectors (columns):
       0.006 -0.005 -0.004  0.474 -0.881
       0.008 -0.007 -0.997  0.065  0.039
      -0.328 -0.945  0.004 -0.003  0.002
      -0.031  0.009  0.076  0.878  0.472
       0.944 -0.327  0.012  0.024  0.021
     occupation matrix ns (before diag.):
       0.854 -0.021 -0.002 -0.247 -0.013
      -0.021  0.317 -0.001  0.017 -0.001
      -0.002 -0.001  0.121  0.000  0.003
      -0.247  0.017  0.000  0.523  0.015
      -0.013 -0.001  0.003  0.015  0.115
     ------------------------ ATOM   16 ------------------------
     Tr[ns( 16)] (up, down, total) =   4.71937  3.66262  8.38199
     Atomic magnetic moment for atom  16 =   1.05674
     SPIN  1
     eigenvalues:
       0.857  0.886  0.988  0.993  0.995
     eigenvectors (columns):
       0.129  0.364 -0.189  0.903 -0.017
      -0.903  0.428 -0.003 -0.044  0.018
       0.005  0.039 -0.262 -0.090 -0.960
       0.410  0.826  0.086 -0.373  0.047
      -0.013  0.010  0.942  0.190 -0.275
     occupation matrix ns (before diag.):
       0.977 -0.001 -0.002 -0.039  0.001
      -0.001  0.862 -0.001  0.013 -0.002
      -0.002 -0.001  0.994 -0.004  0.002
      -0.039  0.013 -0.004  0.897 -0.001
       0.001 -0.002  0.002 -0.001  0.989
     SPIN  2
     eigenvalues:
       0.322  0.357  0.993  0.994  0.996
     eigenvectors (columns):
       0.428 -0.217  0.813  0.330  0.013
       0.479  0.878 -0.010 -0.019  0.002
       0.022 -0.002 -0.185  0.461 -0.868
       0.766 -0.427 -0.434 -0.205  0.004
       0.018  0.002 -0.341  0.798  0.497
     occupation matrix ns (before diag.):
       0.841 -0.016 -0.007 -0.279 -0.005
      -0.016  0.349 -0.006 -0.007 -0.007
      -0.007 -0.006  0.995 -0.012 -0.001
      -0.279 -0.007 -0.012  0.483 -0.009
      -0.005 -0.007 -0.001 -0.009  0.994
     ------------------------ ATOM   17 ------------------------
     Tr[ns( 17)] (up, down, total) =   3.66683  1.00558  4.67241
     Atomic magnetic moment for atom  17 =   2.66125
     SPIN  1
     eigenvalues:
       0.521  0.528  0.815  0.836  0.966
     eigenvectors (columns):
       0.529 -0.839  0.050 -0.008  0.120
      -0.021  0.024  0.475 -0.879  0.007
      -0.007  0.038  0.878  0.476 -0.033
      -0.042  0.117  0.020  0.022  0.992
       0.847  0.530 -0.011 -0.012 -0.027
     occupation matrix ns (before diag.):
       0.534  0.009  0.010  0.053 -0.005
       0.009  0.831 -0.009 -0.000  0.002
       0.010 -0.009  0.820 -0.006 -0.004
       0.053 -0.000 -0.006  0.959 -0.011
      -0.005  0.002 -0.004 -0.011  0.524
     SPIN  2
     eigenvalues:
       0.074  0.116  0.123  0.335  0.357
     eigenvectors (columns):
      -0.140  0.006  0.038 -0.146  0.979
       0.002 -0.519  0.854  0.006 -0.029
       0.035  0.854  0.519 -0.005 -0.021
      -0.989  0.028  0.015 -0.006 -0.143
       0.026 -0.009 -0.004 -0.989 -0.144
     occupation matrix ns (before diag.):
       0.351 -0.007 -0.004 -0.039 -0.002
      -0.007  0.121  0.003  0.001 -0.000
      -0.004  0.003  0.118  0.002  0.002
      -0.039  0.001  0.002  0.080  0.007
      -0.002 -0.000  0.002  0.007  0.336
     ------------------------ ATOM   18 ------------------------
     Tr[ns( 18)] (up, down, total) =   4.82105  3.51572  8.33677
     Atomic magnetic moment for atom  18 =   1.30533
     SPIN  1
     eigenvalues:
       0.864  0.977  0.992  0.994  0.994
     eigenvectors (columns):
      -0.005 -0.936  0.084 -0.293 -0.177
      -0.008 -0.015 -0.425  0.414 -0.805
      -0.016  0.030  0.892  0.340 -0.297
      -0.048  0.351  0.129 -0.791 -0.481
       0.999  0.012  0.017 -0.031 -0.035
     occupation matrix ns (before diag.):
       0.979 -0.000  0.000  0.006  0.001
      -0.000  0.994  0.001  0.000  0.001
       0.000  0.001  0.992 -0.000  0.002
       0.006  0.000 -0.000  0.991  0.006
       0.001  0.001  0.002  0.006  0.865
     SPIN  2
     eigenvalues:
       0.175  0.364  0.990  0.991  0.994
     eigenvectors (columns):
       0.999 -0.007 -0.013 -0.030 -0.004
       0.002  0.013  0.946 -0.324 -0.002
       0.002  0.001 -0.012 -0.041  0.999
      -0.033 -0.035 -0.323 -0.944 -0.042
       0.005  0.999 -0.024 -0.029 -0.003
     occupation matrix ns (before diag.):
       0.176 -0.002 -0.002  0.026 -0.000
      -0.002  0.990 -0.000  0.001 -0.008
      -0.002 -0.000  0.994 -0.000 -0.001
       0.026  0.001 -0.000  0.989  0.022
      -0.000 -0.008 -0.001  0.022  0.365
     ------------------------ ATOM   19 ------------------------
     Tr[ns( 19)] (up, down, total) =   4.41150  3.18520  7.59669
     Atomic magnetic moment for atom  19 =   1.22630
     SPIN  1
     eigenvalues:
       0.687  0.839  0.920  0.979  0.987
     eigenvectors (columns):
      -0.021  0.978  0.045 -0.203 -0.006
       0.010  0.055 -0.996  0.045 -0.046
      -0.000 -0.040 -0.057 -0.233  0.970
      -0.033 -0.198 -0.043 -0.949 -0.239
       0.999  0.014  0.010 -0.036 -0.007
     occupation matrix ns (before diag.):
       0.844 -0.005  0.006  0.027  0.004
      -0.005  0.920 -0.003 -0.001 -0.002
       0.006 -0.003  0.986 -0.003  0.000
       0.027 -0.001 -0.003  0.973  0.010
       0.004 -0.002  0.000  0.010  0.688
     SPIN  2
     eigenvalues:
       0.323  0.397  0.488  0.988  0.990
     eigenvectors (columns):
       0.046 -0.980  0.091  0.162 -0.058
      -0.111 -0.014  0.004  0.285  0.952
       0.993  0.044  0.007  0.020  0.110
       0.005  0.170 -0.036  0.944 -0.280
      -0.010  0.096  0.995  0.018 -0.009
     occupation matrix ns (before diag.):
       0.415 -0.005 -0.005  0.100  0.010
      -0.005  0.981  0.074  0.001 -0.002
      -0.005  0.074  0.332 -0.007  0.001
       0.100  0.001 -0.007  0.970  0.008
       0.010 -0.002  0.001  0.008  0.487
     ------------------------ ATOM   20 ------------------------
     Tr[ns( 20)] (up, down, total) =   4.89631  1.31892  6.21523
     Atomic magnetic moment for atom  20 =   3.57739
     SPIN  1
     eigenvalues:
       0.932  0.978  0.995  0.996  0.996
     eigenvectors (columns):
      -0.034  0.978 -0.043  0.046 -0.194
      -0.007 -0.038 -0.835  0.535  0.124
       0.008 -0.044 -0.545 -0.787 -0.286
       0.047 -0.194  0.065  0.304 -0.929
       0.998  0.042 -0.006 -0.003  0.040
     occupation matrix ns (before diag.):
       0.979  0.001  0.001  0.003  0.001
       0.001  0.995 -0.001 -0.000  0.000
       0.001 -0.001  0.995 -0.000 -0.000
       0.003 -0.000 -0.000  0.995 -0.003
       0.001  0.000 -0.000 -0.003  0.932
     SPIN  2
     eigenvalues:
       0.089  0.170  0.219  0.354  0.488
     eigenvectors (columns):
       0.130 -0.045  0.004  0.990 -0.025
      -0.004 -0.995 -0.093 -0.044  0.014
      -0.004  0.093 -0.996  0.009 -0.010
       0.991  0.003 -0.005 -0.129  0.030
      -0.027  0.013 -0.009  0.029  0.999
     occupation matrix ns (before diag.):
       0.349 -0.008  0.002 -0.034 -0.002
      -0.008  0.171  0.004  0.002  0.004
       0.002  0.004  0.218  0.000 -0.003
      -0.034  0.002  0.000  0.093  0.011
      -0.002  0.004 -0.003  0.011  0.487
     ------------------------ ATOM   21 ------------------------
     Tr[ns( 21)] (up, down, total) =   4.78584  1.55470  6.34054
     Atomic magnetic moment for atom  21 =   3.23114
     SPIN  1
     eigenvalues:
       0.896  0.905  0.993  0.996  0.996
     eigenvectors (columns):
       0.144  0.298  0.021  0.841 -0.427
      -0.880  0.472 -0.035 -0.032 -0.034
       0.026  0.115 -0.304  0.398  0.857
       0.452  0.821  0.002 -0.348  0.039
      -0.028  0.045  0.952  0.109  0.282
     occupation matrix ns (before diag.):
       0.986  0.000 -0.004 -0.029 -0.001
       0.000  0.898 -0.003  0.005 -0.004
      -0.004 -0.003  0.995 -0.010  0.000
      -0.029  0.005 -0.010  0.914 -0.002
      -0.001 -0.004  0.000 -0.002  0.993
     SPIN  2
     eigenvalues:
       0.119  0.180  0.242  0.493  0.521
     eigenvectors (columns):
       0.913 -0.178 -0.052 -0.363 -0.023
      -0.015 -0.027 -0.050  0.046 -0.997
       0.168  0.983  0.017 -0.061 -0.033
      -0.369  0.004  0.011 -0.929 -0.038
       0.048 -0.028  0.997 -0.006 -0.050
     occupation matrix ns (before diag.):
       0.171  0.003 -0.002  0.126 -0.005
       0.003  0.519  0.010 -0.001  0.014
      -0.002  0.010  0.180  0.022  0.001
       0.126 -0.001  0.022  0.442  0.004
      -0.005  0.014  0.001  0.004  0.242
     ------------------------ ATOM   22 ------------------------
     Tr[ns( 22)] (up, down, total) =   4.78843  1.55958  6.34801
     Atomic magnetic moment for atom  22 =   3.22886
     SPIN  1
     eigenvalues:
       0.888  0.913  0.995  0.996  0.997
     eigenvectors (columns):
       0.152 -0.298  0.922 -0.007 -0.194
      -0.871 -0.486 -0.025  0.042 -0.055
       0.003  0.092 -0.173 -0.225 -0.954
       0.467 -0.814 -0.345  0.031 -0.022
       0.024  0.066 -0.021  0.973 -0.219
     occupation matrix ns (before diag.):
       0.985  0.002  0.003 -0.027  0.001
       0.002  0.894  0.004  0.011  0.005
       0.003  0.004  0.996  0.006 -0.000
      -0.027  0.011  0.006  0.918  0.003
       0.001  0.005 -0.000  0.003  0.996
     SPIN  2
     eigenvalues:
       0.152  0.194  0.216  0.464  0.533
     eigenvectors (columns):
       0.854  0.344  0.157 -0.356  0.017
      -0.022  0.034  0.074 -0.034 -0.996
      -0.361  0.929  0.041  0.053  0.041
      -0.352 -0.085 -0.011 -0.931  0.036
      -0.123 -0.097  0.984  0.047  0.071
     occupation matrix ns (before diag.):
       0.198 -0.001  0.008  0.102  0.004
      -0.001  0.531 -0.015 -0.004 -0.023
       0.008 -0.015  0.190 -0.018  0.001
       0.102 -0.004 -0.018  0.424 -0.013
       0.004 -0.023  0.001 -0.013  0.217
     ------------------------ ATOM   23 ------------------------
     Tr[ns( 23)] (up, down, total) =   4.30271  3.29748  7.60019
     Atomic magnetic moment for atom  23 =   1.00523
     SPIN  1
     eigenvalues:
       0.684  0.709  0.945  0.969  0.995
     eigenvectors (columns):
      -0.156  0.214 -0.053  0.945 -0.183
      -0.774 -0.628 -0.066  0.018  0.037
      -0.015  0.055  0.237  0.182  0.952
      -0.613  0.741  0.057 -0.269 -0.016
      -0.021 -0.089  0.966  0.024 -0.240
     occupation matrix ns (before diag.):
       0.951  0.000 -0.008 -0.068  0.006
       0.000  0.696  0.007 -0.014 -0.018
      -0.008  0.007  0.990 -0.014 -0.010
      -0.068 -0.014 -0.014  0.720  0.012
       0.006 -0.018 -0.010  0.012  0.946
     SPIN  2
     eigenvalues:
       0.307  0.495  0.515  0.990  0.991
     eigenvectors (columns):
      -0.190  0.269 -0.197  0.915  0.123
       0.032  0.562  0.824  0.027 -0.060
       0.967  0.017 -0.041  0.162  0.189
       0.019  0.782 -0.523 -0.340  0.009
      -0.163 -0.010  0.088 -0.143  0.972
     occupation matrix ns (before diag.):
       0.911  0.007  0.120 -0.151 -0.011
       0.007  0.510 -0.010 -0.014 -0.028
       0.120 -0.010  0.349 -0.029  0.110
      -0.151 -0.014 -0.029  0.557  0.028
      -0.011 -0.028  0.110  0.028  0.969
     ------------------------ ATOM   24 ------------------------
     Tr[ns( 24)] (up, down, total) =   4.83749  1.44171  6.27921
     Atomic magnetic moment for atom  24 =   3.39578
     SPIN  1
     eigenvalues:
       0.912  0.937  0.995  0.996  0.997
     eigenvectors (columns):
       0.169  0.257 -0.921 -0.055  0.233
       0.800 -0.595 -0.034  0.042 -0.049
      -0.017 -0.095  0.195  0.243  0.945
       0.575  0.752  0.322 -0.008  0.021
      -0.016  0.071 -0.097  0.967 -0.222
     occupation matrix ns (before diag.):
       0.989 -0.002  0.002 -0.019 -0.001
      -0.002  0.921 -0.002 -0.012  0.004
       0.002 -0.002  0.996  0.005  0.000
      -0.019 -0.012  0.005  0.935 -0.002
      -0.001  0.004  0.000 -0.002  0.996
     SPIN  2
     eigenvalues:
       0.134  0.166  0.189  0.440  0.513
     eigenvectors (columns):
       0.783  0.516  0.076 -0.338 -0.008
       0.033 -0.041 -0.062  0.025 -0.996
      -0.507  0.832 -0.217  0.047 -0.036
      -0.315 -0.138  0.007 -0.938 -0.029
       0.170 -0.144 -0.971 -0.045  0.071
     occupation matrix ns (before diag.):
       0.178 -0.000  0.008  0.095 -0.002
      -0.000  0.511  0.014  0.004 -0.024
       0.008  0.014  0.160 -0.017  0.006
       0.095  0.004 -0.017  0.404  0.012
      -0.002 -0.024  0.006  0.012  0.189

     Number of occupied Hubbard levels =  162.1394

 ------ SPIN UP ------------


          k = 0.0000 0.0000 0.0000 (153879 PWs)   bands (ev):

  -104.9825-104.9684-104.8972-104.8557-104.7926-104.6987 -97.1055 -97.0254
   -96.9349 -96.8503 -95.4738 -95.3919 -91.9418 -91.6211 -91.6191 -91.5586
   -91.5135 -89.6048 -73.8822 -73.7242 -73.6703 -73.6672 -73.6482 -73.6039
   -65.4619 -65.4302 -65.3802 -65.3229 -65.3189 -65.2886 -65.2398 -65.2378
   -65.1975 -65.1941 -65.1853 -65.1665 -65.1485 -65.1305 -65.1277 -65.0671
   -65.0489 -64.9264 -60.6943 -60.6269 -60.5855 -60.5316 -60.5081 -60.4840
   -60.3065 -60.1778 -59.7202 -59.6012 -59.5615 -59.5366 -58.8423 -58.7878
   -58.7749 -58.6852 -58.5703 -58.4768 -57.9124 -57.8936 -57.8741 -57.6424
   -57.6185 -57.6171 -57.6124 -57.5967 -57.4972 -57.4873 -57.4792 -57.4679
   -57.4423 -57.4341 -57.3986 -56.5746 -55.1834 -55.0322 -45.2230 -45.1981
   -45.1701 -45.1085 -45.0963 -45.0787 -45.0278 -45.0137 -45.0109 -44.9869
   -44.9625 -44.9268 -44.9081 -44.8915 -44.8806 -44.8691 -44.8392 -44.8239
   -24.2514 -19.2570 -19.0928 -18.8678 -18.8429 -18.8006 -18.6254 -18.5077
   -18.4483 -18.3400 -18.3174 -18.2603 -18.2345 -18.1145 -18.0438 -18.0149
   -17.9799 -17.9126 -17.9043 -17.8695 -17.8292 -17.8158 -17.7813 -17.7440
   -17.7314 -17.7193 -17.6836 -17.6695 -17.6530 -17.6413 -17.5581 -17.5486
   -17.5447 -17.5167 -17.4843 -17.4647 -17.4489 -17.4094 -17.3932 -17.3659
   -17.3445 -17.3099 -17.2216 -17.1788 -17.0562 -16.8091 -16.7684 -16.6960
   -16.6647 -16.4288  -9.2409  -8.9329  -8.7927  -8.7735  -8.6526  -8.5013
    -8.4569  -8.4252  -8.2639  -8.2586  -8.2084  -8.1328  -8.0404  -8.0209
    -7.9981  -7.9448  -7.9259  -7.8846  -7.8325  -7.7661  -7.7078  -7.5679
    -7.5466  -7.5274  -7.4977  -7.4580  -7.4069  -7.3301  -7.3114  -7.2391
    -7.1325  -7.1231  -7.1141  -7.0853  -7.0845  -7.0087  -6.9701  -6.9218
    -6.8721  -6.8406  -6.8021  -6.7244  -6.6932  -6.6446  -6.5877  -6.5041
    -6.4613  -6.4215  -6.3603  -6.3232  -6.3125  -6.2980  -6.2417  -6.2244
    -6.1811  -6.1572  -6.1510  -6.1043  -6.0373  -5.9912  -5.9737  -5.9551
    -5.9368  -5.9060  -5.8678  -5.8647  -5.8434  -5.8230  -5.7957  -5.7534
    -5.7345  -5.6602  -5.6378  -5.5852  -5.5747  -5.5576  -5.4903  -5.4768
    -5.4500  -5.4288  -5.4011  -5.3541  -5.3297  -5.3040  -5.2427  -5.1846
    -5.1093  -5.0482  -5.0276  -4.9968  -4.9599  -4.8635  -4.8472  -4.8086
    -4.7864  -4.7286  -4.6977  -4.6731  -4.6278  -4.6060  -4.5897  -4.5639
    -4.5169  -4.4413  -4.4343  -4.3700  -4.3537  -4.3314  -4.2877  -4.2279
    -4.2068  -4.1473  -4.1231  -3.9782  -3.8791  -3.8517  -3.8239  -3.7798
    -3.7236  -3.6830  -3.6723  -3.6480  -3.6333  -3.5831  -3.5526  -3.5365
    -3.4959  -3.4844  -3.4646  -3.4232  -3.3738  -3.3411  -3.3223  -3.2922
    -3.2832  -3.2461  -3.2321  -3.1821  -3.1611  -3.1320  -3.1204  -3.0936
    -3.0803  -3.0611  -3.0450  -3.0000  -2.9466  -2.9313  -2.9074  -2.8360
    -2.8108  -2.7502  -2.7319  -2.6900  -2.6280  -2.6121  -2.5988  -2.5430
    -2.4994  -2.4726  -2.4394  -2.3875  -2.3686  -2.3334  -2.2455  -2.2161
    -2.1895  -2.1727  -2.1189  -2.0597  -2.0128  -1.9520  -1.9277  -1.8982
    -1.8481  -1.7702  -1.7552  -1.7152  -1.6761  -1.6454  -1.5947  -1.5742
    -1.5635  -1.5207  -1.5072  -1.4857  -1.4440  -1.4380  -1.4187  -1.4106
    -1.4022  -1.3595  -1.3268  -1.2979  -1.2569  -1.2517  -1.2076  -1.1799
    -1.1120  -1.0838  -1.0589  -1.0493  -1.0063  -0.9584  -0.9479  -0.9272
    -0.9040  -0.8803  -0.8475  -0.8343  -0.8090  -0.7727  -0.7377  -0.7165
    -0.6510  -0.6171  -0.6002  -0.5688  -0.5661  -0.5171  -0.3993  -0.3888
    -0.3650  -0.3185  -0.2335  -0.1954  -0.1570  -0.1373  -0.0822  -0.0628
    -0.0006   0.0198   0.0594   0.1025   0.2160   0.2278   0.2517   0.3247
     0.3675   0.3690   0.3895   0.4247   0.5586   0.7201   0.7641   0.7865
     0.8708   0.9276   0.9730   1.0434   1.2448   1.3429   1.4440   1.4687
     1.4815   1.6450   1.7809   1.7905   1.9267   2.0626   2.3515   2.6079
     2.6832   2.8772   2.8894   3.3214   3.3940   3.4505   3.4955

          k = 0.0000-0.2359 0.0000 (153728 PWs)   bands (ev):

  -104.9825-104.9684-104.8972-104.8557-104.7926-104.6987 -97.1055 -97.0254
   -96.9349 -96.8503 -95.4738 -95.3919 -91.9418 -91.6211 -91.6191 -91.5586
   -91.5135 -89.6048 -73.8822 -73.7242 -73.6703 -73.6672 -73.6482 -73.6039
   -65.4619 -65.4302 -65.3802 -65.3229 -65.3189 -65.2886 -65.2398 -65.2378
   -65.1975 -65.1941 -65.1853 -65.1665 -65.1485 -65.1305 -65.1277 -65.0671
   -65.0489 -64.9264 -60.6943 -60.6269 -60.5855 -60.5316 -60.5081 -60.4840
   -60.3065 -60.1778 -59.7202 -59.6012 -59.5615 -59.5366 -58.8423 -58.7878
   -58.7749 -58.6852 -58.5703 -58.4768 -57.9124 -57.8936 -57.8741 -57.6424
   -57.6185 -57.6171 -57.6124 -57.5967 -57.4972 -57.4873 -57.4792 -57.4678
   -57.4423 -57.4341 -57.3986 -56.5746 -55.1834 -55.0322 -45.2230 -45.1981
   -45.1701 -45.1085 -45.0963 -45.0787 -45.0278 -45.0137 -45.0109 -44.9869
   -44.9625 -44.9268 -44.9081 -44.8915 -44.8806 -44.8691 -44.8392 -44.8239
   -24.2513 -19.1806 -19.1350 -18.9733 -18.8794 -18.6904 -18.6519 -18.5652
   -18.4413 -18.3266 -18.2910 -18.2192 -18.1710 -18.0766 -18.0381 -18.0080
   -17.9800 -17.9689 -17.9048 -17.8934 -17.8304 -17.8107 -17.7877 -17.7779
   -17.7390 -17.7303 -17.6928 -17.6683 -17.6562 -17.6417 -17.5601 -17.5529
   -17.5407 -17.4973 -17.4881 -17.4557 -17.4292 -17.4091 -17.3982 -17.3780
   -17.3400 -17.3219 -17.2145 -17.1816 -17.0528 -16.8089 -16.7674 -16.6962
   -16.6652 -16.4288  -9.2064  -8.9060  -8.7861  -8.7546  -8.6548  -8.5013
    -8.4696  -8.4529  -8.2625  -8.2568  -8.2165  -8.1245  -8.0433  -8.0342
    -7.9910  -7.9472  -7.8947  -7.8668  -7.8016  -7.7464  -7.7233  -7.6147
    -7.5731  -7.5387  -7.5312  -7.5207  -7.4105  -7.3828  -7.3148  -7.2486
    -7.1698  -7.1482  -7.1175  -7.0872  -7.0762  -7.0246  -6.9802  -6.8903
    -6.8773  -6.8442  -6.7972  -6.7334  -6.7104  -6.6645  -6.5948  -6.5047
    -6.4724  -6.4363  -6.3787  -6.3336  -6.3010  -6.2676  -6.2254  -6.1981
    -6.1826  -6.1560  -6.1237  -6.0703  -6.0107  -5.9988  -5.9601  -5.9256
    -5.8950  -5.8815  -5.8659  -5.8069  -5.7722  -5.7592  -5.7305  -5.7078
    -5.6792  -5.6685  -5.6320  -5.6092  -5.5501  -5.5298  -5.5004  -5.4777
    -5.4422  -5.4126  -5.3967  -5.3847  -5.3453  -5.2988  -5.2684  -5.2236
    -5.1621  -5.0970  -5.0287  -5.0118  -4.9628  -4.9513  -4.9108  -4.8769
    -4.8293  -4.7779  -4.7650  -4.7064  -4.6373  -4.6070  -4.5608  -4.5419
    -4.5017  -4.4180  -4.3923  -4.3479  -4.3219  -4.3139  -4.2341  -4.1988
    -4.0874  -4.0647  -4.0086  -3.9690  -3.9369  -3.8922  -3.8384  -3.7980
    -3.7585  -3.7238  -3.6893  -3.6677  -3.6416  -3.6154  -3.6053  -3.5747
    -3.5227  -3.4924  -3.4887  -3.4397  -3.4188  -3.3962  -3.3704  -3.3062
    -3.2984  -3.2816  -3.2702  -3.2358  -3.1923  -3.1582  -3.1148  -3.1056
    -3.0912  -3.0812  -3.0346  -2.8950  -2.8640  -2.8592  -2.7991  -2.7509
    -2.7321  -2.7150  -2.6868  -2.6583  -2.6265  -2.5713  -2.5550  -2.5019
    -2.4905  -2.4172  -2.3957  -2.3738  -2.3362  -2.2610  -2.2522  -2.2158
    -2.1977  -2.1674  -2.1240  -2.0942  -2.0767  -2.0226  -1.9654  -1.9474
    -1.9380  -1.8965  -1.8134  -1.6653  -1.6550  -1.6278  -1.6083  -1.5832
    -1.5430  -1.5349  -1.4925  -1.4626  -1.4412  -1.4230  -1.3843  -1.3815
    -1.3686  -1.3510  -1.3138  -1.2962  -1.2891  -1.2488  -1.2147  -1.1871
    -1.1229  -1.0862  -1.0688  -1.0424  -1.0279  -0.9872  -0.9664  -0.9594
    -0.9383  -0.9230  -0.9136  -0.8894  -0.8150  -0.7983  -0.7800  -0.7500
    -0.7254  -0.7169  -0.6277  -0.5960  -0.5518  -0.4651  -0.3951  -0.3537
    -0.3241  -0.2931  -0.2667  -0.1912  -0.1812  -0.1521  -0.1019  -0.0143
     0.0202   0.0574   0.0804   0.1255   0.1826   0.2813   0.2970   0.3670
     0.3708   0.3869   0.3952   0.5321   0.6302   0.7438   0.7747   0.8424
     0.8878   0.9618   1.0335   1.0644   1.1560   1.2454   1.3129   1.4571
     1.5577   1.6792   1.7651   1.8149   1.8410   2.0627   2.3683   2.6078
     2.6958   2.8741   3.0214   3.3142   3.3368   3.4067   3.4653

          k = 0.2500-0.0000 0.0000 (153964 PWs)   bands (ev):

  -104.9819-104.9683-104.8971-104.8556-104.7920-104.6987 -97.1053 -97.0248
   -96.9348 -96.8496 -95.4738 -95.3917 -91.9417 -91.6201 -91.6190 -91.5585
   -91.5126 -89.6046 -73.8820 -73.7241 -73.6701 -73.6661 -73.6487 -73.6038
   -65.4619 -65.4303 -65.3805 -65.3221 -65.3190 -65.2894 -65.2399 -65.2381
   -65.1975 -65.1942 -65.1853 -65.1665 -65.1485 -65.1305 -65.1277 -65.0671
   -65.0490 -64.9264 -60.6944 -60.6270 -60.5855 -60.5316 -60.5082 -60.4840
   -60.3065 -60.1779 -59.7203 -59.6013 -59.5619 -59.5370 -58.8423 -58.7878
   -58.7750 -58.6854 -58.5703 -58.4768 -57.9125 -57.8938 -57.8741 -57.6425
   -57.6185 -57.6173 -57.6125 -57.5967 -57.4961 -57.4873 -57.4800 -57.4680
   -57.4424 -57.4343 -57.4017 -56.5746 -55.1837 -55.0322 -45.2234 -45.1981
   -45.1701 -45.1082 -45.0964 -45.0791 -45.0260 -45.0109 -44.9968 -44.9873
   -44.9629 -44.9269 -44.9081 -44.9008 -44.8882 -44.8723 -44.8392 -44.8243
   -24.2512 -19.1341 -18.9798 -18.7610 -18.7323 -18.6968 -18.5264 -18.4685
   -18.4176 -18.3578 -18.2881 -18.2513 -18.2134 -18.1924 -18.1273 -18.0987
   -18.0698 -18.0247 -17.9576 -17.9319 -17.8783 -17.8268 -17.8072 -17.7665
   -17.7465 -17.7172 -17.6873 -17.6637 -17.6443 -17.6254 -17.5899 -17.5687
   -17.5367 -17.5161 -17.4932 -17.4590 -17.4438 -17.4068 -17.3965 -17.3749
   -17.3610 -17.3378 -17.2852 -17.2109 -17.0951 -16.8219 -16.7699 -16.7188
   -16.6623 -16.4286  -9.1046  -8.8020  -8.7777  -8.6584  -8.5249  -8.4585
    -8.4109  -8.3903  -8.2582  -8.2042  -8.1572  -8.0674  -7.9904  -7.9653
    -7.9438  -7.8799  -7.8407  -7.8035  -7.7566  -7.7390  -7.6784  -7.6167
    -7.5566  -7.5251  -7.4822  -7.4128  -7.4007  -7.3167  -7.2738  -7.1973
    -7.1451  -7.1324  -7.1069  -7.0878  -7.0410  -7.0289  -6.9733  -6.9170
    -6.8537  -6.8170  -6.7880  -6.7376  -6.6887  -6.6032  -6.5498  -6.5278
    -6.4663  -6.4418  -6.3971  -6.3827  -6.3381  -6.3100  -6.2571  -6.2187
    -6.2070  -6.1653  -6.1546  -6.1020  -6.0737  -6.0145  -5.9822  -5.9522
    -5.9285  -5.9249  -5.8778  -5.8535  -5.8232  -5.7995  -5.7762  -5.7457
    -5.7197  -5.6875  -5.6472  -5.6394  -5.6104  -5.5688  -5.5475  -5.5140
    -5.4927  -5.4679  -5.4170  -5.3639  -5.3426  -5.3207  -5.2934  -5.2463
    -5.1948  -5.1515  -5.1306  -5.0863  -5.0528  -4.9886  -4.9662  -4.9130
    -4.8813  -4.8638  -4.7806  -4.7197  -4.6818  -4.6370  -4.5946  -4.5657
    -4.5097  -4.4409  -4.4256  -4.3694  -4.3422  -4.3163  -4.2414  -4.2173
    -4.1823  -4.1370  -4.1143  -4.0774  -4.0434  -4.0096  -3.9838  -3.9298
    -3.9149  -3.8957  -3.8672  -3.8129  -3.7673  -3.7303  -3.6896  -3.6673
    -3.6133  -3.5823  -3.5518  -3.4847  -3.4531  -3.3801  -3.3595  -3.3294
    -3.2547  -3.2098  -3.1681  -3.1202  -3.1082  -3.0626  -3.0503  -3.0414
    -3.0023  -2.9827  -2.9543  -2.9275  -2.8664  -2.8367  -2.8022  -2.7595
    -2.7156  -2.6948  -2.6408  -2.6024  -2.5951  -2.5564  -2.5264  -2.4802
    -2.4475  -2.3909  -2.3542  -2.3139  -2.2773  -2.2445  -2.2235  -2.1900
    -2.1510  -2.1057  -2.0678  -1.9952  -1.9433  -1.9095  -1.8257  -1.7789
    -1.7347  -1.7062  -1.6811  -1.6407  -1.6325  -1.5756  -1.5506  -1.5092
    -1.4663  -1.4423  -1.4184  -1.3876  -1.3832  -1.3309  -1.3194  -1.3037
    -1.2652  -1.2300  -1.2242  -1.2077  -1.1641  -1.1463  -1.1207  -1.1096
    -1.0885  -1.0653  -1.0507  -1.0234  -0.9843  -0.9598  -0.9339  -0.9180
    -0.8894  -0.8486  -0.8111  -0.7923  -0.7636  -0.7380  -0.7040  -0.6822
    -0.6631  -0.6176  -0.5936  -0.5685  -0.5536  -0.5228  -0.4966  -0.4511
    -0.4159  -0.3650  -0.3101  -0.2309  -0.2138  -0.1824  -0.1139  -0.0807
    -0.0513   0.0075   0.0324   0.0634   0.0899   0.1234   0.1774   0.2096
     0.2686   0.3166   0.3303   0.3843   0.4682   0.4798   0.5093   0.6138
     0.7848   0.8354   0.9510   1.0141   1.0823   1.2540   1.3938   1.4871
     1.5353   1.5735   1.6435   1.7599   1.8504   1.8880   2.3063   2.5484
     2.6266   2.6516   2.8103   3.1311   3.1608   3.2783   3.4225

          k = 0.2500-0.2359 0.0000 (154028 PWs)   bands (ev):

  -104.9819-104.9683-104.8971-104.8556-104.7920-104.6987 -97.1053 -97.0248
   -96.9348 -96.8496 -95.4738 -95.3917 -91.9417 -91.6201 -91.6190 -91.5585
   -91.5126 -89.6046 -73.8820 -73.7241 -73.6701 -73.6661 -73.6487 -73.6038
   -65.4619 -65.4303 -65.3805 -65.3221 -65.3190 -65.2894 -65.2399 -65.2381
   -65.1975 -65.1942 -65.1853 -65.1665 -65.1485 -65.1305 -65.1277 -65.0671
   -65.0490 -64.9264 -60.6944 -60.6270 -60.5855 -60.5316 -60.5082 -60.4840
   -60.3066 -60.1779 -59.7203 -59.6013 -59.5619 -59.5370 -58.8423 -58.7878
   -58.7750 -58.6854 -58.5703 -58.4768 -57.9125 -57.8938 -57.8742 -57.6425
   -57.6185 -57.6173 -57.6125 -57.5968 -57.4961 -57.4873 -57.4800 -57.4680
   -57.4424 -57.4343 -57.4017 -56.5746 -55.1837 -55.0322 -45.2234 -45.1981
   -45.1701 -45.1082 -45.0964 -45.0791 -45.0260 -45.0109 -44.9968 -44.9873
   -44.9629 -44.9269 -44.9081 -44.9008 -44.8882 -44.8723 -44.8392 -44.8243
   -24.2512 -19.0642 -19.0160 -18.8624 -18.7684 -18.5896 -18.5482 -18.4965
   -18.4496 -18.3444 -18.2769 -18.2447 -18.1973 -18.1403 -18.1307 -18.0887
   -18.0110 -17.9951 -17.9682 -17.9295 -17.9046 -17.8587 -17.8024 -17.7734
   -17.7464 -17.7335 -17.7076 -17.6872 -17.6512 -17.6369 -17.5925 -17.5596
   -17.5305 -17.5094 -17.4883 -17.4551 -17.4356 -17.4169 -17.3947 -17.3763
   -17.3576 -17.3454 -17.2809 -17.2111 -17.0924 -16.8216 -16.7690 -16.7193
   -16.6625 -16.4286  -9.0725  -8.7796  -8.7774  -8.6414  -8.5284  -8.4666
    -8.4199  -8.3954  -8.2591  -8.2009  -8.1598  -8.0646  -8.0072  -7.9776
    -7.9371  -7.8935  -7.8400  -7.7908  -7.7438  -7.7004  -7.6438  -7.6206
    -7.5358  -7.5049  -7.4905  -7.4349  -7.3952  -7.3709  -7.3089  -7.2539
    -7.2168  -7.1407  -7.1173  -7.0893  -7.0762  -7.0437  -6.9677  -6.9276
    -6.8895  -6.8458  -6.7859  -6.7044  -6.6629  -6.5994  -6.5587  -6.5231
    -6.4603  -6.4184  -6.3870  -6.3361  -6.3085  -6.2965  -6.2604  -6.2420
    -6.2121  -6.1855  -6.1311  -6.0933  -6.0601  -6.0235  -5.9938  -5.9611
    -5.9293  -5.9079  -5.8728  -5.8529  -5.8223  -5.7999  -5.7768  -5.7662
    -5.7171  -5.6868  -5.6612  -5.6306  -5.6131  -5.5961  -5.5360  -5.5054
    -5.4796  -5.4417  -5.4195  -5.3704  -5.3525  -5.2997  -5.2740  -5.2569
    -5.1964  -5.1604  -5.1114  -5.0831  -5.0386  -4.9832  -4.9476  -4.9205
    -4.8779  -4.8505  -4.8121  -4.7341  -4.6941  -4.6370  -4.5953  -4.5653
    -4.5331  -4.4715  -4.4409  -4.4006  -4.3140  -4.2883  -4.2220  -4.1824
    -4.1469  -4.1144  -4.0872  -4.0559  -4.0173  -3.9854  -3.9290  -3.9024
    -3.8578  -3.8419  -3.8159  -3.8062  -3.7542  -3.7317  -3.6886  -3.6313
    -3.5987  -3.5496  -3.4962  -3.4902  -3.4372  -3.4166  -3.3850  -3.3598
    -3.2998  -3.2619  -3.2327  -3.2135  -3.1639  -3.1058  -3.0821  -3.0478
    -3.0020  -2.9737  -2.9470  -2.9120  -2.8643  -2.8487  -2.7875  -2.7531
    -2.7277  -2.6921  -2.6577  -2.6446  -2.5919  -2.5703  -2.5509  -2.5240
    -2.5058  -2.4556  -2.3897  -2.3439  -2.3141  -2.2523  -2.1803  -2.1400
    -2.1008  -2.0664  -2.0224  -1.9568  -1.9170  -1.8682  -1.8187  -1.7874
    -1.7643  -1.7333  -1.6744  -1.6390  -1.6174  -1.5998  -1.5592  -1.5411
    -1.5055  -1.4759  -1.4486  -1.4024  -1.3716  -1.3537  -1.3226  -1.2961
    -1.2589  -1.2391  -1.2213  -1.2066  -1.1768  -1.1543  -1.1401  -1.1280
    -1.1133  -1.0831  -1.0273  -1.0089  -0.9802  -0.9481  -0.9169  -0.9072
    -0.8859  -0.8519  -0.8164  -0.8055  -0.7733  -0.7408  -0.7182  -0.7019
    -0.6752  -0.6235  -0.5824  -0.5443  -0.5282  -0.4781  -0.4603  -0.4213
    -0.3741  -0.3416  -0.2901  -0.2650  -0.2329  -0.2025  -0.1766  -0.1069
    -0.0099   0.0037   0.0407   0.0649   0.0906   0.1251   0.1856   0.2424
     0.2864   0.3320   0.3485   0.4040   0.4683   0.5020   0.5344   0.7256
     0.7613   0.8479   0.9422   1.0617   1.1337   1.1711   1.2850   1.4657
     1.5641   1.5782   1.6482   1.7625   1.7894   1.8847   2.3111   2.5592
     2.6243   2.6524   2.9226   3.1265   3.1407   3.2553   3.3588

          k =-0.5000 0.0000 0.0000 (154012 PWs)   bands (ev):

  -104.9813-104.9681-104.8971-104.8556-104.7914-104.6986 -97.1052 -97.0242
   -96.9346 -96.8490 -95.4737 -95.3915 -91.9417 -91.6192 -91.6190 -91.5583
   -91.5116 -89.6045 -73.8818 -73.7240 -73.6699 -73.6650 -73.6492 -73.6036
   -65.4619 -65.4303 -65.3808 -65.3213 -65.3191 -65.2902 -65.2400 -65.2383
   -65.1975 -65.1942 -65.1853 -65.1665 -65.1486 -65.1306 -65.1277 -65.0671
   -65.0490 -64.9264 -60.6944 -60.6270 -60.5855 -60.5316 -60.5082 -60.4841
   -60.3066 -60.1780 -59.7205 -59.6015 -59.5623 -59.5373 -58.8424 -58.7878
   -58.7751 -58.6855 -58.5703 -58.4768 -57.9126 -57.8940 -57.8742 -57.6426
   -57.6185 -57.6175 -57.6127 -57.5968 -57.4948 -57.4871 -57.4811 -57.4682
   -57.4424 -57.4345 -57.4048 -56.5746 -55.1841 -55.0322 -45.2238 -45.1981
   -45.1701 -45.1078 -45.0965 -45.0796 -45.0254 -45.0109 -44.9877 -44.9633
   -44.9584 -44.9411 -44.9269 -44.9081 -44.8819 -44.8786 -44.8392 -44.8247
   -24.2511 -18.8760 -18.7763 -18.7033 -18.6473 -18.5332 -18.4901 -18.4387
   -18.4253 -18.4039 -18.3273 -18.3046 -18.2376 -18.2140 -18.1850 -18.1391
   -18.1144 -18.0786 -18.0386 -18.0206 -17.9514 -17.9109 -17.8308 -17.7730
   -17.7471 -17.7180 -17.6951 -17.6679 -17.6279 -17.5997 -17.5716 -17.5583
   -17.5468 -17.5383 -17.4829 -17.4755 -17.4510 -17.4352 -17.4044 -17.3927
   -17.3759 -17.3665 -17.3256 -17.2404 -17.1465 -16.8337 -16.7722 -16.7383
   -16.6632 -16.4285  -8.9138  -8.7717  -8.6273  -8.5086  -8.4715  -8.3574
    -8.3143  -8.2506  -8.1592  -8.1376  -8.1239  -8.0834  -8.0801  -7.9773
    -7.9420  -7.9005  -7.8642  -7.7798  -7.7665  -7.7293  -7.6480  -7.5824
    -7.5561  -7.4888  -7.4194  -7.4046  -7.2961  -7.2779  -7.2333  -7.2156
    -7.1789  -7.1402  -7.1109  -7.0365  -7.0087  -6.9634  -6.8806  -6.8660
    -6.8147  -6.7918  -6.7402  -6.7182  -6.6515  -6.6010  -6.5525  -6.5209
    -6.4981  -6.4796  -6.4068  -6.3731  -6.3061  -6.2930  -6.2751  -6.2602
    -6.2468  -6.1988  -6.1446  -6.1222  -6.0893  -6.0564  -6.0199  -5.9995
    -5.9677  -5.9406  -5.9104  -5.8822  -5.8448  -5.8289  -5.8106  -5.7714
    -5.7370  -5.7207  -5.6789  -5.6656  -5.6438  -5.5986  -5.5801  -5.5487
    -5.5016  -5.4621  -5.4302  -5.3662  -5.3610  -5.3392  -5.2692  -5.2555
    -5.2167  -5.2041  -5.1585  -5.1483  -5.0748  -5.0645  -5.0210  -5.0062
    -4.8462  -4.8054  -4.7910  -4.7647  -4.7277  -4.6687  -4.6559  -4.5959
    -4.5798  -4.5415  -4.5073  -4.4657  -4.4188  -4.3779  -4.3463  -4.3122
    -4.3050  -4.2725  -4.2465  -4.1938  -4.1230  -4.1105  -4.0718  -4.0347
    -3.9864  -3.9676  -3.9311  -3.8882  -3.8668  -3.8075  -3.7996  -3.7849
    -3.7511  -3.6647  -3.6369  -3.6071  -3.5977  -3.5502  -3.4743  -3.4270
    -3.3537  -3.3253  -3.3054  -3.1796  -3.1495  -3.0794  -3.0150  -2.9867
    -2.9109  -2.8926  -2.8556  -2.8074  -2.7403  -2.7055  -2.6900  -2.6496
    -2.6097  -2.5770  -2.5286  -2.5006  -2.4322  -2.3962  -2.3584  -2.3317
    -2.2904  -2.2597  -2.2419  -2.1552  -2.1322  -2.0976  -2.0898  -2.0065
    -1.9761  -1.9394  -1.8949  -1.8497  -1.8001  -1.7647  -1.7376  -1.7300
    -1.6806  -1.6768  -1.6471  -1.6282  -1.5793  -1.5631  -1.5377  -1.4805
    -1.4329  -1.4163  -1.3931  -1.3776  -1.3462  -1.3101  -1.2884  -1.2497
    -1.2079  -1.1820  -1.1736  -1.1615  -1.1333  -1.0939  -1.0564  -1.0362
    -1.0141  -0.9884  -0.9671  -0.9555  -0.9332  -0.8949  -0.8810  -0.8603
    -0.8468  -0.8232  -0.7908  -0.7811  -0.7672  -0.7115  -0.6548  -0.6220
    -0.6155  -0.5857  -0.5440  -0.5386  -0.5154  -0.5085  -0.4732  -0.4478
    -0.3909  -0.3762  -0.3540  -0.3279  -0.3065  -0.2532  -0.2446  -0.2168
    -0.1820  -0.1349  -0.1177  -0.0699  -0.0518  -0.0187   0.0216   0.0687
     0.0883   0.1224   0.1741   0.2672   0.3249   0.3922   0.4790   0.5314
     0.6739   0.8103   0.8842   1.0438   1.0895   1.1484   1.3381   1.4025
     1.4710   1.5736   1.6271   1.6825   1.7365   1.7696   2.2514   2.3943
     2.4220   2.6505   2.8116   2.8685   2.9570   3.1301   3.3660

          k =-0.5000-0.2359 0.0000 (154084 PWs)   bands (ev):

  -104.9813-104.9681-104.8971-104.8556-104.7914-104.6986 -97.1052 -97.0242
   -96.9346 -96.8490 -95.4737 -95.3915 -91.9417 -91.6192 -91.6190 -91.5583
   -91.5116 -89.6045 -73.8818 -73.7240 -73.6699 -73.6650 -73.6492 -73.6036
   -65.4619 -65.4303 -65.3808 -65.3213 -65.3191 -65.2902 -65.2400 -65.2383
   -65.1975 -65.1942 -65.1853 -65.1665 -65.1486 -65.1306 -65.1277 -65.0671
   -65.0490 -64.9264 -60.6944 -60.6270 -60.5855 -60.5316 -60.5082 -60.4841
   -60.3066 -60.1780 -59.7205 -59.6015 -59.5623 -59.5373 -58.8424 -58.7878
   -58.7751 -58.6855 -58.5703 -58.4768 -57.9126 -57.8940 -57.8742 -57.6426
   -57.6185 -57.6175 -57.6127 -57.5968 -57.4948 -57.4872 -57.4811 -57.4682
   -57.4424 -57.4345 -57.4048 -56.5746 -55.1841 -55.0322 -45.2238 -45.1981
   -45.1701 -45.1078 -45.0965 -45.0796 -45.0254 -45.0109 -44.9877 -44.9633
   -44.9584 -44.9411 -44.9269 -44.9081 -44.8819 -44.8786 -44.8392 -44.8247
   -24.2511 -18.8311 -18.7708 -18.6961 -18.6520 -18.5865 -18.5241 -18.5104
   -18.4468 -18.3604 -18.3262 -18.3101 -18.2657 -18.2459 -18.1655 -18.1198
   -18.0502 -18.0111 -17.9946 -17.9409 -17.9088 -17.9062 -17.8667 -17.8225
   -17.7815 -17.7589 -17.7285 -17.6682 -17.6524 -17.6110 -17.5780 -17.5431
   -17.5379 -17.5237 -17.4847 -17.4676 -17.4495 -17.4366 -17.4183 -17.3995
   -17.3715 -17.3606 -17.3207 -17.2393 -17.1455 -16.8333 -16.7714 -16.7388
   -16.6632 -16.4284  -8.8851  -8.7778  -8.6154  -8.4979  -8.4759  -8.3588
    -8.3121  -8.2437  -8.1494  -8.1375  -8.1160  -8.0862  -8.0670  -7.9711
    -7.9457  -7.9206  -7.8860  -7.7807  -7.7778  -7.7220  -7.6777  -7.5904
    -7.4582  -7.4138  -7.4068  -7.3740  -7.3471  -7.3031  -7.2546  -7.2207
    -7.2001  -7.1065  -7.0926  -7.0769  -6.9863  -6.9430  -6.9269  -6.8916
    -6.8456  -6.8132  -6.7776  -6.7578  -6.6930  -6.6206  -6.6037  -6.5539
    -6.5181  -6.4549  -6.4023  -6.3854  -6.3257  -6.3056  -6.2733  -6.2618
    -6.2451  -6.1781  -6.1640  -6.1288  -6.0921  -6.0561  -6.0259  -6.0189
    -5.9701  -5.9406  -5.9157  -5.8894  -5.8492  -5.8225  -5.7842  -5.7631
    -5.7468  -5.7075  -5.7047  -5.6906  -5.6315  -5.5900  -5.5446  -5.4993
    -5.4864  -5.4463  -5.4167  -5.3849  -5.3614  -5.3003  -5.2901  -5.2709
    -5.2493  -5.2401  -5.1711  -5.1271  -5.0502  -5.0440  -4.9969  -4.8934
    -4.8240  -4.8106  -4.7669  -4.7274  -4.7060  -4.6953  -4.6797  -4.6093
    -4.5834  -4.5323  -4.5106  -4.4666  -4.4421  -4.4081  -4.3620  -4.3337
    -4.3077  -4.2397  -4.2227  -4.1436  -4.1282  -4.0588  -4.0350  -3.9849
    -3.9656  -3.8696  -3.8423  -3.8231  -3.8114  -3.7853  -3.7501  -3.7202
    -3.6754  -3.6199  -3.6033  -3.5716  -3.5446  -3.5124  -3.4991  -3.4348
    -3.3980  -3.3075  -3.2538  -3.2162  -3.1998  -3.1109  -3.0838  -3.0277
    -3.0172  -2.9691  -2.9521  -2.9149  -2.8755  -2.8306  -2.7649  -2.7143
    -2.7125  -2.6783  -2.6100  -2.5602  -2.4755  -2.4075  -2.3836  -2.3215
    -2.3110  -2.2358  -2.2048  -2.1670  -2.1363  -2.0229  -1.9909  -1.9221
    -1.9024  -1.8782  -1.8429  -1.8396  -1.8097  -1.7767  -1.7686  -1.7310
    -1.6764  -1.6547  -1.6438  -1.6336  -1.6149  -1.5731  -1.5438  -1.5347
    -1.5078  -1.4838  -1.4232  -1.3957  -1.3577  -1.3364  -1.2764  -1.2328
    -1.2078  -1.1780  -1.1557  -1.1150  -1.1045  -1.0755  -1.0456  -1.0388
    -1.0200  -0.9855  -0.9618  -0.9484  -0.9159  -0.8989  -0.8581  -0.8409
    -0.8356  -0.8202  -0.7911  -0.7682  -0.7624  -0.7393  -0.6715  -0.6354
    -0.6201  -0.6002  -0.5926  -0.5125  -0.4939  -0.4442  -0.4317  -0.4198
    -0.3828  -0.3541  -0.3312  -0.3044  -0.2674  -0.2331  -0.2039  -0.1756
    -0.1472  -0.1255  -0.0937  -0.0519  -0.0287  -0.0058   0.0113   0.0219
     0.0644   0.1130   0.2142   0.2746   0.2832   0.3902   0.4623   0.5866
     0.6346   0.7661   0.8465   1.0225   1.1466   1.1885   1.3368   1.3931
     1.4347   1.5701   1.6036   1.6744   1.7328   1.7414   2.2484   2.3891
     2.4207   2.6535   2.8458   2.8958   2.9544   3.1223   3.3197

          k =-0.2500 0.0000 0.0000 (153964 PWs)   bands (ev):

  -104.9819-104.9683-104.8971-104.8556-104.7920-104.6987 -97.1053 -97.0248
   -96.9348 -96.8496 -95.4738 -95.3917 -91.9417 -91.6201 -91.6190 -91.5585
   -91.5126 -89.6046 -73.8820 -73.7241 -73.6701 -73.6661 -73.6487 -73.6038
   -65.4619 -65.4303 -65.3805 -65.3221 -65.3190 -65.2894 -65.2399 -65.2381
   -65.1975 -65.1942 -65.1853 -65.1665 -65.1485 -65.1305 -65.1277 -65.0671
   -65.0490 -64.9264 -60.6944 -60.6270 -60.5855 -60.5316 -60.5082 -60.4840
   -60.3065 -60.1779 -59.7203 -59.6013 -59.5619 -59.5370 -58.8423 -58.7878
   -58.7750 -58.6854 -58.5703 -58.4768 -57.9125 -57.8938 -57.8741 -57.6425
   -57.6185 -57.6173 -57.6125 -57.5967 -57.4961 -57.4873 -57.4800 -57.4680
   -57.4424 -57.4343 -57.4017 -56.5746 -55.1837 -55.0322 -45.2234 -45.1981
   -45.1701 -45.1082 -45.0964 -45.0791 -45.0260 -45.0109 -44.9968 -44.9873
   -44.9629 -44.9269 -44.9081 -44.9008 -44.8882 -44.8723 -44.8392 -44.8243
   -24.2512 -19.1341 -18.9798 -18.7610 -18.7323 -18.6968 -18.5264 -18.4685
   -18.4176 -18.3578 -18.2881 -18.2513 -18.2134 -18.1924 -18.1273 -18.0987
   -18.0698 -18.0247 -17.9576 -17.9319 -17.8783 -17.8268 -17.8072 -17.7665
   -17.7465 -17.7172 -17.6873 -17.6637 -17.6443 -17.6254 -17.5899 -17.5687
   -17.5367 -17.5161 -17.4932 -17.4590 -17.4438 -17.4068 -17.3965 -17.3749
   -17.3610 -17.3378 -17.2852 -17.2109 -17.0951 -16.8219 -16.7699 -16.7188
   -16.6623 -16.4286  -9.1046  -8.8020  -8.7777  -8.6584  -8.5249  -8.4585
    -8.4109  -8.3903  -8.2582  -8.2042  -8.1572  -8.0674  -7.9904  -7.9653
    -7.9438  -7.8799  -7.8407  -7.8035  -7.7566  -7.7390  -7.6784  -7.6167
    -7.5566  -7.5251  -7.4822  -7.4128  -7.4007  -7.3167  -7.2738  -7.1973
    -7.1451  -7.1324  -7.1069  -7.0878  -7.0410  -7.0289  -6.9733  -6.9170
    -6.8537  -6.8170  -6.7880  -6.7376  -6.6887  -6.6032  -6.5498  -6.5278
    -6.4663  -6.4418  -6.3971  -6.3827  -6.3381  -6.3100  -6.2571  -6.2187
    -6.2070  -6.1653  -6.1546  -6.1020  -6.0737  -6.0145  -5.9822  -5.9522
    -5.9285  -5.9249  -5.8778  -5.8535  -5.8232  -5.7995  -5.7762  -5.7457
    -5.7197  -5.6875  -5.6472  -5.6394  -5.6104  -5.5688  -5.5475  -5.5140
    -5.4927  -5.4679  -5.4170  -5.3639  -5.3426  -5.3207  -5.2934  -5.2463
    -5.1948  -5.1515  -5.1306  -5.0863  -5.0528  -4.9886  -4.9662  -4.9130
    -4.8813  -4.8638  -4.7806  -4.7197  -4.6818  -4.6370  -4.5946  -4.5657
    -4.5097  -4.4409  -4.4256  -4.3694  -4.3422  -4.3163  -4.2414  -4.2173
    -4.1823  -4.1370  -4.1143  -4.0774  -4.0434  -4.0096  -3.9838  -3.9298
    -3.9149  -3.8957  -3.8672  -3.8129  -3.7673  -3.7303  -3.6896  -3.6673
    -3.6133  -3.5823  -3.5518  -3.4847  -3.4531  -3.3801  -3.3595  -3.3294
    -3.2547  -3.2098  -3.1681  -3.1202  -3.1082  -3.0626  -3.0503  -3.0414
    -3.0023  -2.9827  -2.9543  -2.9275  -2.8664  -2.8367  -2.8022  -2.7595
    -2.7156  -2.6948  -2.6408  -2.6024  -2.5951  -2.5564  -2.5264  -2.4802
    -2.4475  -2.3909  -2.3542  -2.3139  -2.2773  -2.2445  -2.2235  -2.1900
    -2.1510  -2.1057  -2.0678  -1.9952  -1.9433  -1.9095  -1.8257  -1.7789
    -1.7347  -1.7062  -1.6811  -1.6407  -1.6325  -1.5756  -1.5506  -1.5092
    -1.4663  -1.4423  -1.4184  -1.3876  -1.3832  -1.3309  -1.3194  -1.3037
    -1.2652  -1.2300  -1.2242  -1.2077  -1.1641  -1.1463  -1.1207  -1.1096
    -1.0885  -1.0653  -1.0507  -1.0234  -0.9843  -0.9598  -0.9339  -0.9180
    -0.8894  -0.8486  -0.8111  -0.7923  -0.7636  -0.7380  -0.7040  -0.6822
    -0.6631  -0.6176  -0.5936  -0.5685  -0.5536  -0.5228  -0.4966  -0.4511
    -0.4159  -0.3650  -0.3101  -0.2309  -0.2138  -0.1824  -0.1139  -0.0807
    -0.0513   0.0075   0.0324   0.0634   0.0899   0.1234   0.1774   0.2096
     0.2686   0.3166   0.3303   0.3843   0.4682   0.4798   0.5093   0.6138
     0.7848   0.8354   0.9510   1.0141   1.0823   1.2540   1.3938   1.4871
     1.5353   1.5735   1.6435   1.7599   1.8504   1.8880   2.3063   2.5484
     2.6266   2.6516   2.8103   3.1311   3.1608   3.2783   3.4225

          k =-0.2500-0.2359 0.0000 (154028 PWs)   bands (ev):

  -104.9819-104.9683-104.8971-104.8556-104.7920-104.6987 -97.1053 -97.0248
   -96.9348 -96.8496 -95.4738 -95.3917 -91.9417 -91.6201 -91.6190 -91.5585
   -91.5126 -89.6046 -73.8820 -73.7241 -73.6701 -73.6661 -73.6487 -73.6038
   -65.4619 -65.4303 -65.3805 -65.3221 -65.3190 -65.2894 -65.2399 -65.2381
   -65.1975 -65.1942 -65.1853 -65.1665 -65.1485 -65.1305 -65.1277 -65.0671
   -65.0490 -64.9264 -60.6944 -60.6270 -60.5855 -60.5316 -60.5082 -60.4840
   -60.3066 -60.1779 -59.7203 -59.6013 -59.5619 -59.5370 -58.8423 -58.7878
   -58.7750 -58.6854 -58.5703 -58.4768 -57.9125 -57.8938 -57.8742 -57.6425
   -57.6185 -57.6173 -57.6125 -57.5968 -57.4961 -57.4873 -57.4800 -57.4680
   -57.4424 -57.4343 -57.4017 -56.5746 -55.1837 -55.0322 -45.2234 -45.1981
   -45.1701 -45.1082 -45.0964 -45.0791 -45.0260 -45.0109 -44.9968 -44.9873
   -44.9629 -44.9269 -44.9081 -44.9008 -44.8882 -44.8723 -44.8392 -44.8243
   -24.2512 -19.0642 -19.0160 -18.8624 -18.7684 -18.5896 -18.5482 -18.4965
   -18.4496 -18.3444 -18.2769 -18.2447 -18.1973 -18.1403 -18.1307 -18.0887
   -18.0110 -17.9951 -17.9682 -17.9295 -17.9046 -17.8587 -17.8024 -17.7734
   -17.7464 -17.7335 -17.7076 -17.6872 -17.6512 -17.6369 -17.5925 -17.5596
   -17.5305 -17.5094 -17.4883 -17.4551 -17.4356 -17.4169 -17.3947 -17.3763
   -17.3576 -17.3454 -17.2809 -17.2111 -17.0924 -16.8216 -16.7690 -16.7193
   -16.6625 -16.4286  -9.0725  -8.7796  -8.7774  -8.6414  -8.5284  -8.4666
    -8.4199  -8.3954  -8.2591  -8.2009  -8.1598  -8.0646  -8.0072  -7.9776
    -7.9371  -7.8935  -7.8400  -7.7908  -7.7438  -7.7004  -7.6438  -7.6206
    -7.5358  -7.5049  -7.4905  -7.4349  -7.3952  -7.3709  -7.3089  -7.2539
    -7.2168  -7.1407  -7.1173  -7.0893  -7.0762  -7.0437  -6.9677  -6.9276
    -6.8895  -6.8458  -6.7859  -6.7044  -6.6629  -6.5994  -6.5587  -6.5231
    -6.4603  -6.4184  -6.3870  -6.3361  -6.3085  -6.2965  -6.2604  -6.2420
    -6.2121  -6.1855  -6.1311  -6.0933  -6.0601  -6.0235  -5.9938  -5.9611
    -5.9293  -5.9079  -5.8728  -5.8529  -5.8223  -5.7999  -5.7768  -5.7662
    -5.7171  -5.6868  -5.6612  -5.6306  -5.6131  -5.5961  -5.5360  -5.5054
    -5.4796  -5.4417  -5.4195  -5.3704  -5.3525  -5.2997  -5.2740  -5.2569
    -5.1964  -5.1604  -5.1114  -5.0831  -5.0386  -4.9832  -4.9476  -4.9205
    -4.8779  -4.8505  -4.8121  -4.7341  -4.6941  -4.6370  -4.5953  -4.5653
    -4.5331  -4.4715  -4.4409  -4.4006  -4.3140  -4.2883  -4.2220  -4.1824
    -4.1469  -4.1144  -4.0872  -4.0559  -4.0173  -3.9854  -3.9290  -3.9024
    -3.8578  -3.8419  -3.8159  -3.8062  -3.7542  -3.7317  -3.6886  -3.6313
    -3.5987  -3.5496  -3.4962  -3.4902  -3.4372  -3.4166  -3.3850  -3.3598
    -3.2998  -3.2619  -3.2327  -3.2135  -3.1639  -3.1058  -3.0821  -3.0478
    -3.0020  -2.9737  -2.9470  -2.9120  -2.8643  -2.8487  -2.7875  -2.7531
    -2.7277  -2.6921  -2.6577  -2.6446  -2.5919  -2.5703  -2.5509  -2.5240
    -2.5058  -2.4556  -2.3897  -2.3439  -2.3141  -2.2523  -2.1803  -2.1400
    -2.1008  -2.0664  -2.0224  -1.9568  -1.9170  -1.8682  -1.8187  -1.7874
    -1.7643  -1.7333  -1.6744  -1.6390  -1.6174  -1.5998  -1.5592  -1.5411
    -1.5055  -1.4759  -1.4486  -1.4024  -1.3716  -1.3537  -1.3226  -1.2961
    -1.2589  -1.2391  -1.2213  -1.2066  -1.1768  -1.1543  -1.1401  -1.1280
    -1.1133  -1.0831  -1.0273  -1.0089  -0.9802  -0.9481  -0.9169  -0.9072
    -0.8859  -0.8519  -0.8164  -0.8055  -0.7733  -0.7408  -0.7182  -0.7019
    -0.6752  -0.6235  -0.5824  -0.5443  -0.5282  -0.4781  -0.4603  -0.4213
    -0.3741  -0.3416  -0.2901  -0.2650  -0.2329  -0.2025  -0.1766  -0.1069
    -0.0099   0.0037   0.0407   0.0649   0.0906   0.1251   0.1856   0.2424
     0.2864   0.3320   0.3485   0.4040   0.4683   0.5020   0.5344   0.7256
     0.7613   0.8479   0.9422   1.0617   1.1337   1.1711   1.2850   1.4657
     1.5641   1.5782   1.6482   1.7625   1.7894   1.8847   2.3111   2.5592
     2.6243   2.6524   2.9226   3.1265   3.1407   3.2553   3.3588

 ------ SPIN DOWN ----------


          k = 0.0000 0.0000 0.0000 (153879 PWs)   bands (ev):

  -103.4604-103.3242-103.2845-103.1160-103.0308-103.0122 -96.4064 -96.0649
   -95.4256 -95.2081 -95.1485 -95.0580 -87.4043 -87.3727 -87.3508 -87.3061
   -87.2270 -86.2947 -71.3362 -70.9375 -70.8210 -70.7134 -70.5970 -70.5746
   -63.9503 -63.8478 -63.8327 -63.8088 -63.7401 -63.6696 -63.6484 -63.6480
   -63.6386 -63.5832 -63.5535 -63.5373 -63.4811 -63.4597 -63.3909 -63.3756
   -63.3683 -63.3431 -59.9758 -59.6003 -59.4463 -59.4364 -59.2170 -59.0590
   -58.8003 -58.7423 -58.5755 -58.5509 -58.5317 -58.4876 -58.4773 -58.4686
   -58.4604 -58.3509 -58.3439 -58.1413 -53.5697 -53.4889 -53.4493 -53.4477
   -53.4465 -53.4214 -53.4013 -53.3763 -53.3650 -53.3533 -53.3418 -53.3145
   -53.3111 -53.2603 -53.2277 -52.6266 -52.2994 -52.1919 -42.8777 -42.7970
   -42.6078 -42.3647 -42.3544 -42.2678 -42.1934 -42.1438 -42.0974 -42.0876
   -42.0597 -42.0543 -42.0422 -41.9324 -41.8953 -41.8947 -41.8540 -41.8189
   -24.6809 -19.5477 -19.2559 -19.1833 -19.1378 -18.9587 -18.8806 -18.7592
   -18.6216 -18.5737 -18.4612 -18.4072 -18.3331 -18.2754 -18.2663 -18.2216
   -18.1851 -18.1622 -18.1432 -18.1110 -18.0984 -18.0689 -18.0377 -18.0167
   -18.0070 -17.9703 -17.9594 -17.9235 -17.8802 -17.8374 -17.8212 -17.7801
   -17.7665 -17.7631 -17.7309 -17.7237 -17.6751 -17.6724 -17.6614 -17.6243
   -17.5925 -17.5860 -17.5694 -17.5462 -17.4935 -17.4876 -17.3324 -17.2846
   -17.0542 -17.0122  -8.9372  -7.5089  -7.3619  -7.1503  -7.0840  -7.0001
    -6.9142  -6.8200  -6.7962  -6.6215  -6.5718  -6.5347  -6.5037  -6.4673
    -6.4256  -6.3673  -6.3060  -6.2573  -6.2248  -6.2065  -6.1563  -6.1210
    -6.0905  -5.9989  -5.9464  -5.8908  -5.8512  -5.8295  -5.7580  -5.6891
    -5.6466  -5.6031  -5.5270  -5.5010  -5.4651  -5.4050  -5.3854  -5.3493
    -5.3225  -5.2670  -5.2388  -5.2269  -5.2005  -5.1523  -5.1123  -5.0870
    -5.0707  -5.0403  -5.0216  -4.9928  -4.9543  -4.9252  -4.9126  -4.8681
    -4.8498  -4.8036  -4.7948  -4.7497  -4.7038  -4.6711  -4.6690  -4.6221
    -4.5866  -4.5571  -4.5061  -4.4776  -4.4207  -4.4085  -4.3643  -4.3499
    -4.3159  -4.2663  -4.2403  -4.2192  -4.2054  -4.1691  -4.1643  -4.1209
    -4.0777  -4.0729  -4.0264  -3.9903  -3.9712  -3.9511  -3.9066  -3.8987
    -3.8797  -3.8647  -3.8174  -3.7879  -3.7714  -3.7634  -3.7192  -3.6889
    -3.6821  -3.6586  -3.6452  -3.6305  -3.6058  -3.5855  -3.5033  -3.4679
    -3.4468  -3.3901  -3.3511  -3.3315  -3.3059  -3.2784  -3.2411  -3.1941
    -3.1761  -3.1654  -3.1383  -3.1232  -3.0756  -3.0694  -3.0444  -2.9835
    -2.9630  -2.9079  -2.8889  -2.8223  -2.8076  -2.8012  -2.7810  -2.7342
    -2.7172  -2.6845  -2.6385  -2.6008  -2.5479  -2.5326  -2.4995  -2.4733
    -2.4436  -2.4010  -2.3605  -2.3499  -2.3237  -2.2980  -2.2726  -2.2416
    -2.2118  -2.1908  -2.1694  -2.1306  -2.1250  -2.0818  -2.0633  -2.0234
    -1.9941  -1.9551  -1.9400  -1.9221  -1.9134  -1.9089  -1.8644  -1.8306
    -1.7979  -1.7517  -1.7279  -1.7131  -1.6820  -1.6455  -1.6071  -1.5639
    -1.5261  -1.5124  -1.4798  -1.4413  -1.4113  -1.3556  -1.3064  -1.2758
    -1.2399  -1.2332  -1.1996  -1.1718  -1.0992  -0.9762  -0.9508  -0.7764
     0.3799   0.4881   0.5491   0.6311   0.6795   0.7247   0.8312   0.8899
     0.9563   1.0017   1.0228   1.0734   1.0855   1.1537   1.1871   1.2189
     1.2532   1.2795   1.3193   1.3516   1.4376   1.4891   1.5301   1.5460
     1.5742   1.5905   1.6447   1.6972   1.7287   1.7660   1.8736   1.8909
     1.9185   1.9423   1.9751   2.0238   2.0282   2.1225   2.1730   2.1838
     2.2442   2.2893   2.3510   2.3770   2.3985   2.4732   2.5024   2.5569
     2.6177   2.6292   2.6831   2.7702   2.7720   2.8439   2.8924   2.9366
     2.9541   3.0038   3.0248   3.0485   3.1500   3.1984   3.2068   3.2224
     3.2585   3.2832   3.3577   3.3973   3.4085   3.4330   3.5336   3.5815
     3.5993   3.6409   3.6728   3.8264   3.8955   3.9340   4.0340   4.1838
     4.2496   4.4221   4.4511   4.5774   4.6475   4.7783   4.8621

          k = 0.0000-0.2359 0.0000 (153728 PWs)   bands (ev):

  -103.4604-103.3242-103.2845-103.1160-103.0308-103.0122 -96.4064 -96.0649
   -95.4256 -95.2081 -95.1485 -95.0580 -87.4042 -87.3727 -87.3508 -87.3061
   -87.2270 -86.2947 -71.3362 -70.9375 -70.8210 -70.7134 -70.5970 -70.5746
   -63.9503 -63.8478 -63.8327 -63.8088 -63.7401 -63.6696 -63.6484 -63.6480
   -63.6386 -63.5832 -63.5535 -63.5373 -63.4811 -63.4597 -63.3909 -63.3756
   -63.3683 -63.3431 -59.9758 -59.6003 -59.4463 -59.4364 -59.2170 -59.0590
   -58.8003 -58.7423 -58.5755 -58.5509 -58.5317 -58.4876 -58.4773 -58.4686
   -58.4604 -58.3509 -58.3439 -58.1413 -53.5696 -53.4889 -53.4493 -53.4476
   -53.4465 -53.4213 -53.4013 -53.3762 -53.3650 -53.3533 -53.3418 -53.3144
   -53.3111 -53.2603 -53.2277 -52.6265 -52.2994 -52.1919 -42.8777 -42.7970
   -42.6078 -42.3647 -42.3544 -42.2678 -42.1934 -42.1438 -42.0974 -42.0876
   -42.0597 -42.0543 -42.0422 -41.9324 -41.8953 -41.8947 -41.8540 -41.8189
   -24.6809 -19.4604 -19.4217 -19.2035 -19.0885 -18.9061 -18.8470 -18.7488
   -18.6891 -18.5305 -18.4040 -18.3759 -18.3366 -18.3079 -18.2720 -18.2482
   -18.1836 -18.1739 -18.1558 -18.1398 -18.1295 -18.1086 -18.0640 -18.0139
   -17.9899 -17.9699 -17.9628 -17.8886 -17.8767 -17.8176 -17.7930 -17.7785
   -17.7758 -17.7511 -17.7367 -17.7094 -17.6755 -17.6643 -17.6358 -17.6221
   -17.6114 -17.5877 -17.5772 -17.5601 -17.4934 -17.4904 -17.3321 -17.2861
   -17.0550 -17.0119  -8.9372  -7.4416  -7.3776  -7.1868  -7.0758  -6.9449
    -6.9078  -6.7990  -6.7762  -6.6288  -6.5986  -6.5730  -6.5288  -6.4639
    -6.4391  -6.3699  -6.3196  -6.3091  -6.2314  -6.2076  -6.1763  -6.1259
    -6.0796  -6.0078  -5.8769  -5.8495  -5.8158  -5.8019  -5.7701  -5.7282
    -5.6794  -5.6216  -5.5575  -5.5510  -5.5201  -5.4974  -5.3897  -5.3563
    -5.3174  -5.2859  -5.2375  -5.2255  -5.1940  -5.1796  -5.1353  -5.0971
    -5.0781  -5.0524  -5.0090  -4.9822  -4.9568  -4.9484  -4.8936  -4.8765
    -4.8598  -4.8112  -4.7553  -4.7131  -4.7039  -4.6495  -4.6444  -4.6093
    -4.5595  -4.4470  -4.4177  -4.4000  -4.3837  -4.3644  -4.2977  -4.2844
    -4.2648  -4.2505  -4.2226  -4.1972  -4.1800  -4.1632  -4.1586  -4.1242
    -4.0968  -4.0660  -4.0639  -4.0531  -4.0054  -3.9834  -3.9646  -3.9391
    -3.9196  -3.8901  -3.8663  -3.8303  -3.8098  -3.8020  -3.7254  -3.6983
    -3.6784  -3.6704  -3.6373  -3.6246  -3.5653  -3.5293  -3.5200  -3.5013
    -3.4611  -3.4016  -3.3697  -3.3170  -3.2968  -3.2641  -3.2366  -3.2110
    -3.1853  -3.1441  -3.1229  -3.1002  -3.0815  -3.0365  -3.0138  -2.9577
    -2.9420  -2.8869  -2.8577  -2.8464  -2.7918  -2.7774  -2.7707  -2.7027
    -2.6809  -2.6378  -2.6005  -2.5949  -2.5734  -2.5365  -2.5155  -2.5019
    -2.4557  -2.3988  -2.3886  -2.3392  -2.3136  -2.2885  -2.2715  -2.2548
    -2.2482  -2.2011  -2.1672  -2.1440  -2.1285  -2.1133  -2.0699  -2.0451
    -2.0161  -1.9983  -1.9851  -1.9228  -1.9078  -1.8883  -1.8398  -1.8309
    -1.8085  -1.7648  -1.7262  -1.6876  -1.6791  -1.6557  -1.6296  -1.5935
    -1.5546  -1.5013  -1.4846  -1.4672  -1.4354  -1.3483  -1.3255  -1.2939
    -1.2534  -1.2260  -1.2067  -1.1609  -1.0950  -0.9836  -0.9417  -0.8643
     0.3720   0.5056   0.6198   0.6502   0.7285   0.7799   0.8397   0.9003
     0.9501   1.0221   1.0301   1.0630   1.0838   1.1594   1.2210   1.2412
     1.2655   1.2900   1.3351   1.3433   1.4297   1.4763   1.5034   1.5353
     1.5616   1.5837   1.6096   1.6631   1.7065   1.7495   1.8266   1.8590
     1.8744   1.9057   1.9626   1.9992   2.0990   2.1230   2.1635   2.2319
     2.3136   2.3239   2.3777   2.4099   2.4583   2.5171   2.5298   2.5706
     2.6301   2.6496   2.7198   2.7396   2.7728   2.8206   2.8867   2.8997
     2.9296   2.9698   2.9986   3.0486   3.0672   3.1871   3.1998   3.2199
     3.2673   3.2753   3.3444   3.4004   3.4080   3.4290   3.5439   3.5865
     3.6200   3.6480   3.6715   3.8241   3.9008   3.9385   4.0362   4.1889
     4.2661   4.4276   4.4541   4.6283   4.6433   4.7768   4.8607

          k = 0.2500-0.0000 0.0000 (153964 PWs)   bands (ev):

  -103.4603-103.3241-103.2845-103.1164-103.0311-103.0123 -96.4063 -96.0651
   -95.4260 -95.2083 -95.1486 -95.0575 -87.4042 -87.3725 -87.3507 -87.3066
   -87.2275 -86.2946 -71.3361 -70.9373 -70.8209 -70.7134 -70.5966 -70.5758
   -63.9503 -63.8478 -63.8311 -63.8104 -63.7401 -63.6696 -63.6483 -63.6478
   -63.6387 -63.5833 -63.5533 -63.5373 -63.4811 -63.4596 -63.3909 -63.3756
   -63.3683 -63.3431 -59.9758 -59.6003 -59.4464 -59.4364 -59.2169 -59.0588
   -58.8001 -58.7422 -58.5753 -58.5509 -58.5317 -58.4876 -58.4773 -58.4685
   -58.4604 -58.3509 -58.3438 -58.1416 -53.5699 -53.4892 -53.4478 -53.4465
   -53.4463 -53.4214 -53.4013 -53.3763 -53.3650 -53.3533 -53.3433 -53.3143
   -53.3113 -53.2602 -53.2280 -52.6266 -52.2997 -52.1919 -42.8777 -42.7973
   -42.6078 -42.3647 -42.3545 -42.2678 -42.1937 -42.1442 -42.0969 -42.0876
   -42.0546 -42.0444 -42.0341 -41.9325 -41.9178 -41.8953 -41.8501 -41.8229
   -24.6807 -19.4285 -19.1510 -19.0827 -19.0388 -18.8731 -18.7970 -18.6951
   -18.6599 -18.5682 -18.5142 -18.5021 -18.4543 -18.4401 -18.3908 -18.3623
   -18.3023 -18.2409 -18.1768 -18.1286 -18.1010 -18.0769 -18.0381 -18.0065
   -17.9724 -17.9615 -17.9112 -17.8906 -17.8685 -17.8292 -17.8152 -17.7727
   -17.7652 -17.7576 -17.7283 -17.7057 -17.6763 -17.6549 -17.6421 -17.6226
   -17.5891 -17.5823 -17.5674 -17.5486 -17.5014 -17.4821 -17.3306 -17.2935
   -17.0560 -17.0130  -8.9378  -7.3783  -7.2940  -7.0318  -6.9640  -6.8711
    -6.7567  -6.6868  -6.6225  -6.5526  -6.4998  -6.4676  -6.4331  -6.3987
    -6.2870  -6.2349  -6.1932  -6.1775  -6.1347  -6.1140  -6.0658  -6.0341
    -6.0248  -5.9840  -5.9298  -5.8466  -5.8406  -5.8063  -5.7878  -5.7371
    -5.6847  -5.6529  -5.5702  -5.5221  -5.4865  -5.4500  -5.4372  -5.4043
    -5.3830  -5.3398  -5.3197  -5.2894  -5.2661  -5.2225  -5.1820  -5.1597
    -5.1264  -5.0924  -5.0668  -5.0450  -5.0103  -4.9802  -4.9437  -4.9159
    -4.8917  -4.8731  -4.8587  -4.8237  -4.7992  -4.7599  -4.7277  -4.7042
    -4.6575  -4.6399  -4.6185  -4.5955  -4.5649  -4.5246  -4.4884  -4.4088
    -4.3589  -4.3031  -4.2909  -4.2490  -4.2088  -4.1874  -4.1372  -4.1235
    -4.0985  -4.0794  -4.0305  -4.0175  -3.9955  -3.9698  -3.9301  -3.8901
    -3.8183  -3.8091  -3.7893  -3.7662  -3.7542  -3.7174  -3.6881  -3.6614
    -3.6454  -3.6171  -3.5929  -3.5631  -3.5477  -3.5249  -3.5041  -3.4533
    -3.4340  -3.4001  -3.3822  -3.3603  -3.3352  -3.2961  -3.2872  -3.2590
    -3.2251  -3.1915  -3.1773  -3.1444  -3.1106  -3.0792  -3.0407  -3.0185
    -2.9899  -2.9784  -2.9420  -2.9094  -2.8664  -2.8340  -2.8079  -2.7683
    -2.7205  -2.7093  -2.6761  -2.6560  -2.6204  -2.5945  -2.5615  -2.5495
    -2.4948  -2.4455  -2.4085  -2.3843  -2.3430  -2.3159  -2.2644  -2.2401
    -2.1746  -2.1553  -2.1186  -2.0775  -2.0534  -2.0339  -1.9965  -1.9655
    -1.9475  -1.9117  -1.8880  -1.8413  -1.8394  -1.8074  -1.7795  -1.7617
    -1.7373  -1.7047  -1.6765  -1.6646  -1.6472  -1.6274  -1.6013  -1.5851
    -1.5475  -1.4887  -1.4582  -1.4264  -1.3932  -1.3500  -1.3349  -1.2950
    -1.2646  -1.2089  -1.1718  -1.1382  -1.0915  -1.0141  -0.9175  -0.8380
     0.3933   0.4869   0.6097   0.6498   0.7004   0.7592   0.8855   0.9499
     0.9808   1.0356   1.0571   1.0997   1.1461   1.1837   1.2283   1.2628
     1.3073   1.3289   1.3654   1.4111   1.4565   1.4745   1.5202   1.5703
     1.6059   1.6340   1.6821   1.7137   1.7606   1.7773   1.8230   1.8549
     1.8767   1.8942   1.9179   1.9671   2.0114   2.0588   2.1229   2.1664
     2.2169   2.2300   2.2618   2.3145   2.3547   2.4199   2.4496   2.4761
     2.4958   2.5726   2.6176   2.6584   2.7668   2.7812   2.8665   2.8910
     2.9185   2.9536   3.0137   3.0481   3.1354   3.1942   3.2242   3.2570
     3.2793   3.2949   3.3605   3.3762   3.4157   3.4792   3.5253   3.6107
     3.6292   3.6418   3.6885   3.7493   3.8602   3.9209   4.0173   4.1712
     4.2227   4.2622   4.4885   4.4983   4.5195   4.6445   4.7347

          k = 0.2500-0.2359 0.0000 (154028 PWs)   bands (ev):

  -103.4603-103.3241-103.2845-103.1164-103.0311-103.0123 -96.4063 -96.0651
   -95.4260 -95.2083 -95.1486 -95.0575 -87.4042 -87.3725 -87.3507 -87.3066
   -87.2275 -86.2946 -71.3361 -70.9373 -70.8209 -70.7134 -70.5966 -70.5758
   -63.9503 -63.8478 -63.8311 -63.8104 -63.7401 -63.6696 -63.6483 -63.6478
   -63.6387 -63.5833 -63.5533 -63.5373 -63.4811 -63.4596 -63.3909 -63.3756
   -63.3683 -63.3431 -59.9758 -59.6003 -59.4464 -59.4364 -59.2169 -59.0588
   -58.8001 -58.7422 -58.5753 -58.5509 -58.5317 -58.4876 -58.4773 -58.4685
   -58.4604 -58.3509 -58.3438 -58.1416 -53.5699 -53.4892 -53.4478 -53.4465
   -53.4463 -53.4214 -53.4013 -53.3763 -53.3650 -53.3533 -53.3433 -53.3144
   -53.3113 -53.2603 -53.2280 -52.6266 -52.2997 -52.1919 -42.8777 -42.7973
   -42.6078 -42.3647 -42.3545 -42.2678 -42.1937 -42.1442 -42.0969 -42.0876
   -42.0546 -42.0444 -42.0341 -41.9325 -41.9178 -41.8953 -41.8501 -41.8229
   -24.6807 -19.3444 -19.3093 -19.1008 -18.9932 -18.8264 -18.7675 -18.6764
   -18.6275 -18.6115 -18.5896 -18.4832 -18.4605 -18.4267 -18.3363 -18.3106
   -18.2904 -18.2558 -18.2072 -18.1887 -18.1126 -18.0861 -18.0746 -18.0031
   -17.9664 -17.9564 -17.9028 -17.8811 -17.8697 -17.8344 -17.8106 -17.7810
   -17.7599 -17.7405 -17.7261 -17.7009 -17.6613 -17.6504 -17.6349 -17.6168
   -17.5994 -17.5830 -17.5702 -17.5601 -17.5017 -17.4834 -17.3301 -17.2946
   -17.0566 -17.0126  -8.9378  -7.3554  -7.2626  -7.0425  -6.9688  -6.8059
    -6.7527  -6.6848  -6.6156  -6.5334  -6.5038  -6.4678  -6.4546  -6.4109
    -6.3048  -6.2367  -6.1973  -6.1811  -6.1498  -6.1067  -6.0544  -6.0091
    -5.9833  -5.9411  -5.9296  -5.8813  -5.8402  -5.8071  -5.7805  -5.7630
    -5.7368  -5.6934  -5.6695  -5.6331  -5.6044  -5.5282  -5.5087  -5.4576
    -5.4158  -5.3527  -5.3291  -5.2987  -5.2634  -5.2347  -5.2144  -5.1653
    -5.1252  -5.0885  -5.0482  -5.0248  -4.9949  -4.9646  -4.9450  -4.9284
    -4.8841  -4.8466  -4.8307  -4.7995  -4.7685  -4.7327  -4.7078  -4.6627
    -4.6106  -4.5838  -4.5520  -4.5179  -4.4490  -4.4187  -4.3915  -4.3545
    -4.3435  -4.2913  -4.2580  -4.2251  -4.2014  -4.1876  -4.1513  -4.1132
    -4.0914  -4.0537  -4.0368  -3.9920  -3.9824  -3.9259  -3.9045  -3.8841
    -3.8687  -3.8429  -3.8196  -3.7884  -3.7632  -3.7440  -3.7266  -3.7040
    -3.6736  -3.6538  -3.6266  -3.6006  -3.5586  -3.5299  -3.5125  -3.4540
    -3.4316  -3.4230  -3.3882  -3.3568  -3.3347  -3.3165  -3.2966  -3.2364
    -3.2131  -3.1825  -3.1527  -3.1146  -3.1076  -3.0865  -3.0544  -2.9938
    -2.9663  -2.9590  -2.9238  -2.9008  -2.8779  -2.8462  -2.7954  -2.7573
    -2.7299  -2.6949  -2.6717  -2.6444  -2.6335  -2.5974  -2.5557  -2.5157
    -2.5058  -2.4631  -2.4290  -2.3852  -2.3697  -2.3267  -2.3126  -2.2682
    -2.2101  -2.1694  -2.1466  -2.1257  -2.0846  -2.0212  -2.0012  -1.9667
    -1.9524  -1.9163  -1.9026  -1.8647  -1.8239  -1.8086  -1.7942  -1.7634
    -1.7334  -1.7205  -1.6934  -1.6571  -1.6481  -1.6027  -1.5879  -1.5763
    -1.5255  -1.5116  -1.4585  -1.4262  -1.4004  -1.3551  -1.3198  -1.3109
    -1.2487  -1.2235  -1.1678  -1.1297  -1.0719  -1.0471  -0.9337  -0.8714
     0.3826   0.4909   0.6418   0.6696   0.7439   0.8204   0.8796   0.9542
     1.0059   1.0218   1.0609   1.1376   1.1522   1.2083   1.2351   1.2825
     1.3095   1.3333   1.3953   1.4212   1.4538   1.4749   1.5024   1.5253
     1.5926   1.6198   1.6495   1.6769   1.7188   1.7566   1.8027   1.8208
     1.8739   1.9032   1.9425   1.9714   2.0035   2.0840   2.1181   2.1721
     2.2170   2.2596   2.3314   2.3798   2.4202   2.4386   2.4607   2.4778
     2.4972   2.5994   2.6193   2.6707   2.7086   2.7622   2.8295   2.8819
     2.8896   2.9266   2.9846   3.0219   3.1260   3.1907   3.2212   3.2584
     3.2783   3.2902   3.3426   3.3894   3.4137   3.4513   3.5324   3.6045
     3.6352   3.6535   3.7195   3.7512   3.8574   3.9238   4.0171   4.1724
     4.2249   4.2583   4.4855   4.5255   4.5383   4.6427   4.7193

          k =-0.5000 0.0000 0.0000 (154012 PWs)   bands (ev):

  -103.4602-103.3241-103.2844-103.1168-103.0314-103.0125 -96.4063 -96.0652
   -95.4263 -95.2084 -95.1488 -95.0570 -87.4041 -87.3724 -87.3507 -87.3070
   -87.2280 -86.2944 -71.3360 -70.9372 -70.8208 -70.7133 -70.5960 -70.5770
   -63.9504 -63.8478 -63.8293 -63.8123 -63.7401 -63.6696 -63.6482 -63.6477
   -63.6389 -63.5833 -63.5531 -63.5373 -63.4811 -63.4594 -63.3909 -63.3755
   -63.3683 -63.3431 -59.9758 -59.6003 -59.4465 -59.4364 -59.2169 -59.0586
   -58.7998 -58.7422 -58.5751 -58.5509 -58.5316 -58.4876 -58.4772 -58.4684
   -58.4604 -58.3508 -58.3437 -58.1419 -53.5701 -53.4894 -53.4480 -53.4465
   -53.4431 -53.4214 -53.4014 -53.3763 -53.3650 -53.3533 -53.3449 -53.3142
   -53.3114 -53.2602 -53.2283 -52.6266 -52.3000 -52.1919 -42.8777 -42.7976
   -42.6078 -42.3647 -42.3545 -42.2678 -42.1941 -42.1446 -42.0965 -42.0876
   -42.0549 -42.0436 -41.9874 -41.9649 -41.9325 -41.8953 -41.8444 -41.8286
   -24.6806 -19.1184 -19.1029 -18.9088 -18.8592 -18.8003 -18.7926 -18.7744
   -18.7508 -18.6766 -18.6277 -18.5744 -18.5244 -18.4849 -18.4451 -18.3934
   -18.3484 -18.3143 -18.2821 -18.2238 -18.1896 -18.0692 -18.0171 -18.0019
   -17.9825 -17.9349 -17.8814 -17.8590 -17.8540 -17.8360 -17.8145 -17.7673
   -17.7648 -17.7563 -17.7233 -17.6931 -17.6739 -17.6515 -17.6298 -17.6040
   -17.5863 -17.5739 -17.5621 -17.5536 -17.5125 -17.4733 -17.3280 -17.3041
   -17.0581 -17.0136  -8.9384  -7.3399  -6.9308  -6.8806  -6.8060  -6.6970
    -6.6245  -6.5684  -6.5153  -6.4723  -6.4569  -6.3843  -6.3582  -6.3248
    -6.3167  -6.2483  -6.1358  -6.1278  -6.0950  -6.0399  -6.0227  -5.9657
    -5.9302  -5.9113  -5.8772  -5.8522  -5.8077  -5.7700  -5.7098  -5.6949
    -5.6569  -5.6261  -5.6104  -5.5799  -5.5609  -5.5294  -5.4718  -5.4596
    -5.4152  -5.3833  -5.3633  -5.3474  -5.3055  -5.2520  -5.2120  -5.1817
    -5.1505  -5.1180  -5.0925  -5.0402  -4.9934  -4.9844  -4.9802  -4.9406
    -4.9139  -4.8911  -4.8668  -4.8489  -4.8281  -4.8126  -4.7873  -4.7451
    -4.7188  -4.6989  -4.6770  -4.6306  -4.6016  -4.5556  -4.5119  -4.5048
    -4.4952  -4.4373  -4.4121  -4.4043  -4.3455  -4.3011  -4.2875  -4.2619
    -4.2297  -4.1742  -4.1249  -4.0970  -4.0758  -4.0278  -3.9937  -3.9683
    -3.9147  -3.8913  -3.8644  -3.8289  -3.8028  -3.7584  -3.7379  -3.7118
    -3.6978  -3.6525  -3.6182  -3.5887  -3.5368  -3.5093  -3.4529  -3.4465
    -3.4099  -3.4004  -3.3845  -3.3181  -3.2985  -3.2718  -3.2572  -3.2188
    -3.1918  -3.1305  -3.1238  -3.1095  -3.0931  -3.0683  -3.0474  -3.0303
    -2.9785  -2.9570  -2.9206  -2.8817  -2.8717  -2.8542  -2.7869  -2.7779
    -2.7388  -2.7201  -2.6466  -2.6340  -2.5971  -2.5809  -2.5288  -2.4749
    -2.4617  -2.4404  -2.4022  -2.3530  -2.3216  -2.3044  -2.2512  -2.2288
    -2.1867  -2.1654  -2.1285  -2.0764  -2.0562  -2.0272  -1.9860  -1.9707
    -1.9446  -1.9195  -1.8814  -1.8499  -1.8397  -1.7881  -1.7749  -1.7536
    -1.7349  -1.7118  -1.6837  -1.6671  -1.6341  -1.6000  -1.5514  -1.5183
    -1.5024  -1.4407  -1.4204  -1.4061  -1.3498  -1.3182  -1.2682  -1.2515
    -1.2341  -1.1586  -1.1463  -1.1074  -1.0974  -1.0342  -0.9400  -0.8577
     0.3894   0.4729   0.6677   0.6823   0.7445   0.8325   0.9480   1.0001
     1.0625   1.0766   1.0957   1.1177   1.1704   1.2344   1.2855   1.3075
     1.3348   1.3921   1.4074   1.4394   1.4721   1.4966   1.5324   1.5621
     1.5930   1.6080   1.6503   1.6722   1.6796   1.7345   1.7809   1.8067
     1.8341   1.8386   1.8780   1.9287   1.9610   2.0195   2.0666   2.0928
     2.0976   2.1397   2.2338   2.2421   2.2971   2.3370   2.3967   2.4624
     2.5264   2.5989   2.6262   2.6477   2.6804   2.7506   2.8164   2.8689
     2.8839   2.9000   2.9412   3.0128   3.1725   3.1809   3.2444   3.2754
     3.3018   3.3380   3.4032   3.4110   3.4511   3.4725   3.5097   3.5264
     3.6315   3.6539   3.7117   3.7801   3.8017   3.8734   3.9986   4.0843
     4.1421   4.2071   4.3479   4.4348   4.5331   4.5355   4.6156

          k =-0.5000-0.2359 0.0000 (154084 PWs)   bands (ev):

  -103.4602-103.3241-103.2844-103.1168-103.0314-103.0125 -96.4063 -96.0652
   -95.4263 -95.2084 -95.1488 -95.0570 -87.4041 -87.3724 -87.3507 -87.3070
   -87.2280 -86.2944 -71.3360 -70.9372 -70.8208 -70.7133 -70.5960 -70.5770
   -63.9504 -63.8478 -63.8293 -63.8123 -63.7401 -63.6696 -63.6482 -63.6477
   -63.6389 -63.5833 -63.5531 -63.5373 -63.4811 -63.4594 -63.3909 -63.3755
   -63.3683 -63.3431 -59.9758 -59.6003 -59.4465 -59.4364 -59.2169 -59.0586
   -58.7998 -58.7422 -58.5751 -58.5509 -58.5316 -58.4876 -58.4772 -58.4684
   -58.4604 -58.3508 -58.3437 -58.1419 -53.5701 -53.4894 -53.4480 -53.4465
   -53.4431 -53.4214 -53.4014 -53.3763 -53.3650 -53.3533 -53.3449 -53.3143
   -53.3114 -53.2602 -53.2283 -52.6266 -52.3000 -52.1919 -42.8777 -42.7976
   -42.6078 -42.3647 -42.3545 -42.2678 -42.1941 -42.1446 -42.0965 -42.0876
   -42.0549 -42.0436 -41.9874 -41.9649 -41.9325 -41.8953 -41.8444 -41.8286
   -24.6806 -19.0573 -19.0513 -18.9978 -18.9761 -18.8627 -18.7675 -18.7520
   -18.7399 -18.6148 -18.5905 -18.5456 -18.4939 -18.4827 -18.4540 -18.4207
   -18.3782 -18.3013 -18.2393 -18.1918 -18.1806 -18.1210 -18.0560 -18.0187
   -17.9705 -17.9286 -17.9175 -17.8718 -17.8666 -17.8440 -17.7980 -17.7809
   -17.7598 -17.7211 -17.7159 -17.6884 -17.6589 -17.6477 -17.6276 -17.6060
   -17.5865 -17.5730 -17.5664 -17.5597 -17.5124 -17.4738 -17.3277 -17.3042
   -17.0585 -17.0133  -8.9383  -7.3364  -6.9084  -6.8343  -6.7647  -6.6669
    -6.5907  -6.5735  -6.4698  -6.4354  -6.3900  -6.3655  -6.3200  -6.3062
    -6.2422  -6.2236  -6.2079  -6.1597  -6.1329  -6.1061  -6.0672  -5.9990
    -5.9573  -5.9140  -5.8972  -5.8776  -5.8576  -5.8493  -5.8384  -5.7871
    -5.7772  -5.7069  -5.6646  -5.6194  -5.6111  -5.5729  -5.5500  -5.5185
    -5.4257  -5.4230  -5.3610  -5.3335  -5.3281  -5.2592  -5.2425  -5.1642
    -5.1472  -5.1182  -5.0600  -5.0074  -4.9763  -4.9632  -4.9027  -4.8980
    -4.8744  -4.8504  -4.8185  -4.8054  -4.7720  -4.7458  -4.7387  -4.7103
    -4.6703  -4.6417  -4.5995  -4.5933  -4.5379  -4.4947  -4.4816  -4.4672
    -4.4416  -4.4090  -4.3846  -4.3332  -4.3155  -4.3070  -4.2665  -4.2492
    -4.2249  -4.2050  -4.1448  -4.1127  -4.0807  -4.0503  -4.0264  -3.9894
    -3.9123  -3.8895  -3.8566  -3.8437  -3.7501  -3.7127  -3.6763  -3.6529
    -3.6388  -3.6176  -3.5763  -3.5595  -3.5287  -3.5083  -3.4746  -3.4593
    -3.4397  -3.4133  -3.4027  -3.3598  -3.3424  -3.2949  -3.2861  -3.2691
    -3.2444  -3.2176  -3.1952  -3.1573  -3.1409  -3.1139  -3.0701  -3.0301
    -2.9984  -2.9719  -2.9080  -2.8913  -2.8720  -2.8601  -2.7854  -2.7709
    -2.7360  -2.7026  -2.6748  -2.6424  -2.5827  -2.5751  -2.5573  -2.4938
    -2.4748  -2.4557  -2.3921  -2.3647  -2.3252  -2.2749  -2.2641  -2.2309
    -2.1842  -2.1687  -2.1157  -2.0805  -2.0664  -2.0382  -1.9834  -1.9750
    -1.9516  -1.9214  -1.9000  -1.8408  -1.8054  -1.7845  -1.7660  -1.7541
    -1.7173  -1.7125  -1.6852  -1.6452  -1.6213  -1.6157  -1.5688  -1.5223
    -1.4978  -1.4689  -1.4088  -1.3706  -1.3694  -1.3276  -1.2830  -1.2541
    -1.2148  -1.1818  -1.1795  -1.1215  -1.1098  -1.0611  -0.9247  -0.8464
     0.3669   0.4947   0.6610   0.6920   0.7824   0.8936   0.9431   0.9970
     1.0664   1.0803   1.1074   1.1602   1.1917   1.2340   1.2958   1.3315
     1.3374   1.4059   1.4357   1.4476   1.4723   1.4836   1.5239   1.5322
     1.5558   1.5850   1.6391   1.6428   1.6736   1.7102   1.7613   1.7874
     1.8277   1.8535   1.8895   1.9487   2.0034   2.0422   2.0832   2.1085
     2.1581   2.2042   2.2332   2.2739   2.3261   2.3787   2.4345   2.4638
     2.4840   2.5239   2.5893   2.6370   2.6803   2.6926   2.7567   2.8590
     2.8762   2.8840   2.9364   3.0174   3.1721   3.1933   3.2232   3.2773
     3.3024   3.3348   3.3800   3.4121   3.4479   3.4711   3.4960   3.5288
     3.6261   3.6590   3.7256   3.8025   3.8310   3.8584   3.9995   4.0822
     4.1438   4.2001   4.3467   4.4400   4.5145   4.5370   4.6178

          k =-0.2500 0.0000 0.0000 (153964 PWs)   bands (ev):

  -103.4603-103.3241-103.2845-103.1164-103.0311-103.0123 -96.4063 -96.0651
   -95.4260 -95.2083 -95.1486 -95.0575 -87.4042 -87.3725 -87.3507 -87.3066
   -87.2275 -86.2946 -71.3361 -70.9373 -70.8209 -70.7134 -70.5966 -70.5758
   -63.9503 -63.8478 -63.8311 -63.8104 -63.7401 -63.6696 -63.6483 -63.6478
   -63.6387 -63.5833 -63.5533 -63.5373 -63.4811 -63.4596 -63.3909 -63.3756
   -63.3683 -63.3431 -59.9758 -59.6003 -59.4464 -59.4364 -59.2169 -59.0588
   -58.8001 -58.7422 -58.5753 -58.5509 -58.5317 -58.4876 -58.4773 -58.4685
   -58.4604 -58.3509 -58.3438 -58.1416 -53.5699 -53.4892 -53.4478 -53.4465
   -53.4463 -53.4214 -53.4013 -53.3763 -53.3650 -53.3533 -53.3433 -53.3143
   -53.3113 -53.2602 -53.2280 -52.6266 -52.2997 -52.1919 -42.8777 -42.7973
   -42.6078 -42.3647 -42.3545 -42.2678 -42.1937 -42.1442 -42.0969 -42.0876
   -42.0546 -42.0444 -42.0341 -41.9325 -41.9178 -41.8953 -41.8501 -41.8229
   -24.6807 -19.4285 -19.1510 -19.0827 -19.0388 -18.8731 -18.7970 -18.6951
   -18.6599 -18.5682 -18.5142 -18.5021 -18.4543 -18.4401 -18.3908 -18.3623
   -18.3023 -18.2409 -18.1768 -18.1286 -18.1010 -18.0769 -18.0381 -18.0065
   -17.9724 -17.9615 -17.9112 -17.8906 -17.8685 -17.8292 -17.8152 -17.7727
   -17.7652 -17.7576 -17.7283 -17.7057 -17.6763 -17.6549 -17.6421 -17.6226
   -17.5891 -17.5823 -17.5674 -17.5486 -17.5014 -17.4821 -17.3306 -17.2935
   -17.0560 -17.0130  -8.9378  -7.3783  -7.2940  -7.0318  -6.9640  -6.8711
    -6.7567  -6.6868  -6.6225  -6.5526  -6.4998  -6.4676  -6.4331  -6.3987
    -6.2870  -6.2349  -6.1932  -6.1775  -6.1347  -6.1140  -6.0658  -6.0341
    -6.0248  -5.9840  -5.9298  -5.8466  -5.8406  -5.8063  -5.7878  -5.7371
    -5.6847  -5.6529  -5.5702  -5.5221  -5.4865  -5.4500  -5.4372  -5.4043
    -5.3830  -5.3398  -5.3197  -5.2894  -5.2661  -5.2225  -5.1820  -5.1597
    -5.1264  -5.0924  -5.0668  -5.0450  -5.0103  -4.9802  -4.9437  -4.9159
    -4.8917  -4.8731  -4.8587  -4.8237  -4.7992  -4.7599  -4.7277  -4.7042
    -4.6575  -4.6399  -4.6185  -4.5955  -4.5649  -4.5246  -4.4884  -4.4088
    -4.3589  -4.3031  -4.2909  -4.2490  -4.2088  -4.1874  -4.1372  -4.1235
    -4.0985  -4.0794  -4.0305  -4.0175  -3.9955  -3.9698  -3.9301  -3.8901
    -3.8183  -3.8091  -3.7893  -3.7662  -3.7542  -3.7174  -3.6881  -3.6614
    -3.6454  -3.6171  -3.5929  -3.5631  -3.5477  -3.5249  -3.5041  -3.4533
    -3.4340  -3.4001  -3.3822  -3.3603  -3.3352  -3.2961  -3.2872  -3.2590
    -3.2251  -3.1915  -3.1773  -3.1444  -3.1106  -3.0792  -3.0407  -3.0185
    -2.9899  -2.9784  -2.9420  -2.9094  -2.8664  -2.8340  -2.8079  -2.7683
    -2.7205  -2.7093  -2.6761  -2.6560  -2.6204  -2.5945  -2.5615  -2.5495
    -2.4948  -2.4455  -2.4085  -2.3843  -2.3430  -2.3159  -2.2644  -2.2401
    -2.1746  -2.1553  -2.1186  -2.0775  -2.0534  -2.0339  -1.9965  -1.9655
    -1.9475  -1.9117  -1.8880  -1.8413  -1.8394  -1.8074  -1.7795  -1.7617
    -1.7373  -1.7047  -1.6765  -1.6646  -1.6472  -1.6274  -1.6013  -1.5851
    -1.5475  -1.4887  -1.4582  -1.4264  -1.3932  -1.3500  -1.3349  -1.2950
    -1.2646  -1.2089  -1.1718  -1.1382  -1.0915  -1.0141  -0.9175  -0.8380
     0.3933   0.4869   0.6097   0.6498   0.7004   0.7592   0.8855   0.9499
     0.9808   1.0356   1.0571   1.0997   1.1461   1.1837   1.2283   1.2628
     1.3073   1.3289   1.3654   1.4111   1.4565   1.4745   1.5202   1.5703
     1.6059   1.6340   1.6821   1.7137   1.7606   1.7773   1.8230   1.8549
     1.8767   1.8942   1.9179   1.9671   2.0114   2.0588   2.1229   2.1664
     2.2169   2.2300   2.2618   2.3145   2.3547   2.4199   2.4496   2.4761
     2.4958   2.5726   2.6176   2.6584   2.7668   2.7812   2.8665   2.8910
     2.9185   2.9536   3.0137   3.0481   3.1354   3.1942   3.2242   3.2570
     3.2793   3.2949   3.3605   3.3762   3.4157   3.4792   3.5253   3.6107
     3.6292   3.6418   3.6885   3.7493   3.8602   3.9209   4.0173   4.1712
     4.2227   4.2622   4.4885   4.4983   4.5195   4.6445   4.7347

          k =-0.2500-0.2359 0.0000 (154028 PWs)   bands (ev):

  -103.4603-103.3241-103.2845-103.1164-103.0311-103.0123 -96.4063 -96.0651
   -95.4260 -95.2083 -95.1486 -95.0575 -87.4042 -87.3725 -87.3507 -87.3066
   -87.2275 -86.2946 -71.3361 -70.9373 -70.8209 -70.7134 -70.5966 -70.5758
   -63.9503 -63.8478 -63.8311 -63.8104 -63.7401 -63.6696 -63.6483 -63.6478
   -63.6387 -63.5833 -63.5533 -63.5373 -63.4811 -63.4596 -63.3909 -63.3756
   -63.3683 -63.3431 -59.9758 -59.6003 -59.4464 -59.4364 -59.2169 -59.0588
   -58.8001 -58.7422 -58.5753 -58.5509 -58.5317 -58.4876 -58.4773 -58.4685
   -58.4604 -58.3509 -58.3438 -58.1416 -53.5699 -53.4892 -53.4478 -53.4465
   -53.4463 -53.4214 -53.4013 -53.3763 -53.3650 -53.3533 -53.3433 -53.3144
   -53.3113 -53.2603 -53.2280 -52.6266 -52.2997 -52.1919 -42.8777 -42.7973
   -42.6078 -42.3647 -42.3545 -42.2678 -42.1937 -42.1442 -42.0969 -42.0876
   -42.0546 -42.0444 -42.0341 -41.9325 -41.9178 -41.8953 -41.8501 -41.8229
   -24.6807 -19.3444 -19.3093 -19.1008 -18.9932 -18.8264 -18.7675 -18.6764
   -18.6275 -18.6115 -18.5896 -18.4832 -18.4605 -18.4267 -18.3363 -18.3106
   -18.2904 -18.2558 -18.2072 -18.1887 -18.1126 -18.0861 -18.0746 -18.0031
   -17.9664 -17.9564 -17.9028 -17.8811 -17.8697 -17.8344 -17.8106 -17.7810
   -17.7599 -17.7405 -17.7261 -17.7009 -17.6613 -17.6504 -17.6349 -17.6168
   -17.5994 -17.5830 -17.5702 -17.5601 -17.5017 -17.4834 -17.3301 -17.2946
   -17.0566 -17.0126  -8.9378  -7.3554  -7.2626  -7.0425  -6.9688  -6.8059
    -6.7527  -6.6848  -6.6156  -6.5334  -6.5038  -6.4678  -6.4546  -6.4109
    -6.3048  -6.2367  -6.1973  -6.1811  -6.1498  -6.1067  -6.0544  -6.0091
    -5.9833  -5.9411  -5.9296  -5.8813  -5.8402  -5.8071  -5.7805  -5.7630
    -5.7368  -5.6934  -5.6695  -5.6331  -5.6044  -5.5282  -5.5087  -5.4576
    -5.4158  -5.3527  -5.3291  -5.2987  -5.2634  -5.2347  -5.2144  -5.1653
    -5.1252  -5.0885  -5.0482  -5.0248  -4.9949  -4.9646  -4.9450  -4.9284
    -4.8841  -4.8466  -4.8307  -4.7995  -4.7685  -4.7327  -4.7078  -4.6627
    -4.6106  -4.5838  -4.5520  -4.5179  -4.4490  -4.4187  -4.3915  -4.3545
    -4.3435  -4.2913  -4.2580  -4.2251  -4.2014  -4.1876  -4.1513  -4.1132
    -4.0914  -4.0537  -4.0368  -3.9920  -3.9824  -3.9259  -3.9045  -3.8841
    -3.8687  -3.8429  -3.8196  -3.7884  -3.7632  -3.7440  -3.7266  -3.7040
    -3.6736  -3.6538  -3.6266  -3.6006  -3.5586  -3.5299  -3.5125  -3.4540
    -3.4316  -3.4230  -3.3882  -3.3568  -3.3347  -3.3165  -3.2966  -3.2364
    -3.2131  -3.1825  -3.1527  -3.1146  -3.1076  -3.0865  -3.0544  -2.9938
    -2.9663  -2.9590  -2.9238  -2.9008  -2.8779  -2.8462  -2.7954  -2.7573
    -2.7299  -2.6949  -2.6717  -2.6444  -2.6335  -2.5974  -2.5557  -2.5157
    -2.5058  -2.4631  -2.4290  -2.3852  -2.3697  -2.3267  -2.3126  -2.2682
    -2.2101  -2.1694  -2.1466  -2.1257  -2.0846  -2.0212  -2.0012  -1.9667
    -1.9524  -1.9163  -1.9026  -1.8647  -1.8239  -1.8086  -1.7942  -1.7634
    -1.7334  -1.7205  -1.6934  -1.6571  -1.6481  -1.6027  -1.5879  -1.5763
    -1.5255  -1.5116  -1.4585  -1.4262  -1.4004  -1.3551  -1.3198  -1.3109
    -1.2487  -1.2235  -1.1678  -1.1297  -1.0719  -1.0471  -0.9337  -0.8714
     0.3826   0.4909   0.6418   0.6696   0.7439   0.8204   0.8796   0.9542
     1.0059   1.0218   1.0609   1.1376   1.1522   1.2083   1.2351   1.2825
     1.3095   1.3333   1.3953   1.4212   1.4538   1.4749   1.5024   1.5253
     1.5926   1.6198   1.6495   1.6769   1.7188   1.7566   1.8027   1.8208
     1.8739   1.9032   1.9425   1.9714   2.0035   2.0840   2.1181   2.1721
     2.2170   2.2596   2.3314   2.3798   2.4202   2.4386   2.4607   2.4778
     2.4972   2.5994   2.6193   2.6707   2.7086   2.7622   2.8295   2.8819
     2.8896   2.9266   2.9846   3.0219   3.1260   3.1907   3.2212   3.2584
     3.2783   3.2902   3.3426   3.3894   3.4137   3.4513   3.5324   3.6045
     3.6352   3.6535   3.7195   3.7512   3.8574   3.9238   4.0171   4.1724
     4.2249   4.2583   4.4855   4.5255   4.5383   4.6427   4.7193

     the Fermi energy is    -0.5774 ev

!    total energy              =   -8956.66773575 Ry
     estimated scf accuracy    <       0.00000096 Ry
     smearing contrib. (-TS)   =       0.00300585 Ry
     internal energy E=F+TS    =   -8956.67074161 Ry

     The total energy is F=E-TS. E is the sum of the following terms:
     one-electron contribution =  -73281.91089311 Ry
     hartree contribution      =   36746.72821692 Ry
     xc contribution           =   -1118.37094365 Ry
     ewald contribution        =   29625.83670012 Ry
     Hubbard energy            =       4.32042789 Ry
     one-center paw contrib.   =    -933.27424978 Ry

     total magnetization       =    34.90 Bohr mag/cell
     absolute magnetization    =    66.88 Bohr mag/cell

     convergence has been achieved in  52 iterations

     negative rho (up, down):  5.099E-03 2.798E-02
     force_hub    :     44.43s CPU     45.07s WALL (       1 calls)
     dndtau       :     40.12s CPU     40.50s WALL (     450 calls)
     dprojdtau    :      3.17s CPU      3.23s WALL (   10800 calls)
     matel_dSdtau :     36.72s CPU     37.04s WALL (     450 calls)

     Forces acting on atoms (cartesian axes, Ry/au):

     atom    1 type  2   force =     0.00406844    0.01131626    0.09984226
     atom    2 type  2   force =     0.00097138   -0.00906372    0.12837982
     atom    3 type  2   force =    -0.00528535    0.01299776    0.09785440
     atom    4 type  4   force =    -0.00337074   -0.00416353    0.02189218
     atom    5 type  4   force =    -0.00287034    0.00570029    0.00336997
     atom    6 type  1   force =     0.00219364   -0.01330868   -0.00313073
     atom    7 type  1   force =    -0.00154095    0.00974939   -0.00977832
     atom    8 type  2   force =    -0.00398418   -0.01550534   -0.02050132
     atom    9 type  4   force =    -0.00321641   -0.00551452    0.01058082
     atom   10 type  2   force =    -0.02395429    0.01148623    0.00064717
     atom   11 type  3   force =    -0.00263483   -0.01530640    0.00137235
     atom   12 type  1   force =    -0.01586181    0.03440061   -0.02684005
     atom   13 type  1   force =     0.00516636   -0.00301840   -0.00845882
     atom   14 type  4   force =    -0.01136332    0.01038299   -0.02590612
     atom   15 type  3   force =     0.01207324   -0.01075240    0.01390046
     atom   16 type  4   force =     0.00921198    0.01071211   -0.02714567
     atom   17 type  2   force =     0.00685115    0.00364875   -0.03141244
     atom   18 type  4   force =    -0.00424547   -0.00954324    0.00466324
     atom   19 type  1   force =     0.00831122    0.00171951   -0.03640416
     atom   20 type  3   force =     0.00208949   -0.01317868   -0.02082305
     atom   21 type  3   force =     0.00133283   -0.04342495   -0.00584467
     atom   22 type  3   force =     0.00656874    0.03292992   -0.01960068
     atom   23 type  1   force =     0.01961439   -0.01184256   -0.07207592
     atom   24 type  3   force =    -0.00262168    0.03338099   -0.02005424
     atom   25 type  5   force =    -0.01967364   -0.00129316   -0.03536857
     atom   26 type  5   force =     0.01809657    0.00333081    0.00531986
     atom   27 type  5   force =     0.02380108   -0.00377813   -0.03034195
     atom   28 type  5   force =    -0.01315326    0.00186164    0.01491432
     atom   29 type  5   force =    -0.03475461    0.00238524    0.04069991
     atom   30 type  5   force =     0.01694879   -0.00025521    0.03370670
     atom   31 type  5   force =     0.03539203    0.00022781    0.04027588
     atom   32 type  5   force =    -0.01748616    0.00233738    0.03643418
     atom   33 type  5   force =    -0.00113997   -0.02115780   -0.04074182
     atom   34 type  5   force =    -0.02090554    0.00020525   -0.03929986
     atom   35 type  5   force =     0.00151696    0.01207776   -0.04026962
     atom   36 type  5   force =     0.02092245   -0.03137601   -0.03717280
     atom   37 type  5   force =    -0.00223627   -0.01381707   -0.04326210
     atom   38 type  5   force =    -0.02130571    0.03006568   -0.03889049
     atom   39 type  5   force =     0.00236900    0.01826803   -0.04014318
     atom   40 type  5   force =     0.02625449   -0.00005967   -0.03819073
     atom   41 type  5   force =     0.01125004    0.00246301   -0.00976767
     atom   42 type  5   force =    -0.00575858   -0.00304009    0.00772486
     atom   43 type  5   force =    -0.01977995    0.00004083   -0.00851362
     atom   44 type  5   force =     0.00326605    0.00936202    0.01798829
     atom   45 type  5   force =     0.01472373    0.00074947   -0.00563892
     atom   46 type  5   force =    -0.00227812    0.00043254   -0.02538326
     atom   47 type  5   force =    -0.00897319   -0.00548026    0.00481225
     atom   48 type  5   force =     0.00079631    0.00215902    0.05424901
     atom   49 type  5   force =    -0.01335893   -0.00013603   -0.00454515
     atom   50 type  5   force =     0.03169614   -0.02793312    0.00302278
     atom   51 type  5   force =     0.00701114   -0.01012672    0.00040258
     atom   52 type  5   force =     0.01955020   -0.02679691   -0.00441605
     atom   53 type  5   force =    -0.01715158    0.01853837   -0.00482517
     atom   54 type  5   force =     0.00679298   -0.00595303    0.00306001
     atom   55 type  5   force =     0.01788877    0.01075086    0.00123240
     atom   56 type  5   force =    -0.02196465    0.01219825    0.00081639
     atom   57 type  5   force =     0.01274570    0.00152642    0.01250235
     atom   58 type  5   force =    -0.00038851   -0.00773540    0.00849365
     atom   59 type  5   force =    -0.02772179    0.00359857    0.03506389
     atom   60 type  5   force =     0.00127936   -0.00578388   -0.00051687
     atom   61 type  5   force =    -0.01397842   -0.00112452    0.00967104
     atom   62 type  5   force =    -0.00202428   -0.00242943   -0.01378309
     atom   63 type  5   force =     0.00801402   -0.00485703    0.02838134
     atom   64 type  5   force =     0.00158946    0.00229640    0.02588632
     atom   65 type  5   force =    -0.02526107   -0.01219139    0.00623751
     atom   66 type  5   force =     0.00877012    0.00309296   -0.00074758
     atom   67 type  5   force =     0.01316218   -0.01991532    0.00929246
     atom   68 type  5   force =    -0.01164884    0.00771425   -0.00338249
     atom   69 type  5   force =    -0.01819184    0.01630536    0.00061394
     atom   70 type  5   force =     0.00988890    0.00021243   -0.00032854
     atom   71 type  5   force =     0.01580198    0.00798570    0.00139261
     atom   72 type  5   force =    -0.00840628    0.01542375   -0.00159723
     atom   73 type  5   force =     0.01239173   -0.00533781    0.00288548
     atom   74 type  5   force =    -0.01372360   -0.00206285    0.02078258
     atom   75 type  6   force =     0.00184110    0.00322865   -0.01326225

     Total force =     0.185719     Total SCF correction =     0.003075

     Writing all to output data dir /anvil/projects/x-che260157/sts/runs/hea/branch_panel/tmp_equiatomic_pull2.10__atomic/equiatomic_pull2.10__atomic.save/ :
     XML data file, charge density, pseudopotentials, collected wavefunctions

     init_run     :     31.32s CPU     32.43s WALL (       1 calls)
     electrons    :   2957.56s CPU   3052.38s WALL (       1 calls)
     forces       :     58.28s CPU     59.64s WALL (       1 calls)

     Called by init_run:
     wfcinit      :     24.31s CPU     24.96s WALL (       1 calls)
     potinit      :      2.46s CPU      2.60s WALL (       1 calls)
     hinit0       :      1.63s CPU      1.68s WALL (       1 calls)

     Called by electrons:
     c_bands      :   2419.60s CPU   2477.46s WALL (      52 calls)
     sum_band     :    355.67s CPU    375.05s WALL (      52 calls)
     v_of_rho     :     77.99s CPU     81.32s WALL (      53 calls)
     newd         :     38.07s CPU     51.46s WALL (      53 calls)
     PAW_pot      :     16.75s CPU     16.82s WALL (      53 calls)
     mix_rho      :     38.00s CPU     38.60s WALL (      52 calls)

     Called by c_bands:
     init_us_2    :     42.71s CPU     43.45s WALL (     216 calls)
     cegterg      :   2201.50s CPU   2257.41s WALL (     104 calls)

     Called by *egterg:
     cdiaghg      :     34.50s CPU     34.78s WALL (     340 calls)
     h_psi        :   1196.46s CPU   1218.89s WALL (     342 calls)
     s_psi        :    174.85s CPU    176.03s WALL (     346 calls)
     g_psi        :      3.89s CPU      3.93s WALL (     236 calls)

     Called by h_psi:
     h_psi:calbec :    206.22s CPU    207.83s WALL (     342 calls)
     vloc_psi     :    501.67s CPU    507.38s WALL (     342 calls)
                                        0.00s GPU  (     342 calls)
     add_vuspsi   :    187.85s CPU    189.59s WALL (     342 calls)
     vhpsi        :    296.23s CPU    299.88s WALL (     342 calls)

     General routines
     calbec       :    430.61s CPU    434.18s WALL (    2706 calls)
     fft          :     62.94s CPU     63.84s WALL (    1338 calls)
     ffts         :     22.23s CPU     22.39s WALL (    6483 calls)
     fftw         :    546.74s CPU    552.78s WALL (  230152 calls)
     interpolate  :      7.57s CPU      7.66s WALL (     106 calls)

     Parallel routines

     Hubbard U routines
     new_ns       :     24.42s CPU     24.84s WALL (      52 calls)
     vhpsi        :    296.23s CPU    299.88s WALL (     342 calls)
     force_hub    :     44.43s CPU     45.07s WALL (       1 calls)

     PWSCF        :  50m50.68s CPU  52m28.67s WALL


   This run was terminated on:  22:37:40  16Sep2026            

=------------------------------------------------------------------------------=
   JOB DONE.
=------------------------------------------------------------------------------=
Note: The following floating-point exceptions are signalling: IEEE_UNDERFLOW_FLAG IEEE_DENORMAL
Note: The following floating-point exceptions are signalling: IEEE_UNDERFLOW_FLAG IEEE_DENORMAL
Note: The following floating-point exceptions are signalling: IEEE_UNDERFLOW_FLAG IEEE_DENORMAL
Note: The following floating-point exceptions are signalling: IEEE_UNDERFLOW_FLAG IEEE_DENORMAL
Note: The following floating-point exceptions are signalling: IEEE_UNDERFLOW_FLAG IEEE_DENORMAL
Note: The following floating-point exceptions are signalling: IEEE_UNDERFLOW_FLAG IEEE_DENORMAL
Note: The following floating-point exceptions are signalling: IEEE_UNDERFLOW_FLAG IEEE_DENORMAL
Note: The following floating-point exceptions are signalling: IEEE_UNDERFLOW_FLAG IEEE_DENORMAL
Note: The following floating-point exceptions are signalling: IEEE_UNDERFLOW_FLAG IEEE_DENORMAL
Note: The following floating-point exceptions are signalling: IEEE_UNDERFLOW_FLAG IEEE_DENORMAL
Note: The following floating-point exceptions are signalling: IEEE_UNDERFLOW_FLAG IEEE_DENORMAL
Note: The following floating-point exceptions are signalling: IEEE_DENORMAL
Note: The following floating-point exceptions are signalling: IEEE_UNDERFLOW_FLAG IEEE_DENORMAL
Note: The following floating-point exceptions are signalling: IEEE_UNDERFLOW_FLAG IEEE_DENORMAL
Note: The following floating-point exceptions are signalling: IEEE_UNDERFLOW_FLAG IEEE_DENORMAL
Note: The following floating-point exceptions are signalling: IEEE_UNDERFLOW_FLAG IEEE_DENORMAL
Note: The following floating-point exceptions are signalling: IEEE_UNDERFLOW_FLAG IEEE_DENORMAL
Note: The following floating-point exceptions are signalling: IEEE_DENORMAL
Note: The following floating-point exceptions are signalling: IEEE_DENORMAL
Note: The following floating-point exceptions are signalling: IEEE_UNDERFLOW_FLAG IEEE_DENORMAL
Note: The following floating-point exceptions are signalling: IEEE_UNDERFLOW_FLAG IEEE_DENORMAL
Note: The following floating-point exceptions are signalling: IEEE_DENORMAL
Note: The following floating-point exceptions are signalling: IEEE_UNDERFLOW_FLAG IEEE_DENORMAL
Note: The following floating-point exceptions are signalling: IEEE_UNDERFLOW_FLAG IEEE_DENORMAL
Note: The following floating-point exceptions are signalling: IEEE_UNDERFLOW_FLAG IEEE_DENORMAL
Note: The following floating-point exceptions are signalling: IEEE_UNDERFLOW_FLAG IEEE_DENORMAL
Note: The following floating-point exceptions are signalling: IEEE_UNDERFLOW_FLAG IEEE_DENORMAL
Note: The following floating-point exceptions are signalling: IEEE_UNDERFLOW_FLAG IEEE_DENORMAL
Note: The following floating-point exceptions are signalling: IEEE_DENORMAL
Note: The following floating-point exceptions are signalling: IEEE_DENORMAL
Note: The following floating-point exceptions are signalling: IEEE_DENORMAL
Note: The following floating-point exceptions are signalling: IEEE_UNDERFLOW_FLAG IEEE_DENORMAL
Note: The following floating-point exceptions are signalling: IEEE_DENORMAL
Note: The following floating-point exceptions are signalling: IEEE_DENORMAL
Note: The following floating-point exceptions are signalling: IEEE_UNDERFLOW_FLAG IEEE_DENORMAL
Note: The following floating-point exceptions are signalling: IEEE_UNDERFLOW_FLAG IEEE_DENORMAL
Note: The following floating-point exceptions are signalling: IEEE_DENORMAL
Note: The following floating-point exceptions are signalling: IEEE_UNDERFLOW_FLAG IEEE_DENORMAL
Note: The following floating-point exceptions are signalling: IEEE_DENORMAL
Note: The following floating-point exceptions are signalling: IEEE_UNDERFLOW_FLAG IEEE_DENORMAL
Note: The following floating-point exceptions are signalling: IEEE_UNDERFLOW_FLAG IEEE_DENORMAL
Note: The following floating-point exceptions are signalling: IEEE_UNDERFLOW_FLAG IEEE_DENORMAL
Note: The following floating-point exceptions are signalling: IEEE_UNDERFLOW_FLAG IEEE_DENORMAL
Note: The following floating-point exceptions are signalling: IEEE_UNDERFLOW_FLAG IEEE_DENORMAL
Note: The following floating-point exceptions are signalling: IEEE_UNDERFLOW_FLAG IEEE_DENORMAL
Note: The following floating-point exceptions are signalling: IEEE_UNDERFLOW_FLAG IEEE_DENORMAL
Note: The following floating-point exceptions are signalling: IEEE_UNDERFLOW_FLAG IEEE_DENORMAL
Note: The following floating-point exceptions are signalling: IEEE_DENORMAL
Note: The following floating-point exceptions are signalling: IEEE_UNDERFLOW_FLAG IEEE_DENORMAL
Note: The following floating-point exceptions are signalling: IEEE_UNDERFLOW_FLAG IEEE_DENORMAL
Note: The following floating-point exceptions are signalling: IEEE_UNDERFLOW_FLAG IEEE_DENORMAL
Note: The following floating-point exceptions are signalling: IEEE_UNDERFLOW_FLAG IEEE_DENORMAL
Note: The following floating-point exceptions are signalling: IEEE_UNDERFLOW_FLAG IEEE_DENORMAL
Note: The following floating-point exceptions are signalling: IEEE_UNDERFLOW_FLAG IEEE_DENORMAL
Note: The following floating-point exceptions are signalling: IEEE_UNDERFLOW_FLAG IEEE_DENORMAL
Note: The following floating-point exceptions are signalling: IEEE_UNDERFLOW_FLAG IEEE_DENORMAL
Note: The following floating-point exceptions are signalling: IEEE_UNDERFLOW_FLAG IEEE_DENORMAL
Note: The following floating-point exceptions are signalling: IEEE_DENORMAL
Note: The following floating-point exceptions are signalling: IEEE_UNDERFLOW_FLAG IEEE_DENORMAL
Note: The following floating-point exceptions are signalling: IEEE_DENORMAL
Note: The following floating-point exceptions are signalling: IEEE_UNDERFLOW_FLAG IEEE_DENORMAL
Note: The following floating-point exceptions are signalling: IEEE_UNDERFLOW_FLAG IEEE_DENORMAL
Note: The following floating-point exceptions are signalling: IEEE_DENORMAL
Note: The following floating-point exceptions are signalling: IEEE_UNDERFLOW_FLAG IEEE_DENORMAL
Note: The following floating-point exceptions are signalling: IEEE_UNDERFLOW_FLAG IEEE_DENORMAL
Note: The following floating-point exceptions are signalling: IEEE_UNDERFLOW_FLAG IEEE_DENORMAL
Note: The following floating-point exceptions are signalling: IEEE_UNDERFLOW_FLAG IEEE_DENORMAL
Note: The following floating-point exceptions are signalling: IEEE_DENORMAL
Note: The following floating-point exceptions are signalling: IEEE_UNDERFLOW_FLAG IEEE_DENORMAL
Note: The following floating-point exceptions are signalling: IEEE_UNDERFLOW_FLAG IEEE_DENORMAL
Note: The following floating-point exceptions are signalling: IEEE_UNDERFLOW_FLAG IEEE_DENORMAL
Note: The following floating-point exceptions are signalling: IEEE_INVALID_FLAG
Note: The following floating-point exceptions are signalling: IEEE_DENORMAL
Note: The following floating-point exceptions are signalling: IEEE_UNDERFLOW_FLAG IEEE_DENORMAL
Note: The following floating-point exceptions are signalling: IEEE_UNDERFLOW_FLAG IEEE_DENORMAL
Note: The following floating-point exceptions are signalling: IEEE_DENORMAL
Note: The following floating-point exceptions are signalling: IEEE_UNDERFLOW_FLAG IEEE_DENORMAL
Note: The following floating-point exceptions are signalling: IEEE_UNDERFLOW_FLAG IEEE_DENORMAL
Note: The following floating-point exceptions are signalling: IEEE_UNDERFLOW_FLAG IEEE_DENORMAL
Note: The following floating-point exceptions are signalling: IEEE_UNDERFLOW_FLAG IEEE_DENORMAL
Note: The following floating-point exceptions are signalling: IEEE_UNDERFLOW_FLAG IEEE_DENORMAL
Note: The following floating-point exceptions are signalling: IEEE_UNDERFLOW_FLAG IEEE_DENORMAL
