
     Program PWSCF v.7.5 starts on 17Sep2026 at  7:30:18 

     This program is part of the open-source Quantum ESPRESSO suite
     for quantum simulation of materials; please cite
         "P. Giannozzi et al., J. Phys.:Condens. Matter 21 395502 (2009);
         "P. Giannozzi et al., J. Phys.:Condens. Matter 29 465901 (2017);
         "P. Giannozzi et al., J. Chem. Phys. 152 154105 (2020);
          URL http://www.quantum-espresso.org", 
     in publications or presentations arising from this work. More details at
     http://www.quantum-espresso.org/quote

     Parallel version (MPI & OpenMP), running on     128 processor cores
     Number of MPI processes:               128
     Threads/MPI process:                     1

     MPI processes distributed on     1 nodes
     221076 MiB available memory on the printing compute node when the environment starts

     Reading input from /anvil/projects/x-che260157/sts/runs/hea/branch_panel/leader_pull2.10__ortho.run.in

     Current dimensions of program PWSCF are:
     Max number of different atomic species (ntypx) = 10
     Max number of k-points (npk) =  40000
     Max angular momentum in pseudopotentials (lmaxx) =  4
     file Cu.paw.z_11.ld1.psl.v1.0.0-low.upf: wavefunction(s)  4S 3D renormalized
     file O.pbe-n-kjpaw_psl.0.1.UPF: wavefunction(s)  2P renormalized

     K-points division:     npool     =       8
     R & G space division:  proc/nbgrp/npool/nimage =      16
     Subspace diagonalization in iterative solution of the eigenvalue problem:
     one sub-group per band group will be used
     ELPA distributed-memory algorithm (size of sub-group:  4*  4 procs)


     Parallelization info
     --------------------
     sticks:   dense  smooth     PW     G-vecs:    dense   smooth      PW
     Min         833     417    111               211433    74767   10361
     Max         834     418    112               211440    74775   10370
     Sum       13331    6681   1789              3382951  1196337  165863

     Using Slab Decomposition



     bravais-lattice index     =            0
     lattice parameter (alat)  =      11.0662  a.u.
     unit-cell volume          =   12372.6966 (a.u.)^3
     number of atoms/cell      =           75
     number of atomic types    =            6
     number of electrons       =       674.00
     number of Kohn-Sham states=          404
     kinetic-energy cutoff     =      80.0000  Ry
     charge density cutoff     =     640.0000  Ry
     scf convergence threshold =      1.0E-06
     mixing beta               =       0.3000
     number of iterations used =            8  local-TF  mixing
     Exchange-correlation= PBE
                           (   1   4   3   4   0   0   0)
     Hubbard projectors: ortho-atomic
     Hubbard parameters of DFT+U (Dudarev formulation) in eV:
     U(Cr-3d) =  3.7000
     U(Mn-3d) =  3.9000
     U(Ni-3d) =  6.2000

     Internal variables: lda_plus_u =T, lda_plus_u_kind = 0

     Internal variables: orbital_resolved =F, hub_pot_fix =F, apply_U = F

     celldm(1)=  11.066235  celldm(2)=   0.000000  celldm(3)=   0.000000
     celldm(4)=   0.000000  celldm(5)=   0.000000  celldm(6)=   0.000000

     crystal axes: (cart. coord. in units of alat)
               a(1) = (   1.000000   0.000000   0.000000 )  
               a(2) = (   0.000000   2.136571   0.000000 )  
               a(3) = (   0.000000   0.000000   4.273142 )  

     reciprocal axes: (cart. coord. in units 2 pi/alat)
               b(1) = (  1.000000 -0.000000  0.000000 )  
               b(2) = (  0.000000  0.468040  0.000000 )  
               b(3) = ( -0.000000 -0.000000  0.234020 )  


     PseudoPot. # 1 for Cr read from file:
     /anvil/projects/x-che260157/pseudo/cr_pbe_v1.5.uspp.F.UPF
     MD5 check sum: 0d52af634a40206e4dee301ad30da4bf
     Pseudo is Ultrasoft + core correction, Zval = 14.0
     Generated by new atomic code, or converted to UPF format
     Using radial grid of  857 points,  6 beta functions with: 
                l(1) =   0
                l(2) =   0
                l(3) =   1
                l(4) =   1
                l(5) =   2
                l(6) =   2
     Q(r) pseudized with  8 coefficients,  rinner =    0.950   0.950   0.950
                                                       0.950   0.950

     PseudoPot. # 2 for Cu read from file:
     /anvil/projects/x-che260157/pseudo/Cu.paw.z_11.ld1.psl.v1.0.0-low.upf
     MD5 check sum: 619f40885d92a09a85a8b37550532d0c
     Pseudo is Projector augmented-wave + core cor, Zval = 11.0
     Generated using &quot;atomic&quot; code by A. Dal Corso  v.6.3MaX
     Shape of augmentation charge: PSQ
     Using radial grid of 1199 points,  6 beta functions with: 
                l(1) =   0
                l(2) =   0
                l(3) =   1
                l(4) =   1
                l(5) =   2
                l(6) =   2
     Q(r) pseudized with 0 coefficients 


     PseudoPot. # 3 for Mn read from file:
     /anvil/projects/x-che260157/pseudo/mn_pbe_v1.5.uspp.F.UPF
     MD5 check sum: 82ef2b46521d7a7d9e736dc3972e4928
     Pseudo is Ultrasoft + core correction, Zval = 15.0
     Generated by new atomic code, or converted to UPF format
     Using radial grid of  859 points,  6 beta functions with: 
                l(1) =   0
                l(2) =   0
                l(3) =   1
                l(4) =   1
                l(5) =   2
                l(6) =   2
     Q(r) pseudized with  8 coefficients,  rinner =    0.950   0.950   0.950
                                                       0.950   0.950

     PseudoPot. # 4 for Ni read from file:
     /anvil/projects/x-che260157/pseudo/ni_pbe_v1.4.uspp.F.UPF
     MD5 check sum: 1ee80287db30b12d2bc1f57a5b5d6409
     Pseudo is Ultrasoft + core correction, Zval = 18.0
     Generated by new atomic code, or converted to UPF format
     Using radial grid of  865 points,  6 beta functions with: 
                l(1) =   0
                l(2) =   0
                l(3) =   1
                l(4) =   1
                l(5) =   2
                l(6) =   2
     Q(r) pseudized with 10 coefficients,  rinner =    0.980   0.980   0.980
                                                       0.980   0.980

     PseudoPot. # 5 for O  read from file:
     /anvil/projects/x-che260157/pseudo/O.pbe-n-kjpaw_psl.0.1.UPF
     MD5 check sum: 0234752ac141de4415c5fc33072bef88
     Pseudo is Projector augmented-wave + core cor, Zval =  6.0
     Generated using "atomic" code by A. Dal Corso  v.5.0.99 svn rev. 10869
     Shape of augmentation charge: BESSEL
     Using radial grid of 1095 points,  4 beta functions with: 
                l(1) =   0
                l(2) =   0
                l(3) =   1
                l(4) =   1
     Q(r) pseudized with 0 coefficients 


     PseudoPot. # 6 for H  read from file:
     /anvil/projects/x-che260157/pseudo/H.pbe-rrkjus_psl.1.0.0.UPF
     MD5 check sum: f52b6d4d1c606e5624b1dc7b2218f220
     Pseudo is Ultrasoft, Zval =  1.0
     Generated using "atomic" code by A. Dal Corso  v.5.1
     Using radial grid of  929 points,  2 beta functions with: 
                l(1) =   0
                l(2) =   0
     Q(r) pseudized with 0 coefficients 


     atomic species   valence    mass     pseudopotential
     Cr               14.00    51.99600     Cr( 1.00)
     Cu               11.00    63.54600     Cu( 1.00)
     Mn               15.00    54.93800     Mn( 1.00)
     Ni               18.00    58.69300     Ni( 1.00)
     O                 6.00    15.99900     O ( 1.00)
     H                 1.00     1.00800     H ( 1.00)

     Starting magnetic structure 
     atomic species   magnetization
     Cr              0.600
     Cu              0.200
     Mn              0.500
     Ni              0.300
     O               0.000
     H               0.000

     No symmetry found



   Cartesian axes

     site n.     atom                  positions (alat units)
         1        Mn     tau(   1) = (   0.0000000   0.8012142   1.6024283  )
         2        Ni     tau(   2) = (   0.0000000   1.8694997   1.6024283  )
         3        Mn     tau(   3) = (   0.5000000   0.8012142   1.6024283  )
         4        Cr     tau(   4) = (   0.5000000   1.8694997   1.6024283  )
         5        Cr     tau(   5) = (   0.2500000   0.2670714   1.6024283  )
         6        Ni     tau(   6) = (   0.2500000   1.3353569   1.6024283  )
         7        Mn     tau(   7) = (   0.7500000   0.2670714   1.6024283  )
         8        Ni     tau(   8) = (   0.7500000   1.3353569   1.6024283  )
         9        Mn     tau(   9) = (   0.0023900   0.2710931   2.1518423  )
        10        Ni     tau(  10) = (   0.0053136   1.3381044   2.1402638  )
        11        Mn     tau(  11) = (   0.5002991   0.2733669   2.1484698  )
        12        Cr     tau(  12) = (   0.4947068   1.3476023   2.1711776  )
        13        Ni     tau(  13) = (   0.2544114   0.8081648   2.1439766  )
        14        Mn     tau(  14) = (   0.2450019   1.8719961   2.1441196  )
        15        Cr     tau(  15) = (   0.7350391   0.8151311   2.1389858  )
        16        Mn     tau(  16) = (   0.7551459   1.8723733   2.1448744  )
        17        Cr     tau(  17) = (   0.0024490   0.8133000   2.6665301  )
        18        Ni     tau(  18) = (  -0.0105324   1.8717440   2.6926726  )
        19        Ni     tau(  19) = (   0.5052491   0.8217292   2.7056225  )
        20        Mn     tau(  20) = (   0.5016836   1.8693965   2.6884306  )
        21        Cr     tau(  21) = (   0.2690017   0.2553812   2.7074357  )
        22        Cr     tau(  22) = (   0.2200040   1.3559468   2.8237890  )
        23        Ni     tau(  23) = (   0.7535945   0.2712787   2.7016710  )
        24        Cu     tau(  24) = (   0.7466497   1.3432399   2.7290737  )
        25        O      tau(  25) = (   0.0000000   0.2670714   1.8107440  )
        26        O      tau(  26) = (   0.0000000   1.3353569   1.8107440  )
        27        O      tau(  27) = (   0.5000000   0.2670714   1.8107440  )
        28        O      tau(  28) = (   0.5000000   1.3353569   1.8107440  )
        29        O      tau(  29) = (   0.0000000   0.2670714   1.3941126  )
        30        O      tau(  30) = (   0.0000000   1.3353569   1.3941126  )
        31        O      tau(  31) = (   0.5000000   0.2670714   1.3941126  )
        32        O      tau(  32) = (   0.5000000   1.3353569   1.3941126  )
        33        O      tau(  33) = (   0.2500000   0.5928985   1.6024283  )
        34        O      tau(  34) = (   0.2500000   1.6611840   1.6024283  )
        35        O      tau(  35) = (   0.7500000   0.5928985   1.6024283  )
        36        O      tau(  36) = (   0.7500000   1.6611840   1.6024283  )
        37        O      tau(  37) = (   0.2500000   1.0095298   1.6024283  )
        38        O      tau(  38) = (   0.2500000   2.0778154   1.6024283  )
        39        O      tau(  39) = (   0.7500000   1.0095298   1.6024283  )
        40        O      tau(  40) = (   0.7500000   2.0778154   1.6024283  )
        41        O      tau(  41) = (  -0.0060478   0.8147867   2.3816814  )
        42        O      tau(  42) = (  -0.0005693   1.8583711   2.3570800  )
        43        O      tau(  43) = (   0.5109132   0.8117223   2.3573830  )
        44        O      tau(  44) = (   0.5008215   1.8670348   2.3649740  )
        45        O      tau(  45) = (   0.0000000   0.8012142   1.9282554  )
        46        O      tau(  46) = (   0.0000000   1.8694997   1.9282554  )
        47        O      tau(  47) = (   0.5000000   0.8012142   1.9282554  )
        48        O      tau(  48) = (   0.5000000   1.8694997   1.9282554  )
        49        O      tau(  49) = (   0.2515789   0.0611286   2.1498146  )
        50        O      tau(  50) = (   0.2627216   1.1323663   2.1378798  )
        51        O      tau(  51) = (   0.7506623   0.0632560   2.1611809  )
        52        O      tau(  52) = (   0.7492489   1.1191047   2.1517666  )
        53        O      tau(  53) = (   0.2506772   0.4798031   2.1478610  )
        54        O      tau(  54) = (   0.2624101   1.5481461   2.1354468  )
        55        O      tau(  55) = (   0.7531653   0.4873741   2.1559521  )
        56        O      tau(  56) = (   0.7377761   1.5424566   2.1384982  )
        57        O      tau(  57) = (   0.0019864   0.2602293   2.9288854  )
        58        O      tau(  58) = (   0.0660505   1.3541934   3.0483669  )
        59        O      tau(  59) = (   0.4648735   0.3047284   2.9095354  )
        60        O      tau(  60) = (   0.4913546   1.3158021   2.9145363  )
        61        O      tau(  61) = (   0.0211138   0.2860495   2.4924820  )
        62        O      tau(  62) = (   0.0261969   1.3399387   2.5794335  )
        63        O      tau(  63) = (   0.4839728   0.2855241   2.4886368  )
        64        O      tau(  64) = (   0.4957222   1.3317940   2.4530336  )
        65        O      tau(  65) = (   0.2207520   0.6190397   2.7405694  )
        66        O      tau(  66) = (   0.2512503   1.6524311   2.7590504  )
        67        O      tau(  67) = (   0.7801746   0.6275712   2.7506617  )
        68        O      tau(  68) = (   0.7366176   1.6600440   2.7549943  )
        69        O      tau(  69) = (   0.2161760   1.0214995   2.7553132  )
        70        O      tau(  70) = (   0.2570466   2.0899513   2.7233432  )
        71        O      tau(  71) = (   0.7719988   1.0243813   2.7546504  )
        72        O      tau(  72) = (   0.7280136   2.0780582   2.7362930  )
        73        O      tau(  73) = (   0.3659103   0.8452148   3.2687696  )
        74        O      tau(  74) = (   0.1640873   0.8438125   3.3268912  )
        75        H      tau(  75) = (   0.0041843   0.4016437   3.0154802  )

     number of k points=     8  Marzari-Vanderbilt smearing, width (Ry)=  0.0100
                       cart. coord. in units 2pi/alat
        k(    1) = (   0.0000000   0.0000000   0.0000000), wk =   0.1250000
        k(    2) = (   0.0000000  -0.2340198   0.0000000), wk =   0.1250000
        k(    3) = (   0.2500000  -0.0000000   0.0000000), wk =   0.1250000
        k(    4) = (   0.2500000  -0.2340198   0.0000000), wk =   0.1250000
        k(    5) = (  -0.5000000   0.0000000   0.0000000), wk =   0.1250000
        k(    6) = (  -0.5000000  -0.2340198   0.0000000), wk =   0.1250000
        k(    7) = (  -0.2500000   0.0000000   0.0000000), wk =   0.1250000
        k(    8) = (  -0.2500000  -0.2340198   0.0000000), wk =   0.1250000

     Dense  grid:  3382951 G-vectors     FFT dimensions: (  90, 192, 384)

     Smooth grid:  1196337 G-vectors     FFT dimensions: (  64, 135, 270)

     Estimated max dynamical RAM per process >     933.59 MB

     Estimated total dynamical RAM >     105.41 GB

     Check: negative core charge=   -0.000011
     Generating pointlists ...
     new r_m :   0.1123 (alat units)  1.2429 (a.u.) for type    1
     new r_m :   0.1307 (alat units)  1.4459 (a.u.) for type    2
     new r_m :   0.1285 (alat units)  1.4221 (a.u.) for type    3
     new r_m :   0.1338 (alat units)  1.4807 (a.u.) for type    4
     new r_m :   0.0684 (alat units)  0.7570 (a.u.) for type    5
     new r_m :   0.0684 (alat units)  0.7570 (a.u.) for type    6

     Initial potential from superposition of free atoms

     starting charge     646.9989, renormalised to     674.0000

     negative rho (up, down):  6.509E-03 1.699E-03

     STARTING HUBBARD OCCUPATIONS:

     =================== HUBBARD OCCUPATIONS ===================
     ------------------------ ATOM    1 ------------------------
     Tr[ns(  1)] (up, down, total) =   5.00000  0.00000  5.00000
     Atomic magnetic moment for atom   1 =   5.00000
     SPIN  1
     eigenvalues:
       1.000  1.000  1.000  1.000  1.000
     eigenvectors (columns):
       1.000  0.000  0.000  0.000  0.000
       0.000  1.000  0.000  0.000  0.000
       0.000  0.000  1.000  0.000  0.000
       0.000  0.000  0.000  1.000  0.000
       0.000  0.000  0.000  0.000  1.000
     occupation matrix ns (before diag.):
       1.000  0.000  0.000  0.000  0.000
       0.000  1.000  0.000  0.000  0.000
       0.000  0.000  1.000  0.000  0.000
       0.000  0.000  0.000  1.000  0.000
       0.000  0.000  0.000  0.000  1.000
     SPIN  2
     eigenvalues:
       0.000  0.000  0.000  0.000  0.000
     eigenvectors (columns):
       1.000  0.000  0.000  0.000  0.000
       0.000  1.000  0.000  0.000  0.000
       0.000  0.000  1.000  0.000  0.000
       0.000  0.000  0.000  1.000  0.000
       0.000  0.000  0.000  0.000  1.000
     occupation matrix ns (before diag.):
       0.000  0.000  0.000  0.000  0.000
       0.000  0.000  0.000  0.000  0.000
       0.000  0.000  0.000  0.000  0.000
       0.000  0.000  0.000  0.000  0.000
       0.000  0.000  0.000  0.000  0.000
     ------------------------ ATOM    2 ------------------------
     Tr[ns(  2)] (up, down, total) =   5.00000  3.00000  8.00000
     Atomic magnetic moment for atom   2 =   2.00000
     SPIN  1
     eigenvalues:
       1.000  1.000  1.000  1.000  1.000
     eigenvectors (columns):
       1.000  0.000  0.000  0.000  0.000
       0.000  1.000  0.000  0.000  0.000
       0.000  0.000  1.000  0.000  0.000
       0.000  0.000  0.000  1.000  0.000
       0.000  0.000  0.000  0.000  1.000
     occupation matrix ns (before diag.):
       1.000  0.000  0.000  0.000  0.000
       0.000  1.000  0.000  0.000  0.000
       0.000  0.000  1.000  0.000  0.000
       0.000  0.000  0.000  1.000  0.000
       0.000  0.000  0.000  0.000  1.000
     SPIN  2
     eigenvalues:
       0.600  0.600  0.600  0.600  0.600
     eigenvectors (columns):
       1.000  0.000  0.000  0.000  0.000
       0.000  1.000  0.000  0.000  0.000
       0.000  0.000  1.000  0.000  0.000
       0.000  0.000  0.000  1.000  0.000
       0.000  0.000  0.000  0.000  1.000
     occupation matrix ns (before diag.):
       0.600  0.000  0.000  0.000  0.000
       0.000  0.600  0.000  0.000  0.000
       0.000  0.000  0.600  0.000  0.000
       0.000  0.000  0.000  0.600  0.000
       0.000  0.000  0.000  0.000  0.600
     ------------------------ ATOM    3 ------------------------
     Tr[ns(  3)] (up, down, total) =   5.00000  0.00000  5.00000
     Atomic magnetic moment for atom   3 =   5.00000
     SPIN  1
     eigenvalues:
       1.000  1.000  1.000  1.000  1.000
     eigenvectors (columns):
       1.000  0.000  0.000  0.000  0.000
       0.000  1.000  0.000  0.000  0.000
       0.000  0.000  1.000  0.000  0.000
       0.000  0.000  0.000  1.000  0.000
       0.000  0.000  0.000  0.000  1.000
     occupation matrix ns (before diag.):
       1.000  0.000  0.000  0.000  0.000
       0.000  1.000  0.000  0.000  0.000
       0.000  0.000  1.000  0.000  0.000
       0.000  0.000  0.000  1.000  0.000
       0.000  0.000  0.000  0.000  1.000
     SPIN  2
     eigenvalues:
       0.000  0.000  0.000  0.000  0.000
     eigenvectors (columns):
       1.000  0.000  0.000  0.000  0.000
       0.000  1.000  0.000  0.000  0.000
       0.000  0.000  1.000  0.000  0.000
       0.000  0.000  0.000  1.000  0.000
       0.000  0.000  0.000  0.000  1.000
     occupation matrix ns (before diag.):
       0.000  0.000  0.000  0.000  0.000
       0.000  0.000  0.000  0.000  0.000
       0.000  0.000  0.000  0.000  0.000
       0.000  0.000  0.000  0.000  0.000
       0.000  0.000  0.000  0.000  0.000
     ------------------------ ATOM    4 ------------------------
     Tr[ns(  4)] (up, down, total) =   3.40000  0.00000  3.40000
     Atomic magnetic moment for atom   4 =   3.40000
     SPIN  1
     eigenvalues:
       0.680  0.680  0.680  0.680  0.680
     eigenvectors (columns):
       1.000  0.000  0.000  0.000  0.000
       0.000  1.000  0.000  0.000  0.000
       0.000  0.000  1.000  0.000  0.000
       0.000  0.000  0.000  1.000  0.000
       0.000  0.000  0.000  0.000  1.000
     occupation matrix ns (before diag.):
       0.680  0.000  0.000  0.000  0.000
       0.000  0.680  0.000  0.000  0.000
       0.000  0.000  0.680  0.000  0.000
       0.000  0.000  0.000  0.680  0.000
       0.000  0.000  0.000  0.000  0.680
     SPIN  2
     eigenvalues:
       0.000  0.000  0.000  0.000  0.000
     eigenvectors (columns):
       1.000  0.000  0.000  0.000  0.000
       0.000  1.000  0.000  0.000  0.000
       0.000  0.000  1.000  0.000  0.000
       0.000  0.000  0.000  1.000  0.000
       0.000  0.000  0.000  0.000  1.000
     occupation matrix ns (before diag.):
       0.000  0.000  0.000  0.000  0.000
       0.000  0.000  0.000  0.000  0.000
       0.000  0.000  0.000  0.000  0.000
       0.000  0.000  0.000  0.000  0.000
       0.000  0.000  0.000  0.000  0.000
     ------------------------ ATOM    5 ------------------------
     Tr[ns(  5)] (up, down, total) =   3.40000  0.00000  3.40000
     Atomic magnetic moment for atom   5 =   3.40000
     SPIN  1
     eigenvalues:
       0.680  0.680  0.680  0.680  0.680
     eigenvectors (columns):
       1.000  0.000  0.000  0.000  0.000
       0.000  1.000  0.000  0.000  0.000
       0.000  0.000  1.000  0.000  0.000
       0.000  0.000  0.000  1.000  0.000
       0.000  0.000  0.000  0.000  1.000
     occupation matrix ns (before diag.):
       0.680  0.000  0.000  0.000  0.000
       0.000  0.680  0.000  0.000  0.000
       0.000  0.000  0.680  0.000  0.000
       0.000  0.000  0.000  0.680  0.000
       0.000  0.000  0.000  0.000  0.680
     SPIN  2
     eigenvalues:
       0.000  0.000  0.000  0.000  0.000
     eigenvectors (columns):
       1.000  0.000  0.000  0.000  0.000
       0.000  1.000  0.000  0.000  0.000
       0.000  0.000  1.000  0.000  0.000
       0.000  0.000  0.000  1.000  0.000
       0.000  0.000  0.000  0.000  1.000
     occupation matrix ns (before diag.):
       0.000  0.000  0.000  0.000  0.000
       0.000  0.000  0.000  0.000  0.000
       0.000  0.000  0.000  0.000  0.000
       0.000  0.000  0.000  0.000  0.000
       0.000  0.000  0.000  0.000  0.000
     ------------------------ ATOM    6 ------------------------
     Tr[ns(  6)] (up, down, total) =   5.00000  3.00000  8.00000
     Atomic magnetic moment for atom   6 =   2.00000
     SPIN  1
     eigenvalues:
       1.000  1.000  1.000  1.000  1.000
     eigenvectors (columns):
       1.000  0.000  0.000  0.000  0.000
       0.000  1.000  0.000  0.000  0.000
       0.000  0.000  1.000  0.000  0.000
       0.000  0.000  0.000  1.000  0.000
       0.000  0.000  0.000  0.000  1.000
     occupation matrix ns (before diag.):
       1.000  0.000  0.000  0.000  0.000
       0.000  1.000  0.000  0.000  0.000
       0.000  0.000  1.000  0.000  0.000
       0.000  0.000  0.000  1.000  0.000
       0.000  0.000  0.000  0.000  1.000
     SPIN  2
     eigenvalues:
       0.600  0.600  0.600  0.600  0.600
     eigenvectors (columns):
       1.000  0.000  0.000  0.000  0.000
       0.000  1.000  0.000  0.000  0.000
       0.000  0.000  1.000  0.000  0.000
       0.000  0.000  0.000  1.000  0.000
       0.000  0.000  0.000  0.000  1.000
     occupation matrix ns (before diag.):
       0.600  0.000  0.000  0.000  0.000
       0.000  0.600  0.000  0.000  0.000
       0.000  0.000  0.600  0.000  0.000
       0.000  0.000  0.000  0.600  0.000
       0.000  0.000  0.000  0.000  0.600
     ------------------------ ATOM    7 ------------------------
     Tr[ns(  7)] (up, down, total) =   5.00000  0.00000  5.00000
     Atomic magnetic moment for atom   7 =   5.00000
     SPIN  1
     eigenvalues:
       1.000  1.000  1.000  1.000  1.000
     eigenvectors (columns):
       1.000  0.000  0.000  0.000  0.000
       0.000  1.000  0.000  0.000  0.000
       0.000  0.000  1.000  0.000  0.000
       0.000  0.000  0.000  1.000  0.000
       0.000  0.000  0.000  0.000  1.000
     occupation matrix ns (before diag.):
       1.000  0.000  0.000  0.000  0.000
       0.000  1.000  0.000  0.000  0.000
       0.000  0.000  1.000  0.000  0.000
       0.000  0.000  0.000  1.000  0.000
       0.000  0.000  0.000  0.000  1.000
     SPIN  2
     eigenvalues:
       0.000  0.000  0.000  0.000  0.000
     eigenvectors (columns):
       1.000  0.000  0.000  0.000  0.000
       0.000  1.000  0.000  0.000  0.000
       0.000  0.000  1.000  0.000  0.000
       0.000  0.000  0.000  1.000  0.000
       0.000  0.000  0.000  0.000  1.000
     occupation matrix ns (before diag.):
       0.000  0.000  0.000  0.000  0.000
       0.000  0.000  0.000  0.000  0.000
       0.000  0.000  0.000  0.000  0.000
       0.000  0.000  0.000  0.000  0.000
       0.000  0.000  0.000  0.000  0.000
     ------------------------ ATOM    8 ------------------------
     Tr[ns(  8)] (up, down, total) =   5.00000  3.00000  8.00000
     Atomic magnetic moment for atom   8 =   2.00000
     SPIN  1
     eigenvalues:
       1.000  1.000  1.000  1.000  1.000
     eigenvectors (columns):
       1.000  0.000  0.000  0.000  0.000
       0.000  1.000  0.000  0.000  0.000
       0.000  0.000  1.000  0.000  0.000
       0.000  0.000  0.000  1.000  0.000
       0.000  0.000  0.000  0.000  1.000
     occupation matrix ns (before diag.):
       1.000  0.000  0.000  0.000  0.000
       0.000  1.000  0.000  0.000  0.000
       0.000  0.000  1.000  0.000  0.000
       0.000  0.000  0.000  1.000  0.000
       0.000  0.000  0.000  0.000  1.000
     SPIN  2
     eigenvalues:
       0.600  0.600  0.600  0.600  0.600
     eigenvectors (columns):
       1.000  0.000  0.000  0.000  0.000
       0.000  1.000  0.000  0.000  0.000
       0.000  0.000  1.000  0.000  0.000
       0.000  0.000  0.000  1.000  0.000
       0.000  0.000  0.000  0.000  1.000
     occupation matrix ns (before diag.):
       0.600  0.000  0.000  0.000  0.000
       0.000  0.600  0.000  0.000  0.000
       0.000  0.000  0.600  0.000  0.000
       0.000  0.000  0.000  0.600  0.000
       0.000  0.000  0.000  0.000  0.600
     ------------------------ ATOM    9 ------------------------
     Tr[ns(  9)] (up, down, total) =   5.00000  0.00000  5.00000
     Atomic magnetic moment for atom   9 =   5.00000
     SPIN  1
     eigenvalues:
       1.000  1.000  1.000  1.000  1.000
     eigenvectors (columns):
       1.000  0.000  0.000  0.000  0.000
       0.000  1.000  0.000  0.000  0.000
       0.000  0.000  1.000  0.000  0.000
       0.000  0.000  0.000  1.000  0.000
       0.000  0.000  0.000  0.000  1.000
     occupation matrix ns (before diag.):
       1.000  0.000  0.000  0.000  0.000
       0.000  1.000  0.000  0.000  0.000
       0.000  0.000  1.000  0.000  0.000
       0.000  0.000  0.000  1.000  0.000
       0.000  0.000  0.000  0.000  1.000
     SPIN  2
     eigenvalues:
       0.000  0.000  0.000  0.000  0.000
     eigenvectors (columns):
       1.000  0.000  0.000  0.000  0.000
       0.000  1.000  0.000  0.000  0.000
       0.000  0.000  1.000  0.000  0.000
       0.000  0.000  0.000  1.000  0.000
       0.000  0.000  0.000  0.000  1.000
     occupation matrix ns (before diag.):
       0.000  0.000  0.000  0.000  0.000
       0.000  0.000  0.000  0.000  0.000
       0.000  0.000  0.000  0.000  0.000
       0.000  0.000  0.000  0.000  0.000
       0.000  0.000  0.000  0.000  0.000
     ------------------------ ATOM   10 ------------------------
     Tr[ns( 10)] (up, down, total) =   5.00000  3.00000  8.00000
     Atomic magnetic moment for atom  10 =   2.00000
     SPIN  1
     eigenvalues:
       1.000  1.000  1.000  1.000  1.000
     eigenvectors (columns):
       1.000  0.000  0.000  0.000  0.000
       0.000  1.000  0.000  0.000  0.000
       0.000  0.000  1.000  0.000  0.000
       0.000  0.000  0.000  1.000  0.000
       0.000  0.000  0.000  0.000  1.000
     occupation matrix ns (before diag.):
       1.000  0.000  0.000  0.000  0.000
       0.000  1.000  0.000  0.000  0.000
       0.000  0.000  1.000  0.000  0.000
       0.000  0.000  0.000  1.000  0.000
       0.000  0.000  0.000  0.000  1.000
     SPIN  2
     eigenvalues:
       0.600  0.600  0.600  0.600  0.600
     eigenvectors (columns):
       1.000  0.000  0.000  0.000  0.000
       0.000  1.000  0.000  0.000  0.000
       0.000  0.000  1.000  0.000  0.000
       0.000  0.000  0.000  1.000  0.000
       0.000  0.000  0.000  0.000  1.000
     occupation matrix ns (before diag.):
       0.600  0.000  0.000  0.000  0.000
       0.000  0.600  0.000  0.000  0.000
       0.000  0.000  0.600  0.000  0.000
       0.000  0.000  0.000  0.600  0.000
       0.000  0.000  0.000  0.000  0.600
     ------------------------ ATOM   11 ------------------------
     Tr[ns( 11)] (up, down, total) =   5.00000  0.00000  5.00000
     Atomic magnetic moment for atom  11 =   5.00000
     SPIN  1
     eigenvalues:
       1.000  1.000  1.000  1.000  1.000
     eigenvectors (columns):
       1.000  0.000  0.000  0.000  0.000
       0.000  1.000  0.000  0.000  0.000
       0.000  0.000  1.000  0.000  0.000
       0.000  0.000  0.000  1.000  0.000
       0.000  0.000  0.000  0.000  1.000
     occupation matrix ns (before diag.):
       1.000  0.000  0.000  0.000  0.000
       0.000  1.000  0.000  0.000  0.000
       0.000  0.000  1.000  0.000  0.000
       0.000  0.000  0.000  1.000  0.000
       0.000  0.000  0.000  0.000  1.000
     SPIN  2
     eigenvalues:
       0.000  0.000  0.000  0.000  0.000
     eigenvectors (columns):
       1.000  0.000  0.000  0.000  0.000
       0.000  1.000  0.000  0.000  0.000
       0.000  0.000  1.000  0.000  0.000
       0.000  0.000  0.000  1.000  0.000
       0.000  0.000  0.000  0.000  1.000
     occupation matrix ns (before diag.):
       0.000  0.000  0.000  0.000  0.000
       0.000  0.000  0.000  0.000  0.000
       0.000  0.000  0.000  0.000  0.000
       0.000  0.000  0.000  0.000  0.000
       0.000  0.000  0.000  0.000  0.000
     ------------------------ ATOM   12 ------------------------
     Tr[ns( 12)] (up, down, total) =   3.40000  0.00000  3.40000
     Atomic magnetic moment for atom  12 =   3.40000
     SPIN  1
     eigenvalues:
       0.680  0.680  0.680  0.680  0.680
     eigenvectors (columns):
       1.000  0.000  0.000  0.000  0.000
       0.000  1.000  0.000  0.000  0.000
       0.000  0.000  1.000  0.000  0.000
       0.000  0.000  0.000  1.000  0.000
       0.000  0.000  0.000  0.000  1.000
     occupation matrix ns (before diag.):
       0.680  0.000  0.000  0.000  0.000
       0.000  0.680  0.000  0.000  0.000
       0.000  0.000  0.680  0.000  0.000
       0.000  0.000  0.000  0.680  0.000
       0.000  0.000  0.000  0.000  0.680
     SPIN  2
     eigenvalues:
       0.000  0.000  0.000  0.000  0.000
     eigenvectors (columns):
       1.000  0.000  0.000  0.000  0.000
       0.000  1.000  0.000  0.000  0.000
       0.000  0.000  1.000  0.000  0.000
       0.000  0.000  0.000  1.000  0.000
       0.000  0.000  0.000  0.000  1.000
     occupation matrix ns (before diag.):
       0.000  0.000  0.000  0.000  0.000
       0.000  0.000  0.000  0.000  0.000
       0.000  0.000  0.000  0.000  0.000
       0.000  0.000  0.000  0.000  0.000
       0.000  0.000  0.000  0.000  0.000
     ------------------------ ATOM   13 ------------------------
     Tr[ns( 13)] (up, down, total) =   5.00000  3.00000  8.00000
     Atomic magnetic moment for atom  13 =   2.00000
     SPIN  1
     eigenvalues:
       1.000  1.000  1.000  1.000  1.000
     eigenvectors (columns):
       1.000  0.000  0.000  0.000  0.000
       0.000  1.000  0.000  0.000  0.000
       0.000  0.000  1.000  0.000  0.000
       0.000  0.000  0.000  1.000  0.000
       0.000  0.000  0.000  0.000  1.000
     occupation matrix ns (before diag.):
       1.000  0.000  0.000  0.000  0.000
       0.000  1.000  0.000  0.000  0.000
       0.000  0.000  1.000  0.000  0.000
       0.000  0.000  0.000  1.000  0.000
       0.000  0.000  0.000  0.000  1.000
     SPIN  2
     eigenvalues:
       0.600  0.600  0.600  0.600  0.600
     eigenvectors (columns):
       1.000  0.000  0.000  0.000  0.000
       0.000  1.000  0.000  0.000  0.000
       0.000  0.000  1.000  0.000  0.000
       0.000  0.000  0.000  1.000  0.000
       0.000  0.000  0.000  0.000  1.000
     occupation matrix ns (before diag.):
       0.600  0.000  0.000  0.000  0.000
       0.000  0.600  0.000  0.000  0.000
       0.000  0.000  0.600  0.000  0.000
       0.000  0.000  0.000  0.600  0.000
       0.000  0.000  0.000  0.000  0.600
     ------------------------ ATOM   14 ------------------------
     Tr[ns( 14)] (up, down, total) =   5.00000  0.00000  5.00000
     Atomic magnetic moment for atom  14 =   5.00000
     SPIN  1
     eigenvalues:
       1.000  1.000  1.000  1.000  1.000
     eigenvectors (columns):
       1.000  0.000  0.000  0.000  0.000
       0.000  1.000  0.000  0.000  0.000
       0.000  0.000  1.000  0.000  0.000
       0.000  0.000  0.000  1.000  0.000
       0.000  0.000  0.000  0.000  1.000
     occupation matrix ns (before diag.):
       1.000  0.000  0.000  0.000  0.000
       0.000  1.000  0.000  0.000  0.000
       0.000  0.000  1.000  0.000  0.000
       0.000  0.000  0.000  1.000  0.000
       0.000  0.000  0.000  0.000  1.000
     SPIN  2
     eigenvalues:
       0.000  0.000  0.000  0.000  0.000
     eigenvectors (columns):
       1.000  0.000  0.000  0.000  0.000
       0.000  1.000  0.000  0.000  0.000
       0.000  0.000  1.000  0.000  0.000
       0.000  0.000  0.000  1.000  0.000
       0.000  0.000  0.000  0.000  1.000
     occupation matrix ns (before diag.):
       0.000  0.000  0.000  0.000  0.000
       0.000  0.000  0.000  0.000  0.000
       0.000  0.000  0.000  0.000  0.000
       0.000  0.000  0.000  0.000  0.000
       0.000  0.000  0.000  0.000  0.000
     ------------------------ ATOM   15 ------------------------
     Tr[ns( 15)] (up, down, total) =   3.40000  0.00000  3.40000
     Atomic magnetic moment for atom  15 =   3.40000
     SPIN  1
     eigenvalues:
       0.680  0.680  0.680  0.680  0.680
     eigenvectors (columns):
       1.000  0.000  0.000  0.000  0.000
       0.000  1.000  0.000  0.000  0.000
       0.000  0.000  1.000  0.000  0.000
       0.000  0.000  0.000  1.000  0.000
       0.000  0.000  0.000  0.000  1.000
     occupation matrix ns (before diag.):
       0.680  0.000  0.000  0.000  0.000
       0.000  0.680  0.000  0.000  0.000
       0.000  0.000  0.680  0.000  0.000
       0.000  0.000  0.000  0.680  0.000
       0.000  0.000  0.000  0.000  0.680
     SPIN  2
     eigenvalues:
       0.000  0.000  0.000  0.000  0.000
     eigenvectors (columns):
       1.000  0.000  0.000  0.000  0.000
       0.000  1.000  0.000  0.000  0.000
       0.000  0.000  1.000  0.000  0.000
       0.000  0.000  0.000  1.000  0.000
       0.000  0.000  0.000  0.000  1.000
     occupation matrix ns (before diag.):
       0.000  0.000  0.000  0.000  0.000
       0.000  0.000  0.000  0.000  0.000
       0.000  0.000  0.000  0.000  0.000
       0.000  0.000  0.000  0.000  0.000
       0.000  0.000  0.000  0.000  0.000
     ------------------------ ATOM   16 ------------------------
     Tr[ns( 16)] (up, down, total) =   5.00000  0.00000  5.00000
     Atomic magnetic moment for atom  16 =   5.00000
     SPIN  1
     eigenvalues:
       1.000  1.000  1.000  1.000  1.000
     eigenvectors (columns):
       1.000  0.000  0.000  0.000  0.000
       0.000  1.000  0.000  0.000  0.000
       0.000  0.000  1.000  0.000  0.000
       0.000  0.000  0.000  1.000  0.000
       0.000  0.000  0.000  0.000  1.000
     occupation matrix ns (before diag.):
       1.000  0.000  0.000  0.000  0.000
       0.000  1.000  0.000  0.000  0.000
       0.000  0.000  1.000  0.000  0.000
       0.000  0.000  0.000  1.000  0.000
       0.000  0.000  0.000  0.000  1.000
     SPIN  2
     eigenvalues:
       0.000  0.000  0.000  0.000  0.000
     eigenvectors (columns):
       1.000  0.000  0.000  0.000  0.000
       0.000  1.000  0.000  0.000  0.000
       0.000  0.000  1.000  0.000  0.000
       0.000  0.000  0.000  1.000  0.000
       0.000  0.000  0.000  0.000  1.000
     occupation matrix ns (before diag.):
       0.000  0.000  0.000  0.000  0.000
       0.000  0.000  0.000  0.000  0.000
       0.000  0.000  0.000  0.000  0.000
       0.000  0.000  0.000  0.000  0.000
       0.000  0.000  0.000  0.000  0.000
     ------------------------ ATOM   17 ------------------------
     Tr[ns( 17)] (up, down, total) =   3.40000  0.00000  3.40000
     Atomic magnetic moment for atom  17 =   3.40000
     SPIN  1
     eigenvalues:
       0.680  0.680  0.680  0.680  0.680
     eigenvectors (columns):
       1.000  0.000  0.000  0.000  0.000
       0.000  1.000  0.000  0.000  0.000
       0.000  0.000  1.000  0.000  0.000
       0.000  0.000  0.000  1.000  0.000
       0.000  0.000  0.000  0.000  1.000
     occupation matrix ns (before diag.):
       0.680  0.000  0.000  0.000  0.000
       0.000  0.680  0.000  0.000  0.000
       0.000  0.000  0.680  0.000  0.000
       0.000  0.000  0.000  0.680  0.000
       0.000  0.000  0.000  0.000  0.680
     SPIN  2
     eigenvalues:
       0.000  0.000  0.000  0.000  0.000
     eigenvectors (columns):
       1.000  0.000  0.000  0.000  0.000
       0.000  1.000  0.000  0.000  0.000
       0.000  0.000  1.000  0.000  0.000
       0.000  0.000  0.000  1.000  0.000
       0.000  0.000  0.000  0.000  1.000
     occupation matrix ns (before diag.):
       0.000  0.000  0.000  0.000  0.000
       0.000  0.000  0.000  0.000  0.000
       0.000  0.000  0.000  0.000  0.000
       0.000  0.000  0.000  0.000  0.000
       0.000  0.000  0.000  0.000  0.000
     ------------------------ ATOM   18 ------------------------
     Tr[ns( 18)] (up, down, total) =   5.00000  3.00000  8.00000
     Atomic magnetic moment for atom  18 =   2.00000
     SPIN  1
     eigenvalues:
       1.000  1.000  1.000  1.000  1.000
     eigenvectors (columns):
       1.000  0.000  0.000  0.000  0.000
       0.000  1.000  0.000  0.000  0.000
       0.000  0.000  1.000  0.000  0.000
       0.000  0.000  0.000  1.000  0.000
       0.000  0.000  0.000  0.000  1.000
     occupation matrix ns (before diag.):
       1.000  0.000  0.000  0.000  0.000
       0.000  1.000  0.000  0.000  0.000
       0.000  0.000  1.000  0.000  0.000
       0.000  0.000  0.000  1.000  0.000
       0.000  0.000  0.000  0.000  1.000
     SPIN  2
     eigenvalues:
       0.600  0.600  0.600  0.600  0.600
     eigenvectors (columns):
       1.000  0.000  0.000  0.000  0.000
       0.000  1.000  0.000  0.000  0.000
       0.000  0.000  1.000  0.000  0.000
       0.000  0.000  0.000  1.000  0.000
       0.000  0.000  0.000  0.000  1.000
     occupation matrix ns (before diag.):
       0.600  0.000  0.000  0.000  0.000
       0.000  0.600  0.000  0.000  0.000
       0.000  0.000  0.600  0.000  0.000
       0.000  0.000  0.000  0.600  0.000
       0.000  0.000  0.000  0.000  0.600
     ------------------------ ATOM   19 ------------------------
     Tr[ns( 19)] (up, down, total) =   5.00000  3.00000  8.00000
     Atomic magnetic moment for atom  19 =   2.00000
     SPIN  1
     eigenvalues:
       1.000  1.000  1.000  1.000  1.000
     eigenvectors (columns):
       1.000  0.000  0.000  0.000  0.000
       0.000  1.000  0.000  0.000  0.000
       0.000  0.000  1.000  0.000  0.000
       0.000  0.000  0.000  1.000  0.000
       0.000  0.000  0.000  0.000  1.000
     occupation matrix ns (before diag.):
       1.000  0.000  0.000  0.000  0.000
       0.000  1.000  0.000  0.000  0.000
       0.000  0.000  1.000  0.000  0.000
       0.000  0.000  0.000  1.000  0.000
       0.000  0.000  0.000  0.000  1.000
     SPIN  2
     eigenvalues:
       0.600  0.600  0.600  0.600  0.600
     eigenvectors (columns):
       1.000  0.000  0.000  0.000  0.000
       0.000  1.000  0.000  0.000  0.000
       0.000  0.000  1.000  0.000  0.000
       0.000  0.000  0.000  1.000  0.000
       0.000  0.000  0.000  0.000  1.000
     occupation matrix ns (before diag.):
       0.600  0.000  0.000  0.000  0.000
       0.000  0.600  0.000  0.000  0.000
       0.000  0.000  0.600  0.000  0.000
       0.000  0.000  0.000  0.600  0.000
       0.000  0.000  0.000  0.000  0.600
     ------------------------ ATOM   20 ------------------------
     Tr[ns( 20)] (up, down, total) =   5.00000  0.00000  5.00000
     Atomic magnetic moment for atom  20 =   5.00000
     SPIN  1
     eigenvalues:
       1.000  1.000  1.000  1.000  1.000
     eigenvectors (columns):
       1.000  0.000  0.000  0.000  0.000
       0.000  1.000  0.000  0.000  0.000
       0.000  0.000  1.000  0.000  0.000
       0.000  0.000  0.000  1.000  0.000
       0.000  0.000  0.000  0.000  1.000
     occupation matrix ns (before diag.):
       1.000  0.000  0.000  0.000  0.000
       0.000  1.000  0.000  0.000  0.000
       0.000  0.000  1.000  0.000  0.000
       0.000  0.000  0.000  1.000  0.000
       0.000  0.000  0.000  0.000  1.000
     SPIN  2
     eigenvalues:
       0.000  0.000  0.000  0.000  0.000
     eigenvectors (columns):
       1.000  0.000  0.000  0.000  0.000
       0.000  1.000  0.000  0.000  0.000
       0.000  0.000  1.000  0.000  0.000
       0.000  0.000  0.000  1.000  0.000
       0.000  0.000  0.000  0.000  1.000
     occupation matrix ns (before diag.):
       0.000  0.000  0.000  0.000  0.000
       0.000  0.000  0.000  0.000  0.000
       0.000  0.000  0.000  0.000  0.000
       0.000  0.000  0.000  0.000  0.000
       0.000  0.000  0.000  0.000  0.000
     ------------------------ ATOM   21 ------------------------
     Tr[ns( 21)] (up, down, total) =   3.40000  0.00000  3.40000
     Atomic magnetic moment for atom  21 =   3.40000
     SPIN  1
     eigenvalues:
       0.680  0.680  0.680  0.680  0.680
     eigenvectors (columns):
       1.000  0.000  0.000  0.000  0.000
       0.000  1.000  0.000  0.000  0.000
       0.000  0.000  1.000  0.000  0.000
       0.000  0.000  0.000  1.000  0.000
       0.000  0.000  0.000  0.000  1.000
     occupation matrix ns (before diag.):
       0.680  0.000  0.000  0.000  0.000
       0.000  0.680  0.000  0.000  0.000
       0.000  0.000  0.680  0.000  0.000
       0.000  0.000  0.000  0.680  0.000
       0.000  0.000  0.000  0.000  0.680
     SPIN  2
     eigenvalues:
       0.000  0.000  0.000  0.000  0.000
     eigenvectors (columns):
       1.000  0.000  0.000  0.000  0.000
       0.000  1.000  0.000  0.000  0.000
       0.000  0.000  1.000  0.000  0.000
       0.000  0.000  0.000  1.000  0.000
       0.000  0.000  0.000  0.000  1.000
     occupation matrix ns (before diag.):
       0.000  0.000  0.000  0.000  0.000
       0.000  0.000  0.000  0.000  0.000
       0.000  0.000  0.000  0.000  0.000
       0.000  0.000  0.000  0.000  0.000
       0.000  0.000  0.000  0.000  0.000
     ------------------------ ATOM   22 ------------------------
     Tr[ns( 22)] (up, down, total) =   3.40000  0.00000  3.40000
     Atomic magnetic moment for atom  22 =   3.40000
     SPIN  1
     eigenvalues:
       0.680  0.680  0.680  0.680  0.680
     eigenvectors (columns):
       1.000  0.000  0.000  0.000  0.000
       0.000  1.000  0.000  0.000  0.000
       0.000  0.000  1.000  0.000  0.000
       0.000  0.000  0.000  1.000  0.000
       0.000  0.000  0.000  0.000  1.000
     occupation matrix ns (before diag.):
       0.680  0.000  0.000  0.000  0.000
       0.000  0.680  0.000  0.000  0.000
       0.000  0.000  0.680  0.000  0.000
       0.000  0.000  0.000  0.680  0.000
       0.000  0.000  0.000  0.000  0.680
     SPIN  2
     eigenvalues:
       0.000  0.000  0.000  0.000  0.000
     eigenvectors (columns):
       1.000  0.000  0.000  0.000  0.000
       0.000  1.000  0.000  0.000  0.000
       0.000  0.000  1.000  0.000  0.000
       0.000  0.000  0.000  1.000  0.000
       0.000  0.000  0.000  0.000  1.000
     occupation matrix ns (before diag.):
       0.000  0.000  0.000  0.000  0.000
       0.000  0.000  0.000  0.000  0.000
       0.000  0.000  0.000  0.000  0.000
       0.000  0.000  0.000  0.000  0.000
       0.000  0.000  0.000  0.000  0.000
     ------------------------ ATOM   23 ------------------------
     Tr[ns( 23)] (up, down, total) =   5.00000  3.00000  8.00000
     Atomic magnetic moment for atom  23 =   2.00000
     SPIN  1
     eigenvalues:
       1.000  1.000  1.000  1.000  1.000
     eigenvectors (columns):
       1.000  0.000  0.000  0.000  0.000
       0.000  1.000  0.000  0.000  0.000
       0.000  0.000  1.000  0.000  0.000
       0.000  0.000  0.000  1.000  0.000
       0.000  0.000  0.000  0.000  1.000
     occupation matrix ns (before diag.):
       1.000  0.000  0.000  0.000  0.000
       0.000  1.000  0.000  0.000  0.000
       0.000  0.000  1.000  0.000  0.000
       0.000  0.000  0.000  1.000  0.000
       0.000  0.000  0.000  0.000  1.000
     SPIN  2
     eigenvalues:
       0.600  0.600  0.600  0.600  0.600
     eigenvectors (columns):
       1.000  0.000  0.000  0.000  0.000
       0.000  1.000  0.000  0.000  0.000
       0.000  0.000  1.000  0.000  0.000
       0.000  0.000  0.000  1.000  0.000
       0.000  0.000  0.000  0.000  1.000
     occupation matrix ns (before diag.):
       0.600  0.000  0.000  0.000  0.000
       0.000  0.600  0.000  0.000  0.000
       0.000  0.000  0.600  0.000  0.000
       0.000  0.000  0.000  0.600  0.000
       0.000  0.000  0.000  0.000  0.600

     Number of occupied Hubbard levels =  127.8000

     Atomic wfc used for Hubbard projectors are orthogonalized

     Starting wfcs are  488 randomized atomic wfcs
     Checking if some PAW data can be deallocated... 

     total cpu time spent up to now is       39.7 secs

     per-process dynamical memory:   553.0 Mb

     Self-consistent Calculation

     iteration #  1     ecut=    80.00 Ry     beta= 0.30
     Davidson diagonalization with overlap
     ethr =  1.00E-02,  avg # of iterations =  7.7

     =================== HUBBARD OCCUPATIONS ===================
     ------------------------ ATOM    1 ------------------------
     Tr[ns(  1)] (up, down, total) =   1.54168  0.20357  1.74525
     Atomic magnetic moment for atom   1 =   1.33811
     SPIN  1
     eigenvalues:
       0.184  0.217  0.276  0.333  0.531
     eigenvectors (columns):
      -0.889  0.293  0.094  0.276 -0.196
      -0.301 -0.947  0.093 -0.033 -0.050
       0.190 -0.011 -0.036 -0.059 -0.979
       0.249 -0.121 -0.088  0.957 -0.005
      -0.142 -0.051 -0.987 -0.060  0.013
     occupation matrix ns (before diag.):
       0.212 -0.006  0.064  0.038 -0.012
      -0.006  0.215  0.017 -0.002 -0.007
       0.064  0.017  0.518 -0.006 -0.001
       0.038 -0.002 -0.006  0.322 -0.000
      -0.012 -0.007 -0.001 -0.000  0.275
     SPIN  2
     eigenvalues:
       0.019  0.024  0.028  0.049  0.083
     eigenvectors (columns):
      -0.066 -0.047 -0.273 -0.958 -0.018
       0.164 -0.985  0.047  0.024  0.004
      -0.982 -0.163 -0.037  0.086  0.003
       0.065 -0.028 -0.960  0.271  0.008
       0.000  0.004  0.003 -0.020  1.000
     occupation matrix ns (before diag.):
       0.048 -0.001 -0.002 -0.006 -0.001
      -0.001  0.024  0.001 -0.000  0.000
      -0.002  0.001  0.019  0.001  0.000
      -0.006 -0.000  0.001  0.029  0.000
      -0.001  0.000  0.000  0.000  0.083
     ------------------------ ATOM    2 ------------------------
     Tr[ns(  2)] (up, down, total) =   4.89732  2.88234  7.77966
     Atomic magnetic moment for atom   2 =   2.01499
     SPIN  1
     eigenvalues:
       0.966  0.979  0.981  0.982  0.988
     eigenvectors (columns):
      -0.695  0.533 -0.396  0.276 -0.024
      -0.018 -0.032 -0.581 -0.804  0.122
       0.183 -0.518 -0.670  0.498 -0.022
      -0.695 -0.668  0.233 -0.127 -0.006
      -0.015  0.001  0.049  0.116  0.992
     occupation matrix ns (before diag.):
       0.974 -0.000  0.003 -0.007 -0.000
      -0.000  0.982 -0.000 -0.000  0.001
       0.003 -0.000  0.980  0.001 -0.000
      -0.007 -0.000  0.001  0.973 -0.000
      -0.000  0.001 -0.000 -0.000  0.988
     SPIN  2
     eigenvalues:
       0.146  0.350  0.698  0.825  0.863
     eigenvectors (columns):
      -0.015  0.949  0.287  0.127 -0.008
       0.016  0.009  0.017 -0.040  0.999
      -0.001 -0.154  0.073  0.985  0.039
       0.003 -0.273  0.955 -0.113 -0.018
       1.000  0.015  0.001  0.004 -0.016
     occupation matrix ns (before diag.):
       0.387 -0.005  0.067  0.089  0.004
      -0.005  0.862  0.002 -0.002 -0.012
       0.067  0.002  0.813 -0.029  0.002
       0.089 -0.002 -0.029  0.674 -0.000
       0.004 -0.012  0.002 -0.000  0.146
     ------------------------ ATOM    3 ------------------------
     Tr[ns(  3)] (up, down, total) =   1.36490  0.20134  1.56624
     Atomic magnetic moment for atom   3 =   1.16356
     SPIN  1
     eigenvalues:
       0.175  0.201  0.273  0.295  0.421
     eigenvectors (columns):
      -0.875  0.296  0.039 -0.369  0.093
       0.308  0.944 -0.080 -0.005 -0.088
       0.139  0.043 -0.039 -0.051  0.987
       0.318 -0.136 -0.211 -0.909 -0.094
       0.135  0.038  0.973 -0.185  0.008
     occupation matrix ns (before diag.):
       0.196  0.005  0.025  0.036  0.012
       0.005  0.200 -0.020  0.001 -0.007
       0.025 -0.020  0.415 -0.017 -0.001
       0.036  0.001 -0.017  0.282 -0.000
       0.012 -0.007 -0.001 -0.000  0.272
     SPIN  2
     eigenvalues:
       0.018  0.024  0.027  0.049  0.083
     eigenvectors (columns):
       0.069 -0.040 -0.272 -0.959  0.017
       0.129  0.991 -0.030 -0.024 -0.000
       0.988 -0.127 -0.028  0.085 -0.003
      -0.052 -0.016 -0.961  0.270 -0.008
       0.001  0.001 -0.003  0.019  1.000
     occupation matrix ns (before diag.):
       0.047  0.001 -0.002 -0.006  0.001
       0.001  0.024 -0.001 -0.000 -0.000
      -0.002 -0.001  0.019  0.001 -0.000
      -0.006 -0.000  0.001  0.029 -0.000
       0.001 -0.000 -0.000 -0.000  0.083
     ------------------------ ATOM    4 ------------------------
     Tr[ns(  4)] (up, down, total) =   4.91327  0.47992  5.39319
     Atomic magnetic moment for atom   4 =   4.43335
     SPIN  1
     eigenvalues:
       0.965  0.980  0.987  0.990  0.991
     eigenvectors (columns):
      -0.975 -0.083  0.015  0.191 -0.074
       0.016  0.019 -0.092 -0.274 -0.957
       0.214 -0.151 -0.012  0.928 -0.264
       0.051 -0.984  0.027 -0.164  0.026
       0.018  0.028  0.995 -0.012 -0.091
     occupation matrix ns (before diag.):
       0.966  0.000  0.005  0.000  0.000
       0.000  0.991  0.000  0.000  0.000
       0.005  0.000  0.989 -0.002  0.000
       0.000  0.000 -0.002  0.981  0.000
       0.000  0.000  0.000  0.000  0.987
     SPIN  2
     eigenvalues:
       0.056  0.067  0.077  0.108  0.172
     eigenvectors (columns):
      -0.016  0.199  0.377 -0.031 -0.904
       0.993  0.110  0.014 -0.023  0.013
      -0.103  0.841  0.397  0.017  0.352
       0.039 -0.491  0.836 -0.012  0.241
      -0.025  0.012 -0.015 -0.999  0.030
     occupation matrix ns (before diag.):
       0.154 -0.001 -0.032 -0.020 -0.002
      -0.001  0.056  0.002  0.000  0.001
      -0.032  0.002  0.081  0.012  0.000
      -0.020  0.000  0.012  0.080  0.001
      -0.002  0.001  0.000  0.001  0.108
     ------------------------ ATOM    5 ------------------------
     Tr[ns(  5)] (up, down, total) =   1.12943  0.27580  1.40523
     Atomic magnetic moment for atom   5 =   0.85363
     SPIN  1
     eigenvalues:
       0.167  0.190  0.201  0.250  0.322
     eigenvectors (columns):
       0.873 -0.088  0.051 -0.477  0.010
       0.006 -0.008 -0.036 -0.012 -0.999
      -0.103 -0.859  0.501  0.023 -0.012
      -0.477  0.017 -0.028 -0.879  0.008
       0.007 -0.504 -0.863  0.014  0.035
     occupation matrix ns (before diag.):
       0.186 -0.001  0.002  0.035 -0.001
      -0.001  0.321  0.001 -0.000 -0.004
       0.002  0.001  0.193 -0.003 -0.005
       0.035 -0.000 -0.003  0.231 -0.000
      -0.001 -0.004 -0.005 -0.000  0.199
     SPIN  2
     eigenvalues:
       0.026  0.029  0.033  0.087  0.100
     eigenvectors (columns):
       0.222  0.118 -0.889  0.381 -0.043
       0.014 -0.028  0.014 -0.079 -0.996
       0.937  0.221  0.271  0.017  0.010
      -0.111 -0.045  0.364  0.921 -0.068
      -0.246  0.967  0.064 -0.010 -0.029
     occupation matrix ns (before diag.):
       0.041  0.001 -0.001  0.019 -0.000
       0.001  0.100 -0.001  0.001  0.002
      -0.001 -0.001  0.027  0.002  0.001
       0.019  0.001  0.002  0.079 -0.000
      -0.000  0.002  0.001 -0.000  0.029
     ------------------------ ATOM    6 ------------------------
     Tr[ns(  6)] (up, down, total) =   4.93725  4.66709  9.60434
     Atomic magnetic moment for atom   6 =   0.27016
     SPIN  1
     eigenvalues:
       0.982  0.983  0.986  0.993  0.993
     eigenvectors (columns):
       0.783 -0.423 -0.013  0.252 -0.379
       0.025 -0.003 -0.000  0.807  0.591
       0.015  0.057 -0.998 -0.002  0.001
      -0.395  0.227  0.005  0.534 -0.712
       0.480  0.875  0.057 -0.014  0.003
     occupation matrix ns (before diag.):
       0.985 -0.000  0.000  0.004 -0.000
      -0.000  0.993 -0.000 -0.000 -0.000
       0.000 -0.000  0.986 -0.000 -0.000
       0.004 -0.000 -0.000  0.991  0.000
      -0.000 -0.000 -0.000  0.000  0.983
     SPIN  2
     eigenvalues:
       0.904  0.913  0.922  0.963  0.965
     eigenvectors (columns):
      -0.907  0.095  0.109 -0.163 -0.359
      -0.034 -0.020  0.011  0.938 -0.344
      -0.110  0.204 -0.972  0.022  0.027
       0.389  0.005 -0.074 -0.303 -0.867
       0.109  0.974  0.193  0.032  0.027
     occupation matrix ns (before diag.):
       0.914 -0.002 -0.002  0.022  0.000
      -0.002  0.963  0.000  0.001  0.001
      -0.002  0.000  0.921 -0.001 -0.002
       0.022  0.001 -0.001  0.955 -0.002
       0.000  0.001 -0.002 -0.002  0.913
     ------------------------ ATOM    7 ------------------------
     Tr[ns(  7)] (up, down, total) =   0.62385  0.20833  0.83218
     Atomic magnetic moment for atom   7 =   0.41552
     SPIN  1
     eigenvalues:
       0.071  0.079  0.085  0.174  0.215
     eigenvectors (columns):
       0.071  0.912  0.043 -0.402 -0.002
       0.001 -0.002  0.015  0.002 -1.000
       0.997 -0.077  0.025  0.004  0.002
      -0.027 -0.401 -0.023 -0.916 -0.001
      -0.028 -0.046  0.998 -0.004  0.015
     occupation matrix ns (before diag.):
       0.094  0.000 -0.001  0.035  0.000
       0.000  0.215 -0.000 -0.000 -0.002
      -0.001 -0.000  0.071 -0.000  0.000
       0.035 -0.000 -0.000  0.158  0.000
       0.000 -0.002  0.000  0.000  0.085
     SPIN  2
     eigenvalues:
       0.020  0.023  0.024  0.069  0.072
     eigenvectors (columns):
       0.225 -0.077  0.897  0.331  0.170
      -0.002 -0.038  0.012  0.424 -0.905
       0.959 -0.116 -0.257  0.014  0.006
      -0.106  0.028 -0.355  0.843  0.389
       0.133  0.989  0.050  0.020 -0.032
     occupation matrix ns (before diag.):
       0.030 -0.001 -0.001  0.016 -0.000
      -0.001  0.072  0.000 -0.001  0.002
      -0.001  0.000  0.020  0.001 -0.000
       0.016 -0.001  0.001  0.063  0.000
      -0.000  0.002 -0.000  0.000  0.023
     ------------------------ ATOM    8 ------------------------
     Tr[ns(  8)] (up, down, total) =   4.93679  4.66419  9.60098
     Atomic magnetic moment for atom   8 =   0.27260
     SPIN  1
     eigenvalues:
       0.982  0.983  0.986  0.993  0.993
     eigenvectors (columns):
       0.782  0.422 -0.024 -0.264 -0.375
      -0.027  0.001 -0.006  0.790 -0.613
       0.013 -0.074 -0.997 -0.000  0.009
      -0.395 -0.231  0.006 -0.554 -0.696
      -0.481  0.874 -0.071 -0.019 -0.002
     occupation matrix ns (before diag.):
       0.985  0.000  0.000  0.004  0.000
       0.000  0.993 -0.000  0.000 -0.000
       0.000 -0.000  0.986 -0.000  0.000
       0.004  0.000 -0.000  0.991 -0.000
       0.000 -0.000  0.000 -0.000  0.983
     SPIN  2
     eigenvalues:
       0.905  0.909  0.923  0.963  0.964
     eigenvectors (columns):
      -0.881 -0.258  0.079 -0.358 -0.150
       0.031 -0.011 -0.009 -0.446  0.895
      -0.038 -0.214 -0.976  0.030  0.004
       0.378  0.072 -0.057 -0.819 -0.421
      -0.279  0.939 -0.196 -0.034  0.002
     occupation matrix ns (before diag.):
       0.914  0.001 -0.002  0.021 -0.001
       0.001  0.964 -0.000 -0.001  0.001
      -0.002 -0.000  0.922 -0.001  0.002
       0.021 -0.001 -0.001  0.955  0.002
      -0.001  0.001  0.002  0.002  0.909
     ------------------------ ATOM    9 ------------------------
     Tr[ns(  9)] (up, down, total) =   0.60406  0.18114  0.78520
     Atomic magnetic moment for atom   9 =   0.42292
     SPIN  1
     eigenvalues:
       0.076  0.077  0.079  0.169  0.203
     eigenvectors (columns):
      -0.049 -0.065  0.015  0.995  0.053
       0.578 -0.517  0.631 -0.015  0.007
       0.208 -0.654 -0.727 -0.023  0.028
      -0.788 -0.548  0.270 -0.078  0.003
      -0.005  0.027  0.014 -0.052  0.998
     occupation matrix ns (before diag.):
       0.168 -0.001 -0.002 -0.007  0.002
      -0.001  0.078 -0.001  0.001  0.001
      -0.002 -0.001  0.078  0.000  0.004
      -0.007  0.001  0.000  0.077  0.001
       0.002  0.001  0.004  0.001  0.203
     SPIN  2
     eigenvalues:
       0.018  0.019  0.022  0.056  0.066
     eigenvectors (columns):
       0.016 -0.031 -0.153  0.981 -0.111
       0.484 -0.872 -0.061 -0.043  0.017
      -0.859 -0.459 -0.223 -0.031  0.033
       0.166  0.167 -0.961 -0.146  0.011
       0.021  0.025  0.002  0.113  0.993
     occupation matrix ns (before diag.):
       0.055 -0.002 -0.001 -0.005 -0.001
      -0.002  0.019  0.000  0.000  0.001
      -0.001  0.000  0.019  0.001  0.001
      -0.005  0.000  0.001  0.023 -0.000
      -0.001  0.001  0.001 -0.000  0.066
     ------------------------ ATOM   10 ------------------------
     Tr[ns( 10)] (up, down, total) =   4.91992  4.43606  9.35598
     Atomic magnetic moment for atom  10 =   0.48386
     SPIN  1
     eigenvalues:
       0.979  0.980  0.982  0.987  0.992
     eigenvectors (columns):
       0.333 -0.024  0.172 -0.926  0.023
      -0.008  0.959  0.268  0.024  0.087
       0.861 -0.097  0.328  0.374  0.038
       0.381  0.252 -0.889 -0.034 -0.003
      -0.038 -0.078 -0.043  0.005  0.995
     occupation matrix ns (before diag.):
       0.986 -0.000 -0.003 -0.000  0.000
      -0.000  0.981  0.000 -0.000  0.001
      -0.003  0.000  0.981 -0.001  0.000
      -0.000 -0.000 -0.001  0.981  0.000
       0.000  0.001  0.000  0.000  0.992
     SPIN  2
     eigenvalues:
       0.848  0.873  0.883  0.902  0.930
     eigenvectors (columns):
      -0.519  0.494  0.073  0.693  0.029
       0.195  0.034  0.939  0.010  0.281
      -0.086  0.777 -0.026 -0.618  0.075
       0.828  0.383 -0.172  0.367 -0.057
       0.015 -0.063 -0.287  0.046  0.955
     occupation matrix ns (before diag.):
       0.880  0.004 -0.013  0.018  0.002
       0.004  0.886  0.001 -0.007  0.012
      -0.013  0.001  0.884 -0.005  0.003
       0.018 -0.007 -0.005  0.860 -0.002
       0.002  0.012  0.003 -0.002  0.926
     ------------------------ ATOM   11 ------------------------
     Tr[ns( 11)] (up, down, total) =   0.59110  0.18211  0.77321
     Atomic magnetic moment for atom  11 =   0.40899
     SPIN  1
     eigenvalues:
       0.072  0.075  0.076  0.172  0.196
     eigenvectors (columns):
      -0.071 -0.041 -0.002  0.996 -0.036
      -0.281  0.384 -0.879 -0.006  0.016
       0.096 -0.900 -0.424 -0.033 -0.027
      -0.952 -0.201  0.217 -0.076 -0.004
       0.001 -0.033  0.004  0.035  0.999
     occupation matrix ns (before diag.):
       0.171 -0.001 -0.003 -0.007 -0.001
      -0.001  0.076  0.000 -0.001  0.002
      -0.003  0.000  0.075  0.000 -0.003
      -0.007 -0.001  0.000  0.073 -0.001
      -0.001  0.002 -0.003 -0.001  0.196
     SPIN  2
     eigenvalues:
       0.017  0.019  0.022  0.057  0.067
     eigenvectors (columns):
       0.076  0.011  0.138 -0.971  0.181
      -0.296 -0.949 -0.098 -0.051 -0.020
      -0.886  0.237  0.397 -0.014 -0.023
       0.346 -0.208  0.902  0.148 -0.023
      -0.033 -0.020  0.003  0.181  0.983
     occupation matrix ns (before diag.):
       0.057  0.002  0.001 -0.005  0.002
       0.002  0.019 -0.001 -0.000 -0.001
       0.001 -0.001  0.018  0.002 -0.001
      -0.005 -0.000  0.002  0.022 -0.000
       0.002 -0.001 -0.001 -0.000  0.067
     ------------------------ ATOM   12 ------------------------
     Tr[ns( 12)] (up, down, total) =   4.93146  0.52925  5.46071
     Atomic magnetic moment for atom  12 =   4.40221
     SPIN  1
     eigenvalues:
       0.976  0.984  0.990  0.990  0.991
     eigenvectors (columns):
      -0.996  0.026  0.065 -0.001 -0.058
       0.054 -0.225  0.854  0.458 -0.083
       0.053  0.202 -0.124  0.149 -0.959
      -0.025  0.397 -0.312  0.826  0.251
       0.043  0.866  0.392 -0.294  0.089
     occupation matrix ns (before diag.):
       0.976  0.001  0.001 -0.000  0.000
       0.001  0.989  0.000  0.001  0.001
       0.001  0.000  0.991 -0.001 -0.001
      -0.000  0.001 -0.001  0.989 -0.002
       0.000  0.001 -0.001 -0.002  0.986
     SPIN  2
     eigenvalues:
       0.067  0.087  0.101  0.115  0.158
     eigenvectors (columns):
       0.049 -0.008 -0.016  0.080 -0.995
      -0.011 -0.505 -0.814  0.283  0.040
      -0.029  0.840 -0.539 -0.052 -0.004
       0.991  0.043  0.002  0.115  0.058
      -0.122  0.193  0.215  0.947  0.065
     occupation matrix ns (before diag.):
       0.158 -0.002  0.000 -0.005 -0.002
      -0.002  0.099  0.006  0.001  0.005
       0.000  0.006  0.091  0.000 -0.003
      -0.005  0.001  0.000  0.068  0.006
      -0.002  0.005 -0.003  0.006  0.113
     ------------------------ ATOM   13 ------------------------
     Tr[ns( 13)] (up, down, total) =   4.90555  2.43185  7.33740
     Atomic magnetic moment for atom  13 =   2.47370
     SPIN  1
     eigenvalues:
       0.975  0.978  0.981  0.984  0.987
     eigenvectors (columns):
       0.856  0.207  0.350  0.298 -0.117
       0.158 -0.225 -0.001  0.079  0.958
      -0.420  0.071  0.890  0.142  0.075
      -0.191 -0.241 -0.210  0.923 -0.102
      -0.172  0.918 -0.203  0.184  0.229
     occupation matrix ns (before diag.):
       0.977 -0.001  0.002  0.002  0.000
      -0.001  0.986  0.001 -0.000  0.002
       0.002  0.001  0.980  0.000 -0.000
       0.002 -0.000  0.000  0.984  0.001
       0.000  0.002 -0.000  0.001  0.979
     SPIN  2
     eigenvalues:
       0.103  0.133  0.682  0.702  0.812
     eigenvectors (columns):
       0.087  0.387  0.545  0.086 -0.734
       0.988 -0.144  0.003  0.016  0.046
       0.028  0.005 -0.806  0.127 -0.577
       0.120  0.910 -0.228 -0.070  0.316
       0.019 -0.033 -0.040 -0.986 -0.160
     occupation matrix ns (before diag.):
       0.666 -0.024  0.053 -0.229  0.019
      -0.024  0.105 -0.019  0.005 -0.015
       0.053 -0.019  0.725 -0.028  0.009
      -0.229  0.005 -0.028  0.232  0.010
       0.019 -0.015  0.009  0.010  0.704
     ------------------------ ATOM   14 ------------------------
     Tr[ns( 14)] (up, down, total) =   0.78345  0.20645  0.98989
     Atomic magnetic moment for atom  14 =   0.57700
     SPIN  1
     eigenvalues:
       0.078  0.124  0.167  0.190  0.225
     eigenvectors (columns):
      -0.883 -0.017  0.105 -0.040  0.456
      -0.041 -0.017  0.010  0.999  0.005
      -0.051  0.050 -0.989  0.008  0.130
       0.464  0.042  0.094  0.015  0.880
      -0.033  0.998  0.048  0.015 -0.036
     occupation matrix ns (before diag.):
       0.109 -0.004 -0.001  0.060 -0.003
      -0.004  0.190  0.000  0.002  0.001
      -0.001  0.000  0.168  0.009 -0.003
       0.060  0.002  0.009  0.192 -0.002
      -0.003  0.001 -0.003 -0.002  0.124
     SPIN  2
     eigenvalues:
       0.019  0.020  0.022  0.069  0.076
     eigenvectors (columns):
      -0.554  0.707 -0.042 -0.015  0.438
       0.011  0.011 -0.008 -0.999 -0.040
      -0.786 -0.606  0.118 -0.016 -0.005
       0.265 -0.350  0.003 -0.037  0.898
       0.069  0.103  0.992 -0.006  0.016
     occupation matrix ns (before diag.):
       0.031 -0.000 -0.001  0.022  0.000
      -0.000  0.069  0.001 -0.000  0.000
      -0.001  0.001  0.020 -0.000  0.000
       0.022 -0.000 -0.000  0.065  0.001
       0.000  0.000  0.000  0.001  0.022
     ------------------------ ATOM   15 ------------------------
     Tr[ns( 15)] (up, down, total) =   4.91128  0.41679  5.32807
     Atomic magnetic moment for atom  15 =   4.49448
     SPIN  1
     eigenvalues:
       0.965  0.978  0.987  0.990  0.991
     eigenvectors (columns):
       0.455 -0.165 -0.863 -0.143  0.038
       0.042  0.961 -0.188  0.185  0.076
      -0.008  0.061 -0.064  0.028 -0.996
       0.878  0.073  0.463 -0.094 -0.035
       0.145 -0.203 -0.045  0.967  0.016
     occupation matrix ns (before diag.):
       0.982  0.001  0.000 -0.009 -0.002
       0.001  0.979 -0.001 -0.002  0.002
       0.000 -0.001  0.991  0.000  0.000
      -0.009 -0.002  0.000  0.970 -0.003
      -0.002  0.002  0.000 -0.003  0.989
     SPIN  2
     eigenvalues:
       0.057  0.061  0.068  0.100  0.130
     eigenvectors (columns):
      -0.355 -0.740 -0.277 -0.109  0.487
      -0.040 -0.054 -0.047  0.993  0.084
       0.891 -0.449 -0.039  0.014 -0.052
       0.244  0.363  0.249 -0.031  0.864
       0.136  0.341 -0.926 -0.027  0.084
     occupation matrix ns (before diag.):
       0.078 -0.001 -0.000  0.029  0.005
      -0.001  0.100  0.000  0.004 -0.000
      -0.000  0.000  0.058 -0.004 -0.001
       0.029  0.004 -0.004  0.113  0.003
       0.005 -0.000 -0.001  0.003  0.068
     ------------------------ ATOM   16 ------------------------
     Tr[ns( 16)] (up, down, total) =   0.75421  0.20466  0.95887
     Atomic magnetic moment for atom  16 =   0.54956
     SPIN  1
     eigenvalues:
       0.078  0.117  0.147  0.192  0.220
     eigenvectors (columns):
      -0.877  0.040  0.165 -0.035  0.449
       0.041 -0.027 -0.006 -0.999  0.006
      -0.108 -0.059 -0.980  0.004  0.156
       0.465 -0.039  0.091  0.025  0.879
       0.048  0.996 -0.062 -0.024  0.026
     occupation matrix ns (before diag.):
       0.109  0.004 -0.001  0.057  0.003
       0.004  0.191  0.000 -0.002  0.002
      -0.001  0.000  0.148  0.013  0.002
       0.057 -0.002  0.013  0.189  0.001
       0.003  0.002  0.002  0.001  0.117
     SPIN  2
     eigenvalues:
       0.019  0.021  0.022  0.070  0.073
     eigenvectors (columns):
      -0.529  0.728 -0.030 -0.027 -0.435
      -0.012 -0.013  0.008  0.997 -0.069
      -0.801 -0.596  0.047 -0.019 -0.026
       0.280 -0.336 -0.009 -0.063 -0.897
      -0.024 -0.047 -0.998  0.008  0.019
     occupation matrix ns (before diag.):
       0.030  0.000 -0.000  0.021 -0.000
       0.000  0.070 -0.001  0.000  0.000
      -0.000 -0.001  0.020  0.002 -0.000
       0.021  0.000  0.002  0.063 -0.001
      -0.000  0.000 -0.000 -0.001  0.022
     ------------------------ ATOM   17 ------------------------
     Tr[ns( 17)] (up, down, total) =   4.91538  0.43887  5.35425
     Atomic magnetic moment for atom  17 =   4.47651
     SPIN  1
     eigenvalues:
       0.977  0.980  0.983  0.985  0.989
     eigenvectors (columns):
      -0.932  0.285 -0.181 -0.133 -0.016
       0.281  0.251 -0.831 -0.327  0.246
       0.058 -0.110 -0.180 -0.282 -0.934
       0.084  0.178  0.462 -0.851  0.152
       0.206  0.901  0.175  0.267 -0.207
     occupation matrix ns (before diag.):
       0.977  0.002  0.001  0.001  0.001
       0.002  0.983 -0.001  0.000 -0.002
       0.001 -0.001  0.989 -0.000  0.001
       0.001  0.000 -0.000  0.985 -0.001
       0.001 -0.002  0.001 -0.001  0.981
     SPIN  2
     eigenvalues:
       0.063  0.065  0.077  0.103  0.131
     eigenvectors (columns):
      -0.031  0.135 -0.103 -0.984  0.036
      -0.235 -0.094 -0.962  0.097  0.038
       0.949  0.189 -0.250  0.021 -0.037
      -0.204  0.968 -0.030  0.142 -0.007
       0.044  0.012  0.031  0.034  0.998
     occupation matrix ns (before diag.):
       0.102 -0.002 -0.000 -0.005  0.001
      -0.002  0.076  0.003  0.001  0.002
      -0.000  0.003  0.064  0.001 -0.003
      -0.005  0.001  0.001  0.066 -0.000
       0.001  0.002 -0.003 -0.000  0.131
     ------------------------ ATOM   18 ------------------------
     Tr[ns( 18)] (up, down, total) =   4.81571  0.21427  5.02997
     Atomic magnetic moment for atom  18 =   4.60144
     SPIN  1
     eigenvalues:
       0.936  0.964  0.965  0.974  0.977
     eigenvectors (columns):
       0.909  0.071 -0.360 -0.066 -0.186
      -0.084  0.078  0.151 -0.919 -0.345
      -0.147 -0.009  0.036  0.363 -0.919
      -0.355 -0.209 -0.902 -0.124 -0.025
      -0.137  0.972 -0.180  0.055  0.027
     occupation matrix ns (before diag.):
       0.942  0.003  0.006  0.009  0.003
       0.003  0.974  0.000  0.000 -0.001
       0.006  0.000  0.976 -0.002 -0.001
       0.009  0.000 -0.002  0.961 -0.001
       0.003 -0.001 -0.001 -0.001  0.963
     SPIN  2
     eigenvalues:
       0.023  0.026  0.030  0.057  0.079
     eigenvectors (columns):
       0.158  0.052  0.046 -0.968 -0.180
      -0.135 -0.517 -0.833 -0.107  0.095
       0.135  0.831 -0.536  0.032  0.053
       0.969 -0.197 -0.050  0.141  0.025
       0.010  0.020  0.119 -0.173  0.977
     occupation matrix ns (before diag.):
       0.056  0.002 -0.002 -0.005 -0.004
       0.002  0.030  0.002  0.000  0.005
      -0.002  0.002  0.027 -0.000  0.002
      -0.005  0.000 -0.000  0.024  0.001
      -0.004  0.005  0.002  0.001  0.077
     ------------------------ ATOM   19 ------------------------
     Tr[ns( 19)] (up, down, total) =   4.90082  2.19610  7.09692
     Atomic magnetic moment for atom  19 =   2.70472
     SPIN  1
     eigenvalues:
       0.970  0.978  0.979  0.984  0.990
     eigenvectors (columns):
      -0.658  0.203 -0.321  0.646  0.065
      -0.192 -0.880 -0.409 -0.129  0.062
      -0.152  0.427 -0.637 -0.616  0.101
       0.702  0.042 -0.564  0.429 -0.062
       0.115  0.001  0.077  0.056  0.989
     occupation matrix ns (before diag.):
       0.977 -0.001 -0.003  0.006  0.002
      -0.001  0.978  0.001  0.001  0.001
      -0.003  0.001  0.981 -0.000  0.001
       0.006  0.001 -0.000  0.975 -0.001
       0.002  0.001  0.001 -0.001  0.990
     SPIN  2
     eigenvalues:
       0.068  0.085  0.569  0.657  0.817
     eigenvectors (columns):
       0.906 -0.341 -0.177 -0.153  0.087
       0.022 -0.019 -0.277 -0.050 -0.959
      -0.223  0.095 -0.838 -0.416  0.257
       0.041 -0.047 -0.435  0.895  0.081
       0.356  0.934 -0.007  0.030 -0.010
     occupation matrix ns (before diag.):
       0.105 -0.033  0.128 -0.037 -0.008
      -0.033  0.797 -0.056 -0.024  0.007
       0.128 -0.056  0.572 -0.021 -0.005
      -0.037 -0.024 -0.021  0.640  0.016
      -0.008  0.007 -0.005  0.016  0.084
     ------------------------ ATOM   20 ------------------------
     Tr[ns( 20)] (up, down, total) =   0.76333  0.20083  0.96416
     Atomic magnetic moment for atom  20 =   0.56250
     SPIN  1
     eigenvalues:
       0.096  0.124  0.151  0.185  0.208
     eigenvectors (columns):
       0.066  0.060  0.078 -0.753  0.647
      -0.137  0.939 -0.300  0.081  0.056
       0.052  0.314  0.938  0.012 -0.133
       0.986  0.113 -0.103  0.027 -0.067
       0.051 -0.057  0.113  0.653  0.745
     occupation matrix ns (before diag.):
       0.194 -0.001 -0.006 -0.007  0.010
      -0.001  0.126 -0.008  0.004  0.006
      -0.006 -0.008  0.149 -0.003 -0.005
      -0.007  0.004 -0.003  0.097 -0.005
       0.010  0.006 -0.005 -0.005  0.197
     SPIN  2
     eigenvalues:
       0.020  0.025  0.028  0.056  0.072
     eigenvectors (columns):
       0.102 -0.030 -0.007 -0.992  0.075
       0.013 -0.103  0.993  0.002  0.060
      -0.082 -0.989 -0.097  0.017 -0.070
       0.991 -0.078 -0.020  0.103 -0.017
       0.003 -0.063 -0.066  0.078  0.993
     occupation matrix ns (before diag.):
       0.056  0.000 -0.001 -0.004  0.001
       0.000  0.028 -0.001 -0.000  0.003
      -0.001 -0.001  0.025  0.001 -0.003
      -0.004 -0.000  0.001  0.020 -0.001
       0.001  0.003 -0.003 -0.001  0.072
     ------------------------ ATOM   21 ------------------------
     Tr[ns( 21)] (up, down, total) =   4.37376  0.37524  4.74899
     Atomic magnetic moment for atom  21 =   3.99852
     SPIN  1
     eigenvalues:
       0.448  0.962  0.986  0.989  0.990
     eigenvectors (columns):
       0.167 -0.428 -0.328 -0.818 -0.116
      -0.937 -0.333  0.003 -0.033  0.103
      -0.112 -0.003 -0.074  0.148 -0.980
       0.284 -0.833  0.044  0.471  0.038
       0.039 -0.109  0.941 -0.295 -0.120
     occupation matrix ns (before diag.):
       0.968  0.081  0.010 -0.035 -0.004
       0.081  0.511 -0.057  0.136  0.019
       0.010 -0.057  0.983  0.017  0.003
      -0.035  0.136  0.017  0.926 -0.009
      -0.004  0.019  0.003 -0.009  0.985
     SPIN  2
     eigenvalues:
       0.043  0.046  0.055  0.103  0.129
     eigenvectors (columns):
       0.207  0.864 -0.088 -0.417  0.173
      -0.094  0.025  0.098 -0.394 -0.909
       0.799 -0.234 -0.537 -0.029 -0.134
      -0.070 -0.445  0.045 -0.818  0.354
       0.553 -0.038  0.832  0.028  0.019
     occupation matrix ns (before diag.):
       0.058 -0.004 -0.001  0.025 -0.001
      -0.004  0.123  0.011 -0.008 -0.001
      -0.001  0.011  0.048 -0.003 -0.006
       0.025 -0.008 -0.003  0.094 -0.000
      -0.001 -0.001 -0.006 -0.000  0.051
     ------------------------ ATOM   22 ------------------------
     Tr[ns( 22)] (up, down, total) =   1.62344  0.44868  2.07212
     Atomic magnetic moment for atom  22 =   1.17476
     SPIN  1
     eigenvalues:
       0.262  0.287  0.328  0.356  0.391
     eigenvectors (columns):
      -0.131 -0.602 -0.297 -0.383 -0.621
      -0.001  0.420  0.277  0.382 -0.775
      -0.800 -0.003  0.541 -0.252  0.068
      -0.052 -0.650  0.241  0.714  0.085
       0.584 -0.197  0.696 -0.367 -0.039
     occupation matrix ns (before diag.):
       0.340  0.037 -0.007 -0.027  0.005
       0.037  0.363 -0.006  0.015  0.002
      -0.007 -0.006  0.288 -0.007  0.033
      -0.027  0.015 -0.007  0.325 -0.011
       0.005  0.002  0.033 -0.011  0.308
     SPIN  2
     eigenvalues:
       0.048  0.066  0.084  0.110  0.140
     eigenvectors (columns):
      -0.123  0.002  0.858 -0.163 -0.472
      -0.015 -0.013 -0.489 -0.037 -0.871
      -0.628  0.762 -0.051  0.151  0.022
       0.067  0.235 -0.117 -0.957  0.102
       0.766  0.604  0.096  0.181 -0.084
     occupation matrix ns (before diag.):
       0.096  0.023 -0.004  0.002  0.005
       0.023  0.126 -0.001 -0.004  0.004
      -0.004 -0.001  0.060 -0.005  0.010
       0.002 -0.004 -0.005  0.108 -0.009
       0.005  0.004  0.010 -0.009  0.058
     ------------------------ ATOM   23 ------------------------
     Tr[ns( 23)] (up, down, total) =   4.91305  0.25571  5.16876
     Atomic magnetic moment for atom  23 =   4.65734
     SPIN  1
     eigenvalues:
       0.978  0.980  0.981  0.985  0.989
     eigenvectors (columns):
       0.040  0.561 -0.544  0.595  0.184
      -0.018  0.140 -0.083  0.096 -0.982
      -0.371  0.220  0.752  0.497  0.023
       0.596 -0.557  0.080  0.572 -0.041
       0.711  0.553  0.354 -0.250  0.011
     occupation matrix ns (before diag.):
       0.982 -0.001  0.001  0.001 -0.001
      -0.001  0.989 -0.000  0.001 -0.000
       0.001 -0.000  0.982  0.002  0.000
       0.001  0.001  0.002  0.981 -0.002
      -0.001 -0.000  0.000 -0.002  0.979
     SPIN  2
     eigenvalues:
       0.028  0.031  0.040  0.073  0.084
     eigenvectors (columns):
       0.684  0.656 -0.046 -0.295 -0.109
       0.054  0.042  0.059 -0.154  0.984
       0.699 -0.698  0.147  0.049 -0.009
      -0.180 -0.259 -0.066 -0.939 -0.122
       0.088 -0.115 -0.984  0.075  0.071
     occupation matrix ns (before diag.):
       0.034 -0.004 -0.002  0.013 -0.001
      -0.004  0.084 -0.001 -0.000  0.003
      -0.002 -0.001  0.030 -0.002 -0.001
       0.013 -0.000 -0.002  0.068 -0.003
      -0.001  0.003 -0.001 -0.003  0.041

     Number of occupied Hubbard levels =   99.3516

     negative rho (up, down):  4.938E-02 4.794E-02

     total cpu time spent up to now is      136.1 secs

     total energy              =   -7958.88924380 Ry
     estimated scf accuracy    <     470.73287291 Ry

     total magnetization       =    46.51 Bohr mag/cell
     absolute magnetization    =    56.50 Bohr mag/cell

     iteration #  2     ecut=    80.00 Ry     beta= 0.30
     Davidson diagonalization with overlap
     ethr =  1.00E-02,  avg # of iterations =  3.1

     negative rho (up, down):  6.574E-02 7.401E-02

     total cpu time spent up to now is      192.5 secs

     total energy              =   -7948.54806767 Ry
     estimated scf accuracy    <     256.22330512 Ry

     total magnetization       =    43.48 Bohr mag/cell
     absolute magnetization    =    54.85 Bohr mag/cell

     iteration #  3     ecut=    80.00 Ry     beta= 0.30
     Davidson diagonalization with overlap
     ethr =  1.00E-02,  avg # of iterations =  2.0

     negative rho (up, down):  6.118E-02 7.595E-02

     total cpu time spent up to now is      242.9 secs

     total energy              =   -7950.75474297 Ry
     estimated scf accuracy    <     136.68569261 Ry

     total magnetization       =    43.01 Bohr mag/cell
     absolute magnetization    =    59.28 Bohr mag/cell

     iteration #  4     ecut=    80.00 Ry     beta= 0.30
     Davidson diagonalization with overlap
     ethr =  1.00E-02,  avg # of iterations =  4.4

     negative rho (up, down):  6.383E-02 8.469E-02

     total cpu time spent up to now is      296.1 secs

     total energy              =   -7953.93392699 Ry
     estimated scf accuracy    <      50.45492697 Ry

     total magnetization       =    39.19 Bohr mag/cell
     absolute magnetization    =    61.95 Bohr mag/cell

     iteration #  5     ecut=    80.00 Ry     beta= 0.30
     Davidson diagonalization with overlap
     ethr =  7.49E-03,  avg # of iterations =  2.0

     negative rho (up, down):  6.407E-02 8.950E-02

     total cpu time spent up to now is      344.3 secs

     total energy              =   -7955.86072364 Ry
     estimated scf accuracy    <      22.91699371 Ry

     total magnetization       =    40.16 Bohr mag/cell
     absolute magnetization    =    65.39 Bohr mag/cell

     iteration #  6     ecut=    80.00 Ry     beta= 0.30
     Davidson diagonalization with overlap
     ethr =  3.40E-03,  avg # of iterations =  4.4

     negative rho (up, down):  6.845E-02 1.033E-01

     total cpu time spent up to now is      396.9 secs

     total energy              =   -7955.66899253 Ry
     estimated scf accuracy    <      18.62670606 Ry

     total magnetization       =    39.91 Bohr mag/cell
     absolute magnetization    =    66.05 Bohr mag/cell

     iteration #  7     ecut=    80.00 Ry     beta= 0.30
     Davidson diagonalization with overlap
     ethr =  2.76E-03,  avg # of iterations =  4.4

     negative rho (up, down):  6.284E-02 9.375E-02

     total cpu time spent up to now is      447.7 secs

     total energy              =   -7956.10162514 Ry
     estimated scf accuracy    <       7.96471562 Ry

     total magnetization       =    39.72 Bohr mag/cell
     absolute magnetization    =    66.49 Bohr mag/cell

     iteration #  8     ecut=    80.00 Ry     beta= 0.30
     Davidson diagonalization with overlap
     ethr =  1.18E-03,  avg # of iterations =  7.3

     negative rho (up, down):  5.867E-02 8.827E-02

     total cpu time spent up to now is      504.1 secs

     total energy              =   -7956.46481984 Ry
     estimated scf accuracy    <       6.19983880 Ry

     total magnetization       =    39.99 Bohr mag/cell
     absolute magnetization    =    65.45 Bohr mag/cell

     iteration #  9     ecut=    80.00 Ry     beta= 0.30
     Davidson diagonalization with overlap
     ethr =  9.20E-04,  avg # of iterations =  3.2

     negative rho (up, down):  5.189E-02 7.879E-02

     total cpu time spent up to now is      555.1 secs

     total energy              =   -7956.41830586 Ry
     estimated scf accuracy    <       4.58475544 Ry

     total magnetization       =    39.97 Bohr mag/cell
     absolute magnetization    =    64.95 Bohr mag/cell

     iteration # 10     ecut=    80.00 Ry     beta= 0.30
     Davidson diagonalization with overlap
     ethr =  6.80E-04,  avg # of iterations =  4.1

     negative rho (up, down):  5.060E-02 7.729E-02

     total cpu time spent up to now is      605.8 secs

     total energy              =   -7956.47361347 Ry
     estimated scf accuracy    <       3.78885371 Ry

     total magnetization       =    36.21 Bohr mag/cell
     absolute magnetization    =    66.25 Bohr mag/cell

     iteration # 11     ecut=    80.00 Ry     beta= 0.30
     Davidson diagonalization with overlap
     ethr =  5.62E-04,  avg # of iterations =  1.2

     negative rho (up, down):  4.398E-02 6.828E-02

     total cpu time spent up to now is      652.7 secs

     total energy              =   -7956.50995829 Ry
     estimated scf accuracy    <       2.36567790 Ry

     total magnetization       =    39.52 Bohr mag/cell
     absolute magnetization    =    65.07 Bohr mag/cell

     iteration # 12     ecut=    80.00 Ry     beta= 0.30
     Davidson diagonalization with overlap
     ethr =  3.51E-04,  avg # of iterations =  2.4

     negative rho (up, down):  3.982E-02 6.293E-02

     total cpu time spent up to now is      703.0 secs

     total energy              =   -7956.52020552 Ry
     estimated scf accuracy    <       1.90743188 Ry

     total magnetization       =    37.56 Bohr mag/cell
     absolute magnetization    =    66.02 Bohr mag/cell

     iteration # 13     ecut=    80.00 Ry     beta= 0.30
     Davidson diagonalization with overlap
     ethr =  2.83E-04,  avg # of iterations =  1.3

     negative rho (up, down):  3.183E-02 5.291E-02

     total cpu time spent up to now is      749.9 secs

     total energy              =   -7956.59149165 Ry
     estimated scf accuracy    <       2.20513806 Ry

     total magnetization       =    39.55 Bohr mag/cell
     absolute magnetization    =    65.19 Bohr mag/cell

     iteration # 14     ecut=    80.00 Ry     beta= 0.30
     Davidson diagonalization with overlap
     ethr =  2.83E-04,  avg # of iterations =  1.3

     negative rho (up, down):  2.583E-02 4.619E-02

     total cpu time spent up to now is      797.5 secs

     total energy              =   -7956.60586250 Ry
     estimated scf accuracy    <       2.24336152 Ry

     total magnetization       =    39.74 Bohr mag/cell
     absolute magnetization    =    65.29 Bohr mag/cell

     iteration # 15     ecut=    80.00 Ry     beta= 0.30
     Davidson diagonalization with overlap
     ethr =  2.83E-04,  avg # of iterations =  2.3

     negative rho (up, down):  1.934E-02 3.907E-02

     total cpu time spent up to now is      846.2 secs

     total energy              =   -7956.59815557 Ry
     estimated scf accuracy    <       2.33087430 Ry

     total magnetization       =    39.81 Bohr mag/cell
     absolute magnetization    =    65.24 Bohr mag/cell

     iteration # 16     ecut=    80.00 Ry     beta= 0.30
     Davidson diagonalization with overlap
     ethr =  2.83E-04,  avg # of iterations =  2.1

     negative rho (up, down):  1.711E-02 3.671E-02

     total cpu time spent up to now is      894.8 secs

     total energy              =   -7956.60097200 Ry
     estimated scf accuracy    <       1.19542514 Ry

     total magnetization       =    39.00 Bohr mag/cell
     absolute magnetization    =    65.75 Bohr mag/cell

     iteration # 17     ecut=    80.00 Ry     beta= 0.30
     Davidson diagonalization with overlap
     ethr =  1.77E-04,  avg # of iterations =  1.2

     negative rho (up, down):  1.663E-02 3.640E-02

     total cpu time spent up to now is      941.5 secs

     total energy              =   -7956.60606570 Ry
     estimated scf accuracy    <       0.63934306 Ry

     total magnetization       =    38.23 Bohr mag/cell
     absolute magnetization    =    66.29 Bohr mag/cell

     iteration # 18     ecut=    80.00 Ry     beta= 0.30
     Davidson diagonalization with overlap
     ethr =  9.49E-05,  avg # of iterations =  3.1

     negative rho (up, down):  1.645E-02 3.622E-02

     total cpu time spent up to now is      992.4 secs

     total energy              =   -7956.60614336 Ry
     estimated scf accuracy    <       0.24265446 Ry

     total magnetization       =    37.25 Bohr mag/cell
     absolute magnetization    =    66.97 Bohr mag/cell

     iteration # 19     ecut=    80.00 Ry     beta= 0.30
     Davidson diagonalization with overlap
     ethr =  3.60E-05,  avg # of iterations =  6.1

     negative rho (up, down):  1.523E-02 3.522E-02

     total cpu time spent up to now is     1045.3 secs

     total energy              =   -7956.61142516 Ry
     estimated scf accuracy    <       0.32700224 Ry

     total magnetization       =    37.51 Bohr mag/cell
     absolute magnetization    =    66.75 Bohr mag/cell

     iteration # 20     ecut=    80.00 Ry     beta= 0.30
     Davidson diagonalization with overlap
     ethr =  3.60E-05,  avg # of iterations =  1.1

     negative rho (up, down):  7.565E-03 2.678E-02

     total cpu time spent up to now is     1090.4 secs

     total energy              =   -7956.60094745 Ry
     estimated scf accuracy    <       0.05068218 Ry

     total magnetization       =    36.08 Bohr mag/cell
     absolute magnetization    =    67.76 Bohr mag/cell

     iteration # 21     ecut=    80.00 Ry     beta= 0.30
     Davidson diagonalization with overlap
     ethr =  7.52E-06,  avg # of iterations =  5.2

     negative rho (up, down):  7.220E-03 2.617E-02

     total cpu time spent up to now is     1145.5 secs

     total energy              =   -7956.61250652 Ry
     estimated scf accuracy    <       0.26715814 Ry

     total magnetization       =    36.95 Bohr mag/cell
     absolute magnetization    =    66.92 Bohr mag/cell

     iteration # 22     ecut=    80.00 Ry     beta= 0.30
     Davidson diagonalization with overlap
     ethr =  7.52E-06,  avg # of iterations =  2.0

     negative rho (up, down):  5.973E-03 2.491E-02

     total cpu time spent up to now is     1194.0 secs

     total energy              =   -7956.62565495 Ry
     estimated scf accuracy    <       0.09378220 Ry

     total magnetization       =    37.81 Bohr mag/cell
     absolute magnetization    =    66.55 Bohr mag/cell

     iteration # 23     ecut=    80.00 Ry     beta= 0.30
     Davidson diagonalization with overlap
     ethr =  7.52E-06,  avg # of iterations =  2.0

     negative rho (up, down):  3.747E-03 2.230E-02

     total cpu time spent up to now is     1242.8 secs

     total energy              =   -7956.62898707 Ry
     estimated scf accuracy    <       0.22594785 Ry

     total magnetization       =    37.84 Bohr mag/cell
     absolute magnetization    =    66.37 Bohr mag/cell

     iteration # 24     ecut=    80.00 Ry     beta= 0.30
     Davidson diagonalization with overlap
     ethr =  7.52E-06,  avg # of iterations =  2.0

     negative rho (up, down):  3.054E-03 2.161E-02

     total cpu time spent up to now is     1292.0 secs

     total energy              =   -7956.63089402 Ry
     estimated scf accuracy    <       0.09810230 Ry

     total magnetization       =    37.71 Bohr mag/cell
     absolute magnetization    =    66.35 Bohr mag/cell

     iteration # 25     ecut=    80.00 Ry     beta= 0.30
     Davidson diagonalization with overlap
     ethr =  7.52E-06,  avg # of iterations =  1.2

     negative rho (up, down):  2.600E-03 2.124E-02

     total cpu time spent up to now is     1338.7 secs

     total energy              =   -7956.63124751 Ry
     estimated scf accuracy    <       0.05665197 Ry

     total magnetization       =    37.58 Bohr mag/cell
     absolute magnetization    =    66.32 Bohr mag/cell

     iteration # 26     ecut=    80.00 Ry     beta= 0.30
     Davidson diagonalization with overlap
     ethr =  7.52E-06,  avg # of iterations =  1.0

     negative rho (up, down):  2.431E-03 2.099E-02

     total cpu time spent up to now is     1382.1 secs

     total energy              =   -7956.63209078 Ry
     estimated scf accuracy    <       0.00702315 Ry

     total magnetization       =    37.46 Bohr mag/cell
     absolute magnetization    =    66.33 Bohr mag/cell

     iteration # 27     ecut=    80.00 Ry     beta= 0.30
     Davidson diagonalization with overlap
     ethr =  1.04E-06,  avg # of iterations =  4.6

     negative rho (up, down):  2.763E-03 2.108E-02

     total cpu time spent up to now is     1435.6 secs

     total energy              =   -7956.63189224 Ry
     estimated scf accuracy    <       0.00531242 Ry

     total magnetization       =    37.64 Bohr mag/cell
     absolute magnetization    =    66.39 Bohr mag/cell

     iteration # 28     ecut=    80.00 Ry     beta= 0.30
     Davidson diagonalization with overlap
     ethr =  7.88E-07,  avg # of iterations =  1.5

     negative rho (up, down):  2.838E-03 2.106E-02

     total cpu time spent up to now is     1482.7 secs

     total energy              =   -7956.63246956 Ry
     estimated scf accuracy    <       0.03953497 Ry

     total magnetization       =    37.66 Bohr mag/cell
     absolute magnetization    =    66.19 Bohr mag/cell

     iteration # 29     ecut=    80.00 Ry     beta= 0.30
     Davidson diagonalization with overlap
     ethr =  7.88E-07,  avg # of iterations =  1.0

     negative rho (up, down):  2.795E-03 2.104E-02

     total cpu time spent up to now is     1525.5 secs

     total energy              =   -7956.63256177 Ry
     estimated scf accuracy    <       0.01541287 Ry

     total magnetization       =    37.62 Bohr mag/cell
     absolute magnetization    =    66.23 Bohr mag/cell

     iteration # 30     ecut=    80.00 Ry     beta= 0.30
     Davidson diagonalization with overlap
     ethr =  7.88E-07,  avg # of iterations =  1.0

     negative rho (up, down):  2.480E-03 2.095E-02

     total cpu time spent up to now is     1569.3 secs

     total energy              =   -7956.63237948 Ry
     estimated scf accuracy    <       0.00420179 Ry

     total magnetization       =    37.62 Bohr mag/cell
     absolute magnetization    =    66.28 Bohr mag/cell

     iteration # 31     ecut=    80.00 Ry     beta= 0.30
     Davidson diagonalization with overlap
     ethr =  6.23E-07,  avg # of iterations =  1.3

     negative rho (up, down):  2.888E-03 2.091E-02

     total cpu time spent up to now is     1616.6 secs

     total energy              =   -7956.63239415 Ry
     estimated scf accuracy    <       0.00163921 Ry

     total magnetization       =    37.48 Bohr mag/cell
     absolute magnetization    =    66.28 Bohr mag/cell

     iteration # 32     ecut=    80.00 Ry     beta= 0.30
     Davidson diagonalization with overlap
     ethr =  2.43E-07,  avg # of iterations =  2.0

     negative rho (up, down):  3.477E-03 2.099E-02

     total cpu time spent up to now is     1665.1 secs

     total energy              =   -7956.63254600 Ry
     estimated scf accuracy    <       0.00109164 Ry

     total magnetization       =    37.36 Bohr mag/cell
     absolute magnetization    =    66.23 Bohr mag/cell

     iteration # 33     ecut=    80.00 Ry     beta= 0.30
     Davidson diagonalization with overlap
     ethr =  1.62E-07,  avg # of iterations =  1.6

     negative rho (up, down):  4.134E-03 2.106E-02

     total cpu time spent up to now is     1713.0 secs

     total energy              =   -7956.63264624 Ry
     estimated scf accuracy    <       0.00056797 Ry

     total magnetization       =    37.34 Bohr mag/cell
     absolute magnetization    =    66.19 Bohr mag/cell

     iteration # 34     ecut=    80.00 Ry     beta= 0.30
     Davidson diagonalization with overlap
     ethr =  8.43E-08,  avg # of iterations =  1.8

     negative rho (up, down):  4.615E-03 2.118E-02

     total cpu time spent up to now is     1761.3 secs

     total energy              =   -7956.63272277 Ry
     estimated scf accuracy    <       0.00036323 Ry

     total magnetization       =    37.35 Bohr mag/cell
     absolute magnetization    =    66.15 Bohr mag/cell

     iteration # 35     ecut=    80.00 Ry     beta= 0.30
     Davidson diagonalization with overlap
     ethr =  5.39E-08,  avg # of iterations =  1.4

     negative rho (up, down):  5.731E-03 2.162E-02

     total cpu time spent up to now is     1808.4 secs

     total energy              =   -7956.63273489 Ry
     estimated scf accuracy    <       0.00047799 Ry

     total magnetization       =    37.36 Bohr mag/cell
     absolute magnetization    =    66.13 Bohr mag/cell

     iteration # 36     ecut=    80.00 Ry     beta= 0.30
     Davidson diagonalization with overlap
     ethr =  5.39E-08,  avg # of iterations =  2.0

     negative rho (up, down):  7.071E-03 2.248E-02

     total cpu time spent up to now is     1857.4 secs

     total energy              =   -7956.63280892 Ry
     estimated scf accuracy    <       0.00059164 Ry

     total magnetization       =    37.32 Bohr mag/cell
     absolute magnetization    =    66.08 Bohr mag/cell

     iteration # 37     ecut=    80.00 Ry     beta= 0.30
     Davidson diagonalization with overlap
     ethr =  5.39E-08,  avg # of iterations =  1.7

     negative rho (up, down):  7.023E-03 2.242E-02

     total cpu time spent up to now is     1906.0 secs

     total energy              =   -7956.63289510 Ry
     estimated scf accuracy    <       0.00086567 Ry

     total magnetization       =    37.38 Bohr mag/cell
     absolute magnetization    =    66.04 Bohr mag/cell

     iteration # 38     ecut=    80.00 Ry     beta= 0.30
     Davidson diagonalization with overlap
     ethr =  5.39E-08,  avg # of iterations =  1.0

     negative rho (up, down):  6.948E-03 2.223E-02

     total cpu time spent up to now is     1948.7 secs

     total energy              =   -7956.63288850 Ry
     estimated scf accuracy    <       0.00078449 Ry

     total magnetization       =    37.37 Bohr mag/cell
     absolute magnetization    =    66.04 Bohr mag/cell

     iteration # 39     ecut=    80.00 Ry     beta= 0.30
     Davidson diagonalization with overlap
     ethr =  5.39E-08,  avg # of iterations =  1.0

     negative rho (up, down):  7.301E-03 2.245E-02

     total cpu time spent up to now is     1991.8 secs

     total energy              =   -7956.63288935 Ry
     estimated scf accuracy    <       0.00040757 Ry

     total magnetization       =    37.37 Bohr mag/cell
     absolute magnetization    =    66.03 Bohr mag/cell

     iteration # 40     ecut=    80.00 Ry     beta= 0.30
     Davidson diagonalization with overlap
     ethr =  5.39E-08,  avg # of iterations =  1.0

     negative rho (up, down):  7.427E-03 2.246E-02

     total cpu time spent up to now is     2035.3 secs

     total energy              =   -7956.63290206 Ry
     estimated scf accuracy    <       0.00035483 Ry

     total magnetization       =    37.36 Bohr mag/cell
     absolute magnetization    =    66.02 Bohr mag/cell

     iteration # 41     ecut=    80.00 Ry     beta= 0.30
     Davidson diagonalization with overlap
     ethr =  5.26E-08,  avg # of iterations =  1.0

     negative rho (up, down):  7.093E-03 2.214E-02

     total cpu time spent up to now is     2078.3 secs

     total energy              =   -7956.63288629 Ry
     estimated scf accuracy    <       0.00027224 Ry

     total magnetization       =    37.37 Bohr mag/cell
     absolute magnetization    =    66.01 Bohr mag/cell

     iteration # 42     ecut=    80.00 Ry     beta= 0.30
     Davidson diagonalization with overlap
     ethr =  4.04E-08,  avg # of iterations =  1.0

     negative rho (up, down):  6.928E-03 2.198E-02

     total cpu time spent up to now is     2121.5 secs

     total energy              =   -7956.63289690 Ry
     estimated scf accuracy    <       0.00021531 Ry

     total magnetization       =    37.37 Bohr mag/cell
     absolute magnetization    =    66.02 Bohr mag/cell

     iteration # 43     ecut=    80.00 Ry     beta= 0.30
     Davidson diagonalization with overlap
     ethr =  3.19E-08,  avg # of iterations =  1.0

     negative rho (up, down):  7.321E-03 2.228E-02

     total cpu time spent up to now is     2165.3 secs

     total energy              =   -7956.63288527 Ry
     estimated scf accuracy    <       0.00025103 Ry

     total magnetization       =    37.39 Bohr mag/cell
     absolute magnetization    =    66.02 Bohr mag/cell

     iteration # 44     ecut=    80.00 Ry     beta= 0.30
     Davidson diagonalization with overlap
     ethr =  3.19E-08,  avg # of iterations =  1.0

     negative rho (up, down):  7.140E-03 2.223E-02

     total cpu time spent up to now is     2208.6 secs

     total energy              =   -7956.63287610 Ry
     estimated scf accuracy    <       0.00021214 Ry

     total magnetization       =    37.37 Bohr mag/cell
     absolute magnetization    =    66.01 Bohr mag/cell

     iteration # 45     ecut=    80.00 Ry     beta= 0.30
     Davidson diagonalization with overlap
     ethr =  3.15E-08,  avg # of iterations =  1.1

     negative rho (up, down):  6.606E-03 2.172E-02

     total cpu time spent up to now is     2254.2 secs

     total energy              =   -7956.63284165 Ry
     estimated scf accuracy    <       0.00025503 Ry

     total magnetization       =    37.35 Bohr mag/cell
     absolute magnetization    =    66.02 Bohr mag/cell

     iteration # 46     ecut=    80.00 Ry     beta= 0.30
     Davidson diagonalization with overlap
     ethr =  3.15E-08,  avg # of iterations =  1.5

     negative rho (up, down):  6.833E-03 2.173E-02

     total cpu time spent up to now is     2301.4 secs

     total energy              =   -7956.63286788 Ry
     estimated scf accuracy    <       0.00007885 Ry

     total magnetization       =    37.32 Bohr mag/cell
     absolute magnetization    =    66.02 Bohr mag/cell

     iteration # 47     ecut=    80.00 Ry     beta= 0.30
     Davidson diagonalization with overlap
     ethr =  1.17E-08,  avg # of iterations =  1.5

     negative rho (up, down):  7.111E-03 2.187E-02

     total cpu time spent up to now is     2348.5 secs

     total energy              =   -7956.63289147 Ry
     estimated scf accuracy    <       0.00006763 Ry

     total magnetization       =    37.31 Bohr mag/cell
     absolute magnetization    =    66.01 Bohr mag/cell

     iteration # 48     ecut=    80.00 Ry     beta= 0.30
     Davidson diagonalization with overlap
     ethr =  1.00E-08,  avg # of iterations =  1.8

     negative rho (up, down):  7.683E-03 2.232E-02

     total cpu time spent up to now is     2396.9 secs

     total energy              =   -7956.63291752 Ry
     estimated scf accuracy    <       0.00003367 Ry

     total magnetization       =    37.30 Bohr mag/cell
     absolute magnetization    =    65.99 Bohr mag/cell

     iteration # 49     ecut=    80.00 Ry     beta= 0.30
     Davidson diagonalization with overlap
     ethr =  5.00E-09,  avg # of iterations =  2.1

     negative rho (up, down):  8.069E-03 2.266E-02

     total cpu time spent up to now is     2447.3 secs

     total energy              =   -7956.63294283 Ry
     estimated scf accuracy    <       0.00004959 Ry

     total magnetization       =    37.30 Bohr mag/cell
     absolute magnetization    =    65.96 Bohr mag/cell

     iteration # 50     ecut=    80.00 Ry     beta= 0.30
     Davidson diagonalization with overlap
     ethr =  5.00E-09,  avg # of iterations =  2.1

     negative rho (up, down):  8.102E-03 2.267E-02

     total cpu time spent up to now is     2496.8 secs

     total energy              =   -7956.63296346 Ry
     estimated scf accuracy    <       0.00001452 Ry

     total magnetization       =    37.29 Bohr mag/cell
     absolute magnetization    =    65.94 Bohr mag/cell

     iteration # 51     ecut=    80.00 Ry     beta= 0.30
     Davidson diagonalization with overlap
     ethr =  2.15E-09,  avg # of iterations =  4.0

     negative rho (up, down):  8.257E-03 2.282E-02

     total cpu time spent up to now is     2550.0 secs

     total energy              =   -7956.63297724 Ry
     estimated scf accuracy    <       0.00000880 Ry

     total magnetization       =    37.28 Bohr mag/cell
     absolute magnetization    =    65.93 Bohr mag/cell

     iteration # 52     ecut=    80.00 Ry     beta= 0.30
     Davidson diagonalization with overlap
     ethr =  1.31E-09,  avg # of iterations =  2.8

     negative rho (up, down):  8.148E-03 2.271E-02

     total cpu time spent up to now is     2600.6 secs

     total energy              =   -7956.63298553 Ry
     estimated scf accuracy    <       0.00001097 Ry

     total magnetization       =    37.27 Bohr mag/cell
     absolute magnetization    =    65.92 Bohr mag/cell

     iteration # 53     ecut=    80.00 Ry     beta= 0.30
     Davidson diagonalization with overlap
     ethr =  1.31E-09,  avg # of iterations =  1.1

     negative rho (up, down):  8.134E-03 2.269E-02

     total cpu time spent up to now is     2644.9 secs

     total energy              =   -7956.63298702 Ry
     estimated scf accuracy    <       0.00000871 Ry

     total magnetization       =    37.27 Bohr mag/cell
     absolute magnetization    =    65.92 Bohr mag/cell

     iteration # 54     ecut=    80.00 Ry     beta= 0.30
     Davidson diagonalization with overlap
     ethr =  1.29E-09,  avg # of iterations =  1.0

     negative rho (up, down):  8.104E-03 2.266E-02

     total cpu time spent up to now is     2688.6 secs

     total energy              =   -7956.63298471 Ry
     estimated scf accuracy    <       0.00000918 Ry

     total magnetization       =    37.27 Bohr mag/cell
     absolute magnetization    =    65.92 Bohr mag/cell

     iteration # 55     ecut=    80.00 Ry     beta= 0.30
     Davidson diagonalization with overlap
     ethr =  1.29E-09,  avg # of iterations =  1.0

     negative rho (up, down):  8.113E-03 2.266E-02

     total cpu time spent up to now is     2731.0 secs

     total energy              =   -7956.63298846 Ry
     estimated scf accuracy    <       0.00000975 Ry

     total magnetization       =    37.26 Bohr mag/cell
     absolute magnetization    =    65.92 Bohr mag/cell

     iteration # 56     ecut=    80.00 Ry     beta= 0.30
     Davidson diagonalization with overlap
     ethr =  1.29E-09,  avg # of iterations =  2.0

     negative rho (up, down):  8.113E-03 2.264E-02

     total cpu time spent up to now is     2780.1 secs

     total energy              =   -7956.63298709 Ry
     estimated scf accuracy    <       0.00000737 Ry

     total magnetization       =    37.27 Bohr mag/cell
     absolute magnetization    =    65.91 Bohr mag/cell

     iteration # 57     ecut=    80.00 Ry     beta= 0.30
     Davidson diagonalization with overlap
     ethr =  1.09E-09,  avg # of iterations =  4.0

     negative rho (up, down):  7.923E-03 2.243E-02

     total cpu time spent up to now is     2837.0 secs

     total energy              =   -7956.63298672 Ry
     estimated scf accuracy    <       0.00000859 Ry

     total magnetization       =    37.28 Bohr mag/cell
     absolute magnetization    =    65.89 Bohr mag/cell

     iteration # 58     ecut=    80.00 Ry     beta= 0.30
     Davidson diagonalization with overlap
     ethr =  1.09E-09,  avg # of iterations =  4.3

     negative rho (up, down):  7.764E-03 2.228E-02

     total cpu time spent up to now is     2894.3 secs

     total energy              =   -7956.63301839 Ry
     estimated scf accuracy    <       0.00000253 Ry

     total magnetization       =    37.28 Bohr mag/cell
     absolute magnetization    =    65.87 Bohr mag/cell

     iteration # 59     ecut=    80.00 Ry     beta= 0.30
     Davidson diagonalization with overlap
     ethr =  3.75E-10,  avg # of iterations =  4.0

     negative rho (up, down):  7.762E-03 2.227E-02

     total cpu time spent up to now is     2952.0 secs

     total energy              =   -7956.63303313 Ry
     estimated scf accuracy    <       0.00000176 Ry

     total magnetization       =    37.28 Bohr mag/cell
     absolute magnetization    =    65.85 Bohr mag/cell

     iteration # 60     ecut=    80.00 Ry     beta= 0.30
     Davidson diagonalization with overlap
     ethr =  2.61E-10,  avg # of iterations =  2.6

     negative rho (up, down):  7.755E-03 2.227E-02

     total cpu time spent up to now is     3003.0 secs

     total energy              =   -7956.63303518 Ry
     estimated scf accuracy    <       0.00000171 Ry

     total magnetization       =    37.28 Bohr mag/cell
     absolute magnetization    =    65.85 Bohr mag/cell

     iteration # 61     ecut=    80.00 Ry     beta= 0.30
     Davidson diagonalization with overlap
     ethr =  2.54E-10,  avg # of iterations =  1.5

     negative rho (up, down):  7.838E-03 2.235E-02

     Magnetic moment per site  (integrated on atomic sphere of radius R)
     atom   1 (R=0.129)  charge= 11.4963  magn=  3.0513
     atom   2 (R=0.134)  charge= 15.1521  magn=  1.3805
     atom   3 (R=0.129)  charge= 11.4996  magn=  3.0742
     atom   4 (R=0.112)  charge=  9.4971  magn=  1.8597
     atom   5 (R=0.112)  charge=  9.4401  magn=  1.5922
     atom   6 (R=0.134)  charge= 15.1227  magn=  0.8877
     atom   7 (R=0.129)  charge= 11.4480  magn=  2.7429
     atom   8 (R=0.134)  charge= 15.1225  magn=  0.8809
     atom   9 (R=0.129)  charge= 11.4433  magn=  2.8463
     atom  10 (R=0.134)  charge= 15.1366  magn=  1.4643
     atom  11 (R=0.129)  charge= 11.4429  magn=  2.8406
     atom  12 (R=0.112)  charge=  9.4305  magn=  1.1574
     atom  13 (R=0.134)  charge= 15.1349  magn=  1.3332
     atom  14 (R=0.129)  charge= 11.4485  magn=  2.8245
     atom  15 (R=0.112)  charge=  9.4487  magn=  1.5595
     atom  16 (R=0.129)  charge= 11.4454  magn=  2.8297
     atom  17 (R=0.112)  charge=  9.4414  magn=  0.9922
     atom  18 (R=0.134)  charge= 15.1347  magn=  1.5827
     atom  19 (R=0.134)  charge= 15.1200  magn=  1.5609
     atom  20 (R=0.129)  charge= 11.4857  magn=  2.9557
     atom  21 (R=0.112)  charge=  9.4248  magn=  1.1771
     atom  22 (R=0.112)  charge=  9.4201  magn=  0.2606
     atom  23 (R=0.134)  charge= 15.1258  magn=  1.4726
     atom  24 (R=0.131)  charge=  8.2292  magn= -0.0073
     atom  25 (R=0.068)  charge=  1.8999  magn= -0.0949
     atom  26 (R=0.068)  charge=  1.8851  magn= -0.1713
     atom  27 (R=0.068)  charge=  1.9010  magn= -0.0880
     atom  28 (R=0.068)  charge=  1.8832  magn= -0.1929
     atom  29 (R=0.068)  charge=  1.8815  magn= -0.1994
     atom  30 (R=0.068)  charge=  1.8679  magn= -0.2873
     atom  31 (R=0.068)  charge=  1.8818  magn= -0.1970
     atom  32 (R=0.068)  charge=  1.8683  magn= -0.2832
     atom  33 (R=0.068)  charge=  1.9065  magn= -0.0651
     atom  34 (R=0.068)  charge=  1.8918  magn= -0.1520
     atom  35 (R=0.068)  charge=  1.9048  magn= -0.0608
     atom  36 (R=0.068)  charge=  1.8921  magn= -0.1438
     atom  37 (R=0.068)  charge=  1.8971  magn= -0.0928
     atom  38 (R=0.068)  charge=  1.9014  magn= -0.1126
     atom  39 (R=0.068)  charge=  1.8975  magn= -0.0880
     atom  40 (R=0.068)  charge=  1.8999  magn= -0.1020
     atom  41 (R=0.068)  charge=  1.9079  magn= -0.0561
     atom  42 (R=0.068)  charge=  1.8955  magn= -0.0531
     atom  43 (R=0.068)  charge=  1.8918  magn= -0.1164
     atom  44 (R=0.068)  charge=  1.8964  magn= -0.0760
     atom  45 (R=0.068)  charge=  1.8919  magn= -0.1357
     atom  46 (R=0.068)  charge=  1.8975  magn= -0.0724
     atom  47 (R=0.068)  charge=  1.9009  magn= -0.1132
     atom  48 (R=0.068)  charge=  1.8975  magn= -0.0928
     atom  49 (R=0.068)  charge=  1.9029  magn= -0.0569
     atom  50 (R=0.068)  charge=  1.8967  magn= -0.1319
     atom  51 (R=0.068)  charge=  1.9019  magn= -0.0538
     atom  52 (R=0.068)  charge=  1.9017  magn= -0.1040
     atom  53 (R=0.068)  charge=  1.8999  magn= -0.0794
     atom  54 (R=0.068)  charge=  1.9057  magn= -0.0778
     atom  55 (R=0.068)  charge=  1.9009  magn= -0.0762
     atom  56 (R=0.068)  charge=  1.9002  magn= -0.0892
     atom  57 (R=0.068)  charge=  1.9077  magn= -0.0470
     atom  58 (R=0.068)  charge=  1.8906  magn= -0.0300
     atom  59 (R=0.068)  charge=  1.8915  magn= -0.1616
     atom  60 (R=0.068)  charge=  1.8961  magn= -0.0289
     atom  61 (R=0.068)  charge=  1.8910  magn= -0.1040
     atom  62 (R=0.068)  charge=  1.8855  magn= -0.0764
     atom  63 (R=0.068)  charge=  1.8955  magn= -0.1018
     atom  64 (R=0.068)  charge=  1.8958  magn= -0.1448
     atom  65 (R=0.068)  charge=  1.8962  magn= -0.0692
     atom  66 (R=0.068)  charge=  1.9010  magn= -0.0331
     atom  67 (R=0.068)  charge=  1.8942  magn= -0.0727
     atom  68 (R=0.068)  charge=  1.8916  magn= -0.0382
     atom  69 (R=0.068)  charge=  1.8959  magn= -0.0586
     atom  70 (R=0.068)  charge=  1.9027  magn= -0.0591
     atom  71 (R=0.068)  charge=  1.8912  magn= -0.0362
     atom  72 (R=0.068)  charge=  1.8936  magn= -0.0838
     atom  73 (R=0.068)  charge=  1.8744  magn= -0.1463
     atom  74 (R=0.068)  charge=  1.8744  magn= -0.1457
     atom  75 (R=0.068)  charge=  0.3994  magn=  0.0016

     total cpu time spent up to now is     3050.9 secs

     End of self-consistent calculation

     =================== HUBBARD OCCUPATIONS ===================
     ------------------------ ATOM    1 ------------------------
     Tr[ns(  1)] (up, down, total) =   4.33290  0.69730  5.03020
     Atomic magnetic moment for atom   1 =   3.63560
     SPIN  1
     eigenvalues:
       0.571  0.799  0.985  0.987  0.990
     eigenvectors (columns):
       0.012  0.992 -0.056 -0.034  0.109
       0.007  0.081 -0.413  0.172 -0.891
      -0.008 -0.010  0.020 -0.980 -0.200
      -0.004 -0.098 -0.909 -0.097  0.393
       1.000 -0.013  0.000 -0.009  0.005
     occupation matrix ns (before diag.):
       0.802 -0.015  0.002  0.018 -0.003
      -0.015  0.988  0.001 -0.000 -0.003
       0.002  0.001  0.987 -0.000  0.003
       0.018 -0.000 -0.000  0.984  0.001
      -0.003 -0.003  0.003  0.001  0.571
     SPIN  2
     eigenvalues:
       0.064  0.090  0.095  0.174  0.275
     eigenvectors (columns):
       0.093 -0.009 -0.022 -0.995  0.003
      -0.006 -0.055 -0.998  0.022  0.002
      -0.000  0.998 -0.056 -0.008  0.002
       0.996  0.001 -0.004  0.093 -0.001
       0.001 -0.002  0.003  0.003  1.000
     occupation matrix ns (before diag.):
       0.173 -0.002  0.001 -0.010  0.000
      -0.002  0.095  0.000  0.000  0.000
       0.001  0.000  0.090 -0.000  0.000
      -0.010  0.000 -0.000  0.065 -0.000
       0.000  0.000  0.000 -0.000  0.275
     ------------------------ ATOM    2 ------------------------
     Tr[ns(  2)] (up, down, total) =   4.79533  3.35413  8.14947
     Atomic magnetic moment for atom   2 =   1.44120
     SPIN  1
     eigenvalues:
       0.868  0.961  0.982  0.991  0.993
     eigenvectors (columns):
       0.002 -0.976 -0.056 -0.210 -0.010
      -0.004 -0.057  0.996  0.002 -0.063
       0.005 -0.029  0.061  0.069  0.995
      -0.006  0.208  0.018 -0.975  0.072
       1.000  0.003  0.004 -0.006 -0.005
     occupation matrix ns (before diag.):
       0.963 -0.001 -0.001  0.006 -0.000
      -0.001  0.982 -0.001  0.000  0.000
      -0.001 -0.001  0.993  0.000 -0.001
       0.006  0.000  0.000  0.990  0.001
      -0.000  0.000 -0.001  0.001  0.868
     SPIN  2
     eigenvalues:
       0.137  0.237  0.991  0.994  0.994
     eigenvectors (columns):
       1.000  0.000  0.025 -0.006 -0.010
      -0.005  0.002 -0.002 -0.999  0.051
      -0.009  0.000 -0.022 -0.051 -0.998
      -0.025  0.002  0.999 -0.003 -0.022
       0.000  1.000 -0.002  0.002 -0.000
     occupation matrix ns (before diag.):
       0.138  0.005  0.008  0.022 -0.000
       0.005  0.994 -0.000 -0.000 -0.002
       0.008 -0.000  0.994 -0.000 -0.000
       0.022 -0.000 -0.000  0.991 -0.002
      -0.000 -0.002 -0.000 -0.002  0.237
     ------------------------ ATOM    3 ------------------------
     Tr[ns(  3)] (up, down, total) =   4.34753  0.68296  5.03049
     Atomic magnetic moment for atom   3 =   3.66457
     SPIN  1
     eigenvalues:
       0.568  0.815  0.985  0.988  0.991
     eigenvectors (columns):
      -0.001 -0.986  0.063 -0.126  0.085
       0.007  0.129 -0.280 -0.764  0.566
       0.002  0.010  0.029 -0.600 -0.799
       0.002  0.103  0.957 -0.198  0.184
       1.000 -0.002 -0.000  0.007 -0.002
     occupation matrix ns (before diag.):
       0.820  0.022  0.002  0.017 -0.000
       0.022  0.986 -0.001 -0.001 -0.003
       0.002 -0.001  0.990 -0.001 -0.001
       0.017 -0.001 -0.001  0.984 -0.001
      -0.000 -0.003 -0.001 -0.001  0.568
     SPIN  2
     eigenvalues:
       0.063  0.087  0.093  0.165  0.275
     eigenvectors (columns):
      -0.098  0.007  0.005 -0.995 -0.001
      -0.013 -0.086 -0.996 -0.004  0.003
       0.000 -0.996  0.086 -0.006 -0.002
      -0.995  0.000  0.013  0.098  0.001
       0.001 -0.002  0.004 -0.001  1.000
     occupation matrix ns (before diag.):
       0.164  0.000  0.000 -0.010 -0.000
       0.000  0.093 -0.001 -0.000  0.001
       0.000 -0.001  0.087 -0.000 -0.000
      -0.010 -0.000 -0.000  0.064  0.000
      -0.000  0.001 -0.000  0.000  0.275
     ------------------------ ATOM    4 ------------------------
     Tr[ns(  4)] (up, down, total) =   3.38468  0.66971  4.05439
     Atomic magnetic moment for atom   4 =   2.71497
     SPIN  1
     eigenvalues:
       0.374  0.406  0.804  0.839  0.961
     eigenvectors (columns):
       0.997  0.014 -0.037  0.035 -0.055
       0.043 -0.013  0.990 -0.133  0.024
      -0.036 -0.001  0.137  0.984 -0.105
      -0.051 -0.005  0.012 -0.109 -0.993
      -0.014  1.000  0.014 -0.002 -0.004
     occupation matrix ns (before diag.):
       0.377 -0.019  0.017  0.030  0.000
      -0.019  0.804 -0.004 -0.002  0.005
       0.017 -0.004  0.839  0.012  0.000
       0.030 -0.002  0.012  0.958  0.002
       0.000  0.005  0.000  0.002  0.406
     SPIN  2
     eigenvalues:
       0.054  0.084  0.091  0.189  0.252
     eigenvectors (columns):
       0.078  0.019 -0.013 -0.997 -0.003
      -0.004 -0.088  0.996 -0.015 -0.003
       0.003  0.996  0.088  0.018  0.002
       0.997 -0.005  0.005  0.077 -0.001
       0.001 -0.003  0.003 -0.003  1.000
     occupation matrix ns (before diag.):
       0.188  0.001 -0.002 -0.010 -0.000
       0.001  0.091  0.001  0.000 -0.000
      -0.002  0.001  0.084  0.000  0.000
      -0.010  0.000  0.000  0.054 -0.000
      -0.000 -0.000  0.000 -0.000  0.252
     ------------------------ ATOM    5 ------------------------
     Tr[ns(  5)] (up, down, total) =   3.15783  0.84401  4.00184
     Atomic magnetic moment for atom   5 =   2.31382
     SPIN  1
     eigenvalues:
       0.420  0.427  0.597  0.746  0.969
     eigenvectors (columns):
      -0.040  0.414 -0.008  0.013  0.910
       0.996  0.092 -0.001  0.004  0.001
      -0.001  0.018  1.000 -0.014  0.000
      -0.083  0.906 -0.017 -0.016 -0.415
       0.005 -0.009 -0.014 -1.000  0.018
     occupation matrix ns (before diag.):
       0.875  0.001 -0.001 -0.205  0.005
       0.001  0.420 -0.000  0.000 -0.001
      -0.001 -0.000  0.597 -0.003  0.002
      -0.205  0.000 -0.003  0.520  0.001
       0.005 -0.001  0.002  0.001  0.746
     SPIN  2
     eigenvalues:
       0.077  0.100  0.107  0.272  0.289
     eigenvectors (columns):
      -0.908 -0.007  0.001  0.419  0.004
      -0.001  0.001  0.002 -0.012  1.000
      -0.001  0.047 -0.999  0.001  0.002
       0.419  0.009  0.000  0.908  0.011
      -0.010  0.999  0.047 -0.006 -0.001
     occupation matrix ns (before diag.):
       0.111 -0.000  0.000  0.074 -0.001
      -0.000  0.289  0.000  0.000 -0.000
       0.000  0.000  0.107  0.000 -0.000
       0.074  0.000  0.000  0.238 -0.001
      -0.001 -0.000 -0.000 -0.001  0.100
     ------------------------ ATOM    6 ------------------------
     Tr[ns(  6)] (up, down, total) =   4.51885  3.58999  8.10884
     Atomic magnetic moment for atom   6 =   0.92886
     SPIN  1
     eigenvalues:
       0.770  0.792  0.981  0.986  0.991
     eigenvectors (columns):
      -0.025 -0.375 -0.055 -0.115 -0.918
       0.999 -0.033 -0.009 -0.003 -0.013
      -0.002 -0.018  0.053 -0.990  0.128
      -0.024 -0.925  0.067  0.067  0.367
       0.010  0.043  0.995  0.042 -0.083
     occupation matrix ns (before diag.):
       0.962  0.003 -0.002 -0.069  0.004
       0.003  0.770  0.000 -0.001 -0.002
      -0.002  0.000  0.986 -0.003 -0.000
      -0.069 -0.001 -0.003  0.820  0.007
       0.004 -0.002 -0.000  0.007  0.980
     SPIN  2
     eigenvalues:
       0.279  0.325  0.994  0.996  0.996
     eigenvectors (columns):
       0.465 -0.003  0.885 -0.005  0.004
       0.025  1.000 -0.010 -0.001  0.002
      -0.002 -0.002 -0.005 -0.297  0.955
       0.885 -0.026 -0.465 -0.010 -0.003
       0.011  0.000 -0.002  0.955  0.297
     occupation matrix ns (before diag.):
       0.839 -0.006  0.001 -0.295 -0.004
      -0.006  0.325  0.002  0.002 -0.000
       0.001  0.002  0.996  0.001  0.000
      -0.295  0.002  0.001  0.434 -0.007
      -0.004 -0.000  0.000 -0.007  0.996
     ------------------------ ATOM    7 ------------------------
     Tr[ns(  7)] (up, down, total) =   4.11291  0.88311  4.99602
     Atomic magnetic moment for atom   7 =   3.22980
     SPIN  1
     eigenvalues:
       0.589  0.590  0.965  0.978  0.991
     eigenvectors (columns):
      -0.250 -0.348  0.001 -0.010 -0.903
      -0.814  0.581  0.000  0.002  0.001
       0.001 -0.001  0.112  0.994 -0.010
      -0.525 -0.735 -0.010  0.005  0.429
       0.005  0.007 -0.994  0.112 -0.006
     occupation matrix ns (before diag.):
       0.917 -0.001  0.000 -0.155  0.002
      -0.001  0.589  0.001 -0.000  0.000
       0.000  0.001  0.977 -0.000  0.001
      -0.155 -0.000 -0.000  0.664  0.003
       0.002  0.000  0.001  0.003  0.965
     SPIN  2
     eigenvalues:
       0.090  0.103  0.104  0.279  0.307
     eigenvectors (columns):
      -0.912  0.003 -0.005  0.410 -0.002
       0.001 -0.000  0.000  0.008  1.000
       0.005 -0.255 -0.967  0.001  0.000
       0.410 -0.006  0.005  0.912 -0.007
       0.007  0.967 -0.255  0.005  0.001
     occupation matrix ns (before diag.):
       0.122  0.000  0.000  0.071  0.000
       0.000  0.307  0.000 -0.000  0.000
       0.000  0.000  0.104  0.000  0.000
       0.071 -0.000  0.000  0.248  0.001
       0.000  0.000  0.000  0.001  0.103
     ------------------------ ATOM    8 ------------------------
     Tr[ns(  8)] (up, down, total) =   4.51574  3.59359  8.10933
     Atomic magnetic moment for atom   8 =   0.92214
     SPIN  1
     eigenvalues:
       0.769  0.789  0.980  0.986  0.991
     eigenvectors (columns):
      -0.097  0.359  0.072 -0.026  0.925
      -0.975 -0.220 -0.009 -0.002 -0.016
      -0.003  0.002  0.056  0.998  0.023
      -0.198  0.906 -0.085  0.010 -0.366
      -0.019  0.049  0.992 -0.054 -0.099
     occupation matrix ns (before diag.):
       0.963 -0.005 -0.000 -0.070 -0.005
      -0.005  0.770 -0.001 -0.003 -0.002
      -0.000 -0.001  0.986 -0.001 -0.000
      -0.070 -0.003 -0.001  0.817 -0.009
      -0.005 -0.002 -0.000 -0.009  0.980
     SPIN  2
     eigenvalues:
       0.281  0.326  0.994  0.996  0.996
     eigenvectors (columns):
      -0.466 -0.025  0.884 -0.009  0.003
       0.074 -0.997  0.011 -0.002  0.001
       0.001 -0.000  0.001 -0.241 -0.970
      -0.882 -0.070 -0.467 -0.011  0.001
       0.014  0.003 -0.003 -0.970  0.241
     occupation matrix ns (before diag.):
       0.839  0.008  0.000 -0.294  0.005
       0.008  0.326 -0.000 -0.000  0.001
       0.000 -0.000  0.996  0.001 -0.000
      -0.294 -0.000  0.001  0.437  0.009
       0.005  0.001 -0.000  0.009  0.996
     ------------------------ ATOM    9 ------------------------
     Tr[ns(  9)] (up, down, total) =   4.17319  0.80962  4.98281
     Atomic magnetic moment for atom   9 =   3.36356
     SPIN  1
     eigenvalues:
       0.580  0.630  0.986  0.987  0.990
     eigenvectors (columns):
       0.068 -0.994 -0.049  0.001 -0.067
      -0.003  0.058  0.112 -0.289 -0.949
       0.014  0.024 -0.685 -0.715  0.138
       0.021  0.056 -0.718  0.637 -0.275
       0.997  0.067  0.028 -0.004  0.006
     occupation matrix ns (before diag.):
       0.632  0.021  0.008  0.019 -0.004
       0.021  0.989 -0.001 -0.000 -0.000
       0.008 -0.001  0.986 -0.001 -0.006
       0.019 -0.000 -0.001  0.986 -0.010
      -0.004 -0.000 -0.006 -0.010  0.580
     SPIN  2
     eigenvalues:
       0.067  0.099  0.105  0.250  0.289
     eigenvectors (columns):
      -0.060  0.004 -0.053 -0.994 -0.069
      -0.025  0.551 -0.833  0.047  0.011
       0.012 -0.834 -0.551  0.024  0.016
      -0.998 -0.024  0.017  0.058  0.017
       0.013  0.008  0.014 -0.070  0.997
     occupation matrix ns (before diag.):
       0.249 -0.007 -0.004 -0.011 -0.002
      -0.007  0.104  0.003 -0.000  0.001
      -0.004  0.003  0.101  0.001  0.003
      -0.011 -0.000  0.001  0.067  0.003
      -0.002  0.001  0.003  0.003  0.288
     ------------------------ ATOM   10 ------------------------
     Tr[ns( 10)] (up, down, total) =   4.83944  3.31180  8.15124
     Atomic magnetic moment for atom  10 =   1.52764
     SPIN  1
     eigenvalues:
       0.908  0.959  0.989  0.991  0.992
     eigenvectors (columns):
       0.246  0.954  0.042 -0.033 -0.161
      -0.026 -0.050  0.803 -0.593 -0.002
      -0.015  0.002  0.594  0.804 -0.022
      -0.136 -0.130 -0.023 -0.011 -0.982
       0.959 -0.264  0.017  0.003 -0.098
     occupation matrix ns (before diag.):
       0.956  0.002  0.000  0.007 -0.011
       0.002  0.990 -0.001 -0.000  0.002
       0.000 -0.001  0.991 -0.000  0.001
       0.007 -0.000 -0.000  0.990  0.010
      -0.011  0.002  0.001  0.010  0.912
     SPIN  2
     eigenvalues:
       0.134  0.199  0.991  0.993  0.995
     eigenvectors (columns):
       0.995  0.082 -0.044  0.042  0.009
      -0.038  0.013  0.075  0.983 -0.163
      -0.017  0.017 -0.006  0.163  0.986
      -0.044 -0.032 -0.996  0.072 -0.018
      -0.083  0.996 -0.029 -0.017 -0.016
     occupation matrix ns (before diag.):
       0.138  0.032  0.014  0.040  0.006
       0.032  0.991 -0.001 -0.001 -0.013
       0.014 -0.001  0.995 -0.000 -0.015
       0.040 -0.001 -0.000  0.989  0.022
       0.006 -0.013 -0.015  0.022  0.200
     ------------------------ ATOM   11 ------------------------
     Tr[ns( 11)] (up, down, total) =   4.16858  0.81295  4.98154
     Atomic magnetic moment for atom  11 =   3.35563
     SPIN  1
     eigenvalues:
       0.579  0.625  0.986  0.988  0.990
     eigenvectors (columns):
       0.051  0.996 -0.033  0.015 -0.068
      -0.005  0.055  0.128  0.501  0.854
      -0.017 -0.000 -0.884 -0.333  0.328
      -0.022 -0.053 -0.448  0.798 -0.398
       0.998 -0.051 -0.022  0.013  0.005
     occupation matrix ns (before diag.):
       0.627 -0.020  0.000  0.020 -0.002
      -0.020  0.988  0.001  0.000  0.003
       0.000  0.001  0.987 -0.001  0.007
       0.020  0.000 -0.001  0.987  0.008
      -0.002  0.003  0.007  0.008  0.580
     SPIN  2
     eigenvalues:
       0.067  0.098  0.109  0.247  0.292
     eigenvectors (columns):
      -0.061 -0.007  0.053 -0.992  0.098
       0.020  0.492 -0.869 -0.051  0.005
       0.004  0.870  0.492  0.018 -0.018
      -0.998  0.014 -0.019  0.058 -0.016
      -0.010  0.014  0.007  0.099  0.995
     occupation matrix ns (before diag.):
       0.246  0.007 -0.003 -0.011  0.004
       0.007  0.106 -0.005  0.000  0.000
      -0.003 -0.005  0.100  0.000 -0.003
      -0.011  0.000  0.000  0.068 -0.003
       0.004  0.000 -0.003 -0.003  0.292
     ------------------------ ATOM   12 ------------------------
     Tr[ns( 12)] (up, down, total) =   2.84058  1.17723  4.01781
     Atomic magnetic moment for atom  12 =   1.66335
     SPIN  1
     eigenvalues:
       0.424  0.464  0.489  0.511  0.953
     eigenvectors (columns):
       0.057 -0.854  0.420 -0.301 -0.035
       0.067  0.374  0.094 -0.920  0.015
      -0.019  0.360  0.901  0.236 -0.050
       0.023  0.018 -0.059 -0.014 -0.998
       0.996  0.030 -0.012  0.083  0.023
     occupation matrix ns (before diag.):
       0.473  0.014  0.007  0.016 -0.004
       0.014  0.504 -0.008 -0.007 -0.006
       0.007 -0.008  0.488  0.023  0.001
       0.016 -0.007  0.023  0.951 -0.012
      -0.004 -0.006  0.001 -0.012  0.425
     SPIN  2
     eigenvalues:
       0.081  0.205  0.223  0.310  0.359
     eigenvectors (columns):
       0.024 -0.029 -0.046 -0.141 -0.988
      -0.024 -0.570  0.815 -0.099 -0.008
       0.028  0.815  0.575  0.039 -0.056
       0.999 -0.034  0.004 -0.011  0.027
      -0.011  0.094 -0.053 -0.984  0.140
     occupation matrix ns (before diag.):
       0.357  0.002  0.007 -0.007 -0.007
       0.002  0.218  0.008  0.003  0.009
       0.007  0.008  0.211 -0.004 -0.006
      -0.007  0.003 -0.004  0.082  0.003
      -0.007  0.009 -0.006  0.003  0.309
     ------------------------ ATOM   13 ------------------------
     Tr[ns( 13)] (up, down, total) =   4.75860  3.37610  8.13470
     Atomic magnetic moment for atom  13 =   1.38250
     SPIN  1
     eigenvalues:
       0.863  0.922  0.988  0.992  0.993
     eigenvectors (columns):
       0.360 -0.206 -0.005  0.527  0.742
      -0.467 -0.883  0.051  0.001 -0.019
       0.007  0.012  0.032  0.815 -0.579
       0.805 -0.413  0.109 -0.242 -0.333
      -0.063  0.090  0.992  0.003  0.059
     occupation matrix ns (before diag.):
       0.973  0.009 -0.001 -0.043  0.004
       0.009  0.910  0.001  0.023  0.002
      -0.001  0.001  0.992 -0.000 -0.000
      -0.043  0.023 -0.000  0.897  0.009
       0.004  0.002 -0.000  0.009  0.987
     SPIN  2
     eigenvalues:
       0.180  0.219  0.991  0.992  0.994
     eigenvectors (columns):
      -0.281 -0.399  0.870  0.070  0.015
      -0.853  0.520 -0.038  0.021 -0.003
       0.025  0.029 -0.026  0.386  0.922
      -0.438 -0.755 -0.487 -0.008  0.025
       0.026 -0.000 -0.059  0.920 -0.387
     occupation matrix ns (before diag.):
       0.805 -0.034  0.015 -0.332  0.006
      -0.034  0.192  0.006 -0.000  0.018
       0.015  0.006  0.993  0.026 -0.001
      -0.332 -0.000  0.026  0.395  0.009
       0.006  0.018 -0.001  0.009  0.992
     ------------------------ ATOM   14 ------------------------
     Tr[ns( 14)] (up, down, total) =   4.15940  0.83132  4.99073
     Atomic magnetic moment for atom  14 =   3.32808
     SPIN  1
     eigenvalues:
       0.584  0.612  0.984  0.989  0.991
     eigenvectors (columns):
       0.446  0.167  0.094  0.858  0.167
       0.350 -0.936 -0.020  0.006 -0.021
       0.023 -0.013 -0.079 -0.192  0.978
       0.822  0.309 -0.104 -0.453 -0.113
       0.053 -0.004  0.987 -0.145  0.050
     occupation matrix ns (before diag.):
       0.898 -0.004 -0.003 -0.168 -0.010
      -0.004  0.609 -0.008 -0.007 -0.009
      -0.003 -0.008  0.991 -0.007 -0.000
      -0.168 -0.007 -0.007  0.679 -0.017
      -0.010 -0.009 -0.000 -0.017  0.983
     SPIN  2
     eigenvalues:
       0.063  0.108  0.117  0.266  0.277
     eigenvectors (columns):
      -0.880  0.003  0.011  0.435  0.187
      -0.013 -0.013  0.012 -0.418  0.908
      -0.002 -0.171 -0.985  0.014  0.017
       0.474 -0.033  0.022  0.797  0.373
       0.018  0.985 -0.171  0.022  0.027
     occupation matrix ns (before diag.):
       0.109 -0.001  0.001  0.085  0.003
      -0.001  0.275  0.002  0.005  0.003
       0.001  0.002  0.117  0.003  0.002
       0.085  0.005  0.003  0.222  0.004
       0.003  0.003  0.002  0.004  0.108
     ------------------------ ATOM   15 ------------------------
     Tr[ns( 15)] (up, down, total) =   3.13139  0.87881  4.01020
     Atomic magnetic moment for atom  15 =   2.25259
     SPIN  1
     eigenvalues:
       0.407  0.439  0.517  0.833  0.935
     eigenvectors (columns):
       0.289 -0.380 -0.017 -0.005 -0.878
      -0.832 -0.553 -0.009 -0.010 -0.035
      -0.040  0.070 -0.946  0.314 -0.026
       0.471 -0.738 -0.086  0.006  0.476
      -0.003  0.027 -0.313 -0.949 -0.001
     occupation matrix ns (before diag.):
       0.819  0.023  0.013 -0.212  0.003
       0.023  0.418 -0.001  0.005  0.004
       0.013 -0.001  0.548  0.001 -0.094
      -0.212  0.005  0.001  0.545 -0.000
       0.003  0.004 -0.094 -0.000  0.801
     SPIN  2
     eigenvalues:
       0.065  0.113  0.150  0.254  0.298
     eigenvectors (columns):
       0.857  0.012  0.003  0.214 -0.469
       0.016  0.035 -0.026 -0.920 -0.389
       0.009 -0.233  0.972 -0.036  0.002
      -0.515  0.010  0.021  0.326 -0.793
      -0.003  0.972  0.233  0.018  0.028
     occupation matrix ns (before diag.):
       0.124  0.005 -0.002  0.100 -0.002
       0.005  0.260  0.004  0.015 -0.005
      -0.002  0.004  0.148 -0.001  0.008
       0.100  0.015 -0.001  0.231 -0.003
      -0.002 -0.005  0.008 -0.003  0.115
     ------------------------ ATOM   16 ------------------------
     Tr[ns( 16)] (up, down, total) =   4.16303  0.82504  4.98807
     Atomic magnetic moment for atom  16 =   3.33798
     SPIN  1
     eigenvalues:
       0.589  0.611  0.985  0.987  0.990
     eigenvectors (columns):
       0.367 -0.305 -0.218  0.791  0.314
      -0.637 -0.771 -0.012 -0.013  0.022
       0.038 -0.003  0.217 -0.325  0.920
       0.676 -0.560  0.155 -0.403 -0.209
      -0.043  0.012  0.939  0.325 -0.105
     occupation matrix ns (before diag.):
       0.899  0.005 -0.005 -0.163  0.008
       0.005  0.603  0.009  0.009 -0.007
      -0.005  0.009  0.989 -0.012 -0.000
      -0.163  0.009 -0.012  0.688  0.014
       0.008 -0.007 -0.000  0.014  0.984
     SPIN  2
     eigenvalues:
       0.064  0.106  0.113  0.263  0.279
     eigenvectors (columns):
      -0.880 -0.006  0.026 -0.454  0.133
       0.015 -0.013 -0.014 -0.308 -0.951
      -0.012  0.198 -0.980 -0.029  0.021
       0.473  0.031  0.031 -0.835  0.277
      -0.018  0.980  0.197  0.026 -0.025
     occupation matrix ns (before diag.):
       0.109  0.001  0.002  0.084 -0.003
       0.001  0.277 -0.002 -0.006  0.003
       0.002 -0.002  0.113  0.005 -0.002
       0.084 -0.006  0.005  0.219 -0.004
      -0.003  0.003 -0.002 -0.004  0.107
     ------------------------ ATOM   17 ------------------------
     Tr[ns( 17)] (up, down, total) =   2.72293  1.32073  4.04365
     Atomic magnetic moment for atom  17 =   1.40220
     SPIN  1
     eigenvalues:
       0.430  0.438  0.455  0.460  0.940
     eigenvectors (columns):
      -0.549  0.440 -0.296  0.645  0.036
      -0.497  0.506  0.203 -0.672 -0.062
      -0.153 -0.069  0.923  0.343 -0.037
      -0.020  0.009  0.057 -0.053  0.997
       0.654  0.738  0.123  0.109  0.005
     occupation matrix ns (before diag.):
       0.447 -0.014 -0.001  0.017  0.004
      -0.014  0.448 -0.001 -0.030  0.001
      -0.001 -0.001  0.456 -0.018  0.003
       0.017 -0.030 -0.018  0.937  0.003
       0.004  0.001  0.003  0.003  0.435
     SPIN  2
     eigenvalues:
       0.111  0.245  0.268  0.339  0.358
     eigenvectors (columns):
       0.045 -0.027  0.038  0.998  0.026
      -0.033 -0.919  0.385 -0.040  0.067
      -0.046  0.386  0.921 -0.022 -0.032
       0.997 -0.012  0.054 -0.047 -0.004
       0.004  0.074  0.003 -0.025  0.997
     occupation matrix ns (before diag.):
       0.338 -0.003 -0.001 -0.010  0.001
      -0.003  0.249  0.008  0.005  0.008
      -0.001  0.008  0.264  0.007 -0.003
      -0.010  0.005  0.007  0.112 -0.001
       0.001  0.008 -0.003 -0.001  0.357
     ------------------------ ATOM   18 ------------------------
     Tr[ns( 18)] (up, down, total) =   4.90860  3.24868  8.15728
     Atomic magnetic moment for atom  18 =   1.65991
     SPIN  1
     eigenvalues:
       0.956  0.976  0.988  0.993  0.995
     eigenvectors (columns):
       0.007  0.958 -0.083  0.256 -0.100
       0.008  0.108  0.990 -0.085  0.001
       0.139 -0.131  0.023  0.110 -0.975
       0.036 -0.231  0.106  0.955  0.146
       0.990  0.019 -0.015 -0.051  0.132
     occupation matrix ns (before diag.):
       0.978 -0.001  0.002  0.004 -0.001
      -0.001  0.988  0.000 -0.000 -0.000
       0.002  0.000  0.994 -0.001 -0.005
       0.004 -0.000 -0.001  0.992 -0.001
      -0.001 -0.000 -0.005 -0.001  0.957
     SPIN  2
     eigenvalues:
       0.100  0.176  0.988  0.991  0.993
     eigenvectors (columns):
       0.997 -0.008 -0.031 -0.058  0.050
       0.043  0.047 -0.338  0.938  0.040
      -0.060  0.010 -0.173 -0.102  0.978
      -0.038 -0.027 -0.925 -0.321 -0.199
       0.005  0.998 -0.007 -0.052 -0.016
     occupation matrix ns (before diag.):
       0.106 -0.038  0.053  0.033  0.002
      -0.038  0.987  0.002  0.002 -0.038
       0.053  0.002  0.990 -0.003 -0.008
       0.033  0.002 -0.003  0.987  0.022
       0.002 -0.038 -0.008  0.022  0.179
     ------------------------ ATOM   19 ------------------------
     Tr[ns( 19)] (up, down, total) =   4.90045  3.25583  8.15628
     Atomic magnetic moment for atom  19 =   1.64461
     SPIN  1
     eigenvalues:
       0.937  0.983  0.993  0.993  0.995
     eigenvectors (columns):
      -0.035  0.914 -0.228 -0.326 -0.066
      -0.011  0.250  0.476  0.205  0.817
      -0.023 -0.004 -0.803  0.485  0.347
      -0.023 -0.317 -0.276 -0.785  0.454
       0.999  0.028 -0.027 -0.016  0.025
     occupation matrix ns (before diag.):
       0.985 -0.002 -0.000  0.003  0.002
      -0.002  0.993  0.001  0.001  0.001
      -0.000  0.001  0.993 -0.000  0.001
       0.003  0.001 -0.000  0.993  0.001
       0.002  0.001  0.001  0.001  0.937
     SPIN  2
     eigenvalues:
       0.090  0.190  0.989  0.993  0.994
     eigenvectors (columns):
      -0.994 -0.047  0.077  0.011  0.064
      -0.007 -0.006 -0.252  0.968  0.013
       0.038 -0.011 -0.289 -0.088  0.952
       0.094 -0.028  0.920  0.236  0.297
      -0.043  0.998  0.025  0.012  0.022
     occupation matrix ns (before diag.):
       0.099 -0.007  0.034  0.083 -0.002
      -0.007  0.993 -0.000  0.001  0.004
       0.034 -0.000  0.992 -0.002  0.010
       0.083  0.001 -0.002  0.981  0.026
      -0.002  0.004  0.010  0.026  0.190
     ------------------------ ATOM   20 ------------------------
     Tr[ns( 20)] (up, down, total) =   4.26629  0.75873  5.02502
     Atomic magnetic moment for atom  20 =   3.50756
     SPIN  1
     eigenvalues:
       0.586  0.733  0.972  0.985  0.990
     eigenvectors (columns):
      -0.082  0.992  0.072 -0.025 -0.053
       0.031 -0.064  0.869  0.417 -0.257
      -0.069 -0.051  0.468 -0.857  0.198
       0.012 -0.046 -0.142 -0.294 -0.944
       0.994  0.080  0.013 -0.071  0.028
     occupation matrix ns (before diag.):
       0.734  0.016  0.010  0.012  0.012
       0.016  0.974 -0.006  0.002 -0.011
       0.010 -0.006  0.980 -0.000  0.028
       0.012  0.002 -0.000  0.989 -0.004
       0.012 -0.011  0.028 -0.004  0.589
     SPIN  2
     eigenvalues:
       0.072  0.106  0.119  0.184  0.277
     eigenvectors (columns):
      -0.019 -0.063 -0.104 -0.992 -0.026
       0.072 -0.850 -0.510  0.105  0.038
      -0.003  0.517 -0.853  0.059 -0.051
      -0.997 -0.062 -0.032  0.026 -0.003
      -0.007  0.057 -0.027 -0.026  0.998
     occupation matrix ns (before diag.):
       0.183 -0.008 -0.003 -0.003 -0.002
      -0.008  0.111  0.006  0.003  0.006
      -0.003  0.006  0.117  0.000 -0.008
      -0.003  0.003  0.000  0.072 -0.001
      -0.002  0.006 -0.008 -0.001  0.276
     ------------------------ ATOM   21 ------------------------
     Tr[ns( 21)] (up, down, total) =   2.84921  1.15734  4.00655
     Atomic magnetic moment for atom  21 =   1.69187
     SPIN  1
     eigenvalues:
       0.423  0.468  0.522  0.587  0.849
     eigenvectors (columns):
       0.499  0.263 -0.213 -0.758  0.250
       0.575 -0.812 -0.002  0.100  0.010
      -0.048  0.020 -0.754  0.366  0.543
       0.647  0.520  0.104  0.521 -0.169
       0.006  0.025  0.612  0.099  0.784
     occupation matrix ns (before diag.):
       0.551 -0.021  0.028 -0.079  0.058
      -0.021  0.455  0.008 -0.011  0.004
       0.028  0.008  0.627 -0.015  0.142
      -0.079 -0.011 -0.015  0.493 -0.041
       0.058  0.004  0.142 -0.041  0.724
     SPIN  2
     eigenvalues:
       0.134  0.141  0.215  0.304  0.363
     eigenvectors (columns):
      -0.531 -0.652  0.045  0.506 -0.187
       0.008  0.027 -0.170  0.393  0.903
      -0.453  0.422  0.775  0.045  0.117
       0.315  0.435 -0.043  0.763 -0.356
      -0.643  0.454 -0.606 -0.070 -0.091
     occupation matrix ns (before diag.):
       0.189 -0.006 -0.000  0.079 -0.006
      -0.006  0.350  0.017 -0.022 -0.015
      -0.000  0.017  0.188 -0.005 -0.040
       0.079 -0.022 -0.005  0.264  0.002
      -0.006 -0.015 -0.040  0.002  0.168
     ------------------------ ATOM   22 ------------------------
     Tr[ns( 22)] (up, down, total) =   2.23213  1.85311  4.08524
     Atomic magnetic moment for atom  22 =   0.37902
     SPIN  1
     eigenvalues:
       0.426  0.431  0.448  0.454  0.472
     eigenvectors (columns):
      -0.296 -0.871  0.002 -0.391 -0.038
      -0.114  0.400  0.105 -0.755 -0.496
       0.915 -0.245 -0.153 -0.123 -0.254
       0.149 -0.083  0.982  0.079 -0.014
       0.201  0.123  0.032 -0.506  0.829
     occupation matrix ns (before diag.):
       0.435  0.007  0.003 -0.000  0.004
       0.007  0.455  0.008  0.001 -0.008
       0.003  0.008  0.430 -0.003 -0.008
      -0.000  0.001 -0.003  0.448 -0.001
       0.004 -0.008 -0.008 -0.001  0.465
     SPIN  2
     eigenvalues:
       0.289  0.350  0.384  0.407  0.424
     eigenvectors (columns):
      -0.104 -0.105  0.884  0.067 -0.439
       0.063 -0.013 -0.426 -0.146 -0.891
      -0.577  0.806 -0.013  0.114 -0.065
       0.084  0.206  0.151 -0.959  0.088
       0.803  0.545  0.122  0.202 -0.043
     occupation matrix ns (before diag.):
       0.390  0.016 -0.002 -0.002  0.011
       0.016  0.416  0.006 -0.000 -0.004
      -0.002  0.006  0.331 -0.004  0.030
      -0.002 -0.000 -0.004  0.403 -0.015
       0.011 -0.004  0.030 -0.015  0.313
     ------------------------ ATOM   23 ------------------------
     Tr[ns( 23)] (up, down, total) =   4.84645  3.30869  8.15515
     Atomic magnetic moment for atom  23 =   1.53776
     SPIN  1
     eigenvalues:
       0.924  0.945  0.991  0.992  0.994
     eigenvectors (columns):
      -0.380 -0.165  0.306 -0.202 -0.833
       0.517 -0.839  0.079  0.128 -0.072
       0.037  0.036 -0.832  0.361 -0.417
      -0.766 -0.480 -0.131  0.221  0.343
       0.015  0.192  0.436  0.874 -0.096
     occupation matrix ns (before diag.):
       0.982  0.007  0.002 -0.024  0.002
       0.007  0.940  0.000  0.008  0.007
       0.002  0.000  0.992  0.002  0.000
      -0.024  0.008  0.002  0.941  0.005
       0.002  0.007  0.000  0.005  0.990
     SPIN  2
     eigenvalues:
       0.150  0.180  0.992  0.993  0.994
     eigenvectors (columns):
      -0.414  0.199 -0.620  0.515  0.374
      -0.339 -0.939 -0.038  0.007  0.051
       0.013  0.030  0.297 -0.302  0.906
      -0.840  0.276  0.393 -0.175 -0.184
       0.093 -0.049  0.610  0.783  0.061
     occupation matrix ns (before diag.):
       0.816  0.034  0.000 -0.338  0.041
       0.034  0.180  0.027 -0.030 -0.011
       0.000  0.027  0.993  0.002  0.000
      -0.338 -0.030  0.002  0.337  0.077
       0.041 -0.011  0.000  0.077  0.984

     Number of occupied Hubbard levels =  133.3668

 ------ SPIN UP ------------


          k = 0.0000 0.0000 0.0000 (149523 PWs)   bands (ev):

  -104.9731-104.8915-104.8666-104.8078-104.7994-104.7876-104.7254-104.6917
   -82.5796 -82.5003 -82.4938 -82.4933 -82.4086 -82.3861 -82.3777 -82.3037
   -74.1351 -74.1239 -74.0040 -74.0005 -73.9560 -73.8949 -73.7469 -65.4674
   -65.4102 -65.3308 -65.3118 -65.2770 -65.2642 -65.2548 -65.2336 -65.2161
   -65.1858 -65.1823 -65.1768 -65.1668 -65.1650 -65.1537 -65.1339 -65.1004
   -65.0970 -65.0514 -65.0184 -65.0101 -65.0033 -64.9412 -64.9138 -51.3006
   -51.2617 -51.2406 -51.2033 -51.1907 -51.1799 -51.1586 -51.1530 -51.1504
   -51.1364 -51.1285 -51.1166 -51.1107 -51.1020 -51.0984 -51.0729 -51.0595
   -51.0536 -51.0458 -51.0454 -51.0414 -51.0235 -50.9772 -50.9401 -45.5934
   -45.5219 -45.4965 -45.4725 -45.4303 -45.4040 -45.3840 -45.3526 -45.3377
   -45.3160 -45.2998 -45.2853 -45.2564 -45.2484 -45.2168 -45.2016 -45.1274
   -45.1080 -45.1031 -45.0266 -44.9237 -26.2887 -19.1607 -19.0051 -18.8196
   -18.7755 -18.6842 -18.5879 -18.4589 -18.2588 -18.1890 -18.1612 -18.0773
   -17.9684 -17.9557 -17.8331 -17.8212 -17.7903 -17.7788 -17.7286 -17.7167
   -17.6847 -17.6673 -17.6442 -17.6148 -17.6076 -17.5893 -17.5643 -17.5528
   -17.5430 -17.5040 -17.4892 -17.4332 -17.4194 -17.3809 -17.3595 -17.3474
   -17.3220 -17.3097 -17.2870 -17.2543 -17.2141 -17.1719 -17.1041 -17.0324
   -16.9189 -16.7545 -16.6982 -16.5498 -16.5021 -14.0193  -8.0483  -7.9873
    -7.7727  -7.7199  -7.5502  -7.4960  -7.4573  -7.4438  -7.4096  -7.2968
    -7.2714  -7.1625  -7.1165  -7.0828  -7.0434  -7.0164  -6.9859  -6.9097
    -6.8554  -6.8427  -6.8193  -6.7795  -6.7726  -6.7452  -6.7117  -6.6779
    -6.6700  -6.6019  -6.5785  -6.5752  -6.5384  -6.4909  -6.4546  -6.4056
    -6.3772  -6.3651  -6.3280  -6.2958  -6.2873  -6.2517  -6.2362  -6.1826
    -6.1555  -6.1420  -6.1191  -6.0780  -6.0501  -6.0303  -6.0120  -5.9761
    -5.9393  -5.9130  -5.8546  -5.8301  -5.7963  -5.7866  -5.7807  -5.7188
    -5.7047  -5.6662  -5.6500  -5.6070  -5.5953  -5.5756  -5.5267  -5.5072
    -5.4785  -5.4633  -5.4377  -5.4213  -5.4040  -5.3979  -5.3745  -5.3507
    -5.3287  -5.2814  -5.2557  -5.2439  -5.2229  -5.2190  -5.1455  -5.1101
    -5.0826  -5.0269  -5.0130  -4.9931  -4.9300  -4.9021  -4.8771  -4.8683
    -4.8155  -4.7928  -4.7667  -4.7260  -4.6595  -4.6508  -4.6102  -4.5914
    -4.5637  -4.5502  -4.4959  -4.4877  -4.4448  -4.4315  -4.4097  -4.3568
    -4.3147  -4.3025  -4.2714  -4.2532  -4.2196  -4.1615  -4.1475  -4.1213
    -4.0854  -4.0705  -4.0544  -3.9799  -3.9685  -3.8982  -3.8611  -3.8335
    -3.8210  -3.7643  -3.7390  -3.7062  -3.6773  -3.6549  -3.6267  -3.6047
    -3.5380  -3.5143  -3.4713  -3.4482  -3.4161  -3.3540  -3.3131  -3.2942
    -3.2854  -3.2513  -3.1909  -3.1870  -3.1615  -3.0430  -2.9764  -2.9393
    -2.9120  -2.8831  -2.8347  -2.8260  -2.7655  -2.7558  -2.7143  -2.6862
    -2.6419  -2.6275  -2.5686  -2.5006  -2.4500  -2.3882  -2.3379  -2.3117
    -2.2446  -2.1907  -2.1241  -2.0953  -2.0464  -2.0008  -1.9071  -1.8565
    -1.8401  -1.8242  -1.7267  -1.6913  -1.6551  -1.6083  -1.6041  -1.5582
    -1.5034  -1.4901  -1.4726  -1.4495  -1.4204  -1.4184  -1.3908  -1.3442
    -1.3255  -1.3077  -1.2794  -1.2547  -1.2324  -1.1933  -1.1601  -1.1273
    -1.0872  -1.0680  -1.0454  -0.9932  -0.9707  -0.8923  -0.8569  -0.8271
    -0.7583  -0.7235  -0.6899  -0.6860  -0.6341  -0.5924  -0.5676  -0.5593
    -0.4977  -0.4663  -0.4459  -0.3959  -0.3537  -0.3073  -0.3039  -0.2826
    -0.2512  -0.2107  -0.1234  -0.0891   0.0224   0.0473   0.1082   0.2030
     0.2388   0.2703   0.3164   0.4122   0.4159   0.5342   0.5729   0.6154
     0.6681   0.6855   0.7284   0.7899   0.8335   0.8720   0.9538   1.0134
     1.0415   1.1486   1.2924   1.4558   1.5579   1.6457   1.8009   1.9225
     1.9333   1.9580   2.1242   2.1596   2.2070   2.2467   2.2927   2.7158
     3.0069   3.0267   3.1685   3.2029

          k = 0.0000-0.2340 0.0000 (149572 PWs)   bands (ev):

  -104.9731-104.8915-104.8666-104.8078-104.7994-104.7876-104.7254-104.6917
   -82.5796 -82.5003 -82.4938 -82.4933 -82.4086 -82.3861 -82.3777 -82.3037
   -74.1351 -74.1239 -74.0040 -74.0005 -73.9560 -73.8949 -73.7469 -65.4674
   -65.4102 -65.3308 -65.3118 -65.2770 -65.2642 -65.2548 -65.2336 -65.2161
   -65.1858 -65.1823 -65.1768 -65.1668 -65.1650 -65.1537 -65.1339 -65.1004
   -65.0970 -65.0514 -65.0184 -65.0101 -65.0033 -64.9412 -64.9138 -51.3006
   -51.2617 -51.2406 -51.2033 -51.1907 -51.1799 -51.1586 -51.1530 -51.1504
   -51.1364 -51.1285 -51.1166 -51.1107 -51.1020 -51.0984 -51.0729 -51.0595
   -51.0536 -51.0458 -51.0454 -51.0414 -51.0235 -50.9772 -50.9401 -45.5934
   -45.5219 -45.4965 -45.4725 -45.4303 -45.4040 -45.3840 -45.3526 -45.3377
   -45.3160 -45.2998 -45.2853 -45.2564 -45.2484 -45.2168 -45.2016 -45.1274
   -45.1080 -45.1031 -45.0266 -44.9237 -26.2887 -19.0987 -18.9940 -18.9619
   -18.8036 -18.6665 -18.5126 -18.4284 -18.3058 -18.2443 -18.0804 -18.0058
   -17.9658 -17.9188 -17.8428 -17.8318 -17.8040 -17.7831 -17.7759 -17.7175
   -17.7050 -17.6872 -17.6404 -17.6347 -17.6060 -17.5817 -17.5780 -17.5479
   -17.5401 -17.5050 -17.5025 -17.4339 -17.4038 -17.3888 -17.3540 -17.3392
   -17.3169 -17.3081 -17.2815 -17.2536 -17.2151 -17.1682 -17.1007 -17.0353
   -16.9187 -16.7545 -16.6982 -16.5498 -16.5020 -14.0193  -7.8965  -7.8387
    -7.7619  -7.6589  -7.6447  -7.6048  -7.5675  -7.4923  -7.4184  -7.3201
    -7.2338  -7.1739  -7.1209  -7.0887  -7.0778  -7.0437  -7.0140  -6.9775
    -6.9382  -6.8863  -6.8494  -6.8323  -6.7792  -6.7417  -6.7238  -6.6969
    -6.6642  -6.6200  -6.5883  -6.5385  -6.5137  -6.4863  -6.4389  -6.4271
    -6.3789  -6.3273  -6.3047  -6.2801  -6.2559  -6.2320  -6.2092  -6.1779
    -6.1278  -6.0975  -6.0868  -6.0452  -6.0355  -5.9777  -5.9641  -5.9524
    -5.9057  -5.8800  -5.8223  -5.7977  -5.7914  -5.7620  -5.7590  -5.7411
    -5.7176  -5.6665  -5.6551  -5.6206  -5.6058  -5.5824  -5.5701  -5.5114
    -5.4994  -5.4721  -5.4508  -5.4415  -5.3967  -5.3696  -5.3611  -5.3466
    -5.3319  -5.3060  -5.2673  -5.2377  -5.2082  -5.1905  -5.1299  -5.1192
    -5.1055  -5.0643  -5.0030  -4.9943  -4.9572  -4.8804  -4.8522  -4.8203
    -4.7806  -4.7672  -4.7611  -4.7204  -4.6910  -4.6595  -4.6401  -4.6183
    -4.5820  -4.5683  -4.4982  -4.4770  -4.4471  -4.4358  -4.4072  -4.3895
    -4.3439  -4.3128  -4.2803  -4.2631  -4.2327  -4.1993  -4.1712  -4.1115
    -4.1061  -4.0596  -4.0071  -3.9905  -3.9811  -3.9415  -3.9038  -3.8725
    -3.8356  -3.7946  -3.7781  -3.7205  -3.6856  -3.6683  -3.6228  -3.5930
    -3.5232  -3.5034  -3.4286  -3.3928  -3.3610  -3.3499  -3.3011  -3.2708
    -3.2284  -3.2198  -3.1501  -3.1322  -3.1161  -3.0522  -3.0065  -2.9839
    -2.9254  -2.8992  -2.8748  -2.8481  -2.7612  -2.7549  -2.7025  -2.6827
    -2.6256  -2.6074  -2.5270  -2.4681  -2.4055  -2.3610  -2.3566  -2.2734
    -2.2590  -2.2352  -2.1275  -2.0761  -2.0422  -1.9677  -1.9149  -1.9012
    -1.8362  -1.8225  -1.7896  -1.7686  -1.7081  -1.6664  -1.6236  -1.5797
    -1.5594  -1.4985  -1.4775  -1.4377  -1.3936  -1.3898  -1.3433  -1.3315
    -1.3057  -1.3006  -1.2782  -1.2379  -1.2229  -1.1821  -1.1378  -1.1014
    -1.0665  -1.0314  -1.0078  -0.9717  -0.9326  -0.9163  -0.8569  -0.7834
    -0.7733  -0.7538  -0.6904  -0.6607  -0.6454  -0.6106  -0.5866  -0.5305
    -0.5290  -0.4917  -0.4686  -0.4204  -0.3841  -0.3365  -0.2799  -0.2669
    -0.2368  -0.1929  -0.1305  -0.0940  -0.0216   0.0173   0.0386   0.1358
     0.1803   0.2340   0.2512   0.3203   0.4028   0.5326   0.5719   0.5989
     0.6729   0.7268   0.7769   0.7906   0.8650   0.9159   0.9717   1.0561
     1.1508   1.2849   1.3032   1.4098   1.5647   1.6601   1.8516   1.8909
     1.9023   1.9582   2.1095   2.1573   2.1994   2.2398   2.2988   2.7066
     3.0097   3.0290   3.1761   3.2148

          k = 0.2500-0.0000 0.0000 (149546 PWs)   bands (ev):

  -104.9731-104.8914-104.8665-104.8078-104.7994-104.7875-104.7254-104.6917
   -82.5795 -82.4993 -82.4946 -82.4932 -82.4086 -82.3853 -82.3783 -82.3037
   -74.1351 -74.1239 -74.0040 -74.0004 -73.9560 -73.8948 -73.7469 -65.4674
   -65.4102 -65.3308 -65.3118 -65.2770 -65.2642 -65.2523 -65.2362 -65.2161
   -65.1858 -65.1823 -65.1768 -65.1668 -65.1650 -65.1537 -65.1339 -65.1004
   -65.0970 -65.0514 -65.0183 -65.0102 -65.0033 -64.9412 -64.9138 -51.2929
   -51.2507 -51.2398 -51.2033 -51.1985 -51.1912 -51.1595 -51.1490 -51.1409
   -51.1377 -51.1283 -51.1169 -51.1106 -51.1019 -51.0984 -51.0834 -51.0580
   -51.0525 -51.0471 -51.0459 -51.0445 -51.0235 -50.9772 -50.9402 -45.5934
   -45.5219 -45.4965 -45.4725 -45.4303 -45.4040 -45.3840 -45.3526 -45.3377
   -45.3161 -45.2998 -45.2854 -45.2565 -45.2485 -45.2168 -45.2016 -45.1274
   -45.1084 -45.1033 -45.0267 -44.9237 -26.2886 -19.0427 -18.9386 -18.7288
   -18.6671 -18.5857 -18.4908 -18.3919 -18.2221 -18.2003 -18.1411 -18.1016
   -18.0646 -18.0266 -17.9804 -17.9412 -17.8833 -17.8167 -17.7887 -17.7583
   -17.7257 -17.7112 -17.6870 -17.6309 -17.5856 -17.5592 -17.5453 -17.5358
   -17.5253 -17.5173 -17.4804 -17.4426 -17.4258 -17.3757 -17.3599 -17.3416
   -17.3247 -17.3030 -17.2812 -17.2509 -17.2241 -17.1793 -17.1150 -17.0471
   -16.9401 -16.7709 -16.7212 -16.5502 -16.5136 -14.0213  -7.8604  -7.8067
    -7.6143  -7.5622  -7.4307  -7.3869  -7.3076  -7.2946  -7.2584  -7.1556
    -7.0712  -7.0434  -7.0237  -7.0035  -6.9827  -6.9390  -6.9125  -6.8871
    -6.8711  -6.8424  -6.8165  -6.7813  -6.7572  -6.7206  -6.6976  -6.6840
    -6.6438  -6.6134  -6.5995  -6.5729  -6.5554  -6.4967  -6.4878  -6.4590
    -6.3862  -6.3497  -6.3247  -6.2920  -6.2700  -6.2481  -6.2378  -6.2128
    -6.1886  -6.1660  -6.1448  -6.1242  -6.1008  -6.0878  -6.0537  -6.0255
    -5.9936  -5.9672  -5.9509  -5.8811  -5.8406  -5.7956  -5.7667  -5.7328
    -5.7090  -5.6769  -5.6535  -5.6403  -5.6188  -5.5896  -5.5718  -5.5509
    -5.5394  -5.5178  -5.4977  -5.4739  -5.4578  -5.4410  -5.4138  -5.3978
    -5.3585  -5.3395  -5.3150  -5.2961  -5.2665  -5.2422  -5.2295  -5.1917
    -5.1571  -5.1311  -5.1193  -5.0936  -5.0625  -5.0365  -4.9869  -4.9633
    -4.9444  -4.9039  -4.8822  -4.7970  -4.7725  -4.7192  -4.7083  -4.6809
    -4.6612  -4.6275  -4.5853  -4.5307  -4.5206  -4.4595  -4.4508  -4.4070
    -4.3716  -4.3400  -4.3046  -4.2923  -4.2391  -4.1829  -4.1554  -4.1217
    -4.1078  -4.0474  -4.0185  -3.9755  -3.9659  -3.9294  -3.9133  -3.8509
    -3.8272  -3.7914  -3.7367  -3.7139  -3.6720  -3.6393  -3.5962  -3.5574
    -3.5202  -3.4888  -3.4426  -3.4050  -3.3431  -3.3142  -3.2454  -3.2138
    -3.1891  -3.1267  -3.0972  -3.0668  -3.0167  -2.9881  -2.9363  -2.8784
    -2.8559  -2.8227  -2.7593  -2.7257  -2.6957  -2.6803  -2.6298  -2.5924
    -2.5585  -2.5064  -2.4515  -2.3838  -2.3502  -2.3025  -2.2599  -2.2386
    -2.1774  -2.1474  -2.1071  -2.0676  -2.0429  -2.0039  -1.9396  -1.8833
    -1.8195  -1.7856  -1.7331  -1.7009  -1.6703  -1.6205  -1.5600  -1.5361
    -1.5138  -1.4774  -1.4547  -1.4369  -1.3891  -1.3807  -1.3318  -1.3080
    -1.2876  -1.2382  -1.2231  -1.1945  -1.1606  -1.1359  -1.0995  -1.0855
    -1.0304  -1.0013  -0.9715  -0.9501  -0.9432  -0.9092  -0.8839  -0.8560
    -0.7959  -0.7810  -0.7517  -0.7132  -0.6783  -0.6317  -0.6005  -0.5702
    -0.5474  -0.5009  -0.4707  -0.4615  -0.4333  -0.3703  -0.3645  -0.3301
    -0.2888  -0.2171  -0.0949  -0.0644  -0.0338  -0.0163   0.0497   0.1012
     0.2159   0.2441   0.3223   0.3846   0.4485   0.5209   0.5478   0.5876
     0.6186   0.6916   0.7324   0.7819   0.8645   0.9026   0.9458   0.9903
     1.0300   1.0705   1.1646   1.4448   1.5104   1.5615   1.6063   1.7341
     1.7903   1.8094   1.9285   2.0000   2.0599   2.2133   2.2824   2.7260
     2.9777   3.0120   3.1223   3.1587

          k = 0.2500-0.2340 0.0000 (149458 PWs)   bands (ev):

  -104.9731-104.8914-104.8665-104.8078-104.7994-104.7875-104.7254-104.6917
   -82.5795 -82.4993 -82.4946 -82.4932 -82.4086 -82.3853 -82.3783 -82.3037
   -74.1351 -74.1239 -74.0040 -74.0004 -73.9560 -73.8948 -73.7469 -65.4674
   -65.4102 -65.3308 -65.3118 -65.2770 -65.2642 -65.2523 -65.2362 -65.2161
   -65.1858 -65.1823 -65.1768 -65.1668 -65.1650 -65.1537 -65.1339 -65.1004
   -65.0970 -65.0514 -65.0183 -65.0102 -65.0033 -64.9412 -64.9138 -51.2929
   -51.2507 -51.2398 -51.2033 -51.1985 -51.1912 -51.1595 -51.1490 -51.1409
   -51.1377 -51.1283 -51.1169 -51.1106 -51.1019 -51.0984 -51.0834 -51.0580
   -51.0525 -51.0471 -51.0459 -51.0445 -51.0235 -50.9772 -50.9402 -45.5934
   -45.5219 -45.4965 -45.4725 -45.4303 -45.4040 -45.3840 -45.3526 -45.3377
   -45.3161 -45.2998 -45.2854 -45.2565 -45.2485 -45.2168 -45.2016 -45.1274
   -45.1084 -45.1033 -45.0267 -44.9237 -26.2886 -19.0014 -18.9076 -18.8526
   -18.7004 -18.5774 -18.4184 -18.3647 -18.2543 -18.2077 -18.1691 -18.0703
   -18.0606 -18.0228 -17.9350 -17.9057 -17.8862 -17.8291 -17.7813 -17.7601
   -17.7361 -17.7230 -17.6929 -17.6363 -17.5956 -17.5861 -17.5555 -17.5453
   -17.5195 -17.5134 -17.4862 -17.4404 -17.4108 -17.3848 -17.3567 -17.3446
   -17.3307 -17.3063 -17.2788 -17.2402 -17.2246 -17.1755 -17.1102 -17.0482
   -16.9401 -16.7709 -16.7211 -16.5502 -16.5135 -14.0213  -7.7036  -7.6621
    -7.5995  -7.4877  -7.4700  -7.4647  -7.4023  -7.3944  -7.3430  -7.1972
    -7.1000  -7.0652  -7.0431  -7.0125  -6.9902  -6.9479  -6.9244  -6.8754
    -6.8620  -6.8490  -6.8251  -6.8108  -6.7771  -6.7218  -6.7026  -6.6737
    -6.6308  -6.6188  -6.5913  -6.5612  -6.5037  -6.4823  -6.4627  -6.4302
    -6.4041  -6.3971  -6.3459  -6.3104  -6.2699  -6.2509  -6.2390  -6.2201
    -6.2047  -6.1947  -6.1522  -6.1312  -6.1068  -6.0843  -6.0648  -6.0277
    -5.9978  -5.9499  -5.9165  -5.8674  -5.7978  -5.7826  -5.7548  -5.7281
    -5.7013  -5.6771  -5.6638  -5.6407  -5.6230  -5.5888  -5.5829  -5.5416
    -5.5308  -5.5245  -5.4918  -5.4617  -5.4332  -5.4142  -5.3877  -5.3625
    -5.3405  -5.3219  -5.3007  -5.2753  -5.2532  -5.2343  -5.1985  -5.1885
    -5.1640  -5.1400  -5.0854  -5.0606  -5.0388  -5.0181  -4.9842  -4.9494
    -4.9234  -4.9039  -4.8502  -4.8385  -4.7748  -4.7495  -4.7143  -4.7013
    -4.6899  -4.6447  -4.6183  -4.5978  -4.5720  -4.5444  -4.4907  -4.4385
    -4.3727  -4.3529  -4.3200  -4.2930  -4.2266  -4.2176  -4.1852  -4.1685
    -4.1296  -4.1209  -4.0434  -4.0105  -3.9728  -3.9478  -3.8565  -3.8325
    -3.7740  -3.7180  -3.6903  -3.6744  -3.6152  -3.5613  -3.5482  -3.4791
    -3.4361  -3.4075  -3.3792  -3.3463  -3.3150  -3.2909  -3.2303  -3.2107
    -3.1863  -3.1390  -3.0928  -3.0560  -3.0376  -2.9891  -2.9607  -2.9189
    -2.8815  -2.8471  -2.7859  -2.7541  -2.7195  -2.6453  -2.6256  -2.5812
    -2.5560  -2.5404  -2.4878  -2.4696  -2.4138  -2.3621  -2.2767  -2.2330
    -2.1745  -2.1568  -2.1201  -2.0527  -2.0286  -2.0071  -1.9467  -1.8941
    -1.8562  -1.7965  -1.7656  -1.7319  -1.6707  -1.5974  -1.5799  -1.5517
    -1.5210  -1.4892  -1.4568  -1.4336  -1.3952  -1.3676  -1.3550  -1.3079
    -1.2822  -1.2647  -1.2232  -1.1920  -1.1502  -1.1178  -1.0957  -1.0743
    -1.0614  -1.0098  -0.9912  -0.9459  -0.9105  -0.8767  -0.8683  -0.8304
    -0.7922  -0.7660  -0.7198  -0.6636  -0.6451  -0.6362  -0.5861  -0.5682
    -0.5571  -0.5024  -0.4814  -0.4642  -0.4439  -0.4169  -0.3618  -0.3082
    -0.2320  -0.2065  -0.1528  -0.0939  -0.0261   0.0387   0.0597   0.1147
     0.1695   0.2072   0.2315   0.3351   0.3970   0.5268   0.5468   0.5892
     0.6475   0.6757   0.7258   0.8002   0.8556   0.9045   0.9378   1.0040
     1.0842   1.1507   1.2588   1.4308   1.4905   1.5646   1.6011   1.7722
     1.7945   1.8153   1.8992   1.9999   2.0415   2.2129   2.2813   2.7225
     2.9831   3.0348   3.1171   3.1646

          k =-0.5000 0.0000 0.0000 (149560 PWs)   bands (ev):

  -104.9731-104.8914-104.8665-104.8078-104.7994-104.7874-104.7253-104.6916
   -82.5793 -82.4978 -82.4959 -82.4932 -82.4086 -82.3844 -82.3789 -82.3037
   -74.1351 -74.1238 -74.0040 -74.0004 -73.9560 -73.8947 -73.7469 -65.4674
   -65.4102 -65.3308 -65.3118 -65.2771 -65.2642 -65.2484 -65.2401 -65.2161
   -65.1857 -65.1823 -65.1768 -65.1668 -65.1650 -65.1538 -65.1339 -65.1004
   -65.0970 -65.0514 -65.0182 -65.0103 -65.0033 -64.9412 -64.9138 -51.2837
   -51.2388 -51.2306 -51.2117 -51.2084 -51.2032 -51.1603 -51.1473 -51.1395
   -51.1280 -51.1173 -51.1136 -51.1112 -51.1090 -51.1016 -51.0985 -51.0556
   -51.0506 -51.0497 -51.0479 -51.0460 -51.0235 -50.9772 -50.9402 -45.5934
   -45.5220 -45.4965 -45.4725 -45.4303 -45.4041 -45.3840 -45.3526 -45.3378
   -45.3161 -45.2998 -45.2855 -45.2566 -45.2486 -45.2168 -45.2016 -45.1274
   -45.1089 -45.1034 -45.0269 -44.9237 -26.2886 -18.9219 -18.7016 -18.6406
   -18.5125 -18.4744 -18.3966 -18.3314 -18.3084 -18.2932 -18.2691 -18.1421
   -18.1321 -18.0947 -18.0203 -17.9420 -17.9342 -17.8974 -17.8564 -17.8341
   -17.7873 -17.7643 -17.7086 -17.6151 -17.5956 -17.5831 -17.5579 -17.5273
   -17.5099 -17.4855 -17.4632 -17.4495 -17.4079 -17.3798 -17.3665 -17.3587
   -17.3265 -17.3097 -17.2842 -17.2392 -17.2130 -17.1835 -17.1337 -17.0695
   -16.9617 -16.7784 -16.7523 -16.5381 -16.5368 -14.0234  -7.4825  -7.4676
    -7.4047  -7.3462  -7.3122  -7.2767  -7.1759  -7.1615  -7.1556  -7.0810
    -7.0426  -7.0388  -6.9795  -6.9721  -6.9416  -6.9080  -6.8380  -6.8100
    -6.7980  -6.7825  -6.7376  -6.7253  -6.7157  -6.6978  -6.6867  -6.6555
    -6.6152  -6.5996  -6.5891  -6.5259  -6.5148  -6.4738  -6.4605  -6.4435
    -6.4213  -6.4167  -6.3928  -6.3608  -6.3183  -6.3074  -6.2693  -6.2621
    -6.2454  -6.2260  -6.2097  -6.1636  -6.1167  -6.1001  -6.0974  -6.0593
    -6.0475  -6.0234  -5.9696  -5.9687  -5.9301  -5.8589  -5.8462  -5.8357
    -5.7936  -5.7790  -5.7440  -5.7212  -5.6947  -5.6652  -5.6451  -5.6246
    -5.6012  -5.5802  -5.5570  -5.5266  -5.4972  -5.4809  -5.4451  -5.4137
    -5.3889  -5.3680  -5.3261  -5.3115  -5.2905  -5.2703  -5.2643  -5.2092
    -5.2002  -5.1766  -5.1572  -5.1340  -5.1104  -5.0936  -5.0369  -4.9889
    -4.9486  -4.8881  -4.8592  -4.8467  -4.8076  -4.7641  -4.7561  -4.7272
    -4.7163  -4.6916  -4.6581  -4.5874  -4.5445  -4.4908  -4.4758  -4.4577
    -4.4464  -4.3808  -4.3600  -4.3317  -4.3085  -4.2469  -4.1860  -4.1826
    -4.1373  -4.1286  -4.1257  -4.0661  -4.0380  -3.9909  -3.9447  -3.9045
    -3.8836  -3.8483  -3.7953  -3.7622  -3.7240  -3.6717  -3.6643  -3.6398
    -3.5540  -3.5196  -3.5018  -3.4282  -3.4049  -3.3680  -3.3129  -3.2683
    -3.1611  -3.0727  -2.9641  -2.9578  -2.8996  -2.7852  -2.7164  -2.6964
    -2.6655  -2.6338  -2.6066  -2.5758  -2.4957  -2.4843  -2.4635  -2.4322
    -2.3938  -2.3631  -2.3263  -2.3090  -2.2544  -2.2033  -2.1624  -2.1328
    -2.0693  -2.0502  -2.0145  -1.9415  -1.9145  -1.9128  -1.8506  -1.8183
    -1.7646  -1.7409  -1.7243  -1.7104  -1.6827  -1.6255  -1.5911  -1.5800
    -1.5748  -1.5315  -1.4782  -1.4744  -1.4098  -1.3922  -1.3672  -1.3450
    -1.3034  -1.2463  -1.2260  -1.2173  -1.1538  -1.1362  -1.1160  -1.0603
    -1.0446  -1.0175  -0.9932  -0.9471  -0.9445  -0.9043  -0.8651  -0.8449
    -0.7984  -0.7639  -0.7019  -0.6985  -0.6703  -0.6352  -0.6108  -0.5823
    -0.5422  -0.5112  -0.4818  -0.4717  -0.4514  -0.4375  -0.3569  -0.3237
    -0.2591  -0.2511  -0.2063  -0.1825  -0.0909  -0.0066   0.0046   0.0383
     0.1191   0.2003   0.2834   0.3072   0.4883   0.5058   0.5318   0.5751
     0.6092   0.6570   0.7004   0.7475   0.7947   0.8734   0.9585   1.0087
     1.0362   1.1182   1.1384   1.1828   1.3267   1.4275   1.4493   1.5382
     1.6626   1.6971   1.8117   1.9023   2.0401   2.1403   2.2589   2.7191
     2.9497   2.9934   3.0904   3.0964

          k =-0.5000-0.2340 0.0000 (149416 PWs)   bands (ev):

  -104.9731-104.8914-104.8665-104.8078-104.7994-104.7874-104.7253-104.6916
   -82.5793 -82.4978 -82.4959 -82.4932 -82.4086 -82.3844 -82.3789 -82.3037
   -74.1351 -74.1238 -74.0040 -74.0004 -73.9560 -73.8947 -73.7469 -65.4674
   -65.4102 -65.3308 -65.3118 -65.2771 -65.2642 -65.2484 -65.2401 -65.2161
   -65.1857 -65.1823 -65.1768 -65.1668 -65.1650 -65.1538 -65.1339 -65.1004
   -65.0970 -65.0514 -65.0182 -65.0103 -65.0033 -64.9412 -64.9138 -51.2837
   -51.2388 -51.2306 -51.2117 -51.2084 -51.2032 -51.1603 -51.1473 -51.1395
   -51.1280 -51.1173 -51.1136 -51.1112 -51.1090 -51.1016 -51.0985 -51.0556
   -51.0506 -51.0497 -51.0478 -51.0460 -51.0235 -50.9772 -50.9402 -45.5934
   -45.5220 -45.4965 -45.4725 -45.4303 -45.4041 -45.3840 -45.3526 -45.3378
   -45.3161 -45.2998 -45.2855 -45.2566 -45.2486 -45.2168 -45.2016 -45.1274
   -45.1089 -45.1034 -45.0269 -44.9237 -26.2886 -18.9198 -18.6466 -18.6016
   -18.5884 -18.4949 -18.4383 -18.4034 -18.3223 -18.2765 -18.2029 -18.1355
   -18.1230 -18.0709 -18.0416 -17.9524 -17.9404 -17.8859 -17.8352 -17.7751
   -17.7371 -17.7056 -17.6910 -17.6784 -17.6367 -17.6307 -17.5657 -17.5521
   -17.5131 -17.4692 -17.4664 -17.4339 -17.4147 -17.3862 -17.3723 -17.3585
   -17.3360 -17.3205 -17.2868 -17.2359 -17.2042 -17.1825 -17.1248 -17.0670
   -16.9624 -16.7783 -16.7521 -16.5380 -16.5367 -14.0234  -7.4144  -7.4044
    -7.3379  -7.2507  -7.2364  -7.2183  -7.1765  -7.1568  -7.1393  -7.0922
    -7.0572  -7.0407  -7.0054  -6.9933  -6.9837  -6.9261  -6.9143  -6.8787
    -6.8481  -6.8236  -6.7843  -6.7530  -6.7380  -6.7014  -6.6781  -6.6643
    -6.6557  -6.6101  -6.5953  -6.5776  -6.5577  -6.5276  -6.5009  -6.4776
    -6.4477  -6.4291  -6.4035  -6.3756  -6.3690  -6.3373  -6.3165  -6.2528
    -6.2408  -6.2260  -6.2055  -6.1863  -6.1407  -6.1080  -6.0971  -6.0375
    -6.0206  -5.9955  -5.9627  -5.9507  -5.9324  -5.8318  -5.8177  -5.7904
    -5.7655  -5.7359  -5.7240  -5.7026  -5.6974  -5.6662  -5.6233  -5.5894
    -5.5581  -5.5308  -5.5233  -5.5005  -5.4580  -5.4264  -5.4134  -5.4024
    -5.3707  -5.3461  -5.3424  -5.3255  -5.2765  -5.2440  -5.2184  -5.2102
    -5.2018  -5.1610  -5.1534  -5.0892  -5.0699  -5.0384  -5.0083  -4.9836
    -4.9488  -4.9308  -4.9081  -4.8742  -4.8443  -4.8234  -4.7891  -4.7663
    -4.7291  -4.6873  -4.6809  -4.6390  -4.6056  -4.5739  -4.5417  -4.4879
    -4.4716  -4.4191  -4.3523  -4.3355  -4.3108  -4.3022  -4.2575  -4.1916
    -4.1862  -4.1311  -4.1075  -4.0497  -4.0291  -3.9996  -3.9504  -3.9196
    -3.8952  -3.8320  -3.7894  -3.7560  -3.6416  -3.6125  -3.5553  -3.5381
    -3.4593  -3.4102  -3.3914  -3.3153  -3.2726  -3.2041  -3.1925  -3.1545
    -3.1295  -3.0279  -2.9860  -2.9702  -2.8954  -2.8739  -2.8243  -2.8008
    -2.7346  -2.7179  -2.6497  -2.6334  -2.5912  -2.5645  -2.5345  -2.4898
    -2.4349  -2.4147  -2.3728  -2.3092  -2.2361  -2.2012  -2.1575  -2.1493
    -2.0598  -2.0469  -2.0027  -1.9910  -1.9897  -1.9092  -1.8921  -1.8371
    -1.7837  -1.7670  -1.7156  -1.6939  -1.6638  -1.6364  -1.5902  -1.5736
    -1.5512  -1.5282  -1.4916  -1.4702  -1.4214  -1.4021  -1.3708  -1.3272
    -1.3000  -1.2808  -1.2371  -1.1987  -1.1714  -1.1518  -1.1388  -1.0933
    -1.0473  -1.0221  -0.9665  -0.9440  -0.9204  -0.9145  -0.8691  -0.8364
    -0.7831  -0.7685  -0.7521  -0.7079  -0.6203  -0.6127  -0.5834  -0.5436
    -0.5428  -0.4881  -0.4857  -0.4738  -0.4646  -0.3983  -0.3226  -0.2976
    -0.2637  -0.2442  -0.1973  -0.1365  -0.0437   0.0080   0.0280   0.0858
     0.1286   0.1761   0.2565   0.3287   0.4101   0.4962   0.5187   0.5696
     0.6088   0.6856   0.7063   0.7336   0.8199   0.8535   0.8934   0.9900
     1.0024   1.1280   1.1976   1.2244   1.3189   1.4670   1.4745   1.5241
     1.6588   1.7366   1.7847   1.8682   2.0328   2.1547   2.2579   2.7387
     2.9294   3.0233   3.0872   3.0933

          k =-0.2500 0.0000 0.0000 (149546 PWs)   bands (ev):

  -104.9731-104.8914-104.8665-104.8078-104.7994-104.7875-104.7254-104.6917
   -82.5795 -82.4993 -82.4946 -82.4932 -82.4086 -82.3853 -82.3783 -82.3037
   -74.1351 -74.1239 -74.0040 -74.0004 -73.9560 -73.8948 -73.7469 -65.4674
   -65.4102 -65.3308 -65.3118 -65.2770 -65.2642 -65.2523 -65.2362 -65.2161
   -65.1858 -65.1823 -65.1768 -65.1668 -65.1650 -65.1537 -65.1339 -65.1004
   -65.0970 -65.0514 -65.0183 -65.0102 -65.0033 -64.9412 -64.9138 -51.2929
   -51.2507 -51.2398 -51.2033 -51.1985 -51.1912 -51.1595 -51.1490 -51.1409
   -51.1377 -51.1283 -51.1169 -51.1106 -51.1019 -51.0984 -51.0834 -51.0580
   -51.0525 -51.0471 -51.0459 -51.0445 -51.0235 -50.9772 -50.9402 -45.5934
   -45.5219 -45.4965 -45.4725 -45.4303 -45.4040 -45.3840 -45.3526 -45.3377
   -45.3161 -45.2998 -45.2854 -45.2565 -45.2485 -45.2168 -45.2016 -45.1274
   -45.1084 -45.1033 -45.0267 -44.9237 -26.2886 -19.0427 -18.9386 -18.7288
   -18.6671 -18.5857 -18.4908 -18.3919 -18.2221 -18.2003 -18.1411 -18.1016
   -18.0646 -18.0266 -17.9804 -17.9412 -17.8833 -17.8167 -17.7887 -17.7583
   -17.7257 -17.7112 -17.6870 -17.6309 -17.5856 -17.5592 -17.5453 -17.5358
   -17.5253 -17.5173 -17.4804 -17.4426 -17.4258 -17.3757 -17.3599 -17.3416
   -17.3247 -17.3030 -17.2812 -17.2509 -17.2241 -17.1793 -17.1150 -17.0471
   -16.9401 -16.7709 -16.7212 -16.5502 -16.5136 -14.0213  -7.8604  -7.8067
    -7.6143  -7.5622  -7.4307  -7.3869  -7.3076  -7.2946  -7.2584  -7.1556
    -7.0712  -7.0434  -7.0237  -7.0035  -6.9827  -6.9390  -6.9125  -6.8871
    -6.8711  -6.8424  -6.8165  -6.7813  -6.7572  -6.7206  -6.6976  -6.6840
    -6.6438  -6.6134  -6.5995  -6.5729  -6.5554  -6.4967  -6.4878  -6.4590
    -6.3862  -6.3497  -6.3247  -6.2920  -6.2700  -6.2481  -6.2378  -6.2128
    -6.1886  -6.1660  -6.1448  -6.1242  -6.1008  -6.0878  -6.0537  -6.0255
    -5.9936  -5.9672  -5.9509  -5.8811  -5.8406  -5.7956  -5.7667  -5.7328
    -5.7090  -5.6769  -5.6535  -5.6403  -5.6188  -5.5896  -5.5718  -5.5509
    -5.5394  -5.5178  -5.4977  -5.4739  -5.4578  -5.4410  -5.4138  -5.3978
    -5.3585  -5.3395  -5.3150  -5.2961  -5.2665  -5.2422  -5.2295  -5.1917
    -5.1571  -5.1311  -5.1193  -5.0936  -5.0625  -5.0365  -4.9869  -4.9633
    -4.9444  -4.9039  -4.8822  -4.7970  -4.7725  -4.7192  -4.7083  -4.6809
    -4.6612  -4.6275  -4.5853  -4.5307  -4.5206  -4.4595  -4.4508  -4.4070
    -4.3716  -4.3400  -4.3046  -4.2923  -4.2391  -4.1829  -4.1554  -4.1217
    -4.1078  -4.0474  -4.0185  -3.9755  -3.9659  -3.9294  -3.9133  -3.8509
    -3.8272  -3.7914  -3.7367  -3.7139  -3.6720  -3.6393  -3.5962  -3.5574
    -3.5202  -3.4888  -3.4426  -3.4050  -3.3431  -3.3142  -3.2454  -3.2138
    -3.1891  -3.1267  -3.0972  -3.0668  -3.0167  -2.9881  -2.9363  -2.8784
    -2.8559  -2.8227  -2.7593  -2.7257  -2.6957  -2.6803  -2.6298  -2.5924
    -2.5585  -2.5064  -2.4515  -2.3838  -2.3502  -2.3025  -2.2599  -2.2386
    -2.1774  -2.1474  -2.1071  -2.0676  -2.0429  -2.0039  -1.9396  -1.8833
    -1.8195  -1.7856  -1.7331  -1.7009  -1.6703  -1.6205  -1.5600  -1.5361
    -1.5138  -1.4774  -1.4547  -1.4369  -1.3891  -1.3807  -1.3318  -1.3080
    -1.2876  -1.2382  -1.2231  -1.1945  -1.1606  -1.1359  -1.0995  -1.0855
    -1.0304  -1.0013  -0.9715  -0.9501  -0.9432  -0.9092  -0.8839  -0.8560
    -0.7959  -0.7810  -0.7517  -0.7132  -0.6783  -0.6317  -0.6005  -0.5702
    -0.5474  -0.5009  -0.4707  -0.4615  -0.4333  -0.3703  -0.3645  -0.3301
    -0.2888  -0.2171  -0.0949  -0.0644  -0.0338  -0.0163   0.0497   0.1012
     0.2159   0.2441   0.3223   0.3846   0.4485   0.5209   0.5478   0.5876
     0.6186   0.6916   0.7324   0.7819   0.8645   0.9026   0.9458   0.9903
     1.0300   1.0705   1.1646   1.4448   1.5104   1.5615   1.6063   1.7341
     1.7903   1.8094   1.9285   2.0000   2.0599   2.2133   2.2824   2.7260
     2.9777   3.0122   3.1225   3.1592

          k =-0.2500-0.2340 0.0000 (149458 PWs)   bands (ev):

  -104.9731-104.8914-104.8665-104.8078-104.7994-104.7875-104.7254-104.6917
   -82.5795 -82.4993 -82.4946 -82.4932 -82.4086 -82.3853 -82.3783 -82.3037
   -74.1351 -74.1239 -74.0040 -74.0004 -73.9560 -73.8948 -73.7469 -65.4674
   -65.4102 -65.3308 -65.3118 -65.2770 -65.2642 -65.2523 -65.2362 -65.2161
   -65.1858 -65.1823 -65.1768 -65.1668 -65.1650 -65.1537 -65.1339 -65.1004
   -65.0970 -65.0514 -65.0183 -65.0102 -65.0033 -64.9412 -64.9138 -51.2929
   -51.2507 -51.2398 -51.2033 -51.1985 -51.1912 -51.1595 -51.1490 -51.1409
   -51.1377 -51.1283 -51.1169 -51.1106 -51.1019 -51.0984 -51.0834 -51.0580
   -51.0525 -51.0471 -51.0459 -51.0445 -51.0235 -50.9772 -50.9402 -45.5934
   -45.5219 -45.4965 -45.4725 -45.4303 -45.4040 -45.3840 -45.3526 -45.3377
   -45.3161 -45.2998 -45.2854 -45.2565 -45.2485 -45.2168 -45.2016 -45.1274
   -45.1084 -45.1033 -45.0267 -44.9237 -26.2886 -19.0014 -18.9076 -18.8526
   -18.7004 -18.5774 -18.4184 -18.3647 -18.2543 -18.2077 -18.1691 -18.0703
   -18.0606 -18.0228 -17.9350 -17.9057 -17.8862 -17.8291 -17.7813 -17.7601
   -17.7361 -17.7230 -17.6929 -17.6363 -17.5956 -17.5861 -17.5555 -17.5453
   -17.5195 -17.5134 -17.4862 -17.4404 -17.4108 -17.3848 -17.3567 -17.3446
   -17.3307 -17.3063 -17.2788 -17.2402 -17.2246 -17.1755 -17.1102 -17.0482
   -16.9401 -16.7709 -16.7211 -16.5502 -16.5135 -14.0213  -7.7036  -7.6621
    -7.5995  -7.4877  -7.4700  -7.4647  -7.4023  -7.3944  -7.3430  -7.1972
    -7.1000  -7.0652  -7.0431  -7.0125  -6.9902  -6.9479  -6.9244  -6.8754
    -6.8620  -6.8490  -6.8251  -6.8108  -6.7771  -6.7218  -6.7026  -6.6737
    -6.6308  -6.6188  -6.5913  -6.5612  -6.5037  -6.4823  -6.4627  -6.4302
    -6.4041  -6.3971  -6.3459  -6.3104  -6.2699  -6.2509  -6.2390  -6.2201
    -6.2047  -6.1947  -6.1522  -6.1312  -6.1068  -6.0843  -6.0648  -6.0277
    -5.9978  -5.9499  -5.9165  -5.8674  -5.7978  -5.7826  -5.7548  -5.7281
    -5.7013  -5.6771  -5.6638  -5.6407  -5.6230  -5.5888  -5.5829  -5.5416
    -5.5308  -5.5245  -5.4918  -5.4617  -5.4332  -5.4142  -5.3877  -5.3625
    -5.3405  -5.3219  -5.3007  -5.2753  -5.2532  -5.2343  -5.1985  -5.1885
    -5.1640  -5.1400  -5.0854  -5.0606  -5.0388  -5.0181  -4.9842  -4.9494
    -4.9234  -4.9039  -4.8502  -4.8385  -4.7748  -4.7495  -4.7143  -4.7013
    -4.6899  -4.6447  -4.6183  -4.5978  -4.5720  -4.5444  -4.4907  -4.4385
    -4.3727  -4.3529  -4.3200  -4.2930  -4.2266  -4.2176  -4.1852  -4.1685
    -4.1296  -4.1209  -4.0434  -4.0105  -3.9728  -3.9478  -3.8565  -3.8325
    -3.7740  -3.7180  -3.6903  -3.6744  -3.6152  -3.5613  -3.5482  -3.4791
    -3.4361  -3.4075  -3.3792  -3.3463  -3.3150  -3.2909  -3.2303  -3.2107
    -3.1863  -3.1390  -3.0928  -3.0560  -3.0376  -2.9891  -2.9607  -2.9189
    -2.8815  -2.8471  -2.7859  -2.7541  -2.7195  -2.6453  -2.6256  -2.5812
    -2.5560  -2.5404  -2.4878  -2.4696  -2.4138  -2.3621  -2.2767  -2.2330
    -2.1745  -2.1568  -2.1201  -2.0527  -2.0286  -2.0071  -1.9467  -1.8941
    -1.8562  -1.7965  -1.7656  -1.7319  -1.6707  -1.5974  -1.5799  -1.5517
    -1.5210  -1.4892  -1.4568  -1.4336  -1.3952  -1.3676  -1.3550  -1.3079
    -1.2822  -1.2647  -1.2232  -1.1920  -1.1502  -1.1178  -1.0957  -1.0743
    -1.0614  -1.0098  -0.9912  -0.9459  -0.9105  -0.8767  -0.8683  -0.8304
    -0.7922  -0.7660  -0.7198  -0.6636  -0.6451  -0.6362  -0.5861  -0.5682
    -0.5571  -0.5024  -0.4814  -0.4642  -0.4439  -0.4169  -0.3618  -0.3082
    -0.2320  -0.2065  -0.1528  -0.0939  -0.0261   0.0387   0.0597   0.1147
     0.1695   0.2072   0.2315   0.3351   0.3970   0.5268   0.5468   0.5892
     0.6475   0.6757   0.7258   0.8002   0.8556   0.9045   0.9378   1.0040
     1.0842   1.1507   1.2588   1.4308   1.4905   1.5646   1.6011   1.7722
     1.7945   1.8153   1.8992   1.9999   2.0415   2.2129   2.2813   2.7225
     2.9831   3.0348   3.1170   3.1644

 ------ SPIN DOWN ----------


          k = 0.0000 0.0000 0.0000 (149523 PWs)   bands (ev):

  -103.5303-103.5285-102.9676-102.8815-102.7390-102.6196-102.5732-102.5168
   -78.6583 -78.6237 -78.6009 -78.5904 -78.5639 -78.2270 -78.1782 -78.1409
   -73.7242 -72.4275 -72.2836 -72.2053 -71.5769 -71.4085 -70.8553 -64.0536
   -64.0320 -63.8920 -63.8875 -63.8004 -63.7941 -63.4574 -63.3869 -63.3865
   -63.2898 -63.2641 -63.2465 -63.2144 -63.1631 -63.1099 -63.0878 -63.0482
   -63.0347 -63.0150 -63.0078 -62.9680 -62.9494 -62.9087 -62.8583 -47.5496
   -47.4969 -47.4798 -47.4208 -47.4145 -47.4093 -47.3811 -47.3685 -47.3327
   -47.3252 -47.3203 -47.3192 -47.2977 -47.2726 -47.2095 -47.2038 -47.1895
   -47.0931 -47.0403 -47.0078 -47.0071 -46.8529 -46.7219 -46.6647 -45.2783
   -45.0539 -44.9161 -44.4731 -44.1361 -44.0050 -43.5500 -43.5197 -43.3678
   -43.3552 -43.3163 -43.2299 -43.2059 -43.1020 -42.9793 -42.5642 -42.5526
   -42.5477 -42.4721 -42.2096 -41.9624 -26.7540 -19.4543 -19.2255 -19.0639
   -19.0251 -18.9658 -18.8636 -18.6931 -18.5808 -18.4457 -18.3799 -18.3575
   -18.2633 -18.2154 -18.1123 -18.0742 -18.0564 -18.0364 -18.0004 -17.9862
   -17.9489 -17.9052 -17.8842 -17.8779 -17.8678 -17.8597 -17.8432 -17.8407
   -17.8077 -17.8020 -17.7945 -17.7824 -17.7207 -17.7128 -17.7095 -17.6886
   -17.6704 -17.6113 -17.5967 -17.5592 -17.5345 -17.5288 -17.5205 -17.5172
   -17.4900 -17.4165 -17.3945 -17.3500 -17.2546 -14.7169  -7.7711  -7.7066
    -7.1653  -7.0161  -6.9686  -6.8688  -6.8365  -6.7414  -6.6901  -6.5499
    -6.4117  -6.3482  -6.3300  -6.2861  -6.2108  -6.1795  -6.1272  -6.1115
    -6.0583  -6.0522  -5.9961  -5.9411  -5.8737  -5.8316  -5.8002  -5.7360
    -5.6518  -5.6412  -5.5870  -5.5561  -5.5380  -5.5086  -5.4866  -5.4321
    -5.3881  -5.3417  -5.3022  -5.2688  -5.2398  -5.1417  -5.1381  -5.0857
    -5.0596  -5.0399  -5.0173  -4.9430  -4.9239  -4.8823  -4.8421  -4.7862
    -4.7552  -4.7083  -4.6998  -4.6487  -4.6114  -4.5925  -4.5646  -4.5552
    -4.5208  -4.5037  -4.4663  -4.4216  -4.4098  -4.3965  -4.3439  -4.3286
    -4.3133  -4.2828  -4.2649  -4.2555  -4.2273  -4.1532  -4.1341  -4.1204
    -4.1141  -4.0940  -4.0717  -4.0567  -4.0146  -3.9902  -3.9782  -3.9450
    -3.9316  -3.8985  -3.8808  -3.8695  -3.8329  -3.8101  -3.7940  -3.7705
    -3.7655  -3.7226  -3.7163  -3.7065  -3.7011  -3.6802  -3.6484  -3.6182
    -3.6067  -3.5535  -3.5404  -3.5102  -3.4784  -3.4612  -3.4334  -3.4032
    -3.3705  -3.3625  -3.3280  -3.3006  -3.2462  -3.1881  -3.1314  -3.0644
    -3.0452  -2.9939  -2.9774  -2.9298  -2.8855  -2.8652  -2.7989  -2.7948
    -2.7369  -2.7164  -2.6755  -2.6242  -2.6189  -2.5908  -2.5817  -2.5520
    -2.4840  -2.4680  -2.4021  -2.3885  -2.3486  -2.3127  -2.3029  -2.2798
    -2.2545  -2.2490  -2.2096  -2.1870  -2.1680  -2.1470  -2.1136  -2.0588
    -2.0239  -1.9867  -1.9276  -1.9023  -1.8718  -1.8626  -1.8373  -1.8053
    -1.7921  -1.7691  -1.7128  -1.6807  -1.6769  -1.6545  -1.6243  -1.5758
    -1.5681  -1.5283  -1.4801  -1.4402  -1.4109  -1.3211  -1.3136  -1.2588
    -1.1912  -1.1519  -1.1256  -1.0455  -0.9858  -0.8095  -0.4264   0.0470
     1.2053   1.3344   1.8437   1.8998   1.9504   2.0033   2.0308   2.0632
     2.1011   2.1319   2.1733   2.2114   2.2529   2.3316   2.3646   2.3803
     2.4011   2.4181   2.4792   2.5099   2.5193   2.5311   2.5349   2.5538
     2.5669   2.6019   2.6309   2.6535   2.6603   2.6964   2.7253   2.7422
     2.7671   2.7943   2.8218   2.8620   2.8731   2.8976   2.9492   2.9638
     2.9988   3.0212   3.0289   3.0649   3.0891   3.1434   3.1553   3.1737
     3.1922   3.2282   3.2594   3.2854   3.2945   3.2959   3.3145   3.3591
     3.4014   3.4217   3.4657   3.4893   3.5219   3.5410   3.5569   3.5763
     3.6085   3.6642   3.7044   3.7227   3.7570   3.7973   3.8111   3.9391
     4.0337   4.0948   4.1780   4.2302   4.2645   4.3006   4.4197   4.4534
     4.5732   4.6127   4.6600   4.6900

          k = 0.0000-0.2340 0.0000 (149572 PWs)   bands (ev):

  -103.5303-103.5285-102.9676-102.8815-102.7390-102.6196-102.5732-102.5168
   -78.6583 -78.6237 -78.6009 -78.5904 -78.5639 -78.2270 -78.1782 -78.1409
   -73.7242 -72.4275 -72.2836 -72.2053 -71.5769 -71.4085 -70.8553 -64.0536
   -64.0320 -63.8920 -63.8875 -63.8004 -63.7941 -63.4574 -63.3869 -63.3865
   -63.2898 -63.2641 -63.2465 -63.2144 -63.1631 -63.1099 -63.0878 -63.0482
   -63.0347 -63.0150 -63.0078 -62.9680 -62.9494 -62.9087 -62.8583 -47.5496
   -47.4969 -47.4798 -47.4208 -47.4145 -47.4093 -47.3811 -47.3685 -47.3327
   -47.3252 -47.3203 -47.3192 -47.2977 -47.2726 -47.2095 -47.2038 -47.1896
   -47.0931 -47.0403 -47.0078 -47.0071 -46.8529 -46.7219 -46.6647 -45.2783
   -45.0539 -44.9161 -44.4731 -44.1361 -44.0050 -43.5500 -43.5197 -43.3678
   -43.3552 -43.3163 -43.2299 -43.2059 -43.1020 -42.9793 -42.5642 -42.5526
   -42.5477 -42.4721 -42.2096 -41.9624 -26.7540 -19.3741 -19.3122 -19.1808
   -19.0273 -18.8617 -18.7997 -18.6764 -18.6094 -18.4758 -18.4190 -18.2982
   -18.1896 -18.1828 -18.1544 -18.1471 -18.0692 -18.0346 -18.0204 -17.9641
   -17.9354 -17.9322 -17.9313 -17.8969 -17.8782 -17.8695 -17.8665 -17.8110
   -17.8078 -17.7916 -17.7484 -17.7364 -17.7227 -17.7171 -17.7050 -17.6909
   -17.6737 -17.6412 -17.5646 -17.5584 -17.5387 -17.5342 -17.5244 -17.4949
   -17.4911 -17.4254 -17.3958 -17.3493 -17.2603 -14.7169  -7.7710  -7.7065
    -7.0745  -7.0187  -6.9644  -6.8943  -6.8289  -6.7001  -6.6436  -6.5785
    -6.4316  -6.3640  -6.3304  -6.3046  -6.2924  -6.2156  -6.1414  -6.1184
    -6.0603  -6.0343  -6.0184  -5.9849  -5.8633  -5.8346  -5.7820  -5.7196
    -5.7037  -5.6212  -5.5844  -5.5490  -5.5241  -5.5125  -5.4921  -5.4553
    -5.4271  -5.3345  -5.2706  -5.2452  -5.2223  -5.1850  -5.1342  -5.1195
    -5.1019  -5.0633  -5.0016  -4.9413  -4.9321  -4.9097  -4.8574  -4.7509
    -4.7285  -4.7238  -4.6738  -4.6480  -4.6040  -4.5802  -4.5334  -4.5231
    -4.4951  -4.4579  -4.4415  -4.4310  -4.4142  -4.3615  -4.3480  -4.3165
    -4.2952  -4.2795  -4.2296  -4.2217  -4.1965  -4.1655  -4.1547  -4.1303
    -4.1097  -4.0908  -4.0711  -4.0543  -4.0360  -4.0130  -4.0029  -3.9844
    -3.9544  -3.9486  -3.9026  -3.8725  -3.8285  -3.8096  -3.8063  -3.7933
    -3.7726  -3.7397  -3.7128  -3.7013  -3.6515  -3.6376  -3.6260  -3.5952
    -3.5915  -3.5713  -3.5542  -3.5438  -3.5072  -3.4566  -3.4262  -3.3947
    -3.3611  -3.3603  -3.3335  -3.2728  -3.2291  -3.2050  -3.1009  -3.0665
    -3.0223  -3.0012  -2.9676  -2.9249  -2.8593  -2.8162  -2.7492  -2.7412
    -2.7051  -2.6806  -2.6623  -2.6336  -2.6233  -2.5894  -2.5404  -2.5237
    -2.4892  -2.4733  -2.4341  -2.4057  -2.3657  -2.3277  -2.3055  -2.2968
    -2.2571  -2.2494  -2.2104  -2.1916  -2.1584  -2.1411  -2.1306  -2.0843
    -2.0550  -1.9872  -1.9597  -1.9499  -1.9066  -1.8912  -1.8601  -1.8047
    -1.7805  -1.7485  -1.7230  -1.7135  -1.6622  -1.6444  -1.6074  -1.5739
    -1.5642  -1.5450  -1.4491  -1.4290  -1.4081  -1.3705  -1.3220  -1.2929
    -1.2568  -1.2053  -1.1113  -1.0118  -0.9638  -0.8720  -0.4264   0.0751
     1.2033   1.3233   1.8892   1.9380   1.9872   2.0551   2.0776   2.0987
     2.1214   2.1626   2.2076   2.2223   2.2352   2.3452   2.3731   2.3932
     2.4106   2.4314   2.4433   2.4957   2.5138   2.5185   2.5316   2.5475
     2.5548   2.5859   2.6228   2.6461   2.6667   2.6902   2.7086   2.7371
     2.7674   2.7743   2.8125   2.8192   2.8522   2.8710   2.9342   2.9462
     2.9834   3.0053   3.0495   3.0674   3.0961   3.1100   3.1533   3.1714
     3.2140   3.2175   3.2460   3.2547   3.2800   3.3071   3.3180   3.3459
     3.3675   3.3913   3.4153   3.4672   3.4966   3.5316   3.5536   3.5917
     3.6028   3.6596   3.6966   3.7205   3.7531   3.8231   3.9061   4.0080
     4.0697   4.1105   4.2179   4.2419   4.2656   4.3602   4.3761   4.5249
     4.5717   4.6257   4.6881   4.7436

          k = 0.2500-0.0000 0.0000 (149546 PWs)   bands (ev):

  -103.5302-103.5286-102.9676-102.8815-102.7390-102.6197-102.5732-102.5169
   -78.6584 -78.6237 -78.6004 -78.5912 -78.5641 -78.2270 -78.1782 -78.1413
   -73.7242 -72.4275 -72.2836 -72.2053 -71.5769 -71.4087 -70.8553 -64.0506
   -64.0350 -63.8919 -63.8875 -63.8002 -63.7942 -63.4574 -63.3869 -63.3865
   -63.2898 -63.2641 -63.2465 -63.2143 -63.1631 -63.1098 -63.0878 -63.0481
   -63.0347 -63.0149 -63.0078 -62.9680 -62.9494 -62.9087 -62.8583 -47.5388
   -47.4965 -47.4659 -47.4267 -47.4188 -47.4092 -47.3937 -47.3692 -47.3333
   -47.3251 -47.3201 -47.3177 -47.2998 -47.2726 -47.2095 -47.1896 -47.1881
   -47.1086 -47.0389 -47.0093 -47.0071 -46.8529 -46.7217 -46.6648 -45.2783
   -45.0539 -44.9161 -44.4731 -44.1361 -44.0050 -43.5502 -43.5197 -43.3678
   -43.3553 -43.3164 -43.2299 -43.2059 -43.1020 -42.9793 -42.5643 -42.5527
   -42.5481 -42.4721 -42.2098 -41.9624 -26.7540 -19.3322 -19.1582 -18.9699
   -18.9238 -18.8769 -18.7701 -18.6391 -18.5481 -18.5157 -18.3915 -18.3689
   -18.3466 -18.3032 -18.2584 -18.2375 -18.1692 -18.1429 -18.0587 -18.0081
   -17.9912 -17.9409 -17.8994 -17.8890 -17.8774 -17.8661 -17.8450 -17.8092
   -17.7911 -17.7770 -17.7648 -17.7481 -17.7273 -17.7114 -17.6907 -17.6825
   -17.6453 -17.6227 -17.5972 -17.5533 -17.5342 -17.5205 -17.5102 -17.4988
   -17.4806 -17.4170 -17.4108 -17.3470 -17.2455 -14.7187  -7.7630  -7.7053
    -7.0086  -6.9964  -6.8733  -6.7526  -6.6550  -6.6432  -6.5743  -6.4343
    -6.3041  -6.2796  -6.1863  -6.1526  -6.1253  -6.0683  -6.0391  -6.0098
    -5.9701  -5.9522  -5.9049  -5.8828  -5.8493  -5.7938  -5.7462  -5.7122
    -5.6554  -5.6028  -5.5798  -5.5394  -5.5212  -5.4767  -5.4502  -5.4244
    -5.3957  -5.3729  -5.3507  -5.2991  -5.2535  -5.2140  -5.1900  -5.1447
    -5.0979  -5.0610  -5.0544  -5.0336  -4.9916  -4.9610  -4.9116  -4.8705
    -4.8391  -4.7973  -4.7605  -4.7380  -4.7186  -4.7092  -4.6727  -4.6261
    -4.6096  -4.5731  -4.5329  -4.5058  -4.4911  -4.4687  -4.4383  -4.4260
    -4.3973  -4.3912  -4.3417  -4.3097  -4.2665  -4.2376  -4.2190  -4.2040
    -4.1835  -4.1562  -4.1325  -4.1137  -4.0875  -4.0516  -4.0153  -3.9857
    -3.9553  -3.9171  -3.9103  -3.8811  -3.8587  -3.8273  -3.7821  -3.7596
    -3.7194  -3.6940  -3.6770  -3.6421  -3.6160  -3.5845  -3.5539  -3.5222
    -3.5034  -3.4748  -3.4470  -3.4362  -3.4020  -3.3731  -3.3345  -3.3005
    -3.2924  -3.2681  -3.2587  -3.2185  -3.1909  -3.1662  -3.1122  -3.0720
    -3.0567  -3.0129  -3.0059  -2.9766  -2.9438  -2.9161  -2.8886  -2.8404
    -2.8178  -2.8057  -2.7382  -2.7123  -2.6826  -2.6458  -2.6000  -2.5596
    -2.5231  -2.4777  -2.4357  -2.4118  -2.3742  -2.3442  -2.3173  -2.2834
    -2.2650  -2.2449  -2.2023  -2.1877  -2.1486  -2.1215  -2.0894  -2.0549
    -2.0214  -1.9843  -1.9734  -1.9581  -1.9133  -1.8626  -1.8206  -1.8002
    -1.7634  -1.7339  -1.7123  -1.6860  -1.6775  -1.6555  -1.6217  -1.6059
    -1.5569  -1.5286  -1.4945  -1.4759  -1.4227  -1.3570  -1.3209  -1.2826
    -1.2419  -1.2084  -1.1735  -1.0795  -1.0229  -0.8818  -0.4313   0.0701
     1.1709   1.3281   1.8743   1.9337   1.9564   2.0150   2.0635   2.1148
     2.1713   2.1805   2.1943   2.2468   2.2817   2.3384   2.3607   2.4004
     2.4244   2.4446   2.4819   2.4896   2.5077   2.5367   2.5637   2.5732
     2.6082   2.6256   2.6542   2.6773   2.7059   2.7279   2.7451   2.8032
     2.8139   2.8223   2.8418   2.8795   2.9264   2.9331   2.9688   2.9832
     3.0293   3.0439   3.0595   3.0940   3.1039   3.1293   3.1534   3.1680
     3.1952   3.2139   3.2439   3.2642   3.2781   3.3017   3.3377   3.3592
     3.3867   3.4072   3.4233   3.4577   3.4943   3.5163   3.5729   3.5950
     3.6107   3.6550   3.6791   3.7102   3.7303   3.7955   3.8466   3.8985
     3.9731   4.0191   4.0482   4.1186   4.1519   4.2657   4.3145   4.3512
     4.3911   4.5692   4.5982   4.6547

          k = 0.2500-0.2340 0.0000 (149458 PWs)   bands (ev):

  -103.5302-103.5286-102.9676-102.8815-102.7390-102.6197-102.5732-102.5169
   -78.6584 -78.6237 -78.6004 -78.5912 -78.5641 -78.2270 -78.1782 -78.1413
   -73.7242 -72.4275 -72.2836 -72.2053 -71.5769 -71.4087 -70.8553 -64.0506
   -64.0350 -63.8919 -63.8875 -63.8002 -63.7942 -63.4574 -63.3869 -63.3865
   -63.2898 -63.2641 -63.2465 -63.2143 -63.1631 -63.1098 -63.0878 -63.0481
   -63.0347 -63.0149 -63.0078 -62.9680 -62.9494 -62.9087 -62.8583 -47.5388
   -47.4965 -47.4659 -47.4267 -47.4188 -47.4092 -47.3937 -47.3692 -47.3333
   -47.3251 -47.3201 -47.3177 -47.2998 -47.2726 -47.2095 -47.1896 -47.1881
   -47.1086 -47.0389 -47.0093 -47.0071 -46.8529 -46.7217 -46.6648 -45.2783
   -45.0539 -44.9161 -44.4731 -44.1361 -44.0050 -43.5502 -43.5197 -43.3678
   -43.3553 -43.3164 -43.2299 -43.2059 -43.1020 -42.9793 -42.5643 -42.5527
   -42.5481 -42.4721 -42.2098 -41.9624 -26.7540 -19.2588 -19.2025 -19.1148
   -18.9272 -18.7824 -18.7180 -18.6070 -18.5249 -18.5198 -18.4516 -18.4359
   -18.3738 -18.2508 -18.2237 -18.1801 -18.1746 -18.1189 -18.0604 -18.0466
   -18.0341 -17.9922 -17.9250 -17.8843 -17.8698 -17.8496 -17.8229 -17.8045
   -17.7919 -17.7817 -17.7670 -17.7264 -17.7198 -17.7072 -17.6913 -17.6775
   -17.6526 -17.6500 -17.5624 -17.5561 -17.5366 -17.5249 -17.5147 -17.4936
   -17.4830 -17.4195 -17.4116 -17.3412 -17.2503 -14.7187  -7.7630  -7.7052
    -7.0040  -6.9109  -6.8761  -6.7616  -6.6524  -6.5760  -6.5466  -6.4570
    -6.3082  -6.2681  -6.2147  -6.1907  -6.1404  -6.1090  -6.0446  -5.9998
    -5.9818  -5.9464  -5.9067  -5.8664  -5.7958  -5.7802  -5.7367  -5.7126
    -5.6943  -5.6363  -5.6187  -5.5791  -5.5586  -5.5316  -5.5083  -5.4717
    -5.4341  -5.4075  -5.3557  -5.3224  -5.3017  -5.2257  -5.2060  -5.1468
    -5.1155  -5.0917  -5.0539  -5.0117  -4.9811  -4.9509  -4.9037  -4.8606
    -4.8306  -4.7922  -4.7592  -4.7340  -4.6942  -4.6822  -4.6489  -4.6079
    -4.6020  -4.5579  -4.5320  -4.5224  -4.4749  -4.4530  -4.4306  -4.4010
    -4.3497  -4.3184  -4.2932  -4.2831  -4.2597  -4.2198  -4.2073  -4.1996
    -4.1847  -4.1373  -4.1207  -4.0867  -4.0440  -4.0259  -4.0054  -3.9898
    -3.9561  -3.9354  -3.9057  -3.8581  -3.8313  -3.7806  -3.7590  -3.7390
    -3.7167  -3.7079  -3.6924  -3.6481  -3.6409  -3.5951  -3.5727  -3.5223
    -3.5019  -3.4815  -3.4532  -3.4252  -3.4023  -3.3569  -3.3310  -3.3117
    -3.2958  -3.2641  -3.2415  -3.2309  -3.1993  -3.1557  -3.1248  -3.1038
    -3.0741  -3.0262  -3.0096  -2.9624  -2.9404  -2.9054  -2.8892  -2.8376
    -2.7928  -2.7599  -2.7271  -2.7076  -2.6724  -2.6449  -2.5872  -2.5544
    -2.5280  -2.5117  -2.4671  -2.4375  -2.4050  -2.3667  -2.3387  -2.3023
    -2.2726  -2.2246  -2.2106  -2.1805  -2.1537  -2.1201  -2.0724  -2.0668
    -2.0419  -2.0008  -1.9887  -1.9598  -1.9279  -1.9042  -1.8642  -1.8163
    -1.7984  -1.7499  -1.7296  -1.6986  -1.6567  -1.6409  -1.6130  -1.5816
    -1.5719  -1.5230  -1.4479  -1.4442  -1.4173  -1.3849  -1.3199  -1.2849
    -1.2702  -1.2404  -1.1296  -1.0921  -1.0114  -0.9268  -0.4312   0.0953
     1.1705   1.3176   1.8871   1.9382   2.0198   2.0619   2.0725   2.1235
     2.1699   2.1925   2.2209   2.2752   2.2869   2.3540   2.3835   2.4126
     2.4275   2.4457   2.4828   2.5050   2.5126   2.5365   2.5427   2.5518
     2.5802   2.5990   2.6408   2.6737   2.6901   2.7240   2.7475   2.7614
     2.7918   2.8279   2.8573   2.8753   2.9178   2.9288   2.9669   2.9926
     3.0207   3.0436   3.0558   3.0764   3.1042   3.1242   3.1484   3.1722
     3.1917   3.2254   3.2316   3.2461   3.2705   3.3065   3.3200   3.3492
     3.3650   3.3949   3.4202   3.4619   3.4751   3.5208   3.5307   3.5876
     3.6102   3.6554   3.6682   3.7109   3.7480   3.8428   3.8750   3.9296
     3.9957   4.0434   4.0836   4.1204   4.1806   4.2478   4.2774   4.3706
     4.4431   4.5545   4.6022   4.6577

          k =-0.5000 0.0000 0.0000 (149560 PWs)   bands (ev):

  -103.5301-103.5287-102.9676-102.8815-102.7390-102.6197-102.5732-102.5170
   -78.6584 -78.6238 -78.5997 -78.5921 -78.5642 -78.2270 -78.1781 -78.1416
   -73.7242 -72.4275 -72.2836 -72.2053 -71.5769 -71.4088 -70.8553 -64.0451
   -64.0405 -63.8919 -63.8876 -63.8001 -63.7944 -63.4574 -63.3869 -63.3864
   -63.2898 -63.2641 -63.2465 -63.2143 -63.1631 -63.1098 -63.0878 -63.0481
   -63.0347 -63.0149 -63.0078 -62.9680 -62.9493 -62.9087 -62.8583 -47.5252
   -47.4960 -47.4407 -47.4396 -47.4200 -47.4171 -47.4092 -47.3694 -47.3339
   -47.3250 -47.3200 -47.3154 -47.3024 -47.2726 -47.2096 -47.1897 -47.1574
   -47.1391 -47.0374 -47.0108 -47.0071 -46.8529 -46.7216 -46.6649 -45.2783
   -45.0539 -44.9161 -44.4731 -44.1361 -44.0050 -43.5503 -43.5197 -43.3678
   -43.3554 -43.3165 -43.2298 -43.2059 -43.1020 -42.9793 -42.5643 -42.5528
   -42.5486 -42.4721 -42.2099 -41.9624 -26.7540 -19.0996 -19.0387 -18.9325
   -18.7481 -18.7173 -18.6972 -18.6666 -18.5964 -18.5745 -18.5409 -18.4774
   -18.4171 -18.3719 -18.3345 -18.2431 -18.2231 -18.1865 -18.1145 -18.1025
   -18.0779 -18.0089 -17.9356 -17.9006 -17.8825 -17.8793 -17.8501 -17.7900
   -17.7763 -17.7646 -17.7500 -17.7228 -17.7080 -17.6992 -17.6862 -17.6800
   -17.6505 -17.6111 -17.5951 -17.5486 -17.5397 -17.5147 -17.4879 -17.4837
   -17.4729 -17.4463 -17.4108 -17.3441 -17.2359 -14.7205  -7.7551  -7.7039
    -6.9999  -6.7570  -6.6658  -6.5976  -6.5261  -6.3871  -6.3219  -6.2932
    -6.2718  -6.2519  -6.2243  -6.2038  -6.1290  -6.0767  -6.0253  -5.9396
    -5.9149  -5.8512  -5.8125  -5.7826  -5.7695  -5.7054  -5.6894  -5.6632
    -5.6331  -5.5801  -5.5489  -5.4964  -5.4738  -5.4598  -5.4316  -5.3897
    -5.3679  -5.3445  -5.3187  -5.2957  -5.2481  -5.2474  -5.2117  -5.1582
    -5.1453  -5.1025  -5.0866  -5.0355  -5.0174  -4.9811  -4.9720  -4.9202
    -4.9097  -4.8820  -4.8463  -4.8090  -4.7894  -4.7529  -4.7286  -4.7056
    -4.6706  -4.6534  -4.6408  -4.6016  -4.5527  -4.5338  -4.4895  -4.4679
    -4.4431  -4.4079  -4.3768  -4.3541  -4.3520  -4.3279  -4.2867  -4.2732
    -4.2608  -4.2477  -4.2094  -4.1895  -4.1693  -4.1347  -4.1003  -4.0252
    -3.9949  -3.9237  -3.9193  -3.8816  -3.8666  -3.8334  -3.8083  -3.7695
    -3.7540  -3.7310  -3.7004  -3.6865  -3.6789  -3.6417  -3.6302  -3.5890
    -3.5258  -3.5057  -3.4720  -3.4601  -3.4483  -3.3629  -3.3423  -3.2892
    -3.2468  -3.2237  -3.2021  -3.1805  -3.1781  -3.1248  -3.0938  -3.0770
    -3.0185  -2.9980  -2.9831  -2.9318  -2.9170  -2.8994  -2.8470  -2.8377
    -2.8040  -2.7598  -2.7451  -2.7168  -2.6897  -2.6467  -2.6177  -2.5840
    -2.5478  -2.4797  -2.4593  -2.4354  -2.3875  -2.3055  -2.3010  -2.2780
    -2.2312  -2.1865  -2.1777  -2.1392  -2.1302  -2.1059  -2.0660  -2.0530
    -2.0373  -1.9984  -1.9858  -1.9307  -1.8887  -1.8824  -1.8395  -1.8277
    -1.8022  -1.7588  -1.7475  -1.7186  -1.6809  -1.6497  -1.6385  -1.6071
    -1.5559  -1.5127  -1.5011  -1.4248  -1.4023  -1.3679  -1.3288  -1.3248
    -1.2778  -1.2414  -1.2045  -1.1220  -1.0576  -0.9969  -0.4362   0.0862
     1.1407   1.3206   1.8755   1.9425   1.9969   2.0474   2.0995   2.1428
     2.1631   2.2018   2.2245   2.2522   2.3036   2.3321   2.3359   2.4090
     2.4271   2.4629   2.4656   2.5053   2.5309   2.5410   2.5903   2.6049
     2.6221   2.6594   2.6733   2.6944   2.7354   2.7677   2.8003   2.8089
     2.8488   2.8707   2.9120   2.9353   2.9545   2.9592   2.9921   3.0016
     3.0360   3.0431   3.0611   3.0668   3.0965   3.1164   3.1495   3.1831
     3.1857   3.1955   3.2014   3.2282   3.2681   3.3097   3.3243   3.3469
     3.3886   3.3973   3.4181   3.4813   3.5035   3.5170   3.5798   3.5931
     3.6075   3.6283   3.6697   3.7014   3.7433   3.7598   3.7790   3.8855
     3.8971   3.9669   4.0183   4.0696   4.1065   4.1675   4.2045   4.2551
     4.3306   4.4450   4.5253   4.5446

          k =-0.5000-0.2340 0.0000 (149416 PWs)   bands (ev):

  -103.5301-103.5287-102.9676-102.8815-102.7390-102.6197-102.5732-102.5170
   -78.6584 -78.6238 -78.5997 -78.5921 -78.5642 -78.2270 -78.1781 -78.1416
   -73.7242 -72.4275 -72.2836 -72.2053 -71.5769 -71.4088 -70.8553 -64.0451
   -64.0405 -63.8919 -63.8876 -63.8001 -63.7944 -63.4574 -63.3869 -63.3864
   -63.2898 -63.2641 -63.2465 -63.2143 -63.1631 -63.1098 -63.0878 -63.0481
   -63.0347 -63.0149 -63.0078 -62.9680 -62.9493 -62.9087 -62.8583 -47.5252
   -47.4960 -47.4407 -47.4396 -47.4200 -47.4171 -47.4092 -47.3694 -47.3339
   -47.3250 -47.3200 -47.3154 -47.3024 -47.2726 -47.2096 -47.1897 -47.1574
   -47.1391 -47.0374 -47.0108 -47.0071 -46.8529 -46.7216 -46.6649 -45.2783
   -45.0539 -44.9161 -44.4731 -44.1361 -44.0050 -43.5503 -43.5197 -43.3678
   -43.3554 -43.3165 -43.2298 -43.2059 -43.1020 -42.9793 -42.5643 -42.5528
   -42.5486 -42.4721 -42.2099 -41.9624 -26.7540 -19.0956 -18.9869 -18.9060
   -18.8666 -18.8046 -18.7122 -18.6530 -18.5911 -18.5324 -18.4658 -18.4450
   -18.3734 -18.3433 -18.3258 -18.2936 -18.2656 -18.1901 -18.1516 -18.0982
   -18.0381 -17.9865 -17.9693 -17.9264 -17.8903 -17.8570 -17.8254 -17.8048
   -17.7931 -17.7668 -17.7280 -17.7174 -17.7104 -17.7062 -17.6931 -17.6824
   -17.6628 -17.6111 -17.5810 -17.5466 -17.5331 -17.5218 -17.5011 -17.4851
   -17.4732 -17.4462 -17.4011 -17.3367 -17.2400 -14.7205  -7.7551  -7.7039
    -6.9998  -6.7611  -6.5953  -6.5478  -6.4677  -6.3455  -6.3096  -6.2709
    -6.2259  -6.1976  -6.1492  -6.1218  -6.0948  -6.0799  -6.0497  -5.9892
    -5.9417  -5.9096  -5.9040  -5.8570  -5.8363  -5.8242  -5.7852  -5.7538
    -5.6742  -5.6112  -5.5926  -5.5558  -5.5237  -5.4581  -5.4490  -5.4124
    -5.3802  -5.3441  -5.3219  -5.3099  -5.2909  -5.2683  -5.2266  -5.2060
    -5.1752  -5.1545  -5.1092  -5.0849  -5.0600  -5.0319  -4.9822  -4.9626
    -4.9155  -4.8504  -4.8018  -4.7852  -4.7613  -4.7286  -4.6639  -4.5975
    -4.5790  -4.5452  -4.5301  -4.5215  -4.5048  -4.4705  -4.4508  -4.4362
    -4.4184  -4.3835  -4.3629  -4.3388  -4.3034  -4.2754  -4.2471  -4.2399
    -4.2195  -4.2043  -4.1876  -4.1548  -4.1441  -4.1221  -4.0907  -4.0513
    -4.0140  -3.9916  -3.9739  -3.9485  -3.9060  -3.8304  -3.7992  -3.7852
    -3.7821  -3.7557  -3.6657  -3.6606  -3.6454  -3.6056  -3.5786  -3.5522
    -3.5048  -3.4663  -3.4416  -3.4018  -3.3682  -3.3520  -3.3076  -3.2960
    -3.2595  -3.2499  -3.2460  -3.2233  -3.1780  -3.1483  -3.1202  -3.0906
    -3.0528  -3.0337  -3.0210  -2.9929  -2.9456  -2.9299  -2.8997  -2.8379
    -2.8364  -2.8020  -2.7716  -2.7236  -2.7018  -2.6475  -2.6197  -2.5672
    -2.5470  -2.5025  -2.4764  -2.4277  -2.3984  -2.3670  -2.2903  -2.2664
    -2.2362  -2.2178  -2.2068  -2.1694  -2.1502  -2.0818  -2.0475  -2.0220
    -1.9907  -1.9653  -1.9357  -1.9301  -1.9163  -1.8810  -1.8553  -1.8506
    -1.8248  -1.7729  -1.7441  -1.7213  -1.7058  -1.6443  -1.6434  -1.5791
    -1.5600  -1.5107  -1.4858  -1.4536  -1.4022  -1.3723  -1.3270  -1.2916
    -1.2751  -1.2324  -1.1760  -1.1555  -1.1185  -0.9712  -0.4362   0.1099
     1.1429   1.3109   1.8834   1.9417   2.0003   2.0641   2.1089   2.1529
     2.1632   2.1808   2.2441   2.2531   2.2696   2.3354   2.4050   2.4316
     2.4516   2.4771   2.4791   2.5003   2.5141   2.5450   2.5958   2.6024
     2.6146   2.6359   2.6734   2.6892   2.7114   2.7354   2.7830   2.8083
     2.8183   2.8575   2.8715   2.9130   2.9463   2.9665   2.9918   2.9963
     3.0310   3.0456   3.0761   3.0877   3.1274   3.1500   3.1643   3.1740
     3.1879   3.2035   3.2246   3.2443   3.2843   3.3025   3.3426   3.3640
     3.3773   3.4152   3.4427   3.4973   3.5197   3.5411   3.5829   3.5876
     3.6026   3.6245   3.6648   3.6962   3.7364   3.7639   3.8043   3.8676
     3.9101   3.9681   4.0014   4.0439   4.0510   4.1356   4.1730   4.2233
     4.3892   4.4498   4.5150   4.5760

          k =-0.2500 0.0000 0.0000 (149546 PWs)   bands (ev):

  -103.5302-103.5286-102.9676-102.8815-102.7390-102.6197-102.5732-102.5169
   -78.6584 -78.6237 -78.6004 -78.5912 -78.5641 -78.2270 -78.1782 -78.1413
   -73.7242 -72.4275 -72.2836 -72.2053 -71.5769 -71.4087 -70.8553 -64.0506
   -64.0350 -63.8919 -63.8875 -63.8002 -63.7942 -63.4574 -63.3869 -63.3865
   -63.2898 -63.2641 -63.2465 -63.2143 -63.1631 -63.1098 -63.0878 -63.0481
   -63.0347 -63.0149 -63.0078 -62.9680 -62.9494 -62.9087 -62.8583 -47.5388
   -47.4965 -47.4659 -47.4267 -47.4188 -47.4092 -47.3937 -47.3692 -47.3333
   -47.3251 -47.3201 -47.3177 -47.2998 -47.2726 -47.2095 -47.1896 -47.1881
   -47.1086 -47.0389 -47.0093 -47.0071 -46.8529 -46.7217 -46.6648 -45.2783
   -45.0539 -44.9161 -44.4731 -44.1361 -44.0050 -43.5502 -43.5197 -43.3678
   -43.3553 -43.3164 -43.2299 -43.2059 -43.1020 -42.9793 -42.5643 -42.5527
   -42.5481 -42.4721 -42.2098 -41.9624 -26.7540 -19.3322 -19.1582 -18.9699
   -18.9238 -18.8769 -18.7701 -18.6391 -18.5481 -18.5157 -18.3915 -18.3689
   -18.3466 -18.3032 -18.2584 -18.2375 -18.1692 -18.1429 -18.0587 -18.0081
   -17.9912 -17.9409 -17.8994 -17.8890 -17.8774 -17.8661 -17.8450 -17.8092
   -17.7911 -17.7770 -17.7648 -17.7481 -17.7273 -17.7114 -17.6907 -17.6825
   -17.6453 -17.6227 -17.5972 -17.5533 -17.5342 -17.5205 -17.5102 -17.4988
   -17.4806 -17.4170 -17.4108 -17.3470 -17.2455 -14.7187  -7.7630  -7.7053
    -7.0086  -6.9964  -6.8733  -6.7526  -6.6550  -6.6432  -6.5743  -6.4343
    -6.3041  -6.2796  -6.1863  -6.1526  -6.1253  -6.0683  -6.0391  -6.0098
    -5.9701  -5.9522  -5.9049  -5.8828  -5.8493  -5.7938  -5.7462  -5.7122
    -5.6554  -5.6028  -5.5798  -5.5394  -5.5212  -5.4767  -5.4502  -5.4244
    -5.3957  -5.3729  -5.3507  -5.2991  -5.2535  -5.2140  -5.1900  -5.1447
    -5.0979  -5.0610  -5.0544  -5.0336  -4.9916  -4.9610  -4.9116  -4.8705
    -4.8391  -4.7973  -4.7605  -4.7380  -4.7186  -4.7092  -4.6727  -4.6261
    -4.6096  -4.5731  -4.5329  -4.5058  -4.4911  -4.4687  -4.4383  -4.4260
    -4.3973  -4.3912  -4.3417  -4.3097  -4.2665  -4.2376  -4.2190  -4.2040
    -4.1835  -4.1562  -4.1325  -4.1137  -4.0875  -4.0516  -4.0153  -3.9857
    -3.9553  -3.9171  -3.9103  -3.8811  -3.8587  -3.8273  -3.7821  -3.7596
    -3.7194  -3.6940  -3.6770  -3.6421  -3.6160  -3.5845  -3.5539  -3.5222
    -3.5034  -3.4748  -3.4470  -3.4362  -3.4020  -3.3731  -3.3345  -3.3005
    -3.2924  -3.2681  -3.2587  -3.2185  -3.1909  -3.1662  -3.1122  -3.0720
    -3.0567  -3.0129  -3.0059  -2.9766  -2.9438  -2.9161  -2.8886  -2.8404
    -2.8178  -2.8057  -2.7382  -2.7123  -2.6826  -2.6458  -2.6000  -2.5596
    -2.5231  -2.4777  -2.4357  -2.4118  -2.3742  -2.3442  -2.3173  -2.2834
    -2.2650  -2.2449  -2.2023  -2.1877  -2.1486  -2.1215  -2.0894  -2.0549
    -2.0214  -1.9843  -1.9734  -1.9581  -1.9133  -1.8626  -1.8206  -1.8002
    -1.7634  -1.7339  -1.7123  -1.6860  -1.6775  -1.6555  -1.6217  -1.6059
    -1.5569  -1.5286  -1.4945  -1.4759  -1.4227  -1.3570  -1.3209  -1.2826
    -1.2419  -1.2084  -1.1735  -1.0795  -1.0229  -0.8818  -0.4313   0.0701
     1.1709   1.3281   1.8743   1.9337   1.9564   2.0150   2.0635   2.1148
     2.1713   2.1805   2.1943   2.2468   2.2817   2.3384   2.3607   2.4004
     2.4244   2.4446   2.4819   2.4896   2.5077   2.5367   2.5637   2.5732
     2.6082   2.6256   2.6542   2.6773   2.7059   2.7279   2.7451   2.8032
     2.8139   2.8223   2.8418   2.8795   2.9264   2.9331   2.9688   2.9832
     3.0293   3.0439   3.0595   3.0940   3.1039   3.1293   3.1534   3.1680
     3.1952   3.2139   3.2439   3.2642   3.2781   3.3017   3.3377   3.3592
     3.3867   3.4072   3.4233   3.4577   3.4943   3.5163   3.5729   3.5950
     3.6107   3.6550   3.6791   3.7102   3.7303   3.7955   3.8466   3.8985
     3.9731   4.0191   4.0482   4.1186   4.1519   4.2657   4.3145   4.3512
     4.3911   4.5694   4.5984   4.6552

          k =-0.2500-0.2340 0.0000 (149458 PWs)   bands (ev):

  -103.5302-103.5286-102.9676-102.8815-102.7390-102.6197-102.5732-102.5169
   -78.6584 -78.6237 -78.6004 -78.5912 -78.5641 -78.2270 -78.1782 -78.1413
   -73.7242 -72.4275 -72.2836 -72.2053 -71.5769 -71.4087 -70.8553 -64.0506
   -64.0350 -63.8919 -63.8875 -63.8002 -63.7942 -63.4574 -63.3869 -63.3865
   -63.2898 -63.2641 -63.2465 -63.2143 -63.1631 -63.1098 -63.0878 -63.0481
   -63.0347 -63.0149 -63.0078 -62.9680 -62.9494 -62.9087 -62.8583 -47.5388
   -47.4965 -47.4659 -47.4267 -47.4188 -47.4092 -47.3937 -47.3692 -47.3333
   -47.3251 -47.3201 -47.3177 -47.2998 -47.2726 -47.2095 -47.1896 -47.1881
   -47.1086 -47.0389 -47.0093 -47.0071 -46.8529 -46.7217 -46.6648 -45.2783
   -45.0539 -44.9161 -44.4731 -44.1361 -44.0050 -43.5502 -43.5197 -43.3678
   -43.3553 -43.3164 -43.2299 -43.2059 -43.1020 -42.9793 -42.5643 -42.5527
   -42.5481 -42.4721 -42.2098 -41.9624 -26.7540 -19.2588 -19.2025 -19.1148
   -18.9272 -18.7824 -18.7180 -18.6070 -18.5249 -18.5198 -18.4516 -18.4359
   -18.3738 -18.2508 -18.2237 -18.1801 -18.1746 -18.1189 -18.0604 -18.0466
   -18.0341 -17.9922 -17.9250 -17.8843 -17.8698 -17.8496 -17.8229 -17.8045
   -17.7919 -17.7817 -17.7670 -17.7264 -17.7198 -17.7072 -17.6913 -17.6775
   -17.6526 -17.6500 -17.5624 -17.5561 -17.5366 -17.5249 -17.5147 -17.4936
   -17.4830 -17.4195 -17.4116 -17.3412 -17.2503 -14.7187  -7.7630  -7.7052
    -7.0040  -6.9109  -6.8761  -6.7616  -6.6524  -6.5760  -6.5466  -6.4570
    -6.3082  -6.2681  -6.2147  -6.1907  -6.1404  -6.1090  -6.0446  -5.9998
    -5.9818  -5.9464  -5.9067  -5.8664  -5.7958  -5.7802  -5.7367  -5.7126
    -5.6943  -5.6363  -5.6187  -5.5791  -5.5586  -5.5316  -5.5083  -5.4717
    -5.4341  -5.4075  -5.3557  -5.3224  -5.3017  -5.2257  -5.2060  -5.1468
    -5.1155  -5.0917  -5.0539  -5.0117  -4.9811  -4.9509  -4.9037  -4.8606
    -4.8306  -4.7922  -4.7592  -4.7340  -4.6942  -4.6822  -4.6489  -4.6079
    -4.6020  -4.5579  -4.5320  -4.5224  -4.4749  -4.4530  -4.4306  -4.4010
    -4.3497  -4.3184  -4.2932  -4.2831  -4.2597  -4.2198  -4.2073  -4.1996
    -4.1847  -4.1373  -4.1207  -4.0867  -4.0440  -4.0259  -4.0054  -3.9898
    -3.9561  -3.9354  -3.9057  -3.8581  -3.8313  -3.7806  -3.7590  -3.7390
    -3.7167  -3.7079  -3.6924  -3.6481  -3.6409  -3.5951  -3.5727  -3.5223
    -3.5019  -3.4815  -3.4532  -3.4252  -3.4023  -3.3569  -3.3310  -3.3117
    -3.2958  -3.2641  -3.2415  -3.2309  -3.1993  -3.1557  -3.1248  -3.1038
    -3.0741  -3.0262  -3.0096  -2.9624  -2.9404  -2.9054  -2.8892  -2.8376
    -2.7928  -2.7599  -2.7271  -2.7076  -2.6724  -2.6449  -2.5872  -2.5544
    -2.5280  -2.5117  -2.4671  -2.4375  -2.4050  -2.3667  -2.3387  -2.3023
    -2.2726  -2.2246  -2.2106  -2.1805  -2.1537  -2.1201  -2.0724  -2.0668
    -2.0419  -2.0008  -1.9887  -1.9598  -1.9279  -1.9042  -1.8642  -1.8163
    -1.7984  -1.7499  -1.7296  -1.6986  -1.6567  -1.6409  -1.6130  -1.5816
    -1.5719  -1.5230  -1.4479  -1.4442  -1.4173  -1.3849  -1.3199  -1.2849
    -1.2702  -1.2404  -1.1296  -1.0921  -1.0114  -0.9268  -0.4312   0.0953
     1.1705   1.3176   1.8871   1.9382   2.0198   2.0619   2.0725   2.1235
     2.1699   2.1925   2.2209   2.2752   2.2869   2.3540   2.3835   2.4126
     2.4275   2.4457   2.4828   2.5050   2.5126   2.5365   2.5427   2.5518
     2.5802   2.5990   2.6408   2.6737   2.6901   2.7240   2.7475   2.7614
     2.7918   2.8279   2.8573   2.8753   2.9178   2.9288   2.9669   2.9926
     3.0207   3.0436   3.0558   3.0764   3.1042   3.1242   3.1484   3.1722
     3.1917   3.2254   3.2316   3.2461   3.2705   3.3065   3.3200   3.3492
     3.3650   3.3949   3.4202   3.4619   3.4751   3.5208   3.5307   3.5876
     3.6102   3.6554   3.6682   3.7109   3.7480   3.8428   3.8750   3.9296
     3.9957   4.0434   4.0836   4.1204   4.1806   4.2478   4.2774   4.3706
     4.4431   4.5545   4.6023   4.6561

     the Fermi energy is    -0.4401 ev

!    total energy              =   -7956.63303586 Ry
     estimated scf accuracy    <       0.00000077 Ry
     smearing contrib. (-TS)   =      -0.00154196 Ry
     internal energy E=F+TS    =   -7956.63149390 Ry

     The total energy is F=E-TS. E is the sum of the following terms:
     one-electron contribution =  -66877.44914738 Ry
     hartree contribution      =   33549.31493546 Ry
     xc contribution           =   -1066.17008738 Ry
     ewald contribution        =   26999.73273126 Ry
     Hubbard energy            =       4.00764421 Ry
     one-center paw contrib.   =    -566.06757008 Ry

     total magnetization       =    37.28 Bohr mag/cell
     absolute magnetization    =    65.85 Bohr mag/cell

     convergence has been achieved in  61 iterations

     negative rho (up, down):  7.838E-03 2.235E-02
     force_hub    :    835.98s CPU    841.41s WALL (       1 calls)
     dndtau       :    817.91s CPU    823.11s WALL (     450 calls)
     dprojdtau    :    621.83s CPU    625.75s WALL (   10350 calls)
     calc_doverla :    158.09s CPU    159.10s WALL (     450 calls)
     matel_dSdtau :    115.82s CPU    116.59s WALL (     900 calls)

     Forces acting on atoms (cartesian axes, Ry/au):

     atom    1 type  3   force =     0.00050386    0.01394017    0.05535570
     atom    2 type  4   force =    -0.00125794   -0.00346657    0.00813348
     atom    3 type  3   force =     0.00065067    0.01186682    0.03559286
     atom    4 type  1   force =    -0.00120147   -0.01866028    0.11131391
     atom    5 type  1   force =    -0.01140364   -0.01183995   -0.03441514
     atom    6 type  4   force =     0.00054934    0.00368835    0.00597801
     atom    7 type  3   force =     0.00355644   -0.01021297   -0.01985268
     atom    8 type  4   force =    -0.00171287    0.00693196    0.00519180
     atom    9 type  3   force =     0.00905238    0.00912791    0.01491178
     atom   10 type  4   force =    -0.01327190   -0.00256762    0.00660471
     atom   11 type  3   force =    -0.00709999   -0.00162000    0.00316094
     atom   12 type  1   force =     0.02161268   -0.01943271    0.04661902
     atom   13 type  4   force =    -0.01386907    0.00007652    0.01512385
     atom   14 type  3   force =     0.00538411   -0.00291489   -0.00434694
     atom   15 type  1   force =     0.02630750   -0.00733083   -0.01173921
     atom   16 type  3   force =    -0.00389426   -0.01726777   -0.00684778
     atom   17 type  1   force =    -0.01274325    0.01974532   -0.03297483
     atom   18 type  4   force =     0.01197134   -0.00323904    0.01054338
     atom   19 type  4   force =    -0.02488135    0.01047237    0.00820425
     atom   20 type  3   force =    -0.01053466   -0.00364125   -0.01564984
     atom   21 type  1   force =    -0.03876085    0.02098640    0.02416500
     atom   22 type  1   force =    -0.01671326   -0.01399286    0.01738093
     atom   23 type  4   force =     0.00116056    0.02256288    0.00991443
     atom   24 type  2   force =     0.00854215   -0.01795378   -0.00359922
     atom   25 type  5   force =     0.00447164    0.00053510    0.03063539
     atom   26 type  5   force =     0.00112033    0.00012447   -0.02908838
     atom   27 type  5   force =    -0.00071695    0.00216145    0.03350229
     atom   28 type  5   force =     0.00609286   -0.00161363    0.00811378
     atom   29 type  5   force =     0.01317542    0.00054957    0.01805843
     atom   30 type  5   force =    -0.00029064   -0.00050209    0.00602471
     atom   31 type  5   force =    -0.01061234   -0.00194106    0.01730740
     atom   32 type  5   force =    -0.00113664    0.00350761    0.00095318
     atom   33 type  5   force =     0.00109530    0.00601202   -0.04008540
     atom   34 type  5   force =     0.02270130   -0.00532802   -0.04100916
     atom   35 type  5   force =     0.00023723    0.00780610   -0.03833462
     atom   36 type  5   force =    -0.02200375   -0.00491085   -0.04149164
     atom   37 type  5   force =     0.00047046   -0.00754659   -0.04045641
     atom   38 type  5   force =     0.02632213    0.00946538   -0.03898207
     atom   39 type  5   force =     0.00036791   -0.01316032   -0.03816859
     atom   40 type  5   force =    -0.02208583    0.00588752   -0.04239826
     atom   41 type  5   force =     0.00222512    0.00158764   -0.01859771
     atom   42 type  5   force =     0.00186807    0.00091332   -0.02499871
     atom   43 type  5   force =    -0.00681442   -0.00499854    0.00606577
     atom   44 type  5   force =    -0.00505631   -0.00381832   -0.00497672
     atom   45 type  5   force =    -0.02676659   -0.00154015    0.03454842
     atom   46 type  5   force =     0.00019771    0.00463629    0.06649436
     atom   47 type  5   force =     0.01616286   -0.00126128    0.00784394
     atom   48 type  5   force =     0.00039568    0.01257953    0.00447977
     atom   49 type  5   force =    -0.00456680    0.00701006    0.00070906
     atom   50 type  5   force =    -0.00854870    0.00164009   -0.00577692
     atom   51 type  5   force =     0.00195953    0.00254917    0.00317349
     atom   52 type  5   force =    -0.00349976    0.01988293   -0.01030874
     atom   53 type  5   force =     0.00110689   -0.01433930   -0.00192385
     atom   54 type  5   force =    -0.01917572    0.01657262   -0.00224920
     atom   55 type  5   force =    -0.00425930   -0.01594785   -0.00475454
     atom   56 type  5   force =     0.01859718    0.02386896   -0.00138936
     atom   57 type  5   force =     0.00806165   -0.01117770    0.00049502
     atom   58 type  5   force =     0.01630108   -0.00123917   -0.01894288
     atom   59 type  5   force =     0.00020382   -0.00126594    0.00454236
     atom   60 type  5   force =    -0.00252220    0.01072680    0.00291612
     atom   61 type  5   force =     0.00600556   -0.00723764   -0.01873870
     atom   62 type  5   force =    -0.01839675    0.00868776   -0.00398253
     atom   63 type  5   force =     0.03031085    0.01326141   -0.03427112
     atom   64 type  5   force =    -0.00228473   -0.00011160   -0.01263239
     atom   65 type  5   force =     0.03559951   -0.01234659   -0.00024273
     atom   66 type  5   force =     0.01246677    0.02643208   -0.00156840
     atom   67 type  5   force =    -0.02900413   -0.02897808    0.00716936
     atom   68 type  5   force =    -0.00108249   -0.00319204    0.00291878
     atom   69 type  5   force =     0.04237313    0.00797120    0.01083765
     atom   70 type  5   force =    -0.00073529   -0.03724058   -0.00282304
     atom   71 type  5   force =    -0.01157483   -0.00054098    0.00372418
     atom   72 type  5   force =    -0.00161301   -0.00465727   -0.00337546
     atom   73 type  5   force =    -0.03742190   -0.00015321    0.01136154
     atom   74 type  5   force =     0.03827969    0.00009580   -0.01092123
     atom   75 type  6   force =     0.00005292    0.00532575    0.00184537

     Total force =     0.178183     Total SCF correction =     0.001220

     Writing all to output data dir /anvil/projects/x-che260157/sts/runs/hea/branch_panel/tmp_leader_pull2.10__ortho/leader_pull2.10__ortho.save/ :
     XML data file, charge density, pseudopotentials, collected wavefunctions

     init_run     :     37.49s CPU     38.45s WALL (       1 calls)
     electrons    :   2939.57s CPU   3011.48s WALL (       1 calls)
     forces       :    849.13s CPU    854.98s WALL (       1 calls)

     Called by init_run:
     wfcinit      :     25.58s CPU     26.16s WALL (       1 calls)
     potinit      :      2.99s CPU      3.08s WALL (       1 calls)
     hinit0       :      1.51s CPU      1.54s WALL (       1 calls)

     Called by electrons:
     c_bands      :   2330.04s CPU   2369.29s WALL (      61 calls)
     sum_band     :    403.28s CPU    421.29s WALL (      61 calls)
     v_of_rho     :     86.51s CPU     88.57s WALL (      62 calls)
     newd         :     46.89s CPU     58.84s WALL (      62 calls)
     PAW_pot      :     19.33s CPU     19.41s WALL (      62 calls)
     mix_rho      :     40.25s CPU     40.64s WALL (      61 calls)

     Called by c_bands:
     init_us_2    :     47.00s CPU     47.74s WALL (     252 calls)
     cegterg      :   2105.14s CPU   2142.72s WALL (     122 calls)

     Called by *egterg:
     cdiaghg      :     34.75s CPU     35.02s WALL (     381 calls)
     h_psi        :   1221.03s CPU   1238.45s WALL (     383 calls)
     s_psi        :    201.42s CPU    203.03s WALL (     389 calls)
     g_psi        :      3.56s CPU      3.59s WALL (     259 calls)

     Called by h_psi:
     h_psi:calbec :    213.59s CPU    215.12s WALL (     383 calls)
     vloc_psi     :    494.33s CPU    498.93s WALL (     383 calls)
                                        0.00s GPU  (     383 calls)
     add_vuspsi   :    205.40s CPU    206.81s WALL (     383 calls)
     vhpsi        :    300.36s CPU    304.07s WALL (     383 calls)

     General routines
     calbec       :    503.72s CPU    507.56s WALL (    4626 calls)
     fft          :     69.77s CPU     70.57s WALL (    1563 calls)
     ffts         :     22.82s CPU     22.99s WALL (    7626 calls)
     fftw         :    567.62s CPU    573.29s WALL (  252758 calls)
     interpolate  :      8.13s CPU      8.21s WALL (     124 calls)

     Parallel routines

     Hubbard U routines
     new_ns       :     26.68s CPU     27.01s WALL (      61 calls)
     vhpsi        :    300.36s CPU    304.07s WALL (     383 calls)
     force_hub    :    835.98s CPU    841.41s WALL (       1 calls)

     PWSCF        :      1h 3m CPU      1h 5m WALL


   This run was terminated on:   8:35:26  17Sep2026            

=------------------------------------------------------------------------------=
   JOB DONE.
=------------------------------------------------------------------------------=
Note: The following floating-point exceptions are signalling: IEEE_UNDERFLOW_FLAG IEEE_DENORMAL
Note: The following floating-point exceptions are signalling: IEEE_UNDERFLOW_FLAG IEEE_DENORMAL
Note: The following floating-point exceptions are signalling: IEEE_DENORMAL
Note: The following floating-point exceptions are signalling: IEEE_DENORMAL
Note: The following floating-point exceptions are signalling: IEEE_UNDERFLOW_FLAG IEEE_DENORMAL
Note: The following floating-point exceptions are signalling: IEEE_UNDERFLOW_FLAG IEEE_DENORMAL
Note: The following floating-point exceptions are signalling: IEEE_DENORMAL
Note: The following floating-point exceptions are signalling: IEEE_UNDERFLOW_FLAG IEEE_DENORMAL
Note: The following floating-point exceptions are signalling: IEEE_DENORMAL
Note: The following floating-point exceptions are signalling: IEEE_UNDERFLOW_FLAG IEEE_DENORMAL
Note: The following floating-point exceptions are signalling: IEEE_UNDERFLOW_FLAG IEEE_DENORMAL
Note: The following floating-point exceptions are signalling: IEEE_UNDERFLOW_FLAG IEEE_DENORMAL
Note: The following floating-point exceptions are signalling: IEEE_UNDERFLOW_FLAG IEEE_DENORMAL
Note: The following floating-point exceptions are signalling: IEEE_UNDERFLOW_FLAG IEEE_DENORMAL
Note: The following floating-point exceptions are signalling: IEEE_UNDERFLOW_FLAG IEEE_DENORMAL
Note: The following floating-point exceptions are signalling: IEEE_UNDERFLOW_FLAG IEEE_DENORMAL
Note: The following floating-point exceptions are signalling: IEEE_UNDERFLOW_FLAG IEEE_DENORMAL
Note: The following floating-point exceptions are signalling: IEEE_UNDERFLOW_FLAG IEEE_DENORMAL
Note: The following floating-point exceptions are signalling: IEEE_DENORMAL
Note: The following floating-point exceptions are signalling: IEEE_DENORMAL
Note: The following floating-point exceptions are signalling: IEEE_UNDERFLOW_FLAG IEEE_DENORMAL
Note: The following floating-point exceptions are signalling: IEEE_UNDERFLOW_FLAG IEEE_DENORMAL
Note: The following floating-point exceptions are signalling: IEEE_UNDERFLOW_FLAG IEEE_DENORMAL
Note: The following floating-point exceptions are signalling: IEEE_DENORMAL
Note: The following floating-point exceptions are signalling: IEEE_DENORMAL
Note: The following floating-point exceptions are signalling: IEEE_UNDERFLOW_FLAG IEEE_DENORMAL
Note: The following floating-point exceptions are signalling: IEEE_UNDERFLOW_FLAG IEEE_DENORMAL
Note: The following floating-point exceptions are signalling: IEEE_UNDERFLOW_FLAG IEEE_DENORMAL
Note: The following floating-point exceptions are signalling: IEEE_DENORMAL
Note: The following floating-point exceptions are signalling: IEEE_UNDERFLOW_FLAG IEEE_DENORMAL
Note: The following floating-point exceptions are signalling: IEEE_UNDERFLOW_FLAG IEEE_DENORMAL
Note: The following floating-point exceptions are signalling: IEEE_UNDERFLOW_FLAG IEEE_DENORMAL
Note: The following floating-point exceptions are signalling: IEEE_UNDERFLOW_FLAG IEEE_DENORMAL
Note: The following floating-point exceptions are signalling: IEEE_DENORMAL
Note: The following floating-point exceptions are signalling: IEEE_UNDERFLOW_FLAG IEEE_DENORMAL
Note: The following floating-point exceptions are signalling: IEEE_DENORMAL
Note: The following floating-point exceptions are signalling: IEEE_UNDERFLOW_FLAG IEEE_DENORMAL
Note: The following floating-point exceptions are signalling: IEEE_DENORMAL
Note: The following floating-point exceptions are signalling: IEEE_DENORMAL
Note: The following floating-point exceptions are signalling: IEEE_UNDERFLOW_FLAG IEEE_DENORMAL
Note: The following floating-point exceptions are signalling: IEEE_DENORMAL
Note: The following floating-point exceptions are signalling: IEEE_UNDERFLOW_FLAG IEEE_DENORMAL
Note: The following floating-point exceptions are signalling: IEEE_DENORMAL
Note: The following floating-point exceptions are signalling: IEEE_DENORMAL
Note: The following floating-point exceptions are signalling: IEEE_UNDERFLOW_FLAG IEEE_DENORMAL
Note: The following floating-point exceptions are signalling: IEEE_UNDERFLOW_FLAG IEEE_DENORMAL
Note: The following floating-point exceptions are signalling: IEEE_UNDERFLOW_FLAG IEEE_DENORMAL
Note: The following floating-point exceptions are signalling: IEEE_UNDERFLOW_FLAG IEEE_DENORMAL
Note: The following floating-point exceptions are signalling: IEEE_UNDERFLOW_FLAG IEEE_DENORMAL
Note: The following floating-point exceptions are signalling: IEEE_DENORMAL
Note: The following floating-point exceptions are signalling: IEEE_DENORMAL
Note: The following floating-point exceptions are signalling: IEEE_UNDERFLOW_FLAG IEEE_DENORMAL
Note: The following floating-point exceptions are signalling: IEEE_UNDERFLOW_FLAG IEEE_DENORMAL
Note: The following floating-point exceptions are signalling: IEEE_UNDERFLOW_FLAG IEEE_DENORMAL
Note: The following floating-point exceptions are signalling: IEEE_DENORMAL
Note: The following floating-point exceptions are signalling: IEEE_UNDERFLOW_FLAG IEEE_DENORMAL
Note: The following floating-point exceptions are signalling: IEEE_DENORMAL
Note: The following floating-point exceptions are signalling: IEEE_UNDERFLOW_FLAG IEEE_DENORMAL
Note: The following floating-point exceptions are signalling: IEEE_UNDERFLOW_FLAG IEEE_DENORMAL
Note: The following floating-point exceptions are signalling: IEEE_UNDERFLOW_FLAG IEEE_DENORMAL
Note: The following floating-point exceptions are signalling: IEEE_UNDERFLOW_FLAG IEEE_DENORMAL
Note: The following floating-point exceptions are signalling: IEEE_UNDERFLOW_FLAG IEEE_DENORMAL
Note: The following floating-point exceptions are signalling: IEEE_DENORMAL
Note: The following floating-point exceptions are signalling: IEEE_UNDERFLOW_FLAG IEEE_DENORMAL
Note: The following floating-point exceptions are signalling: IEEE_UNDERFLOW_FLAG IEEE_DENORMAL
Note: The following floating-point exceptions are signalling: IEEE_DENORMAL
Note: The following floating-point exceptions are signalling: IEEE_UNDERFLOW_FLAG IEEE_DENORMAL
Note: The following floating-point exceptions are signalling: IEEE_UNDERFLOW_FLAG IEEE_DENORMAL
Note: The following floating-point exceptions are signalling: IEEE_UNDERFLOW_FLAG IEEE_DENORMAL
Note: The following floating-point exceptions are signalling: IEEE_DENORMAL
Note: The following floating-point exceptions are signalling: IEEE_UNDERFLOW_FLAG IEEE_DENORMAL
Note: The following floating-point exceptions are signalling: IEEE_UNDERFLOW_FLAG IEEE_DENORMAL
Note: The following floating-point exceptions are signalling: IEEE_UNDERFLOW_FLAG IEEE_DENORMAL
Note: The following floating-point exceptions are signalling: IEEE_UNDERFLOW_FLAG IEEE_DENORMAL
Note: The following floating-point exceptions are signalling: IEEE_UNDERFLOW_FLAG IEEE_DENORMAL
Note: The following floating-point exceptions are signalling: IEEE_UNDERFLOW_FLAG IEEE_DENORMAL
Note: The following floating-point exceptions are signalling: IEEE_UNDERFLOW_FLAG IEEE_DENORMAL
Note: The following floating-point exceptions are signalling: IEEE_UNDERFLOW_FLAG IEEE_DENORMAL
Note: The following floating-point exceptions are signalling: IEEE_UNDERFLOW_FLAG IEEE_DENORMAL
Note: The following floating-point exceptions are signalling: IEEE_UNDERFLOW_FLAG IEEE_DENORMAL
Note: The following floating-point exceptions are signalling: IEEE_UNDERFLOW_FLAG IEEE_DENORMAL
Note: The following floating-point exceptions are signalling: IEEE_UNDERFLOW_FLAG IEEE_DENORMAL
