
     Program PWSCF v.7.5 starts on 13Aug2026 at 18:24:22 

     This program is part of the open-source Quantum ESPRESSO suite
     for quantum simulation of materials; please cite
         "P. Giannozzi et al., J. Phys.:Condens. Matter 21 395502 (2009);
         "P. Giannozzi et al., J. Phys.:Condens. Matter 29 465901 (2017);
         "P. Giannozzi et al., J. Chem. Phys. 152 154105 (2020);
          URL http://www.quantum-espresso.org", 
     in publications or presentations arising from this work. More details at
     http://www.quantum-espresso.org/quote

     Parallel version (MPI & OpenMP), running on      20 processor cores
     Number of MPI processes:                20
     Threads/MPI process:                     1

     MPI processes distributed on     1 nodes
     93297 MiB available memory on the printing compute node when the environment starts

     Reading input from ref__2x1o_mir.run.in

     Current dimensions of program PWSCF are:
     Max number of different atomic species (ntypx) = 10
     Max number of k-points (npk) =  40000
     Max angular momentum in pseudopotentials (lmaxx) =  4
     file O.pbe-n-kjpaw_psl.0.1.UPF: wavefunction(s)  2P renormalized
     Message from routine setup:
     using ibrav=0 with symmetry is DISCOURAGED, use correct ibrav instead

     K-points division:     npool     =       2
     R & G space division:  proc/nbgrp/npool/nimage =      10
     Subspace diagonalization in iterative solution of the eigenvalue problem:
     one sub-group per band group will be used
     ELPA distributed-memory algorithm (size of sub-group:  2*  2 procs)


     Parallelization info
     --------------------
     sticks:   dense  smooth     PW     G-vecs:    dense   smooth      PW
     Min         719     359     97               185099    65434    9249
     Max         720     360     98               185110    65438    9257
     Sum        7195    3595    973              1851033   654359   92507

     Using Slab Decomposition



     bravais-lattice index     =            0
     lattice parameter (alat)  =      11.7428  a.u.
     unit-cell volume          =    6769.1998 (a.u.)^3
     number of atoms/cell      =           37
     number of atomic types    =            2
     number of electrons       =       342.00
     number of Kohn-Sham states=          205
     kinetic-energy cutoff     =      80.0000  Ry
     charge density cutoff     =     640.0000  Ry
     scf convergence threshold =      1.0E-06
     mixing beta               =       0.3000
     number of iterations used =            8  local-TF  mixing
     energy convergence thresh.=      1.0E-04
     force convergence thresh. =      2.0E-03
     Exchange-correlation= SLA  PW   PBX  PBC
                           (   1   4   3   4   0   0   0)
     nstep                     =          200


     celldm(1)=  11.742758  celldm(2)=   0.000000  celldm(3)=   0.000000
     celldm(4)=   0.000000  celldm(5)=   0.000000  celldm(6)=   0.000000

     crystal axes: (cart. coord. in units of alat)
               a(1) = (   1.000000   0.000000   0.000000 )  
               a(2) = (   0.000000   1.022312   0.000000 )  
               a(3) = (   0.000000   0.000000   4.089248 )  

     reciprocal axes: (cart. coord. in units 2 pi/alat)
               b(1) = (  1.000000  0.000000  0.000000 )  
               b(2) = (  0.000000  0.978175  0.000000 )  
               b(3) = (  0.000000  0.000000  0.244544 )  


     PseudoPot. # 1 for Ru read from file:
     /usr/share/espresso/pseudo/Ru_ONCV_PBE-1.0.oncvpsp.upf
     MD5 check sum: be037bb81c227cfb9b1461a9f099f4bd
     Pseudo is Norm-conserving, Zval = 16.0
     Generated using ONCVPSP code by D. R. Hamann
     Using radial grid of 1458 points,  6 beta functions with: 
                l(1) =   0
                l(2) =   0
                l(3) =   1
                l(4) =   1
                l(5) =   2
                l(6) =   2

     PseudoPot. # 2 for O  read from file:
     /usr/share/espresso/pseudo/O.pbe-n-kjpaw_psl.0.1.UPF
     MD5 check sum: 0234752ac141de4415c5fc33072bef88
     Pseudo is Projector augmented-wave + core cor, Zval =  6.0
     Generated using "atomic" code by A. Dal Corso  v.5.0.99 svn rev. 10869
     Shape of augmentation charge: BESSEL
     Using radial grid of 1095 points,  4 beta functions with: 
                l(1) =   0
                l(2) =   0
                l(3) =   1
                l(4) =   1
     Q(r) pseudized with 0 coefficients 


     atomic species   valence    mass     pseudopotential
     Ru               16.00   101.07000     Ru( 1.00)
     O                 6.00    15.99900     O ( 1.00)

      2 Sym. Ops. (no inversion) found ( 1 have fractional translation)



   Cartesian axes

     site n.     atom                  positions (alat units)
         1        Ru     tau(   1) = (   0.0000000   0.2555780   1.5334681  )
         2        Ru     tau(   2) = (   0.2500000   0.7667341   1.5334681  )
         3        Ru     tau(   3) = (  -0.0000000   0.7667341   2.0515824  )
         4        Ru     tau(   4) = (   0.2500000   0.2555780   2.0405073  )
         5        Ru     tau(   5) = (  -0.0000000   0.2555780   2.5432701  )
         6        Ru     tau(   6) = (   0.2500000   0.7667340   2.5800866  )
         7        O      tau(   7) = (   0.0000000   0.7667341   1.7328190  )
         8        O      tau(   8) = (   0.0000000   0.7667341   1.3341173  )
         9        O      tau(   9) = (   0.2500000   0.0562272   1.5334681  )
        10        O      tau(  10) = (   0.2500000   0.4549289   1.5334681  )
        11        O      tau(  11) = (  -0.0000001   0.2555779   2.2404116  )
        12        O      tau(  12) = (   0.0000000   0.2555780   1.8452733  )
        13        O      tau(  13) = (   0.2500000   0.5689835   2.0472273  )
        14        O      tau(  14) = (   0.2500000   0.9644846   2.0472273  )
        15        O      tau(  15) = (  -0.0000000   0.7667341   2.7569156  )
        16        O      tau(  16) = (   0.0000001   0.7667341   2.3642513  )
        17        O      tau(  17) = (   0.2500000   0.0610709   2.5697463  )
        18        O      tau(  18) = (   0.2500000   0.4500850   2.5697463  )
        19        Ru     tau(  19) = (   0.5000000   0.2555780   1.5334681  )
        20        Ru     tau(  20) = (   0.7500000   0.7667341   1.5334681  )
        21        Ru     tau(  21) = (   0.5000000   0.7667341   2.0482441  )
        22        Ru     tau(  22) = (   0.7500000   0.2555780   2.0449643  )
        23        Ru     tau(  23) = (   0.5000000   0.2555780   2.5840695  )
        24        Ru     tau(  24) = (   0.7500000   0.7667341   2.5678946  )
        25        O      tau(  25) = (   0.5000000   0.7667341   1.7328190  )
        26        O      tau(  26) = (   0.5000000   0.7667341   1.3341173  )
        27        O      tau(  27) = (   0.7500000   0.0562272   1.5334681  )
        28        O      tau(  28) = (   0.7500000   0.4549289   1.5334681  )
        29        O      tau(  29) = (   0.5000000   0.2555780   2.2498995  )
        30        O      tau(  30) = (   0.5000000   0.2555780   1.8452733  )
        31        O      tau(  31) = (   0.7500000   0.5682017   2.0459787  )
        32        O      tau(  32) = (   0.7500000   0.9652665   2.0459787  )
        33        O      tau(  33) = (   0.5000000   0.7667341   2.7454915  )
        34        O      tau(  34) = (   0.5000000   0.7667341   2.3588749  )
        35        O      tau(  35) = (   0.7500000   0.0595125   2.5530399  )
        36        O      tau(  36) = (   0.7500000   0.4516436   2.5530399  )
        37        O      tau(  37) = (   0.5000000   0.2555780   2.8573966  )

     number of k points=     9  Marzari-Vanderbilt smearing, width (Ry)=  0.0100
                       cart. coord. in units 2pi/alat
        k(    1) = (   0.0000000   0.0000000   0.0000000), wk =   0.1250000
        k(    2) = (   0.0000000   0.2445437   0.0000000), wk =   0.2500000
        k(    3) = (   0.0000000  -0.4890874   0.0000000), wk =   0.1250000
        k(    4) = (   0.2500000   0.0000000   0.0000000), wk =   0.2500000
        k(    5) = (   0.2500000   0.2445437   0.0000000), wk =   0.5000000
        k(    6) = (   0.2500000  -0.4890874   0.0000000), wk =   0.2500000
        k(    7) = (  -0.5000000   0.0000000   0.0000000), wk =   0.1250000
        k(    8) = (  -0.5000000   0.2445437   0.0000000), wk =   0.2500000
        k(    9) = (  -0.5000000  -0.4890874   0.0000000), wk =   0.1250000

     Dense  grid:  1851033 G-vectors     FFT dimensions: (  96, 100, 400)

     Smooth grid:   654359 G-vectors     FFT dimensions: (  72,  72, 288)

     Estimated max dynamical RAM per process >     494.10 MB

     Estimated total dynamical RAM >       9.21 GB

     Initial potential from superposition of free atoms

     starting charge     341.9933, renormalised to     342.0000

     negative rho (up, down):  1.826E-04 0.000E+00
     Starting wfcs are  220 randomized atomic wfcs
     Checking if some PAW data can be deallocated... 

     total cpu time spent up to now is        9.5 secs

     per-process dynamical memory:   301.6 Mb

     Self-consistent Calculation

     iteration #  1     ecut=    80.00 Ry     beta= 0.30
     Davidson diagonalization with overlap
     ethr =  1.00E-02,  avg # of iterations =  2.0

     negative rho (up, down):  3.356E-07 0.000E+00

     total cpu time spent up to now is       33.1 secs

     total energy              =   -3302.58802309 Ry
     estimated scf accuracy    <       9.64216228 Ry

     iteration #  2     ecut=    80.00 Ry     beta= 0.30
     Davidson diagonalization with overlap
     ethr =  2.82E-03,  avg # of iterations =  1.0

     total cpu time spent up to now is       52.2 secs

     total energy              =   -3302.78874109 Ry
     estimated scf accuracy    <       2.68977276 Ry

     iteration #  3     ecut=    80.00 Ry     beta= 0.30
     Davidson diagonalization with overlap
     ethr =  7.86E-04,  avg # of iterations =  2.0

     total cpu time spent up to now is       73.1 secs

     total energy              =   -3302.86677739 Ry
     estimated scf accuracy    <       1.24125304 Ry

     iteration #  4     ecut=    80.00 Ry     beta= 0.30
     Davidson diagonalization with overlap
     ethr =  3.63E-04,  avg # of iterations =  2.8

     total cpu time spent up to now is       93.9 secs

     total energy              =   -3302.92674516 Ry
     estimated scf accuracy    <       0.25832672 Ry

     iteration #  5     ecut=    80.00 Ry     beta= 0.30
     Davidson diagonalization with overlap
     ethr =  7.55E-05,  avg # of iterations =  2.9

     total cpu time spent up to now is      114.9 secs

     total energy              =   -3302.92539038 Ry
     estimated scf accuracy    <       0.12864849 Ry

     iteration #  6     ecut=    80.00 Ry     beta= 0.30
     Davidson diagonalization with overlap
     ethr =  3.76E-05,  avg # of iterations =  1.6

     total cpu time spent up to now is      134.6 secs

     total energy              =   -3302.92340100 Ry
     estimated scf accuracy    <       0.04872511 Ry

     iteration #  7     ecut=    80.00 Ry     beta= 0.30
     Davidson diagonalization with overlap
     ethr =  1.42E-05,  avg # of iterations =  3.9

     total cpu time spent up to now is      156.1 secs

     total energy              =   -3302.92469110 Ry
     estimated scf accuracy    <       0.02963126 Ry

     iteration #  8     ecut=    80.00 Ry     beta= 0.30
     Davidson diagonalization with overlap
     ethr =  8.66E-06,  avg # of iterations =  1.7

     total cpu time spent up to now is      175.8 secs

     total energy              =   -3302.92314699 Ry
     estimated scf accuracy    <       0.02458971 Ry

     iteration #  9     ecut=    80.00 Ry     beta= 0.30
     Davidson diagonalization with overlap
     ethr =  7.19E-06,  avg # of iterations =  3.7

     total cpu time spent up to now is      197.1 secs

     total energy              =   -3302.92185842 Ry
     estimated scf accuracy    <       0.01410422 Ry

     iteration # 10     ecut=    80.00 Ry     beta= 0.30
     Davidson diagonalization with overlap
     ethr =  4.12E-06,  avg # of iterations =  8.4

     negative rho (up, down):  1.473E-05 0.000E+00

     total cpu time spent up to now is      221.1 secs

     total energy              =   -3302.92143038 Ry
     estimated scf accuracy    <       0.00763741 Ry

     iteration # 11     ecut=    80.00 Ry     beta= 0.30
     Davidson diagonalization with overlap
     ethr =  2.23E-06,  avg # of iterations =  3.9

     negative rho (up, down):  2.571E-04 0.000E+00

     total cpu time spent up to now is      242.0 secs

     total energy              =   -3302.92110419 Ry
     estimated scf accuracy    <       0.00531688 Ry

     iteration # 12     ecut=    80.00 Ry     beta= 0.30
     Davidson diagonalization with overlap
     ethr =  1.55E-06,  avg # of iterations =  1.0

     negative rho (up, down):  5.102E-03 0.000E+00

     total cpu time spent up to now is      259.9 secs

     total energy              =   -3302.92067623 Ry
     estimated scf accuracy    <       0.00374953 Ry

     iteration # 13     ecut=    80.00 Ry     beta= 0.30
     Davidson diagonalization with overlap
     ethr =  1.10E-06,  avg # of iterations =  1.3

     negative rho (up, down):  7.794E-03 0.000E+00

     total cpu time spent up to now is      278.7 secs

     total energy              =   -3302.92061794 Ry
     estimated scf accuracy    <       0.00185457 Ry

     iteration # 14     ecut=    80.00 Ry     beta= 0.30
     Davidson diagonalization with overlap
     ethr =  5.42E-07,  avg # of iterations =  2.2

     negative rho (up, down):  9.689E-03 0.000E+00

     total cpu time spent up to now is      297.9 secs

     total energy              =   -3302.92051213 Ry
     estimated scf accuracy    <       0.00126212 Ry

     iteration # 15     ecut=    80.00 Ry     beta= 0.30
     Davidson diagonalization with overlap
     ethr =  3.69E-07,  avg # of iterations =  1.0

     negative rho (up, down):  7.898E-03 0.000E+00

     total cpu time spent up to now is      315.9 secs

     total energy              =   -3302.92046785 Ry
     estimated scf accuracy    <       0.00080393 Ry

     iteration # 16     ecut=    80.00 Ry     beta= 0.30
     Davidson diagonalization with overlap
     ethr =  2.35E-07,  avg # of iterations =  1.1

     negative rho (up, down):  6.402E-03 0.000E+00

     total cpu time spent up to now is      334.3 secs

     total energy              =   -3302.92050672 Ry
     estimated scf accuracy    <       0.00040873 Ry

     iteration # 17     ecut=    80.00 Ry     beta= 0.30
     Davidson diagonalization with overlap
     ethr =  1.20E-07,  avg # of iterations =  1.1

     negative rho (up, down):  7.314E-03 0.000E+00

     total cpu time spent up to now is      352.6 secs

     total energy              =   -3302.92058822 Ry
     estimated scf accuracy    <       0.00018131 Ry

     iteration # 18     ecut=    80.00 Ry     beta= 0.30
     Davidson diagonalization with overlap
     ethr =  5.30E-08,  avg # of iterations =  2.0

     negative rho (up, down):  4.045E-03 0.000E+00

     total cpu time spent up to now is      372.8 secs

     total energy              =   -3302.92060781 Ry
     estimated scf accuracy    <       0.00011493 Ry

     iteration # 19     ecut=    80.00 Ry     beta= 0.30
     Davidson diagonalization with overlap
     ethr =  3.36E-08,  avg # of iterations =  1.0

     negative rho (up, down):  2.593E-03 0.000E+00

     total cpu time spent up to now is      390.8 secs

     total energy              =   -3302.92062527 Ry
     estimated scf accuracy    <       0.00003469 Ry

     iteration # 20     ecut=    80.00 Ry     beta= 0.30
     Davidson diagonalization with overlap
     ethr =  1.01E-08,  avg # of iterations =  1.1

     negative rho (up, down):  1.413E-03 0.000E+00

     total cpu time spent up to now is      409.2 secs

     total energy              =   -3302.92062830 Ry
     estimated scf accuracy    <       0.00002653 Ry

     iteration # 21     ecut=    80.00 Ry     beta= 0.30
     Davidson diagonalization with overlap
     ethr =  7.76E-09,  avg # of iterations =  1.6

     negative rho (up, down):  8.499E-04 0.000E+00

     total cpu time spent up to now is      428.8 secs

     total energy              =   -3302.92062950 Ry
     estimated scf accuracy    <       0.00001033 Ry

     iteration # 22     ecut=    80.00 Ry     beta= 0.30
     Davidson diagonalization with overlap
     ethr =  3.02E-09,  avg # of iterations =  1.8

     negative rho (up, down):  5.031E-04 0.000E+00

     total cpu time spent up to now is      448.9 secs

     total energy              =   -3302.92063018 Ry
     estimated scf accuracy    <       0.00000368 Ry

     iteration # 23     ecut=    80.00 Ry     beta= 0.30
     Davidson diagonalization with overlap
     ethr =  1.08E-09,  avg # of iterations =  2.0

     negative rho (up, down):  4.255E-04 0.000E+00

     total cpu time spent up to now is      469.2 secs

     total energy              =   -3302.92063054 Ry
     estimated scf accuracy    <       0.00000181 Ry

     iteration # 24     ecut=    80.00 Ry     beta= 0.30
     Davidson diagonalization with overlap
     ethr =  5.30E-10,  avg # of iterations =  1.2

     negative rho (up, down):  2.888E-04 0.000E+00

     total cpu time spent up to now is      487.9 secs

     total energy              =   -3302.92063050 Ry
     estimated scf accuracy    <       0.00000103 Ry

     iteration # 25     ecut=    80.00 Ry     beta= 0.30
     Davidson diagonalization with overlap
     ethr =  3.01E-10,  avg # of iterations =  1.7

     negative rho (up, down):  2.110E-04 0.000E+00

     total cpu time spent up to now is      506.9 secs

     End of self-consistent calculation

          k = 0.0000 0.0000 0.0000 ( 81707 PWs)   bands (ev):

   -73.1778 -72.7484 -72.5935 -72.4764 -72.4645 -72.3511 -72.3392 -72.3081
   -72.2431 -72.1047 -71.9819 -71.9507 -43.7045 -43.0417 -42.9089 -42.8852
   -42.7409 -42.6992 -42.6446 -42.6304 -42.6277 -42.5998 -42.5842 -42.5680
   -42.5521 -42.5204 -42.4956 -42.4490 -42.3981 -42.3454 -42.3405 -42.3371
   -42.3295 -42.3057 -42.2484 -42.2320 -42.1953 -42.1874 -42.1579 -42.1394
   -42.1230 -42.1148 -42.0562 -42.0493 -41.9357 -41.8713 -41.8331 -41.7908
   -18.9182 -18.5961 -18.4522 -18.3462 -18.0382 -17.9208 -17.8097 -17.7674
   -17.7194 -17.6778 -17.6688 -17.6212 -17.6120 -17.5851 -17.5336 -17.3321
   -17.1768 -17.1094 -17.0595 -17.0212 -16.9982 -16.6890 -16.5886 -16.0942
   -16.0573  -7.2345  -7.1800  -7.1615  -6.8404  -6.3079  -6.2208  -6.0353
    -5.8646  -5.8393  -5.7608  -5.7522  -5.6792  -5.6520  -5.6461  -5.6416
    -5.5874  -5.5538  -5.4674  -5.4519  -5.4407  -5.4106  -5.3931  -5.2227
    -5.0781  -5.0670  -5.0483  -4.9935  -4.8982  -4.6240  -4.4882  -4.2084
    -4.0569  -3.8245  -3.6596  -3.6122  -3.6018  -3.5734  -3.5656  -3.3798
    -3.3413  -3.2838  -3.1244  -3.1044  -3.0059  -2.9753  -2.8579  -2.8423
    -2.7491  -2.7090  -2.6778  -2.6000  -2.5871  -2.4289  -2.4005  -2.3636
    -2.3240  -2.3060  -2.1828  -2.1435  -2.0388  -1.9665  -1.9444  -1.7707
    -1.7587  -1.7487  -1.6012  -1.4994  -1.4001  -1.3782  -1.2655  -1.1603
    -1.1121  -0.8642  -0.7229  -0.6839  -0.3774  -0.3711  -0.2126  -0.1539
    -0.1350  -0.0725   0.1353   0.1756   0.2231   0.2595   0.2748   0.4253
     0.5196   0.5680   0.5850   0.6212   0.6354   0.7250   0.8058   0.8565
     0.9673   0.9951   1.0617   1.0770   1.2089   1.3031   1.4679   1.7138
     1.7352   1.9459   2.0383   2.1113   2.1864   2.2678   2.3133   2.3433
     2.4720   2.6670   2.7928   3.1956   3.7509   4.0470   4.2189   4.2692
     4.3308   4.4500   4.5677   4.6375   4.7923   4.8196   4.9647   5.2888
     5.5653   5.5966   5.7266   5.7326   5.8040

          k = 0.0000 0.2445 0.0000 ( 81832 PWs)   bands (ev):

   -73.1778 -72.7484 -72.5935 -72.4764 -72.4645 -72.3510 -72.3392 -72.3081
   -72.2431 -72.1047 -71.9819 -71.9507 -43.7045 -43.0424 -42.9102 -42.8815
   -42.7421 -42.6995 -42.6436 -42.6312 -42.6277 -42.5997 -42.5842 -42.5664
   -42.5541 -42.5205 -42.4956 -42.4490 -42.3983 -42.3454 -42.3404 -42.3371
   -42.3276 -42.3055 -42.2484 -42.2319 -42.1953 -42.1872 -42.1579 -42.1397
   -42.1243 -42.1146 -42.0553 -42.0496 -41.9361 -41.8714 -41.8340 -41.7909
   -18.8252 -18.4661 -18.3846 -18.2904 -18.0405 -17.9365 -17.8824 -17.8453
   -17.8331 -17.8251 -17.7797 -17.6823 -17.4076 -17.3943 -17.3652 -17.3353
   -17.2498 -17.2380 -17.1663 -17.1375 -17.0194 -16.6841 -16.5923 -16.0936
   -16.0544  -6.8785  -6.7863  -6.7106  -6.6915  -6.2995  -6.1805  -6.1157
    -6.0917  -6.0060  -5.9158  -5.7813  -5.7389  -5.6674  -5.5914  -5.5835
    -5.5669  -5.5540  -5.5017  -5.4871  -5.4709  -5.3603  -5.2207  -5.1961
    -5.1780  -5.1216  -4.8101  -4.7162  -4.4521  -4.3371  -4.2316  -4.0682
    -3.9766  -3.9452  -3.8369  -3.7985  -3.7383  -3.6774  -3.6272  -3.5662
    -3.5624  -3.4914  -3.3493  -3.1974  -3.1506  -3.0086  -2.9761  -2.8811
    -2.8041  -2.7844  -2.7090  -2.6883  -2.6466  -2.5614  -2.5541  -2.4831
    -2.3470  -2.3231  -2.3018  -2.2098  -2.1747  -2.1135  -2.0400  -1.9041
    -1.8027  -1.7679  -1.6956  -1.6476  -1.5542  -1.4700  -1.3714  -1.3204
    -1.1394  -1.0284  -0.9168  -0.7893  -0.0930  -0.0257   0.0198   0.0811
     0.1280   0.1501   0.2119   0.3091   0.3871   0.4125   0.4285   0.4552
     0.4871   0.5360   0.5540   0.5714   0.5886   0.6016   0.6526   0.6643
     0.8283   0.9361   1.0523   1.1454   1.1867   1.3574   1.7724   1.8367
     1.9481   2.0570   2.0777   2.1418   2.1597   2.2491   2.3206   2.3847
     2.4546   2.5826   2.8711   3.2430   3.3042   3.5233   3.6574   4.0182
     4.2637   4.3742   4.8949   5.0364   5.2847   5.3409   5.4996   5.5550
     5.6045   5.6306   5.6555   5.6800   5.7836

          k = 0.0000-0.4891 0.0000 ( 81886 PWs)   bands (ev):

   -73.1778 -72.7484 -72.5935 -72.4763 -72.4645 -72.3510 -72.3392 -72.3081
   -72.2432 -72.1047 -71.9819 -71.9507 -43.7045 -43.0431 -42.9113 -42.8781
   -42.7434 -42.6998 -42.6427 -42.6319 -42.6277 -42.5997 -42.5842 -42.5647
   -42.5559 -42.5206 -42.4956 -42.4490 -42.3986 -42.3455 -42.3404 -42.3371
   -42.3257 -42.3054 -42.2484 -42.2318 -42.1953 -42.1869 -42.1579 -42.1400
   -42.1256 -42.1143 -42.0544 -42.0499 -41.9366 -41.8714 -41.8350 -41.7909
   -18.7063 -18.3977 -18.2248 -18.1312 -18.0428 -18.0039 -17.9725 -17.9333
   -17.9176 -17.8895 -17.7821 -17.7085 -17.4157 -17.4075 -17.3558 -17.3197
   -17.2947 -17.2928 -17.2678 -17.1558 -17.0186 -16.6792 -16.5980 -16.0931
   -16.0522  -6.8582  -6.3418  -6.3273  -6.2718  -6.1493  -6.1241  -6.1055
    -5.9823  -5.9743  -5.9073  -5.7330  -5.6946  -5.6675  -5.5920  -5.5647
    -5.5224  -5.4986  -5.4681  -5.4588  -5.3814  -5.3110  -5.2131  -5.1859
    -5.1115  -4.8998  -4.8250  -4.8165  -4.4964  -4.4476  -4.3775  -4.2751
    -4.2431  -4.1942  -4.0624  -3.8849  -3.8336  -3.8087  -3.6461  -3.5553
    -3.5264  -3.4226  -3.3839  -3.3308  -3.1769  -3.1591  -3.1058  -3.0668
    -3.0649  -2.9972  -2.9286  -2.8406  -2.7467  -2.6268  -2.5658  -2.4453
    -2.3962  -2.3359  -2.3242  -2.1585  -2.1210  -2.0466  -1.9297  -1.8291
    -1.7475  -1.7336  -1.7022  -1.6129  -1.5970  -1.4770  -1.4295  -1.3692
    -1.2032  -1.1664  -1.0145  -0.9467  -0.5188  -0.2679  -0.2078  -0.0878
    -0.0208   0.2301   0.2428   0.2824   0.4950   0.5337   0.5496   0.5613
     0.6200   0.6601   0.7400   0.8218   0.8287   0.8424   0.8699   0.8746
     0.8966   0.9828   1.1303   1.1784   1.2042   1.2841   1.6279   1.7292
     1.8242   1.9322   2.1454   2.1495   2.1656   2.3974   2.4153   2.4675
     2.4896   2.6589   2.9092   3.0199   3.1428   3.2705   3.2791   4.2550
     4.3034   4.3711   5.1916   5.2338   5.2610   5.2735   5.2976   5.3319
     5.5607   5.7708   5.8227   5.8810   5.9655

          k = 0.2500 0.0000 0.0000 ( 81703 PWs)   bands (ev):

   -73.1778 -72.7483 -72.5936 -72.4751 -72.4657 -72.3497 -72.3405 -72.3079
   -72.2434 -72.1047 -71.9814 -71.9511 -43.7046 -43.0378 -42.8940 -42.8849
   -42.7409 -42.6994 -42.6426 -42.6324 -42.6271 -42.6152 -42.5837 -42.5658
   -42.5543 -42.5064 -42.4852 -42.4494 -42.3766 -42.3663 -42.3415 -42.3331
   -42.3144 -42.2995 -42.2497 -42.2423 -42.2059 -42.1913 -42.1655 -42.1578
   -42.1217 -42.1193 -42.0508 -42.0297 -41.9358 -41.8986 -41.8301 -41.7938
   -18.7929 -18.4782 -18.3508 -18.2571 -18.0813 -17.9549 -17.8262 -17.8042
   -17.7955 -17.7511 -17.6810 -17.6125 -17.5407 -17.5116 -17.4590 -17.3127
   -17.1938 -17.1856 -17.1399 -17.0995 -17.0807 -16.7510 -16.6041 -16.1317
   -16.0999  -7.0604  -7.0040  -6.9833  -6.6609  -6.3061  -6.1978  -6.0576
    -5.9695  -5.9215  -5.8655  -5.8485  -5.7547  -5.7448  -5.7395  -5.6231
    -5.5840  -5.5334  -5.5177  -5.4154  -5.4048  -5.3534  -5.1847  -5.1310
    -4.9476  -4.9415  -4.7921  -4.7394  -4.6639  -4.5272  -4.3336  -4.2460
    -4.1278  -4.0586  -3.9863  -3.8873  -3.6099  -3.4493  -3.4288  -3.3317
    -3.3015  -3.2751  -3.2234  -3.1609  -3.1181  -3.0344  -3.0301  -2.9069
    -2.8785  -2.8777  -2.7531  -2.7292  -2.7114  -2.6579  -2.5992  -2.4041
    -2.3843  -2.3627  -2.2676  -2.1993  -2.1166  -2.0811  -2.0049  -1.9908
    -1.9704  -1.9207  -1.7936  -1.7362  -1.4533  -1.4435  -1.4002  -1.2729
    -1.1383  -1.0021  -0.9080  -0.7100  -0.2293  -0.1542   0.0156   0.0281
     0.1186   0.1902   0.3306   0.3724   0.3947   0.4280   0.5099   0.5641
     0.5957   0.6309   0.6895   0.7146   0.7532   0.8162   0.9269   1.0015
     1.0415   1.1433   1.2518   1.2963   1.3174   1.4714   1.5725   1.5728
     1.6327   1.7860   1.8149   1.9672   2.0994   2.1676   2.3333   2.3809
     2.4343   2.6488   2.7214   3.4219   3.8878   4.1802   4.2813   4.3185
     4.4606   4.5321   4.5668   4.6773   4.8261   4.8581   4.9848   5.0462
     5.1280   5.3929   5.4094   5.4822   5.5392

          k = 0.2500 0.2445 0.0000 ( 81774 PWs)   bands (ev):

   -73.1778 -72.7483 -72.5936 -72.4751 -72.4657 -72.3497 -72.3405 -72.3079
   -72.2434 -72.1047 -71.9814 -71.9511 -43.7046 -43.0385 -42.8963 -42.8805
   -42.7419 -42.6999 -42.6419 -42.6328 -42.6271 -42.6151 -42.5837 -42.5646
   -42.5555 -42.5064 -42.4853 -42.4494 -42.3768 -42.3663 -42.3416 -42.3331
   -42.3141 -42.2982 -42.2497 -42.2423 -42.2059 -42.1912 -42.1656 -42.1578
   -42.1226 -42.1190 -42.0512 -42.0290 -41.9362 -41.8985 -41.8309 -41.7941
   -18.7085 -18.3538 -18.2985 -18.1828 -18.0662 -17.9555 -17.8710 -17.8408
   -17.8253 -17.7883 -17.7174 -17.6658 -17.4857 -17.4608 -17.4072 -17.3212
   -17.3083 -17.2935 -17.2376 -17.1674 -17.0955 -16.7481 -16.6070 -16.1318
   -16.0977  -6.7166  -6.6253  -6.5486  -6.5396  -6.2961  -6.0982  -6.0427
    -5.9915  -5.9306  -5.8593  -5.7797  -5.7417  -5.6905  -5.6394  -5.6181
    -5.5859  -5.5117  -5.4976  -5.4688  -5.4214  -5.3238  -5.2031  -5.1034
    -4.9470  -4.8783  -4.6726  -4.6553  -4.5914  -4.4388  -4.3619  -4.2422
    -4.1311  -4.0547  -3.9883  -3.9470  -3.7405  -3.7185  -3.5841  -3.5184
    -3.4364  -3.3795  -3.3338  -3.2595  -3.2495  -3.2251  -3.1483  -3.1074
    -3.0540  -3.0181  -2.9367  -2.8473  -2.7967  -2.7534  -2.6794  -2.6378
    -2.6023  -2.4738  -2.2824  -2.2292  -2.1710  -2.1187  -2.0803  -1.9706
    -1.9347  -1.8831  -1.8123  -1.6291  -1.5836  -1.5093  -1.3406  -1.2540
    -1.0552  -1.0220  -0.9710  -0.8273  -0.1411   0.0036   0.0599   0.1138
     0.2087   0.3000   0.3458   0.3905   0.4780   0.5430   0.5871   0.6497
     0.6702   0.7080   0.7374   0.7873   0.8190   0.8828   0.8891   0.9616
     0.9967   1.1047   1.2327   1.3365   1.3553   1.4631   1.6198   1.7263
     1.8249   1.8829   1.9237   2.0220   2.0517   2.0970   2.1234   2.3926
     2.5396   2.6051   2.8837   3.3708   3.5681   3.7155   3.8292   4.1078
     4.3328   4.3979   4.7198   4.8861   4.9791   5.0529   5.1573   5.2972
     5.3190   5.3836   5.4220   5.5845   5.7039

          k = 0.2500-0.4891 0.0000 ( 81830 PWs)   bands (ev):

   -73.1778 -72.7483 -72.5936 -72.4751 -72.4657 -72.3497 -72.3405 -72.3079
   -72.2434 -72.1047 -71.9814 -71.9511 -43.7046 -43.0391 -42.8976 -42.8768
   -42.7430 -42.7004 -42.6412 -42.6333 -42.6271 -42.6151 -42.5837 -42.5634
   -42.5567 -42.5064 -42.4854 -42.4494 -42.3770 -42.3663 -42.3417 -42.3331
   -42.3139 -42.2969 -42.2496 -42.2423 -42.2058 -42.1912 -42.1656 -42.1578
   -42.1236 -42.1187 -42.0517 -42.0283 -41.9367 -41.8985 -41.8316 -41.7943
   -18.6050 -18.2861 -18.1293 -18.0459 -18.0335 -17.9502 -17.9337 -17.8753
   -17.8740 -17.8157 -17.7849 -17.7156 -17.4897 -17.4645 -17.4576 -17.4104
   -17.3784 -17.3682 -17.3069 -17.1688 -17.0940 -16.7458 -16.6108 -16.1320
   -16.0959  -6.6829  -6.3240  -6.0620  -6.0272  -5.9829  -5.8855  -5.8434
    -5.8316  -5.7911  -5.7753  -5.7497  -5.7126  -5.6940  -5.6466  -5.6200
    -5.6159  -5.5615  -5.5379  -5.5298  -5.5011  -5.4180  -5.1415  -4.9633
    -4.8988  -4.7452  -4.6850  -4.6532  -4.4260  -4.4052  -4.3996  -4.3394
    -4.2131  -4.1275  -4.0876  -4.0713  -4.0539  -4.0190  -3.8849  -3.8679
    -3.8106  -3.7178  -3.5704  -3.4568  -3.3444  -3.3137  -3.2886  -3.2529
    -3.1625  -3.1349  -3.1214  -3.0029  -2.8945  -2.7763  -2.7459  -2.7131
    -2.5900  -2.5143  -2.2988  -2.2417  -2.1474  -2.1278  -1.9508  -1.9315
    -1.8416  -1.7126  -1.6686  -1.5522  -1.5107  -1.3211  -1.2471  -1.2412
    -1.2123  -1.1334  -0.9863  -0.9399  -0.3117  -0.2408  -0.1320   0.0573
     0.1694   0.3005   0.3652   0.4519   0.5579   0.5777   0.6174   0.6813
     0.7740   0.8233   0.8781   0.9458   1.0178   1.0567   1.0875   1.1543
     1.1745   1.2234   1.2793   1.3235   1.3732   1.5187   1.6307   1.6534
     1.6588   1.8178   1.9883   2.0337   2.0461   2.1687   2.2202   2.2670
     2.6467   2.7534   3.0179   3.0352   3.2859   3.3963   3.5235   4.3180
     4.3196   4.4181   4.6240   4.6872   4.7959   4.9904   5.1506   5.3548
     5.4145   5.4931   5.6005   5.8930   5.9456

          k =-0.5000 0.0000 0.0000 ( 81894 PWs)   bands (ev):

   -73.1778 -72.7482 -72.5937 -72.4734 -72.4675 -72.3479 -72.3424 -72.3076
   -72.2436 -72.1047 -71.9809 -71.9516 -43.7046 -43.0339 -42.8846 -42.8773
   -42.7409 -42.6996 -42.6390 -42.6359 -42.6338 -42.6250 -42.5835 -42.5616
   -42.5585 -42.5028 -42.4500 -42.4318 -42.4245 -42.3576 -42.3260 -42.3193
   -42.3065 -42.2970 -42.2558 -42.2339 -42.2220 -42.2122 -42.1912 -42.1577
   -42.1239 -42.1202 -42.0522 -41.9717 -41.9574 -41.9359 -41.8265 -41.7975
   -18.5369 -18.3941 -18.2102 -18.1892 -18.0925 -18.0392 -18.0116 -17.9376
   -17.8765 -17.6885 -17.6525 -17.4931 -17.4336 -17.3674 -17.3643 -17.3320
   -17.3266 -17.2768 -17.2702 -17.2218 -17.1166 -16.8357 -16.6175 -16.1633
   -16.1510  -6.6277  -6.6098  -6.5530  -6.5500  -6.5166  -6.5132  -6.3052
    -6.1491  -6.0841  -5.9887  -5.8841  -5.8059  -5.7761  -5.7602  -5.7342
    -5.6760  -5.4576  -5.4070  -5.3912  -5.3530  -4.9839  -4.9698  -4.9170
    -4.8946  -4.6041  -4.5546  -4.4139  -4.4061  -4.3952  -4.2951  -4.1883
    -4.1575  -4.0832  -4.0015  -3.9298  -3.9255  -3.8146  -3.7920  -3.6561
    -3.5671  -3.5430  -3.4252  -3.1733  -3.1592  -3.0469  -2.9863  -2.9706
    -2.9212  -2.9173  -2.8992  -2.7743  -2.7071  -2.6941  -2.6940  -2.6106
    -2.5077  -2.3996  -2.3385  -2.3381  -2.2438  -2.1643  -2.1469  -2.0628
    -2.0439  -2.0258  -2.0022  -1.8252  -1.5519  -1.3439  -1.2221  -1.1948
    -1.1747  -1.1436  -0.9812  -0.8946  -0.1713  -0.0583  -0.0128   0.0301
     0.2819   0.3384   0.4620   0.5086   0.5156   0.5489   0.6770   0.6840
     0.8715   0.8730   0.8857   1.0144   1.0416   1.0815   1.0990   1.1353
     1.1970   1.2467   1.2731   1.3035   1.4194   1.4246   1.5023   1.5375
     1.5679   1.5975   1.7288   1.7800   1.9956   2.0387   2.2549   2.2581
     2.5491   2.5641   2.7802   3.9411   4.0177   4.2785   4.4219   4.4446
     4.4487   4.5282   4.6799   4.7322   4.7669   4.8664   4.8988   4.9560
     4.9654   4.9675   4.9893   5.0309   5.1143

          k =-0.5000 0.2445 0.0000 ( 81810 PWs)   bands (ev):

   -73.1778 -72.7482 -72.5937 -72.4734 -72.4675 -72.3479 -72.3424 -72.3077
   -72.2436 -72.1047 -71.9809 -71.9516 -43.7046 -43.0345 -42.8854 -42.8744
   -42.7416 -42.7004 -42.6389 -42.6358 -42.6337 -42.6250 -42.5835 -42.5615
   -42.5583 -42.5027 -42.4499 -42.4318 -42.4246 -42.3576 -42.3260 -42.3192
   -42.3066 -42.2970 -42.2552 -42.2339 -42.2220 -42.2117 -42.1912 -42.1577
   -42.1235 -42.1209 -42.0529 -41.9713 -41.9571 -41.9364 -41.8270 -41.7979
   -18.4898 -18.3137 -18.1358 -18.0964 -18.0514 -17.9640 -17.9357 -17.9267
   -17.8711 -17.6905 -17.6592 -17.5527 -17.5065 -17.4535 -17.4489 -17.4144
   -17.3963 -17.3830 -17.3719 -17.1999 -17.1124 -16.8344 -16.6201 -16.1628
   -16.1505  -6.4145  -6.3103  -6.2635  -6.2455  -6.2076  -6.1978  -6.1903
    -6.1242  -6.0713  -5.9820  -5.8085  -5.7538  -5.7122  -5.6131  -5.5726
    -5.5422  -5.5006  -5.4642  -5.3376  -5.2868  -5.0293  -4.9800  -4.7650
    -4.7314  -4.6831  -4.6275  -4.5460  -4.5156  -4.4349  -4.4166  -4.3721
    -4.3565  -4.3007  -4.2141  -4.1673  -4.0805  -4.0034  -3.9658  -3.8159
    -3.7730  -3.4985  -3.4539  -3.3480  -3.2711  -3.2303  -3.1460  -3.1035
    -2.9966  -2.9526  -2.9391  -2.8707  -2.8595  -2.8441  -2.8391  -2.7219
    -2.6793  -2.4714  -2.3995  -2.2937  -2.2042  -2.1828  -2.1178  -2.0630
    -2.0520  -2.0041  -1.8862  -1.8298  -1.5385  -1.5188  -1.1955  -1.1810
    -1.1363  -1.0577  -1.0110  -0.9536  -0.1906  -0.1604   0.1253   0.2579
     0.3750   0.3836   0.5330   0.5583   0.5910   0.7557   0.8238   0.8879
     0.9339   0.9472   1.0006   1.0417   1.0796   1.1078   1.1629   1.1674
     1.1758   1.2836   1.3040   1.3403   1.4001   1.4469   1.5952   1.6292
     1.6607   1.6700   1.7396   1.7569   1.9158   1.9248   2.0956   2.1310
     2.6722   2.6872   2.9067   3.8410   4.0193   4.0978   4.1553   4.2173
     4.2614   4.3142   4.3197   4.4590   4.5864   4.6736   4.7429   4.9506
     4.9911   5.3307   5.3848   5.4698   5.5538

          k =-0.5000-0.4891 0.0000 ( 81784 PWs)   bands (ev):

   -73.1778 -72.7482 -72.5937 -72.4734 -72.4675 -72.3478 -72.3423 -72.3077
   -72.2436 -72.1047 -71.9809 -71.9516 -43.7046 -43.0351 -42.8859 -42.8718
   -42.7425 -42.7010 -42.6387 -42.6357 -42.6337 -42.6250 -42.5834 -42.5614
   -42.5582 -42.5027 -42.4499 -42.4319 -42.4246 -42.3576 -42.3260 -42.3192
   -42.3068 -42.2971 -42.2545 -42.2339 -42.2220 -42.2111 -42.1912 -42.1577
   -42.1231 -42.1216 -42.0536 -41.9709 -41.9567 -41.9368 -41.8275 -41.7984
   -18.4389 -18.1828 -18.0510 -18.0278 -18.0222 -17.8400 -17.8312 -17.8151
   -17.7326 -17.6901 -17.6800 -17.6790 -17.6614 -17.6447 -17.6400 -17.5439
   -17.5189 -17.4225 -17.3902 -17.1921 -17.1097 -16.8335 -16.6229 -16.1623
   -16.1500  -6.3641  -6.1713  -6.1059  -5.9989  -5.8555  -5.8397  -5.7730
    -5.7259  -5.7197  -5.7155  -5.6920  -5.6721  -5.5866  -5.5273  -5.3901
    -5.3754  -5.3663  -5.2594  -5.2001  -5.1763  -5.1582  -5.0286  -5.0082
    -4.9605  -4.9542  -4.9446  -4.8849  -4.8775  -4.6862  -4.6330  -4.4784
    -4.4473  -4.3256  -4.2890  -4.1892  -4.1232  -3.9377  -3.8723  -3.7921
    -3.6528  -3.6439  -3.6396  -3.5486  -3.5285  -3.4933  -3.4794  -3.4371
    -3.4137  -3.3502  -3.2989  -3.2293  -3.1877  -3.0851  -3.0727  -2.7192
    -2.5979  -2.5827  -2.3389  -2.3274  -2.1530  -1.9919  -1.8973  -1.8352
    -1.8266  -1.8033  -1.6951  -1.5608  -1.5268  -1.4158  -1.2476  -1.2431
    -1.2178  -1.0951  -1.0130  -0.9532  -0.1108  -0.0380   0.0957   0.1704
     0.3355   0.3708   0.4359   0.5667   0.5844   0.6398   0.6429   1.0267
     1.0643   1.1184   1.1782   1.1861   1.2008   1.2474   1.2627   1.2838
     1.3318   1.3869   1.4506   1.4566   1.4694   1.4996   1.6045   1.6808
     1.7067   1.7521   1.7714   1.8291   1.8877   1.9454   1.9460   2.0020
     2.7656   2.7838   3.0240   3.4375   3.8061   3.8449   3.8453   3.9135
     3.9197   4.0731   4.1367   4.4414   4.6136   4.6770   4.7479   5.0754
     5.2159   5.5065   5.6847   5.7165   5.7468

     the Fermi energy is     1.2728 ev

!    total energy              =   -3302.92063032 Ry
     estimated scf accuracy    <       0.00000090 Ry
     smearing contrib. (-TS)   =       0.00060360 Ry
     internal energy E=F+TS    =   -3302.92123392 Ry

     The total energy is F=E-TS. E is the sum of the following terms:
     one-electron contribution =  -33526.70299592 Ry
     hartree contribution      =   16806.11961532 Ry
     xc contribution           =    -420.96473475 Ry
     ewald contribution        =   14076.65085136 Ry
     one-center paw contrib.   =    -238.02396994 Ry

     convergence has been achieved in  25 iterations

     negative rho (up, down):  2.110E-04 0.000E+00

     Forces acting on atoms (cartesian axes, Ry/au):

     atom    1 type  1   force =    -0.00080986    0.00000000    0.06769592
     atom    2 type  1   force =    -0.00399499    0.00000000   -0.08950247
     atom    3 type  1   force =    -0.00059632    0.00000000   -0.00347898
     atom    4 type  1   force =     0.02840251    0.00000000    0.01354014
     atom    5 type  1   force =    -0.00101731    0.00000000   -0.02509390
     atom    6 type  1   force =    -0.01744805    0.00000000   -0.00841248
     atom    7 type  2   force =    -0.00025275    0.00000000    0.02652201
     atom    8 type  2   force =     0.00014269    0.00000000    0.06134599
     atom    9 type  2   force =     0.00047101    0.02389085   -0.02411019
     atom   10 type  2   force =     0.00047101   -0.02389085   -0.02411019
     atom   11 type  2   force =     0.00571829    0.00000000    0.00020164
     atom   12 type  2   force =    -0.00016425    0.00000000   -0.01830457
     atom   13 type  2   force =     0.00054496   -0.00257619   -0.00175739
     atom   14 type  2   force =     0.00054496    0.00257619   -0.00175739
     atom   15 type  2   force =    -0.00169199    0.00000000   -0.00441725
     atom   16 type  2   force =     0.00821537    0.00000000   -0.01160530
     atom   17 type  2   force =    -0.01829424   -0.00773248   -0.01171643
     atom   18 type  2   force =    -0.01829424    0.00773248   -0.01171643
     atom   19 type  1   force =     0.00095047    0.00000000    0.06227017
     atom   20 type  1   force =     0.00420270    0.00000000   -0.08744064
     atom   21 type  1   force =     0.00085981    0.00000000    0.00456005
     atom   22 type  1   force =    -0.02898817    0.00000000   -0.01009717
     atom   23 type  1   force =     0.00609780    0.00000000    0.01833614
     atom   24 type  1   force =     0.00653933    0.00000000    0.01311318
     atom   25 type  2   force =     0.00023947    0.00000000    0.02403561
     atom   26 type  2   force =    -0.00044446    0.00000000    0.06322222
     atom   27 type  2   force =    -0.00050411    0.02421807   -0.02438747
     atom   28 type  2   force =    -0.00050411   -0.02421807   -0.02438747
     atom   29 type  2   force =    -0.00705688    0.00000000   -0.00276036
     atom   30 type  2   force =     0.00050624    0.00000000   -0.01486340
     atom   31 type  2   force =    -0.00034828    0.00151280    0.00264040
     atom   32 type  2   force =    -0.00034828   -0.00151280    0.00264040
     atom   33 type  2   force =     0.00791252    0.00000000   -0.00046142
     atom   34 type  2   force =    -0.00799984    0.00000000    0.00883653
     atom   35 type  2   force =     0.01326713   -0.00158939    0.00630855
     atom   36 type  2   force =     0.01326713    0.00158939    0.00630855
     atom   37 type  2   force =     0.01040471    0.00000000    0.01880338

     Total force =     0.077979     Total SCF correction =     0.005970

     BFGS Geometry Optimization
     Energy error            =      5.8E-03 Ry
     Gradient error          =      2.9E-02 Ry/Bohr

     number of scf cycles    =   1
     number of bfgs steps    =   0

     energy             new  =   -3302.9206303202 Ry

     new trust radius        =       0.0314648683 bohr
     new conv_thr            =       0.0000010000 Ry


ATOMIC_POSITIONS (angstrom)
Ru               0.0000000000        1.5881618300        9.5289709800    0   0   0
Ru               1.5535000000        4.7644854900        9.5289709800    0   0   0
Ru              -0.0003155895        4.7644855800       12.7466921034
Ru               1.5685296711        1.5881617100       12.6868776829
Ru              -0.0005385566        1.5881614900       15.7906010325
Ru               1.5442669776        4.7644852600       16.0282064160
O                0.0000000000        4.7644854900       10.7677372100    0   0   0
O                0.0000000000        4.7644854900        8.2902047600    0   0   0
O                1.5535000000        0.3493956000        9.5289709800    0   0   0
O                1.5535000000        2.8269280600        9.5289709800    0   0   0
O                0.0030254777        1.5881613800       13.9220246517
O                0.0000000000        1.5881618300       11.4665284200    0   0   0
O                1.5537883903        3.5343004074       12.7205405681
O                1.5537882103        5.9946706126       12.7205405881
O               -0.0008953632        4.7644855000       17.1291357236
O                0.0043477059        4.7644854500       14.6853164597
O                1.5438189265        0.3754028771       15.9622032140
O                1.5438189165        2.8009202429       15.9622031540
Ru               3.1070000000        1.5881618300        9.5289709800    0   0   0
Ru               4.6605000000        4.7644854900        9.5289709800    0   0   0
Ru               3.1074549912        4.7644854900       12.7302016157
Ru               4.6451601231        1.5881618300       12.7020646952
Ru               3.1102268192        1.5881618300       16.0671108867
Ru               4.6639604655        4.7644854900       15.9638365151
O                3.1070000000        4.7644854900       10.7677372100    0   0   0
O                3.1070000000        4.7644854900        8.2902047600    0   0   0
O                4.6605000000        0.3493956000        9.5289709800    0   0   0
O                4.6605000000        2.8269280600        9.5289709800    0   0   0
O                3.1032656619        1.5881618300       13.9794146710
O                3.1070000000        1.5881618300       11.4665284200    0   0   0
O                4.6603157007        3.5316057585       12.7151090614
O                4.6603157007        5.9973652215       12.7151090614
O                3.1111871275        4.7644854900       17.0602400687
O                3.1027666653        4.7644854900       14.6627245715
O                4.6675206650        0.3689693803       15.8679280791
O                4.6675206650        2.8073542797       15.8679280791
O                3.1125059338        1.5881618300       17.7658128713



     Writing config-only to output data dir ./tmp_ref__2x1o_mir/ref__2x1o_mir.save/ :
     XML data file
     NEW-OLD atomic charge density approx. for the potential

     negative rho (up, down):  2.101E-04 0.000E+00

     total cpu time spent up to now is      513.4 secs

     per-process dynamical memory:   363.1 Mb

     Self-consistent Calculation

     iteration #  1     ecut=    80.00 Ry     beta= 0.30
     Davidson diagonalization with overlap
     ethr =  1.00E-06,  avg # of iterations =  5.6

     negative rho (up, down):  2.278E-04 0.000E+00

     total cpu time spent up to now is      554.9 secs

     total energy              =   -3302.92491424 Ry
     estimated scf accuracy    <       0.00400365 Ry

     iteration #  2     ecut=    80.00 Ry     beta= 0.30
     Davidson diagonalization with overlap
     ethr =  1.17E-06,  avg # of iterations =  1.0

     negative rho (up, down):  2.287E-04 0.000E+00

     total cpu time spent up to now is      572.8 secs

     total energy              =   -3302.92513745 Ry
     estimated scf accuracy    <       0.00299526 Ry

     iteration #  3     ecut=    80.00 Ry     beta= 0.30
     Davidson diagonalization with overlap
     ethr =  8.76E-07,  avg # of iterations =  1.0

     negative rho (up, down):  2.372E-04 0.000E+00

     total cpu time spent up to now is      590.8 secs

     total energy              =   -3302.92519051 Ry
     estimated scf accuracy    <       0.00036424 Ry

     iteration #  4     ecut=    80.00 Ry     beta= 0.30
     Davidson diagonalization with overlap
     ethr =  1.07E-07,  avg # of iterations =  1.1

     negative rho (up, down):  2.632E-04 0.000E+00

     total cpu time spent up to now is      609.2 secs

     total energy              =   -3302.92516976 Ry
     estimated scf accuracy    <       0.00018813 Ry

     iteration #  5     ecut=    80.00 Ry     beta= 0.30
     Davidson diagonalization with overlap
     ethr =  5.50E-08,  avg # of iterations =  1.3

     negative rho (up, down):  2.738E-04 0.000E+00

     total cpu time spent up to now is      628.5 secs

     total energy              =   -3302.92517537 Ry
     estimated scf accuracy    <       0.00003393 Ry

     iteration #  6     ecut=    80.00 Ry     beta= 0.30
     Davidson diagonalization with overlap
     ethr =  9.92E-09,  avg # of iterations =  2.9

     negative rho (up, down):  2.817E-04 0.000E+00

     total cpu time spent up to now is      649.4 secs

     total energy              =   -3302.92517679 Ry
     estimated scf accuracy    <       0.00000574 Ry

     iteration #  7     ecut=    80.00 Ry     beta= 0.30
     Davidson diagonalization with overlap
     ethr =  1.68E-09,  avg # of iterations =  6.1

     negative rho (up, down):  2.867E-04 0.000E+00

     total cpu time spent up to now is      672.7 secs

     total energy              =   -3302.92517717 Ry
     estimated scf accuracy    <       0.00000209 Ry

     iteration #  8     ecut=    80.00 Ry     beta= 0.30
     Davidson diagonalization with overlap
     ethr =  6.10E-10,  avg # of iterations =  1.7

     negative rho (up, down):  2.110E-04 0.000E+00

     total cpu time spent up to now is      691.1 secs

     End of self-consistent calculation

          k = 0.0000 0.0000 0.0000 ( 81707 PWs)   bands (ev):

   -73.1616 -72.7334 -72.6007 -72.4687 -72.4567 -72.3437 -72.3264 -72.2919
   -72.2434 -72.1350 -71.9737 -71.9422 -43.6880 -43.0205 -42.8895 -42.8614
   -42.7376 -42.6983 -42.6365 -42.6223 -42.6138 -42.6099 -42.5706 -42.5584
   -42.5407 -42.5152 -42.4935 -42.4566 -42.4083 -42.3710 -42.3332 -42.3293
   -42.3197 -42.2975 -42.2413 -42.2224 -42.1852 -42.1758 -42.1516 -42.1416
   -42.1324 -42.1044 -42.0502 -42.0481 -41.9698 -41.8633 -41.8258 -41.7812
   -18.9117 -18.5928 -18.4456 -18.3397 -17.9884 -17.9091 -17.8241 -17.7541
   -17.7131 -17.6805 -17.6650 -17.6167 -17.6071 -17.5821 -17.5259 -17.3204
   -17.2030 -17.1027 -17.0624 -17.0072 -16.9949 -16.7125 -16.6249 -16.0862
   -16.0489  -7.2310  -7.1707  -7.1529  -6.8326  -6.2983  -6.2248  -6.0263
    -5.8637  -5.8248  -5.7562  -5.7536  -5.6735  -5.6425  -5.6356  -5.6273
    -5.5807  -5.5452  -5.4489  -5.4439  -5.4374  -5.4112  -5.3966  -5.2141
    -5.0735  -5.0568  -5.0404  -4.9884  -4.8831  -4.6219  -4.4922  -4.2022
    -4.0446  -3.8122  -3.6734  -3.6039  -3.5934  -3.5728  -3.5609  -3.3774
    -3.3687  -3.2592  -3.1294  -3.1269  -3.0047  -2.9751  -2.8575  -2.8477
    -2.7564  -2.6951  -2.6746  -2.5986  -2.5908  -2.4296  -2.4032  -2.3711
    -2.3233  -2.2984  -2.1791  -2.1541  -2.0487  -2.0054  -1.9363  -1.7654
    -1.7630  -1.7563  -1.5865  -1.5062  -1.3999  -1.3743  -1.2877  -1.1578
    -1.1013  -0.8600  -0.7299  -0.6726  -0.3835  -0.3712  -0.2044  -0.1446
    -0.1248  -0.0646   0.1426   0.1819   0.2178   0.2621   0.2858   0.4221
     0.5287   0.5817   0.5967   0.6346   0.6448   0.7333   0.8141   0.8647
     0.9789   1.0096   1.0697   1.0854   1.2187   1.3087   1.4751   1.7153
     1.7454   1.9479   2.0373   2.1098   2.1904   2.2777   2.3370   2.3496
     2.4839   2.7020   2.8015   3.1986   3.7530   3.9935   4.2214   4.2717
     4.3392   4.4584   4.5859   4.6467   4.8077   4.8286   4.9740   5.2923
     5.5696   5.5969   5.7202   5.7210   5.8107

          k = 0.0000 0.2445 0.0000 ( 81832 PWs)   bands (ev):

   -73.1616 -72.7334 -72.6007 -72.4687 -72.4567 -72.3437 -72.3264 -72.2919
   -72.2434 -72.1350 -71.9737 -71.9422 -43.6880 -43.0212 -42.8906 -42.8576
   -42.7390 -42.6987 -42.6356 -42.6231 -42.6138 -42.6099 -42.5706 -42.5570
   -42.5424 -42.5153 -42.4936 -42.4566 -42.4084 -42.3712 -42.3331 -42.3293
   -42.3178 -42.2973 -42.2414 -42.2223 -42.1852 -42.1756 -42.1516 -42.1413
   -42.1328 -42.1058 -42.0503 -42.0473 -41.9703 -41.8634 -41.8267 -41.7813
   -18.8188 -18.4635 -18.3765 -18.2825 -17.9969 -17.9178 -17.8738 -17.8445
   -17.8399 -17.8309 -17.7704 -17.6777 -17.4133 -17.3858 -17.3556 -17.3244
   -17.2495 -17.2370 -17.1674 -17.1555 -17.0051 -16.7064 -16.6302 -16.0857
   -16.0461  -6.8708  -6.7810  -6.7016  -6.6831  -6.2900  -6.1864  -6.1140
    -6.0858  -5.9968  -5.9080  -5.7528  -5.7301  -5.6575  -5.5860  -5.5800
    -5.5602  -5.5527  -5.4928  -5.4774  -5.4621  -5.3551  -5.2123  -5.1938
    -5.1907  -5.1139  -4.8041  -4.7143  -4.4308  -4.3317  -4.2301  -4.0677
    -3.9619  -3.9336  -3.8218  -3.7994  -3.7488  -3.6848  -3.6291  -3.5580
    -3.5567  -3.4902  -3.3475  -3.2003  -3.1689  -3.0170  -2.9783  -2.8803
    -2.8042  -2.7747  -2.7098  -2.6814  -2.6465  -2.5740  -2.5501  -2.4838
    -2.3474  -2.3299  -2.3102  -2.2057  -2.1807  -2.1221  -2.0393  -1.9136
    -1.7982  -1.7769  -1.7038  -1.6366  -1.5485  -1.5004  -1.3697  -1.3236
    -1.1303  -1.0247  -0.9186  -0.7839  -0.0828  -0.0195   0.0314   0.0864
     0.1264   0.1454   0.2091   0.3133   0.3966   0.4257   0.4363   0.4655
     0.4917   0.5470   0.5611   0.5841   0.5913   0.6134   0.6617   0.6709
     0.8367   0.9453   1.0602   1.1574   1.1959   1.3648   1.7840   1.8402
     1.9486   2.0636   2.0803   2.1462   2.1640   2.2644   2.3251   2.3870
     2.4741   2.5960   2.9044   3.2458   3.2762   3.5319   3.6656   4.0195
     4.2692   4.3799   4.9016   5.0429   5.2745   5.3001   5.5207   5.5579
     5.6149   5.6406   5.6439   5.7007   5.7829

          k = 0.0000-0.4891 0.0000 ( 81886 PWs)   bands (ev):

   -73.1616 -72.7334 -72.6007 -72.4687 -72.4567 -72.3437 -72.3264 -72.2919
   -72.2434 -72.1350 -71.9737 -71.9422 -43.6880 -43.0220 -42.8916 -42.8539
   -42.7405 -42.6990 -42.6347 -42.6238 -42.6138 -42.6099 -42.5706 -42.5557
   -42.5440 -42.5154 -42.4936 -42.4565 -42.4085 -42.3714 -42.3331 -42.3292
   -42.3159 -42.2971 -42.2414 -42.2222 -42.1852 -42.1753 -42.1516 -42.1410
   -42.1331 -42.1072 -42.0504 -42.0464 -41.9708 -41.8634 -41.8277 -41.7813
   -18.7007 -18.3893 -18.2183 -18.1170 -18.0353 -17.9639 -17.9632 -17.9242
   -17.9240 -17.8795 -17.7999 -17.6987 -17.4042 -17.4020 -17.3519 -17.3258
   -17.2914 -17.2862 -17.2582 -17.1829 -17.0037 -16.6993 -16.6385 -16.0852
   -16.0439  -6.8504  -6.3336  -6.3289  -6.2668  -6.1512  -6.1156  -6.0932
    -5.9717  -5.9669  -5.8985  -5.6993  -5.6747  -5.6342  -5.5928  -5.5624
    -5.5100  -5.4926  -5.4826  -5.4637  -5.3729  -5.3097  -5.2069  -5.2047
    -5.1088  -4.8936  -4.8154  -4.8109  -4.4911  -4.4401  -4.3854  -4.2677
    -4.2348  -4.1900  -4.0526  -3.8815  -3.8338  -3.8123  -3.6481  -3.5467
    -3.5118  -3.4130  -3.3782  -3.3301  -3.1856  -3.1599  -3.1054  -3.0709
    -3.0557  -3.0083  -2.9437  -2.8348  -2.7413  -2.6259  -2.5665  -2.4585
    -2.3924  -2.3573  -2.3270  -2.1764  -2.1326  -2.0430  -1.9213  -1.8312
    -1.7498  -1.7354  -1.6934  -1.6194  -1.6023  -1.4721  -1.4353  -1.3736
    -1.2055  -1.1663  -1.0145  -0.9386  -0.5148  -0.2580  -0.2005  -0.0822
    -0.0092   0.2268   0.2398   0.2850   0.5106   0.5416   0.5550   0.5727
     0.6327   0.6720   0.7447   0.8244   0.8414   0.8503   0.8778   0.8793
     0.9022   0.9911   1.1416   1.1854   1.2161   1.2908   1.6329   1.7341
     1.8312   1.9417   2.1531   2.1561   2.1732   2.3969   2.4233   2.4754
     2.4943   2.6783   2.8822   3.0552   3.1514   3.2785   3.2801   4.2675
     4.3008   4.3763   5.1415   5.2438   5.2634   5.2779   5.3019   5.3403
     5.5698   5.7842   5.8354   5.8877   5.9040

          k = 0.2500 0.0000 0.0000 ( 81703 PWs)   bands (ev):

   -73.1616 -72.7332 -72.6009 -72.4674 -72.4579 -72.3429 -72.3272 -72.2916
   -72.2437 -72.1350 -71.9733 -71.9426 -43.6880 -43.0165 -42.8726 -42.8611
   -42.7377 -42.6984 -42.6346 -42.6296 -42.6243 -42.6108 -42.5701 -42.5565
   -42.5426 -42.5052 -42.4792 -42.4569 -42.4024 -42.3590 -42.3519 -42.3253
   -42.3060 -42.2894 -42.2420 -42.2326 -42.1959 -42.1799 -42.1591 -42.1517
   -42.1461 -42.1025 -42.0521 -42.0217 -41.9699 -41.8906 -41.8230 -41.7841
   -18.7850 -18.4754 -18.3419 -18.2462 -18.0795 -17.9222 -17.8216 -17.8148
   -17.7767 -17.7455 -17.6713 -17.6038 -17.5357 -17.5097 -17.4517 -17.3027
   -17.2264 -17.1790 -17.1421 -17.0775 -17.0764 -16.7787 -16.6424 -16.1237
   -16.0916  -7.0589  -6.9946  -6.9747  -6.6484  -6.2994  -6.2002  -6.0587
    -5.9628  -5.9211  -5.8530  -5.8431  -5.7450  -5.7392  -5.7347  -5.6238
    -5.5767  -5.5350  -5.5180  -5.3974  -5.3974  -5.3373  -5.1778  -5.1160
    -4.9405  -4.9355  -4.7818  -4.7337  -4.6530  -4.5193  -4.3274  -4.2408
    -4.1177  -4.0723  -3.9716  -3.8818  -3.6193  -3.4479  -3.4222  -3.3237
    -3.3141  -3.2794  -3.2271  -3.1417  -3.1254  -3.0450  -3.0225  -2.9089
    -2.8850  -2.8748  -2.7558  -2.7175  -2.7050  -2.6586  -2.5876  -2.4080
    -2.3787  -2.3723  -2.2701  -2.1932  -2.1312  -2.0999  -2.0041  -1.9846
    -1.9747  -1.9245  -1.7960  -1.7431  -1.4808  -1.4519  -1.4148  -1.2694
    -1.1360  -0.9948  -0.9009  -0.7068  -0.2265  -0.1626   0.0246   0.0373
     0.1274   0.1987   0.3395   0.3817   0.3970   0.4298   0.5177   0.5639
     0.6083   0.6337   0.6920   0.7234   0.7591   0.8242   0.9343   1.0123
     1.0541   1.1538   1.2611   1.3040   1.3253   1.4829   1.5772   1.5828
     1.6372   1.7862   1.8183   1.9673   2.1105   2.1740   2.3449   2.3815
     2.4573   2.6576   2.7609   3.4267   3.8906   4.1190   4.2826   4.3223
     4.4688   4.5437   4.5752   4.6967   4.8334   4.8786   4.9883   5.0477
     5.1298   5.3973   5.4089   5.4892   5.5476

          k = 0.2500 0.2445 0.0000 ( 81774 PWs)   bands (ev):

   -73.1616 -72.7332 -72.6009 -72.4674 -72.4579 -72.3429 -72.3272 -72.2916
   -72.2437 -72.1350 -71.9733 -71.9427 -43.6880 -43.0172 -42.8745 -42.8567
   -42.7388 -42.6991 -42.6339 -42.6295 -42.6247 -42.6108 -42.5701 -42.5555
   -42.5436 -42.5052 -42.4793 -42.4569 -42.4024 -42.3590 -42.3522 -42.3253
   -42.3057 -42.2881 -42.2420 -42.2326 -42.1959 -42.1799 -42.1592 -42.1517
   -42.1457 -42.1035 -42.0525 -42.0209 -41.9704 -41.8905 -41.8237 -41.7843
   -18.6999 -18.3518 -18.2859 -18.1755 -18.0620 -17.9255 -17.8702 -17.8390
   -17.8131 -17.7835 -17.7084 -17.6580 -17.4906 -17.4520 -17.3984 -17.3162
   -17.2981 -17.2925 -17.2382 -17.1940 -17.0738 -16.7752 -16.6462 -16.1239
   -16.0894  -6.7074  -6.6202  -6.5393  -6.5308  -6.2892  -6.1021  -6.0384
    -5.9868  -5.9258  -5.8498  -5.7760  -5.7349  -5.6855  -5.6265  -5.6157
    -5.5819  -5.5051  -5.4971  -5.4605  -5.4097  -5.3228  -5.1927  -5.0907
    -4.9383  -4.8734  -4.6625  -4.6445  -4.5848  -4.4353  -4.3578  -4.2337
    -4.1377  -4.0378  -3.9732  -3.9420  -3.7404  -3.7152  -3.5985  -3.5201
    -3.4325  -3.3815  -3.3352  -3.2562  -3.2429  -3.2285  -3.1432  -3.1033
    -3.0522  -3.0225  -2.9388  -2.8317  -2.8053  -2.7619  -2.6690  -2.6407
    -2.6008  -2.4713  -2.3097  -2.2340  -2.1780  -2.1262  -2.0909  -1.9656
    -1.9341  -1.8781  -1.8088  -1.6335  -1.5893  -1.5279  -1.3545  -1.2478
    -1.0471  -1.0154  -0.9719  -0.8304  -0.1348   0.0072   0.0654   0.1227
     0.2088   0.3010   0.3478   0.3959   0.4803   0.5502   0.5963   0.6560
     0.6772   0.7084   0.7474   0.7960   0.8278   0.8907   0.8954   0.9682
     1.0049   1.1138   1.2415   1.3480   1.3614   1.4749   1.6301   1.7303
     1.8270   1.8913   1.9304   2.0244   2.0586   2.1049   2.1327   2.4004
     2.5452   2.6238   2.9226   3.3599   3.5519   3.7242   3.8376   4.1105
     4.3389   4.4042   4.7125   4.8963   4.9754   5.0583   5.1418   5.3015
     5.3326   5.3921   5.4198   5.6001   5.7043

          k = 0.2500-0.4891 0.0000 ( 81830 PWs)   bands (ev):

   -73.1616 -72.7332 -72.6009 -72.4674 -72.4579 -72.3429 -72.3272 -72.2916
   -72.2437 -72.1350 -71.9733 -71.9427 -43.6880 -43.0179 -42.8757 -42.8529
   -42.7401 -42.6997 -42.6332 -42.6295 -42.6252 -42.6108 -42.5701 -42.5547
   -42.5444 -42.5053 -42.4794 -42.4569 -42.4025 -42.3590 -42.3524 -42.3253
   -42.3055 -42.2867 -42.2420 -42.2326 -42.1958 -42.1798 -42.1593 -42.1517
   -42.1454 -42.1046 -42.0528 -42.0202 -41.9709 -41.8904 -41.8245 -41.7845
   -18.5951 -18.2779 -18.1254 -18.0296 -18.0241 -17.9447 -17.9254 -17.8792
   -17.8482 -17.8058 -17.7891 -17.7071 -17.4821 -17.4606 -17.4593 -17.4017
   -17.3807 -17.3593 -17.2965 -17.1995 -17.0720 -16.7720 -16.6510 -16.1241
   -16.0876  -6.6711  -6.3165  -6.0718  -6.0189  -5.9958  -5.8671  -5.8346
    -5.8142  -5.7847  -5.7628  -5.7332  -5.6910  -5.6847  -5.6396  -5.6227
    -5.6063  -5.5534  -5.5489  -5.5262  -5.4911  -5.4344  -5.1292  -4.9551
    -4.8905  -4.7359  -4.6773  -4.6506  -4.4214  -4.4004  -4.4004  -4.3296
    -4.2054  -4.1229  -4.0831  -4.0726  -4.0501  -4.0177  -3.8746  -3.8666
    -3.8039  -3.7004  -3.5624  -3.4494  -3.3635  -3.3077  -3.2811  -3.2595
    -3.1670  -3.1293  -3.1248  -3.0086  -2.8892  -2.7725  -2.7611  -2.6968
    -2.6259  -2.5161  -2.3156  -2.2369  -2.1655  -2.1393  -1.9486  -1.9250
    -1.8354  -1.7258  -1.6682  -1.5339  -1.5055  -1.3164  -1.2497  -1.2408
    -1.2224  -1.1523  -0.9863  -0.9340  -0.3072  -0.2329  -0.1281   0.0694
     0.1715   0.2927   0.3761   0.4587   0.5687   0.5703   0.6214   0.6819
     0.7815   0.8307   0.8869   0.9547   1.0376   1.0558   1.0955   1.1633
     1.1790   1.2312   1.2831   1.3319   1.3866   1.5290   1.6353   1.6600
     1.6695   1.8283   1.9994   2.0410   2.0480   2.1762   2.2207   2.2756
     2.6529   2.7704   3.0057   3.0580   3.2947   3.4035   3.5256   4.3216
     4.3338   4.4160   4.6058   4.6938   4.8029   4.9879   5.1517   5.3604
     5.4144   5.4992   5.6123   5.8528   5.9585

          k =-0.5000 0.0000 0.0000 ( 81894 PWs)   bands (ev):

   -73.1616 -72.7331 -72.6010 -72.4658 -72.4596 -72.3420 -72.3282 -72.2913
   -72.2440 -72.1350 -71.9728 -71.9431 -43.6881 -43.0124 -42.8607 -42.8528
   -42.7378 -42.6986 -42.6501 -42.6311 -42.6278 -42.6099 -42.5698 -42.5538
   -42.5453 -42.5030 -42.4575 -42.4244 -42.4173 -42.3993 -42.3184 -42.3110
   -42.3066 -42.2816 -42.2399 -42.2265 -42.2124 -42.2106 -42.1800 -42.1527
   -42.1497 -42.1004 -42.0542 -41.9701 -41.9633 -41.9497 -41.8197 -41.7874
   -18.5084 -18.4099 -18.1983 -18.1828 -18.0937 -18.0335 -17.9996 -17.9742
   -17.8049 -17.6741 -17.6535 -17.4677 -17.4370 -17.3682 -17.3544 -17.3357
   -17.3206 -17.2713 -17.2639 -17.2631 -17.0733 -16.8810 -16.6563 -16.1554
   -16.1427  -6.6265  -6.6076  -6.5499  -6.5415  -6.5078  -6.5042  -6.2678
    -6.1495  -6.0728  -6.0324  -5.8653  -5.8120  -5.7832  -5.7507  -5.7154
    -5.6807  -5.4477  -5.4048  -5.3756  -5.3518  -4.9598  -4.9477  -4.9093
    -4.8876  -4.5902  -4.5397  -4.4132  -4.4076  -4.3827  -4.2798  -4.1756
    -4.1660  -4.0709  -4.0161  -3.9210  -3.9177  -3.8135  -3.7928  -3.6569
    -3.5715  -3.5393  -3.4288  -3.1678  -3.1558  -3.0172  -3.0005  -2.9659
    -2.9497  -2.9049  -2.8906  -2.7973  -2.7023  -2.6829  -2.6755  -2.6314
    -2.4986  -2.4067  -2.3305  -2.3209  -2.2364  -2.1608  -2.1408  -2.0883
    -2.0742  -2.0527  -1.9964  -1.8208  -1.5651  -1.3886  -1.2327  -1.1847
    -1.1708  -1.1457  -0.9747  -0.8925  -0.1581  -0.0537  -0.0065   0.0119
     0.2970   0.3748   0.4555   0.5023   0.5164   0.5560   0.6838   0.6915
     0.8758   0.8823   0.8912   1.0223   1.0489   1.0764   1.1039   1.1472
     1.2072   1.2435   1.2808   1.3281   1.4183   1.4430   1.5076   1.5362
     1.5709   1.6103   1.7278   1.7924   1.9956   2.0579   2.2644   2.2666
     2.5501   2.5789   2.8299   3.9532   4.0266   4.2682   4.3503   4.4196
     4.4673   4.5334   4.6871   4.7339   4.7853   4.8859   4.8947   4.9641
     4.9762   4.9978   5.0049   5.0379   5.1207

          k =-0.5000 0.2445 0.0000 ( 81810 PWs)   bands (ev):

   -73.1616 -72.7331 -72.6010 -72.4658 -72.4596 -72.3419 -72.3282 -72.2913
   -72.2440 -72.1350 -71.9728 -71.9431 -43.6881 -43.0130 -42.8610 -42.8502
   -42.7386 -42.6996 -42.6500 -42.6309 -42.6277 -42.6099 -42.5698 -42.5536
   -42.5452 -42.5030 -42.4575 -42.4244 -42.4173 -42.3993 -42.3183 -42.3110
   -42.3067 -42.2816 -42.2392 -42.2265 -42.2119 -42.2105 -42.1800 -42.1525
   -42.1495 -42.1011 -42.0548 -41.9706 -41.9629 -41.9494 -41.8202 -41.7878
   -18.4565 -18.3382 -18.1144 -18.0969 -18.0494 -17.9823 -17.9279 -17.9225
   -17.8135 -17.6832 -17.6551 -17.5428 -17.5060 -17.4497 -17.4410 -17.4050
   -17.3891 -17.3811 -17.3700 -17.2370 -17.0689 -16.8794 -16.6594 -16.1549
   -16.1422  -6.3914  -6.3045  -6.2537  -6.2426  -6.1998  -6.1901  -6.1820
    -6.1175  -6.0663  -6.0187  -5.8136  -5.7465  -5.7008  -5.6156  -5.5600
    -5.5391  -5.4868  -5.4621  -5.3310  -5.2792  -5.0004  -4.9733  -4.7512
    -4.7270  -4.6718  -4.6150  -4.5424  -4.5197  -4.4308  -4.3882  -4.3789
    -4.3483  -4.2876  -4.2096  -4.1513  -4.0767  -3.9994  -3.9611  -3.8347
    -3.7840  -3.4909  -3.4438  -3.3415  -3.2671  -3.2306  -3.1442  -3.1003
    -3.0004  -2.9674  -2.9402  -2.8600  -2.8517  -2.8471  -2.8368  -2.7489
    -2.6776  -2.4590  -2.4146  -2.2881  -2.2132  -2.1808  -2.1296  -2.0628
    -2.0439  -2.0147  -1.8898  -1.8288  -1.5455  -1.5368  -1.1872  -1.1754
    -1.1382  -1.0797  -1.0045  -0.9562  -0.1873  -0.1519   0.1325   0.2647
     0.3516   0.4221   0.5113   0.5669   0.5897   0.7539   0.8233   0.8824
     0.9437   0.9638   1.0116   1.0496   1.0895   1.1175   1.1701   1.1737
     1.1854   1.2914   1.3126   1.3458   1.4008   1.4641   1.6041   1.6420
     1.6632   1.6732   1.7513   1.7656   1.9171   1.9379   2.1013   2.1399
     2.6769   2.6980   2.9566   3.8010   4.0118   4.1021   4.1485   4.2476
     4.2672   4.3209   4.3249   4.4874   4.5538   4.6835   4.7460   4.9540
     5.0079   5.3413   5.3713   5.4854   5.5585

          k =-0.5000-0.4891 0.0000 ( 81784 PWs)   bands (ev):

   -73.1616 -72.7331 -72.6010 -72.4658 -72.4596 -72.3419 -72.3281 -72.2914
   -72.2440 -72.1350 -71.9728 -71.9431 -43.6881 -43.0137 -42.8612 -42.8475
   -42.7396 -42.7003 -42.6500 -42.6308 -42.6275 -42.6099 -42.5698 -42.5535
   -42.5451 -42.5030 -42.4575 -42.4245 -42.4174 -42.3993 -42.3183 -42.3110
   -42.3068 -42.2817 -42.2385 -42.2266 -42.2116 -42.2103 -42.1800 -42.1524
   -42.1492 -42.1019 -42.0555 -41.9711 -41.9625 -41.9490 -41.8207 -41.7883
   -18.3988 -18.2399 -18.0374 -18.0274 -17.9578 -17.8362 -17.8296 -17.8123
   -17.7431 -17.6856 -17.6753 -17.6720 -17.6526 -17.6427 -17.6161 -17.5321
   -17.5154 -17.4091 -17.3919 -17.2295 -17.0655 -16.8784 -16.6627 -16.1544
   -16.1417  -6.3214  -6.1707  -6.0953  -6.0511  -5.8565  -5.8036  -5.7612
    -5.7298  -5.7161  -5.7084  -5.7056  -5.6696  -5.5715  -5.5320  -5.4009
    -5.3643  -5.3369  -5.2648  -5.1824  -5.1690  -5.1495  -5.0339  -4.9900
    -4.9603  -4.9495  -4.9308  -4.8796  -4.8698  -4.6704  -4.6220  -4.4619
    -4.4397  -4.3238  -4.2938  -4.1712  -4.1206  -3.9450  -3.8369  -3.7729
    -3.6641  -3.6581  -3.6157  -3.5452  -3.5376  -3.5130  -3.4458  -3.4315
    -3.4105  -3.3636  -3.3036  -3.2152  -3.1833  -3.1137  -3.0812  -2.7205
    -2.6396  -2.5820  -2.3581  -2.3216  -2.1681  -2.0024  -1.8926  -1.8501
    -1.8028  -1.7789  -1.6743  -1.5930  -1.5246  -1.3965  -1.2473  -1.2362
    -1.2265  -1.0868  -1.0224  -0.9807  -0.1071  -0.0440   0.1119   0.1703
     0.3678   0.3796   0.4338   0.5378   0.5815   0.6198   0.6665   1.0303
     1.0689   1.1235   1.1906   1.1930   1.2037   1.2603   1.2661   1.2939
     1.3403   1.3908   1.4595   1.4625   1.4762   1.5092   1.6293   1.6903
     1.7161   1.7648   1.7648   1.8357   1.8958   1.9454   1.9542   2.0169
     2.7751   2.7900   3.0747   3.3847   3.8072   3.8444   3.8600   3.9216
     3.9281   4.0773   4.1456   4.4790   4.5800   4.6858   4.7534   5.0825
     5.2184   5.5023   5.6882   5.7014   5.7661

     the Fermi energy is     1.2809 ev

!    total energy              =   -3302.92517668 Ry
     estimated scf accuracy    <       0.00000093 Ry
     smearing contrib. (-TS)   =       0.00063248 Ry
     internal energy E=F+TS    =   -3302.92580916 Ry

     The total energy is F=E-TS. E is the sum of the following terms:
     one-electron contribution =  -33525.96778380 Ry
     hartree contribution      =   16805.68513588 Ry
     xc contribution           =    -420.96293039 Ry
     ewald contribution        =   14076.34403649 Ry
     one-center paw contrib.   =    -238.02426733 Ry

     convergence has been achieved in   8 iterations

     negative rho (up, down):  2.110E-04 0.000E+00

     Forces acting on atoms (cartesian axes, Ry/au):

     atom    1 type  1   force =    -0.00053030    0.00000000    0.06903327
     atom    2 type  1   force =    -0.00367673    0.00000000   -0.08917949
     atom    3 type  1   force =     0.00164606    0.00000000   -0.00461857
     atom    4 type  1   force =     0.00441186    0.00000000    0.00671113
     atom    5 type  1   force =     0.00134307    0.00000000   -0.01604967
     atom    6 type  1   force =    -0.00452344    0.00000000   -0.00798573
     atom    7 type  2   force =    -0.00044770    0.00000000    0.02570505
     atom    8 type  2   force =     0.00010524    0.00000000    0.06158135
     atom    9 type  2   force =     0.00010555    0.02393926   -0.02420613
     atom   10 type  2   force =     0.00010555   -0.02393926   -0.02420613
     atom   11 type  2   force =     0.00253279    0.00000000   -0.00896342
     atom   12 type  2   force =    -0.00012770    0.00000000   -0.01556682
     atom   13 type  2   force =     0.00123687   -0.00140807   -0.00137601
     atom   14 type  2   force =     0.00123687    0.00140807   -0.00137601
     atom   15 type  2   force =    -0.00296792    0.00000000    0.00273204
     atom   16 type  2   force =     0.00425766    0.00000000   -0.00790490
     atom   17 type  2   force =    -0.01069486   -0.00168946   -0.00935751
     atom   18 type  2   force =    -0.01069486    0.00168946   -0.00935751
     atom   19 type  1   force =     0.00061227    0.00000000    0.06110286
     atom   20 type  1   force =     0.00387911    0.00000000   -0.08755033
     atom   21 type  1   force =    -0.00084968    0.00000000    0.00528944
     atom   22 type  1   force =    -0.00425916    0.00000000   -0.00614961
     atom   23 type  1   force =     0.00041890    0.00000000    0.01546099
     atom   24 type  1   force =     0.00152223    0.00000000    0.00719956
     atom   25 type  2   force =     0.00043102    0.00000000    0.02509749
     atom   26 type  2   force =    -0.00044981    0.00000000    0.06337300
     atom   27 type  2   force =    -0.00012080    0.02410807   -0.02435205
     atom   28 type  2   force =    -0.00012080   -0.02410807   -0.02435205
     atom   29 type  2   force =    -0.00431565    0.00000000    0.00143250
     atom   30 type  2   force =     0.00051740    0.00000000   -0.01709400
     atom   31 type  2   force =    -0.00131081    0.00090336    0.00210147
     atom   32 type  2   force =    -0.00131081   -0.00090336    0.00210147
     atom   33 type  2   force =     0.00259544    0.00000000   -0.00367389
     atom   34 type  2   force =    -0.00573105    0.00000000    0.00686497
     atom   35 type  2   force =     0.00858645    0.00041065    0.00573125
     atom   36 type  2   force =     0.00858645   -0.00041065    0.00573125
     atom   37 type  2   force =     0.00800125    0.00000000    0.01607072

     Total force =     0.045660     Total SCF correction =     0.004984
     SCF correction compared to forces is large: reduce conv_thr to get better values
     Energy error            =      4.5E-03 Ry
     Gradient error          =      1.6E-02 Ry/Bohr

     number of scf cycles    =   2
     number of bfgs steps    =   1

     energy             old  =   -3302.9206303202 Ry
     energy             new  =   -3302.9251766798 Ry

     CASE: energy            _new < energy            _old

     new trust radius        =       0.0438022745 bohr
     new conv_thr            =       0.0000000804 Ry


ATOMIC_POSITIONS (angstrom)
Ru               0.0000000000        1.5881618300        9.5289709800    0   0   0
Ru               1.5535000000        4.7644854900        9.5289709800    0   0   0
Ru               0.0012915786        4.7644855800       12.7411420043
Ru               1.5788969484        1.5881617100       12.6966562052
Ru               0.0006655773        1.5881614900       15.7686876196
Ru               1.5359952114        4.7644852600       16.0181258397
O                0.0000000000        4.7644854900       10.7677372100    0   0   0
O                0.0000000000        4.7644854900        8.2902047600    0   0   0
O                1.5535000000        0.3493956000        9.5289709800    0   0   0
O                1.5535000000        2.8269280600        9.5289709800    0   0   0
O                0.0068387593        1.5881613800       13.9126578571
O                0.0000000000        1.5881618300       11.4665284200    0   0   0
O                1.5551966159        3.5323022264       12.7187414200
O                1.5551964359        5.9966687936       12.7187414400
O               -0.0043520816        4.7644855000       17.1311109132
O                0.0104756839        4.7644854500       14.6746758305
O                1.5288990464        0.3720678788       15.9500155581
O                1.5288990364        2.8042552412       15.9500154981
Ru               3.1070000000        1.5881618300        9.5289709800    0   0   0
Ru               4.6605000000        4.7644854900        9.5289709800    0   0   0
Ru               3.1067368819        4.7644854900       12.7366741775
Ru               4.6348348190        1.5881618300       12.6935709398
Ru               3.1118981285        1.5881618300       16.0870414981
Ru               4.6668789533        4.7644854900       15.9740414218
O                3.1070000000        4.7644854900       10.7677372100    0   0   0
O                3.1070000000        4.7644854900        8.2902047600    0   0   0
O                4.6605000000        0.3493956000        9.5289709800    0   0   0
O                4.6605000000        2.8269280600        9.5289709800    0   0   0
O                3.0973108144        1.5881618300       13.9803606007
O                3.1070000000        1.5881618300       11.4665284200    0   0   0
O                4.6588695991        3.5328594335       12.7178479664
O                4.6588695991        5.9961115465       12.7178479664
O                3.1155093625        4.7644854900       17.0562909543
O                3.0951358272        4.7644854900       14.6717145076
O                4.6792122806        0.3690793514       15.8752175137
O                4.6792122806        2.8072443086       15.8752175137
O                3.1230051902        1.5881618300       17.7864778012



     Writing config-only to output data dir ./tmp_ref__2x1o_mir/ref__2x1o_mir.save/ :
     XML data file
     NEW-OLD atomic charge density approx. for the potential

     negative rho (up, down):  2.093E-04 0.000E+00

     total cpu time spent up to now is      697.7 secs

     per-process dynamical memory:   363.1 Mb

     Self-consistent Calculation

     iteration #  1     ecut=    80.00 Ry     beta= 0.30
     Davidson diagonalization with overlap
     ethr =  1.00E-06,  avg # of iterations =  9.6

     negative rho (up, down):  2.210E-04 0.000E+00

     total cpu time spent up to now is      744.3 secs

     total energy              =   -3302.92794516 Ry
     estimated scf accuracy    <       0.02159322 Ry

     iteration #  2     ecut=    80.00 Ry     beta= 0.30
     Davidson diagonalization with overlap
     ethr =  6.31E-06,  avg # of iterations =  1.0

     negative rho (up, down):  2.230E-04 0.000E+00

     total cpu time spent up to now is      762.2 secs

     total energy              =   -3302.92845432 Ry
     estimated scf accuracy    <       0.00353682 Ry

     iteration #  3     ecut=    80.00 Ry     beta= 0.30
     Davidson diagonalization with overlap
     ethr =  1.03E-06,  avg # of iterations =  1.0

     negative rho (up, down):  2.320E-04 0.000E+00

     total cpu time spent up to now is      780.0 secs

     total energy              =   -3302.92854040 Ry
     estimated scf accuracy    <       0.00147228 Ry

     iteration #  4     ecut=    80.00 Ry     beta= 0.30
     Davidson diagonalization with overlap
     ethr =  4.30E-07,  avg # of iterations =  1.0

     negative rho (up, down):  2.471E-04 0.000E+00

     total cpu time spent up to now is      797.8 secs

     total energy              =   -3302.92850590 Ry
     estimated scf accuracy    <       0.00036049 Ry

     iteration #  5     ecut=    80.00 Ry     beta= 0.30
     Davidson diagonalization with overlap
     ethr =  1.05E-07,  avg # of iterations =  1.0

     negative rho (up, down):  2.569E-04 0.000E+00

     total cpu time spent up to now is      815.6 secs

     total energy              =   -3302.92850783 Ry
     estimated scf accuracy    <       0.00022356 Ry

     iteration #  6     ecut=    80.00 Ry     beta= 0.30
     Davidson diagonalization with overlap
     ethr =  6.54E-08,  avg # of iterations =  1.0

     negative rho (up, down):  2.632E-04 0.000E+00

     total cpu time spent up to now is      833.5 secs

     total energy              =   -3302.92851114 Ry
     estimated scf accuracy    <       0.00002027 Ry

     iteration #  7     ecut=    80.00 Ry     beta= 0.30
     Davidson diagonalization with overlap
     ethr =  5.93E-09,  avg # of iterations =  3.7

     negative rho (up, down):  2.666E-04 0.000E+00

     total cpu time spent up to now is      854.4 secs

     total energy              =   -3302.92851160 Ry
     estimated scf accuracy    <       0.00000860 Ry

     iteration #  8     ecut=    80.00 Ry     beta= 0.30
     Davidson diagonalization with overlap
     ethr =  2.52E-09,  avg # of iterations =  1.2

     negative rho (up, down):  2.685E-04 0.000E+00

     total cpu time spent up to now is      873.1 secs

     total energy              =   -3302.92851161 Ry
     estimated scf accuracy    <       0.00000634 Ry

     iteration #  9     ecut=    80.00 Ry     beta= 0.30
     Davidson diagonalization with overlap
     ethr =  1.85E-09,  avg # of iterations =  1.0

     negative rho (up, down):  2.679E-04 0.000E+00

     total cpu time spent up to now is      891.0 secs

     total energy              =   -3302.92851166 Ry
     estimated scf accuracy    <       0.00000233 Ry

     iteration # 10     ecut=    80.00 Ry     beta= 0.30
     Davidson diagonalization with overlap
     ethr =  6.83E-10,  avg # of iterations =  2.8

     negative rho (up, down):  2.660E-04 0.000E+00

     total cpu time spent up to now is      911.4 secs

     total energy              =   -3302.92851171 Ry
     estimated scf accuracy    <       0.00000071 Ry

     iteration # 11     ecut=    80.00 Ry     beta= 0.30
     Davidson diagonalization with overlap
     ethr =  2.08E-10,  avg # of iterations =  3.3

     negative rho (up, down):  2.622E-04 0.000E+00

     total cpu time spent up to now is      932.3 secs

     total energy              =   -3302.92851172 Ry
     estimated scf accuracy    <       0.00000036 Ry

     iteration # 12     ecut=    80.00 Ry     beta= 0.30
     Davidson diagonalization with overlap
     ethr =  1.05E-10,  avg # of iterations =  1.1

     negative rho (up, down):  2.559E-04 0.000E+00

     total cpu time spent up to now is      950.6 secs

     total energy              =   -3302.92851173 Ry
     estimated scf accuracy    <       0.00000012 Ry

     iteration # 13     ecut=    80.00 Ry     beta= 0.30
     Davidson diagonalization with overlap
     ethr =  3.52E-11,  avg # of iterations =  4.1

     negative rho (up, down):  2.112E-04 0.000E+00

     total cpu time spent up to now is      970.9 secs

     End of self-consistent calculation

          k = 0.0000 0.0000 0.0000 ( 81707 PWs)   bands (ev):

   -73.1563 -72.7099 -72.6240 -72.4669 -72.4555 -72.3487 -72.3240 -72.2839
   -72.2479 -72.1909 -71.9706 -71.9409 -43.6783 -43.0079 -42.8661 -42.8460
   -42.7338 -42.7085 -42.6364 -42.6350 -42.6209 -42.5870 -42.5642 -42.5585
   -42.5357 -42.5188 -42.4975 -42.4782 -42.4707 -42.3860 -42.3320 -42.3272
   -42.3173 -42.2956 -42.2463 -42.2273 -42.1987 -42.1826 -42.1730 -42.1525
   -42.1310 -42.0960 -42.0539 -42.0459 -42.0321 -41.8613 -41.8238 -41.7781
   -18.9266 -18.6022 -18.4582 -18.3540 -17.9712 -17.9197 -17.8334 -17.7388
   -17.7220 -17.6930 -17.6755 -17.6190 -17.6178 -17.5858 -17.5258 -17.3204
   -17.2085 -17.1091 -17.0769 -17.0036 -16.9985 -16.7209 -16.6572 -16.0843
   -16.0468  -7.2371  -7.1700  -7.1508  -6.8559  -6.2981  -6.2527  -6.0256
    -5.8679  -5.8265  -5.7846  -5.7737  -5.6744  -5.6396  -5.6329  -5.6245
    -5.5835  -5.5427  -5.4484  -5.4393  -5.4295  -5.4198  -5.4084  -5.2117
    -5.0701  -5.0557  -5.0501  -4.9823  -4.8834  -4.6248  -4.5065  -4.2005
    -4.0429  -3.8237  -3.6953  -3.6032  -3.5921  -3.5789  -3.5593  -3.4118
    -3.3756  -3.2656  -3.1541  -3.1347  -3.0171  -2.9815  -2.8608  -2.8606
    -2.7739  -2.6866  -2.6857  -2.6048  -2.5983  -2.4387  -2.4118  -2.3929
    -2.3278  -2.2951  -2.1792  -2.1662  -2.0646  -2.0424  -1.9338  -1.7873
    -1.7812  -1.7612  -1.5813  -1.5265  -1.4203  -1.3774  -1.3044  -1.1681
    -1.0945  -0.8618  -0.7449  -0.6721  -0.3965  -0.3835  -0.2052  -0.1434
    -0.1240  -0.0625   0.1420   0.1815   0.2046   0.2597   0.2878   0.4003
     0.5303   0.5818   0.6056   0.6430   0.6477   0.7323   0.8165   0.8647
     0.9809   1.0189   1.0716   1.0860   1.2214   1.3104   1.4756   1.7098
     1.7512   1.9396   2.0263   2.0978   2.1895   2.2772   2.3486   2.3499
     2.4919   2.7258   2.8041   3.2002   3.7469   3.8872   4.2116   4.2707
     4.3400   4.4608   4.5911   4.6408   4.8145   4.8322   4.9771   5.3027
     5.5576   5.5730   5.7120   5.7130   5.8097

          k = 0.0000 0.2445 0.0000 ( 81832 PWs)   bands (ev):

   -73.1563 -72.7099 -72.6240 -72.4669 -72.4555 -72.3487 -72.3240 -72.2839
   -72.2479 -72.1909 -71.9707 -71.9409 -43.6783 -43.0086 -42.8676 -42.8415
   -42.7354 -42.7089 -42.6364 -42.6340 -42.6217 -42.5870 -42.5634 -42.5584
   -42.5368 -42.5188 -42.4975 -42.4781 -42.4707 -42.3862 -42.3320 -42.3271
   -42.3154 -42.2954 -42.2463 -42.2273 -42.1984 -42.1826 -42.1728 -42.1525
   -42.1313 -42.0976 -42.0539 -42.0450 -42.0327 -41.8613 -41.8247 -41.7781
   -18.8385 -18.4752 -18.3927 -18.2836 -17.9850 -17.9186 -17.8721 -17.8646
   -17.8566 -17.8313 -17.7583 -17.6852 -17.4374 -17.3834 -17.3535 -17.3248
   -17.2588 -17.2356 -17.1810 -17.1631 -17.0010 -16.7127 -16.6647 -16.0838
   -16.0440  -6.8908  -6.7889  -6.7021  -6.6817  -6.2902  -6.2191  -6.1230
    -6.0926  -5.9970  -5.9063  -5.7652  -5.7275  -5.6567  -5.5896  -5.5831
    -5.5664  -5.5498  -5.4908  -5.4729  -5.4595  -5.3593  -5.2103  -5.2086
    -5.1919  -5.1166  -4.8025  -4.7175  -4.4301  -4.3365  -4.2316  -4.0746
    -3.9640  -3.9348  -3.8270  -3.8118  -3.7590  -3.7114  -3.6394  -3.5592
    -3.5580  -3.4996  -3.3511  -3.2149  -3.1868  -3.0375  -2.9912  -2.8839
    -2.8134  -2.7724  -2.7187  -2.6824  -2.6563  -2.5987  -2.5503  -2.4868
    -2.3511  -2.3420  -2.3181  -2.2161  -2.1943  -2.1289  -2.0462  -1.9328
    -1.8198  -1.7843  -1.7361  -1.6358  -1.5489  -1.5215  -1.3778  -1.3321
    -1.1271  -1.0255  -0.9321  -0.7869  -0.0842  -0.0234   0.0348   0.0826
     0.1148   0.1267   0.2004   0.3081   0.3974   0.4267   0.4376   0.4662
     0.4887   0.5501   0.5617   0.5675   0.6000   0.6214   0.6655   0.6728
     0.8391   0.9458   1.0619   1.1648   1.1978   1.3674   1.7913   1.8359
     1.9375   2.0611   2.0720   2.1416   2.1649   2.2743   2.3209   2.3850
     2.4825   2.6017   2.9287   3.2121   3.2470   3.5330   3.6677   4.0101
     4.2702   4.3781   4.8914   5.0429   5.1795   5.3013   5.5347   5.5605
     5.5925   5.6203   5.6501   5.7290   5.7796

          k = 0.0000-0.4891 0.0000 ( 81886 PWs)   bands (ev):

   -73.1563 -72.7099 -72.6240 -72.4669 -72.4555 -72.3487 -72.3240 -72.2840
   -72.2479 -72.1909 -71.9707 -71.9409 -43.6783 -43.0094 -42.8688 -42.8373
   -42.7373 -42.7092 -42.6363 -42.6331 -42.6224 -42.5870 -42.5628 -42.5584
   -42.5377 -42.5189 -42.4976 -42.4780 -42.4708 -42.3865 -42.3319 -42.3271
   -42.3135 -42.2952 -42.2464 -42.2272 -42.1980 -42.1826 -42.1727 -42.1525
   -42.1317 -42.0992 -42.0538 -42.0442 -42.0332 -41.8614 -41.8257 -41.7782
   -18.7321 -18.3891 -18.2303 -18.1243 -18.0352 -17.9615 -17.9492 -17.9453
   -17.9227 -17.8755 -17.8207 -17.6981 -17.4045 -17.4001 -17.3620 -17.3511
   -17.3028 -17.2837 -17.2561 -17.1900 -16.9992 -16.6973 -16.6815 -16.0833
   -16.0418  -6.8741  -6.3549  -6.3255  -6.2765  -6.1865  -6.1132  -6.0851
    -5.9726  -5.9661  -5.8961  -5.7032  -5.6542  -5.6255  -5.5982  -5.5576
    -5.5247  -5.5079  -5.4797  -5.4587  -5.3705  -5.3075  -5.2358  -5.2022
    -5.1174  -4.8967  -4.8187  -4.8043  -4.4939  -4.4421  -4.4044  -4.2684
    -4.2317  -4.1971  -4.0558  -3.8866  -3.8468  -3.8324  -3.6676  -3.5465
    -3.5290  -3.4145  -3.3769  -3.3371  -3.1961  -3.1689  -3.1200  -3.0782
    -3.0556  -3.0200  -2.9739  -2.8321  -2.7432  -2.6253  -2.5773  -2.4653
    -2.3986  -2.3968  -2.3221  -2.2197  -2.1369  -2.0464  -1.9217  -1.8355
    -1.7609  -1.7427  -1.6936  -1.6496  -1.6039  -1.4756  -1.4592  -1.3798
    -1.2241  -1.1661  -1.0148  -0.9367  -0.5208  -0.2630  -0.2014  -0.0823
    -0.0078   0.2167   0.2200   0.2807   0.5218   0.5380   0.5435   0.5812
     0.6363   0.6757   0.7424   0.8075   0.8452   0.8522   0.8780   0.8800
     0.9033   0.9930   1.1466   1.1828   1.2273   1.2918   1.6296   1.7315
     1.8321   1.9453   2.1477   2.1591   2.1760   2.3862   2.4224   2.4753
     2.4937   2.6879   2.8223   3.0826   3.1523   3.2799   3.2807   4.2742
     4.2851   4.3747   5.0537   5.2419   5.2558   5.2811   5.3081   5.3426
     5.5718   5.7885   5.7971   5.8445   5.8855

          k = 0.2500 0.0000 0.0000 ( 81703 PWs)   bands (ev):

   -73.1563 -72.7098 -72.6241 -72.4656 -72.4568 -72.3481 -72.3246 -72.2835
   -72.2483 -72.1909 -71.9702 -71.9414 -43.6783 -43.0036 -42.8456 -42.8447
   -42.7340 -42.7086 -42.6585 -42.6330 -42.6229 -42.5853 -42.5631 -42.5582
   -42.5368 -42.5133 -42.4806 -42.4770 -42.4693 -42.3627 -42.3579 -42.3231
   -42.3040 -42.2869 -42.2489 -42.2356 -42.2048 -42.1934 -42.1755 -42.1578
   -42.1524 -42.0935 -42.0565 -42.0323 -42.0194 -41.8886 -41.8211 -41.7808
   -18.8004 -18.4860 -18.3569 -18.2576 -18.0942 -17.9109 -17.8420 -17.8275
   -17.7593 -17.7454 -17.6615 -17.6114 -17.5466 -17.5148 -17.4521 -17.3052
   -17.2348 -17.1856 -17.1546 -17.0793 -17.0680 -16.7825 -16.6832 -16.1217
   -16.0897  -7.0689  -6.9942  -6.9727  -6.6715  -6.3027  -6.2155  -6.0728
    -5.9722  -5.9361  -5.8553  -5.8488  -5.7607  -5.7418  -5.7317  -5.6295
    -5.5767  -5.5441  -5.5280  -5.3984  -5.3866  -5.3260  -5.1793  -5.1085
    -4.9484  -4.9316  -4.7776  -4.7334  -4.6496  -4.5218  -4.3269  -4.2476
    -4.1218  -4.0913  -3.9728  -3.8849  -3.6337  -3.4591  -3.4269  -3.3248
    -3.3237  -3.2927  -3.2304  -3.1455  -3.1414  -3.0669  -3.0209  -2.9187
    -2.9061  -2.8769  -2.7748  -2.7197  -2.7072  -2.6609  -2.5822  -2.4199
    -2.3945  -2.3659  -2.2860  -2.1953  -2.1540  -2.1219  -2.0079  -1.9898
    -1.9774  -1.9289  -1.8208  -1.7482  -1.5393  -1.4683  -1.4200  -1.2719
    -1.1478  -0.9922  -0.8994  -0.7135  -0.2329  -0.1896   0.0278   0.0356
     0.1269   0.1987   0.3387   0.3821   0.3840   0.4252   0.5109   0.5649
     0.6100   0.6275   0.6910   0.7272   0.7572   0.8261   0.9356   1.0142
     1.0612   1.1581   1.2644   1.3088   1.3265   1.4903   1.5739   1.5883
     1.6317   1.7782   1.8122   1.9570   2.1121   2.1744   2.3521   2.3773
     2.4687   2.6599   2.7884   3.4284   3.8828   4.0007   4.2733   4.3219
     4.4691   4.5396   4.5776   4.7014   4.8360   4.8956   4.9844   5.0481
     5.1264   5.3959   5.4173   5.4887   5.5500

          k = 0.2500 0.2445 0.0000 ( 81774 PWs)   bands (ev):

   -73.1563 -72.7098 -72.6241 -72.4656 -72.4568 -72.3481 -72.3245 -72.2836
   -72.2483 -72.1909 -71.9702 -71.9414 -43.6783 -43.0043 -42.8494 -42.8382
   -42.7351 -42.7095 -42.6585 -42.6323 -42.6233 -42.5853 -42.5626 -42.5582
   -42.5373 -42.5133 -42.4806 -42.4770 -42.4694 -42.3629 -42.3578 -42.3231
   -42.3038 -42.2856 -42.2489 -42.2356 -42.2044 -42.1933 -42.1755 -42.1580
   -42.1524 -42.0947 -42.0567 -42.0328 -42.0187 -41.8885 -41.8218 -41.7810
   -18.7202 -18.3647 -18.3019 -18.1778 -18.0755 -17.9182 -17.8788 -17.8559
   -17.8054 -17.7803 -17.6961 -17.6670 -17.5123 -17.4494 -17.3968 -17.3222
   -17.3025 -17.2944 -17.2484 -17.2037 -17.0638 -16.7778 -16.6882 -16.1218
   -16.0874  -6.7267  -6.6317  -6.5410  -6.5297  -6.2923  -6.1251  -6.0481
    -5.9944  -5.9365  -5.8481  -5.7989  -5.7372  -5.6866  -5.6262  -5.6176
    -5.5856  -5.5172  -5.4920  -5.4603  -5.4026  -5.3279  -5.1898  -5.0837
    -4.9356  -4.8781  -4.6590  -4.6432  -4.5849  -4.4368  -4.3628  -4.2349
    -4.1565  -4.0365  -3.9738  -3.9446  -3.7580  -3.7213  -3.6180  -3.5362
    -3.4325  -3.3877  -3.3420  -3.2658  -3.2469  -3.2367  -3.1446  -3.1082
    -3.0587  -3.0331  -2.9484  -2.8323  -2.8151  -2.7741  -2.6724  -2.6427
    -2.6039  -2.4797  -2.3420  -2.2462  -2.1854  -2.1398  -2.1048  -1.9815
    -1.9390  -1.8803  -1.8173  -1.6461  -1.6143  -1.5498  -1.3716  -1.2490
    -1.0454  -1.0133  -0.9838  -0.8407  -0.1362  -0.0035   0.0610   0.1221
     0.1943   0.2877   0.3406   0.3944   0.4708   0.5476   0.5953   0.6488
     0.6794   0.7023   0.7504   0.7991   0.8303   0.8916   0.8967   0.9690
     1.0074   1.1183   1.2442   1.3542   1.3618   1.4824   1.6352   1.7266
     1.8179   1.8928   1.9264   2.0177   2.0600   2.1052   2.1372   2.4013
     2.5438   2.6338   2.9511   3.3222   3.5206   3.7250   3.8398   4.1005
     4.3397   4.4030   4.6804   4.9039   4.9659   5.0598   5.1013   5.2928
     5.3468   5.3939   5.4120   5.6098   5.6894

          k = 0.2500-0.4891 0.0000 ( 81830 PWs)   bands (ev):

   -73.1563 -72.7098 -72.6241 -72.4656 -72.4568 -72.3481 -72.3245 -72.2836
   -72.2483 -72.1909 -71.9702 -71.9414 -43.6783 -43.0051 -42.8506 -42.8341
   -42.7365 -42.7101 -42.6584 -42.6316 -42.6238 -42.5853 -42.5622 -42.5582
   -42.5377 -42.5133 -42.4806 -42.4770 -42.4695 -42.3632 -42.3578 -42.3230
   -42.3036 -42.2842 -42.2489 -42.2356 -42.2041 -42.1932 -42.1754 -42.1581
   -42.1524 -42.0959 -42.0569 -42.0334 -42.0180 -41.8885 -41.8226 -41.7813
   -18.6261 -18.2780 -18.1464 -18.0487 -18.0154 -17.9438 -17.9282 -17.8977
   -17.8330 -17.8025 -17.7965 -17.7073 -17.4943 -17.4682 -17.4623 -17.3987
   -17.3953 -17.3576 -17.3015 -17.2086 -17.0614 -16.7729 -16.6949 -16.1220
   -16.0856  -6.6951  -6.3181  -6.1049  -6.0355  -6.0248  -5.8577  -5.8331
    -5.8241  -5.7846  -5.7568  -5.7314  -5.6847  -5.6815  -5.6413  -5.6267
    -5.6059  -5.5651  -5.5505  -5.5262  -5.4821  -5.4498  -5.1217  -4.9530
    -4.8957  -4.7368  -4.6749  -4.6556  -4.4416  -4.4036  -4.4006  -4.3289
    -4.2049  -4.1276  -4.1005  -4.0879  -4.0515  -4.0203  -3.8804  -3.8787
    -3.8046  -3.6976  -3.5587  -3.4444  -3.3887  -3.3095  -3.2853  -3.2663
    -3.1878  -3.1371  -3.1305  -3.0244  -2.8907  -2.7716  -2.7657  -2.6928
    -2.6730  -2.5154  -2.3464  -2.2383  -2.1870  -2.1514  -1.9528  -1.9277
    -1.8408  -1.7443  -1.6892  -1.5347  -1.5067  -1.3229  -1.2840  -1.2384
    -1.2242  -1.1755  -0.9870  -0.9340  -0.3148  -0.2334  -0.1355   0.0704
     0.1670   0.2722   0.3818   0.4544   0.5363   0.5725   0.6153   0.6758
     0.7857   0.8315   0.8890   0.9585   1.0409   1.0464   1.0977   1.1646
     1.1734   1.2329   1.2835   1.3340   1.4002   1.5340   1.6293   1.6589
     1.6773   1.8333   2.0048   2.0398   2.0409   2.1771   2.2141   2.2761
     2.6519   2.7800   2.9434   3.0890   3.2953   3.4044   3.5233   4.3101
     4.3415   4.3994   4.5709   4.6956   4.8036   4.9875   5.1419   5.3565
     5.3979   5.4906   5.6239   5.7785   5.9563

          k =-0.5000 0.0000 0.0000 ( 81894 PWs)   bands (ev):

   -73.1563 -72.7096 -72.6243 -72.4636 -72.4587 -72.3475 -72.3252 -72.2831
   -72.2487 -72.1909 -71.9697 -71.9419 -43.6783 -42.9993 -42.8452 -42.8165
   -42.7342 -42.7087 -42.6876 -42.6293 -42.6266 -42.5835 -42.5618 -42.5583
   -42.5380 -42.5123 -42.4794 -42.4683 -42.4224 -42.4170 -42.3197 -42.3157
   -42.3096 -42.2826 -42.2350 -42.2324 -42.2132 -42.2113 -42.2051 -42.1755
   -42.1523 -42.0905 -42.0595 -42.0324 -41.9598 -41.9490 -41.8180 -41.7840
   -18.5266 -18.4268 -18.2066 -18.1877 -18.1277 -18.0352 -18.0028 -17.9946
   -17.7672 -17.6619 -17.6600 -17.4659 -17.4425 -17.3893 -17.3569 -17.3426
   -17.3263 -17.2759 -17.2692 -17.2677 -17.0535 -16.8914 -16.7000 -16.1525
   -16.1418  -6.6708  -6.5931  -6.5542  -6.5419  -6.5060  -6.5029  -6.2837
    -6.1683  -6.0836  -6.0558  -5.8632  -5.8213  -5.7948  -5.7450  -5.7061
    -5.7028  -5.4502  -5.4072  -5.3703  -5.3600  -4.9478  -4.9444  -4.9233
    -4.8670  -4.5866  -4.5319  -4.4321  -4.4030  -4.3708  -4.2755  -4.1863
    -4.1758  -4.0724  -4.0268  -3.9191  -3.9160  -3.8259  -3.8012  -3.6657
    -3.5778  -3.5477  -3.4352  -3.1695  -3.1587  -3.0520  -3.0042  -2.9713
    -2.9638  -2.9449  -2.8715  -2.8178  -2.7024  -2.6853  -2.6826  -2.6544
    -2.4866  -2.4161  -2.3252  -2.3144  -2.2354  -2.1678  -2.1384  -2.1294
    -2.1156  -2.0653  -1.9916  -1.8246  -1.5831  -1.4700  -1.2418  -1.1852
    -1.1657  -1.1586  -0.9793  -0.8899  -0.1590  -0.0584  -0.0326  -0.0040
     0.3076   0.3862   0.4325   0.4964   0.5160   0.5589   0.6826   0.6937
     0.8719   0.8766   0.8905   1.0271   1.0480   1.0608   1.1032   1.1538
     1.2099   1.2408   1.2831   1.3443   1.4107   1.4528   1.5017   1.5275
     1.5715   1.6259   1.7152   1.7969   1.9823   2.0729   2.2643   2.2722
     2.5394   2.5910   2.8658   3.9510   4.0377   4.1871   4.2358   4.3933
     4.4949   4.5465   4.6874   4.7321   4.7921   4.8683   4.9120   4.9667
     4.9784   4.9986   5.0363   5.0622   5.1222

          k =-0.5000 0.2445 0.0000 ( 81810 PWs)   bands (ev):

   -73.1563 -72.7096 -72.6243 -72.4636 -72.4587 -72.3475 -72.3252 -72.2832
   -72.2487 -72.1909 -71.9697 -71.9419 -43.6783 -43.0000 -42.8433 -42.8158
   -42.7347 -42.7101 -42.6875 -42.6291 -42.6265 -42.5835 -42.5617 -42.5583
   -42.5379 -42.5122 -42.4793 -42.4683 -42.4224 -42.4170 -42.3198 -42.3157
   -42.3096 -42.2827 -42.2342 -42.2325 -42.2125 -42.2111 -42.2050 -42.1756
   -42.1523 -42.0913 -42.0601 -42.0330 -41.9594 -41.9487 -41.8185 -41.7845
   -18.4774 -18.3619 -18.1189 -18.1069 -18.0763 -17.9905 -17.9277 -17.9267
   -17.7868 -17.6789 -17.6575 -17.5501 -17.5140 -17.4546 -17.4422 -17.4109
   -17.3876 -17.3863 -17.3750 -17.2499 -17.0487 -16.8896 -16.7036 -16.1520
   -16.1413  -6.4175  -6.3074  -6.2638  -6.2521  -6.2146  -6.1901  -6.1802
    -6.1239  -6.0771  -6.0404  -5.8256  -5.7480  -5.7055  -5.6235  -5.5597
    -5.5478  -5.4800  -5.4669  -5.3360  -5.2769  -5.0012  -4.9589  -4.7534
    -4.7292  -4.6679  -4.6138  -4.5535  -4.5250  -4.4298  -4.3862  -4.3783
    -4.3475  -4.2808  -4.2136  -4.1490  -4.0781  -3.9993  -3.9578  -3.8582
    -3.8009  -3.5026  -3.4460  -3.3486  -3.2680  -3.2355  -3.1509  -3.1075
    -3.0145  -2.9925  -2.9425  -2.8679  -2.8569  -2.8437  -2.8308  -2.7948
    -2.6798  -2.4682  -2.4308  -2.2889  -2.2267  -2.1883  -2.1551  -2.0746
    -2.0373  -2.0222  -1.8937  -1.8404  -1.5743  -1.5637  -1.1892  -1.1738
    -1.1493  -1.1083  -1.0072  -0.9564  -0.1948  -0.1521   0.1314   0.2536
     0.3078   0.4405   0.4785   0.5753   0.5860   0.7359   0.8227   0.8661
     0.9382   0.9758   1.0143   1.0517   1.0915   1.1205   1.1684   1.1711
     1.1929   1.2935   1.3174   1.3473   1.3944   1.4788   1.6066   1.6475
     1.6587   1.6719   1.7543   1.7693   1.9070   1.9456   2.1036   2.1387
     2.6687   2.7084   2.9940   3.7088   3.9963   4.1044   4.1319   4.2477
     4.2759   4.3204   4.3271   4.4882   4.5387   4.6844   4.7487   4.9540
     5.0199   5.3336   5.3399   5.4990   5.5585

          k =-0.5000-0.4891 0.0000 ( 81784 PWs)   bands (ev):

   -73.1563 -72.7096 -72.6243 -72.4636 -72.4587 -72.3475 -72.3251 -72.2832
   -72.2487 -72.1909 -71.9697 -71.9419 -43.6783 -43.0007 -42.8415 -42.8150
   -42.7357 -42.7111 -42.6874 -42.6290 -42.6263 -42.5835 -42.5616 -42.5583
   -42.5378 -42.5122 -42.4792 -42.4684 -42.4225 -42.4171 -42.3199 -42.3157
   -42.3096 -42.2828 -42.2332 -42.2329 -42.2118 -42.2110 -42.2048 -42.1756
   -42.1523 -42.0920 -42.0607 -42.0335 -41.9590 -41.9483 -41.8189 -41.7849
   -18.4243 -18.2815 -18.0397 -18.0274 -17.9325 -17.8422 -17.8389 -17.8181
   -17.7823 -17.6916 -17.6772 -17.6702 -17.6517 -17.6481 -17.5978 -17.5252
   -17.5190 -17.4188 -17.3958 -17.2412 -17.0448 -16.8883 -16.7074 -16.1515
   -16.1408  -6.3427  -6.1887  -6.1048  -6.0798  -5.8669  -5.7935  -5.7606
    -5.7524  -5.7344  -5.7054  -5.7050  -5.6642  -5.5685  -5.5418  -5.4599
    -5.3619  -5.3045  -5.2747  -5.1815  -5.1680  -5.1442  -5.0469  -4.9903
    -4.9728  -4.9459  -4.9191  -4.8772  -4.8700  -4.6696  -4.6151  -4.4579
    -4.4325  -4.3301  -4.2986  -4.1687  -4.1160  -3.9504  -3.8230  -3.7796
    -3.6862  -3.6734  -3.6021  -3.5832  -3.5602  -3.5072  -3.4351  -3.4303
    -3.4125  -3.3730  -3.3183  -3.2106  -3.1853  -3.1342  -3.0875  -2.7258
    -2.6952  -2.5905  -2.3930  -2.3032  -2.1909  -2.0179  -1.9002  -1.8714
    -1.7888  -1.7769  -1.6772  -1.6174  -1.5293  -1.3962  -1.2705  -1.2519
    -1.2178  -1.0862  -1.0304  -1.0137  -0.1095  -0.0540   0.1187   0.1545
     0.3765   0.3822   0.4283   0.4969   0.5505   0.6001   0.6812   1.0229
     1.0689   1.1146   1.1844   1.1966   1.2063   1.2632   1.2698   1.2976
     1.3329   1.3904   1.4599   1.4626   1.4761   1.5199   1.6460   1.6911
     1.7213   1.7443   1.7717   1.8341   1.9046   1.9429   1.9620   2.0192
     2.7685   2.7993   3.1144   3.2907   3.7789   3.8305   3.8889   3.9239
     3.9301   4.0705   4.1530   4.4871   4.5635   4.6846   4.7585   5.0784
     5.2133   5.4584   5.6710   5.6939   5.7931

     the Fermi energy is     1.2834 ev

!    total energy              =   -3302.92851171 Ry
     estimated scf accuracy    <       0.00000002 Ry
     smearing contrib. (-TS)   =       0.00066625 Ry
     internal energy E=F+TS    =   -3302.92917797 Ry

     The total energy is F=E-TS. E is the sum of the following terms:
     one-electron contribution =  -33522.97441436 Ry
     hartree contribution      =   16804.16044479 Ry
     xc contribution           =    -420.96113193 Ry
     ewald contribution        =   14074.87096165 Ry
     one-center paw contrib.   =    -238.02503811 Ry

     convergence has been achieved in  13 iterations

     negative rho (up, down):  2.112E-04 0.000E+00

     Forces acting on atoms (cartesian axes, Ry/au):

     atom    1 type  1   force =    -0.00011026    0.00000000    0.06986282
     atom    2 type  1   force =    -0.00267872    0.00000000   -0.08874418
     atom    3 type  1   force =     0.00134517    0.00000000   -0.00407892
     atom    4 type  1   force =    -0.00969794    0.00000000   -0.00412968
     atom    5 type  1   force =    -0.00009994    0.00000000   -0.00456962
     atom    6 type  1   force =     0.00194761    0.00000000   -0.00556475
     atom    7 type  2   force =    -0.00049211    0.00000000    0.02433636
     atom    8 type  2   force =     0.00015960    0.00000000    0.06159142
     atom    9 type  2   force =    -0.00017904    0.02399312   -0.02433104
     atom   10 type  2   force =    -0.00017904   -0.02399312   -0.02433104
     atom   11 type  2   force =    -0.00126838    0.00000000   -0.01308194
     atom   12 type  2   force =    -0.00057824    0.00000000   -0.01482653
     atom   13 type  2   force =     0.00139941   -0.00012180   -0.00070230
     atom   14 type  2   force =     0.00139941    0.00012180   -0.00070230
     atom   15 type  2   force =    -0.00243656    0.00000000    0.00801372
     atom   16 type  2   force =    -0.00102039    0.00000000   -0.00190554
     atom   17 type  2   force =     0.00131925    0.00360301   -0.00484912
     atom   18 type  2   force =     0.00131925   -0.00360301   -0.00484912
     atom   19 type  1   force =     0.00012632    0.00000000    0.06048121
     atom   20 type  1   force =     0.00283727    0.00000000   -0.08763998
     atom   21 type  1   force =    -0.00123365    0.00000000    0.00337918
     atom   22 type  1   force =     0.00954890    0.00000000   -0.00042644
     atom   23 type  1   force =    -0.00278681    0.00000000    0.00853408
     atom   24 type  1   force =     0.00198799    0.00000000   -0.00014198
     atom   25 type  2   force =     0.00052774    0.00000000    0.02696684
     atom   26 type  2   force =    -0.00044337    0.00000000    0.06320172
     atom   27 type  2   force =     0.00016973    0.02399076   -0.02431449
     atom   28 type  2   force =     0.00016973   -0.02399076   -0.02431449
     atom   29 type  2   force =     0.00109932    0.00000000    0.00565823
     atom   30 type  2   force =     0.00031654    0.00000000   -0.01893259
     atom   31 type  2   force =    -0.00129116    0.00054108    0.00117530
     atom   32 type  2   force =    -0.00129116   -0.00054108    0.00117530
     atom   33 type  2   force =    -0.00308847    0.00000000   -0.00525217
     atom   34 type  2   force =    -0.00160385    0.00000000    0.00302746
     atom   35 type  2   force =     0.00040602    0.00192406    0.00482150
     atom   36 type  2   force =     0.00040602   -0.00192406    0.00482150
     atom   37 type  2   force =     0.00399380    0.00000000    0.01064156

     Total force =     0.031229     Total SCF correction =     0.000400
     Energy error            =      3.3E-03 Ry
     Gradient error          =      1.3E-02 Ry/Bohr

     number of scf cycles    =   3
     number of bfgs steps    =   2

     energy             old  =   -3302.9251766798 Ry
     energy             new  =   -3302.9285117144 Ry

     CASE: energy            _new < energy            _old

     new trust radius        =       0.0313526408 bohr
     new conv_thr            =       0.0000000654 Ry


ATOMIC_POSITIONS (angstrom)
Ru               0.0000000000        1.5881618300        9.5289709800    0   0   0
Ru               1.5535000000        4.7644854900        9.5289709800    0   0   0
Ru               0.0025002783        4.7644855800       12.7364605421
Ru               1.5788083342        1.5881617100       12.6979920054
Ru               0.0006804690        1.5881614900       15.7566216821
Ru               1.5327639260        4.7644852600       16.0106028126
O                0.0000000000        4.7644854900       10.7677372100    0   0   0
O                0.0000000000        4.7644854900        8.2902047600    0   0   0
O                1.5535000000        0.3493956000        9.5289709800    0   0   0
O                1.5535000000        2.8269280600        9.5289709800    0   0   0
O                0.0076779558        1.5881613800       13.9013037097
O                0.0000000000        1.5881618300       11.4665284200    0   0   0
O                1.5565907081        3.5313664431       12.7175656033
O                1.5565905281        5.9976045769       12.7175656233
O               -0.0071146954        4.7644855000       17.1365610393
O                0.0123952937        4.7644854500       14.6691379365
O                1.5236696968        0.3726757940       15.9420156219
O                1.5236696868        2.8036473260       15.9420155619
Ru               3.1070000000        1.5881618300        9.5289709800    0   0   0
Ru               4.6605000000        4.7644854900        9.5289709800    0   0   0
Ru               3.1058399720        4.7644854900       12.7412262410
Ru               4.6347284382        1.5881618300       12.6897997751
Ru               3.1112551025        1.5881618300       16.1004222769
Ru               4.6700057207        4.7644854900       15.9782640166
O                3.1070000000        4.7644854900       10.7677372100    0   0   0
O                3.1070000000        4.7644854900        8.2902047600    0   0   0
O                4.6605000000        0.3493956000        9.5289709800    0   0   0
O                4.6605000000        2.8269280600        9.5289709800    0   0   0
O                3.0956759082        1.5881618300       13.9841730388
O                3.1070000000        1.5881618300       11.4665284200    0   0   0
O                4.6575778056        3.5337635390       12.7197085199
O                4.6575778056        5.9952074410       12.7197085199
O                3.1155099981        4.7644854900       17.0516030110
O                3.0910470624        4.7644854900       14.6772525444
O                4.6841688506        0.3702234992       15.8812681761
O                4.6841688506        2.8061001608       15.8812681761
O                3.1298163213        1.5881618300       17.8016063567



     Writing config-only to output data dir ./tmp_ref__2x1o_mir/ref__2x1o_mir.save/ :
     XML data file
     NEW-OLD atomic charge density approx. for the potential

     negative rho (up, down):  2.105E-04 0.000E+00

     total cpu time spent up to now is      977.4 secs

     per-process dynamical memory:   372.3 Mb

     Self-consistent Calculation

     iteration #  1     ecut=    80.00 Ry     beta= 0.30
     Davidson diagonalization with overlap
     ethr =  1.00E-06,  avg # of iterations =  5.7

     negative rho (up, down):  2.368E-04 0.000E+00

     total cpu time spent up to now is     1017.1 secs

     total energy              =   -3302.92957790 Ry
     estimated scf accuracy    <       0.00275697 Ry

     iteration #  2     ecut=    80.00 Ry     beta= 0.30
     Davidson diagonalization with overlap
     ethr =  8.06E-07,  avg # of iterations =  1.0

     negative rho (up, down):  2.539E-04 0.000E+00

     total cpu time spent up to now is     1035.1 secs

     total energy              =   -3302.92970665 Ry
     estimated scf accuracy    <       0.00078033 Ry

     iteration #  3     ecut=    80.00 Ry     beta= 0.30
     Davidson diagonalization with overlap
     ethr =  2.28E-07,  avg # of iterations =  1.0

     negative rho (up, down):  2.750E-04 0.000E+00

     total cpu time spent up to now is     1053.1 secs

     total energy              =   -3302.92972087 Ry
     estimated scf accuracy    <       0.00018098 Ry

     iteration #  4     ecut=    80.00 Ry     beta= 0.30
     Davidson diagonalization with overlap
     ethr =  5.29E-08,  avg # of iterations =  1.2

     negative rho (up, down):  3.261E-04 0.000E+00

     total cpu time spent up to now is     1072.0 secs

     total energy              =   -3302.92970593 Ry
     estimated scf accuracy    <       0.00009584 Ry

     iteration #  5     ecut=    80.00 Ry     beta= 0.30
     Davidson diagonalization with overlap
     ethr =  2.80E-08,  avg # of iterations =  2.0

     negative rho (up, down):  3.484E-04 0.000E+00

     total cpu time spent up to now is     1092.5 secs

     total energy              =   -3302.92970853 Ry
     estimated scf accuracy    <       0.00002651 Ry

     iteration #  6     ecut=    80.00 Ry     beta= 0.30
     Davidson diagonalization with overlap
     ethr =  7.75E-09,  avg # of iterations =  1.9

     negative rho (up, down):  3.606E-04 0.000E+00

     total cpu time spent up to now is     1112.8 secs

     total energy              =   -3302.92970917 Ry
     estimated scf accuracy    <       0.00000463 Ry

     iteration #  7     ecut=    80.00 Ry     beta= 0.30
     Davidson diagonalization with overlap
     ethr =  1.35E-09,  avg # of iterations =  6.9

     negative rho (up, down):  3.648E-04 0.000E+00

     total cpu time spent up to now is     1136.1 secs

     total energy              =   -3302.92970951 Ry
     estimated scf accuracy    <       0.00000306 Ry

     iteration #  8     ecut=    80.00 Ry     beta= 0.30
     Davidson diagonalization with overlap
     ethr =  8.96E-10,  avg # of iterations =  1.1

     negative rho (up, down):  3.660E-04 0.000E+00

     total cpu time spent up to now is     1154.6 secs

     total energy              =   -3302.92970945 Ry
     estimated scf accuracy    <       0.00000125 Ry

     iteration #  9     ecut=    80.00 Ry     beta= 0.30
     Davidson diagonalization with overlap
     ethr =  3.66E-10,  avg # of iterations =  1.3

     negative rho (up, down):  3.628E-04 0.000E+00

     total cpu time spent up to now is     1173.7 secs

     total energy              =   -3302.92970948 Ry
     estimated scf accuracy    <       0.00000055 Ry

     iteration # 10     ecut=    80.00 Ry     beta= 0.30
     Davidson diagonalization with overlap
     ethr =  1.60E-10,  avg # of iterations =  1.1

     negative rho (up, down):  3.570E-04 0.000E+00

     total cpu time spent up to now is     1192.1 secs

     total energy              =   -3302.92970947 Ry
     estimated scf accuracy    <       0.00000037 Ry

     iteration # 11     ecut=    80.00 Ry     beta= 0.30
     Davidson diagonalization with overlap
     ethr =  1.07E-10,  avg # of iterations =  1.1

     negative rho (up, down):  3.336E-04 0.000E+00

     total cpu time spent up to now is     1210.5 secs

     total energy              =   -3302.92970940 Ry
     estimated scf accuracy    <       0.00000027 Ry

     iteration # 12     ecut=    80.00 Ry     beta= 0.30
     Davidson diagonalization with overlap
     ethr =  7.83E-11,  avg # of iterations =  1.4

     negative rho (up, down):  3.075E-04 0.000E+00

     total cpu time spent up to now is     1229.8 secs

     total energy              =   -3302.92970934 Ry
     estimated scf accuracy    <       0.00000013 Ry

     iteration # 13     ecut=    80.00 Ry     beta= 0.30
     Davidson diagonalization with overlap
     ethr =  3.69E-11,  avg # of iterations =  1.7

     negative rho (up, down):  2.119E-04 0.000E+00

     total cpu time spent up to now is     1248.6 secs

     End of self-consistent calculation

          k = 0.0000 0.0000 0.0000 ( 81707 PWs)   bands (ev):

   -73.1608 -72.6954 -72.6368 -72.4694 -72.4584 -72.3566 -72.3300 -72.2870
   -72.2492 -72.2147 -71.9722 -71.9445 -43.6761 -43.0104 -42.8545 -42.8467
   -42.7299 -42.7143 -42.6449 -42.6378 -42.6238 -42.5743 -42.5729 -42.5535
   -42.5393 -42.5226 -42.5009 -42.4957 -42.4884 -42.3978 -42.3347 -42.3296
   -42.3201 -42.2983 -42.2539 -42.2388 -42.2254 -42.1857 -42.1767 -42.1569
   -42.1332 -42.0994 -42.0572 -42.0551 -42.0483 -41.8638 -41.8261 -41.7807
   -18.9433 -18.6105 -18.4737 -18.3662 -17.9766 -17.9338 -17.8423 -17.7363
   -17.7330 -17.6991 -17.6856 -17.6278 -17.6233 -17.5901 -17.5298 -17.3256
   -17.1875 -17.1182 -17.0842 -17.0031 -16.9987 -16.7111 -16.6512 -16.0873
   -16.0497  -7.2408  -7.1744  -7.1538  -6.8787  -6.3028  -6.2752  -6.0291
    -5.8693  -5.8361  -5.8079  -5.7901  -5.6771  -5.6377  -5.6371  -5.6256
    -5.5890  -5.5455  -5.4560  -5.4352  -5.4244  -5.4235  -5.4162  -5.2149
    -5.0670  -5.0611  -5.0600  -4.9754  -4.8838  -4.6266  -4.5156  -4.2031
    -4.0443  -3.8354  -3.6985  -3.6069  -3.5950  -3.5828  -3.5590  -3.4218
    -3.3800  -3.2793  -3.1549  -3.1395  -3.0260  -2.9842  -2.8639  -2.8612
    -2.7825  -2.6938  -2.6776  -2.6089  -2.6004  -2.4399  -2.4149  -2.4033
    -2.3311  -2.2991  -2.1809  -2.1667  -2.0637  -2.0541  -1.9316  -1.8084
    -1.7902  -1.7640  -1.5824  -1.5322  -1.4333  -1.3829  -1.3022  -1.1738
    -1.0942  -0.8654  -0.7505  -0.6794  -0.4009  -0.3899  -0.2096  -0.1486
    -0.1299  -0.0650   0.1353   0.1821   0.1976   0.2565   0.2851   0.3854
     0.5257   0.5713   0.6082   0.6398   0.6450   0.7268   0.8139   0.8603
     0.9756   1.0182   1.0687   1.0820   1.2163   1.3096   1.4727   1.7059
     1.7515   1.9307   2.0192   2.0896   2.1877   2.2700   2.3456   2.3470
     2.4927   2.7198   2.8018   3.2058   3.7364   3.8326   4.2008   4.2698
     4.3368   4.4582   4.5833   4.6258   4.8089   4.8307   4.9739   5.3145
     5.5348   5.5663   5.7067   5.7149   5.8070

          k = 0.0000 0.2445 0.0000 ( 81832 PWs)   bands (ev):

   -73.1608 -72.6954 -72.6368 -72.4694 -72.4584 -72.3566 -72.3300 -72.2870
   -72.2492 -72.2147 -71.9722 -71.9445 -43.6761 -43.0111 -42.8573 -42.8410
   -42.7317 -42.7145 -42.6449 -42.6369 -42.6246 -42.5743 -42.5722 -42.5535
   -42.5403 -42.5226 -42.5010 -42.4957 -42.4885 -42.3981 -42.3347 -42.3295
   -42.3183 -42.2981 -42.2539 -42.2387 -42.2251 -42.1856 -42.1766 -42.1569
   -42.1334 -42.1009 -42.0577 -42.0551 -42.0474 -41.8639 -41.8271 -41.7807
   -18.8593 -18.4849 -18.4094 -18.2886 -17.9899 -17.9324 -17.8783 -17.8728
   -17.8660 -17.8350 -17.7586 -17.6930 -17.4532 -17.3863 -17.3569 -17.3303
   -17.2618 -17.2358 -17.1872 -17.1534 -16.9959 -16.7028 -16.6587 -16.0868
   -16.0468  -6.9112  -6.7953  -6.7072  -6.6851  -6.2952  -6.2448  -6.1280
    -6.1001  -6.0016  -5.9094  -5.7896  -5.7304  -5.6519  -5.5927  -5.5861
    -5.5697  -5.5549  -5.4964  -5.4712  -5.4621  -5.3617  -5.2163  -5.2125
    -5.1882  -5.1155  -4.8000  -4.7193  -4.4390  -4.3413  -4.2354  -4.0778
    -3.9695  -3.9358  -3.8369  -3.8242  -3.7584  -3.7240  -3.6455  -3.5645
    -3.5624  -3.5071  -3.3503  -3.2235  -3.1872  -3.0434  -3.0000  -2.8829
    -2.8198  -2.7695  -2.7230  -2.6866  -2.6606  -2.5999  -2.5541  -2.4867
    -2.3525  -2.3369  -2.3242  -2.2254  -2.2008  -2.1270  -2.0534  -1.9362
    -1.8358  -1.7868  -1.7567  -1.6375  -1.5529  -1.5170  -1.3832  -1.3349
    -1.1291  -1.0286  -0.9408  -0.7928  -0.0897  -0.0286   0.0303   0.0784
     0.1075   0.1159   0.1975   0.3013   0.3926   0.4197   0.4345   0.4620
     0.4836   0.5473   0.5571   0.5591   0.5937   0.6228   0.6629   0.6699
     0.8365   0.9405   1.0590   1.1636   1.1927   1.3661   1.7923   1.8300
     1.9279   2.0557   2.0635   2.1372   2.1633   2.2749   2.3157   2.3833
     2.4786   2.5986   2.9247   3.1759   3.2525   3.5298   3.6650   3.9968
     4.2695   4.3712   4.8753   5.0407   5.1374   5.3082   5.5337   5.5613
     5.5622   5.6184   5.6488   5.7336   5.7759

          k = 0.0000-0.4891 0.0000 ( 81886 PWs)   bands (ev):

   -73.1608 -72.6954 -72.6368 -72.4694 -72.4584 -72.3566 -72.3300 -72.2870
   -72.2492 -72.2147 -71.9722 -71.9445 -43.6761 -43.0119 -42.8589 -42.8365
   -42.7338 -42.7145 -42.6449 -42.6359 -42.6253 -42.5743 -42.5717 -42.5535
   -42.5410 -42.5227 -42.5010 -42.4956 -42.4885 -42.3984 -42.3347 -42.3295
   -42.3164 -42.2979 -42.2539 -42.2386 -42.2248 -42.1856 -42.1765 -42.1569
   -42.1337 -42.1025 -42.0583 -42.0551 -42.0466 -41.8639 -41.8280 -41.7807
   -18.7614 -18.3936 -18.2411 -18.1375 -18.0374 -17.9644 -17.9585 -17.9559
   -17.9262 -17.8789 -17.8314 -17.7030 -17.4091 -17.4046 -17.3714 -17.3684
   -17.3097 -17.2866 -17.2594 -17.1698 -16.9940 -16.6823 -16.6803 -16.0863
   -16.0447  -6.8972  -6.3628  -6.3291  -6.2879  -6.2157  -6.1160  -6.0870
    -5.9783  -5.9698  -5.8992  -5.7195  -5.6577  -5.6326  -5.5951  -5.5552
    -5.5256  -5.5079  -5.4793  -5.4632  -5.3732  -5.3040  -5.2443  -5.2051
    -5.1178  -4.8978  -4.8200  -4.8069  -4.4978  -4.4460  -4.4125  -4.2690
    -4.2332  -4.2019  -4.0591  -3.8904  -3.8777  -3.8269  -3.6787  -3.5511
    -3.5456  -3.4174  -3.3784  -3.3435  -3.1978  -3.1736  -3.1268  -3.0835
    -3.0608  -3.0244  -2.9813  -2.8309  -2.7458  -2.6162  -2.5776  -2.4589
    -2.4073  -2.4050  -2.3193  -2.2371  -2.1305  -2.0527  -1.9239  -1.8341
    -1.7664  -1.7462  -1.7028  -1.6646  -1.6105  -1.4783  -1.4683  -1.3782
    -1.2389  -1.1686  -1.0133  -0.9399  -0.5276  -0.2713  -0.2048  -0.0858
    -0.0122   0.2076   0.2128   0.2760   0.5170   0.5235   0.5408   0.5844
     0.6297   0.6728   0.7387   0.8005   0.8372   0.8496   0.8751   0.8772
     0.8990   0.9898   1.1429   1.1775   1.2290   1.2886   1.6245   1.7272
     1.8290   1.9421   2.1424   2.1561   2.1745   2.3802   2.4176   2.4717
     2.4914   2.6842   2.7894   3.0799   3.1490   3.2779   3.2854   4.2668
     4.2748   4.3689   5.0216   5.2328   5.2508   5.2806   5.3156   5.3400
     5.5681   5.7423   5.7835   5.8423   5.8829

          k = 0.2500 0.0000 0.0000 ( 81703 PWs)   bands (ev):

   -73.1608 -72.6951 -72.6371 -72.4680 -72.4597 -72.3561 -72.3305 -72.2866
   -72.2495 -72.2147 -71.9717 -71.9450 -43.6761 -43.0061 -42.8463 -42.8305
   -42.7301 -42.7144 -42.6699 -42.6358 -42.6258 -42.5719 -42.5718 -42.5535
   -42.5403 -42.5179 -42.4946 -42.4897 -42.4811 -42.3744 -42.3606 -42.3255
   -42.3067 -42.2900 -42.2603 -42.2425 -42.2326 -42.1975 -42.1779 -42.1598
   -42.1569 -42.0970 -42.0577 -42.0571 -42.0218 -41.8912 -41.8234 -41.7834
   -18.8182 -18.4945 -18.3756 -18.2685 -18.1037 -17.9185 -17.8540 -17.8380
   -17.7657 -17.7489 -17.6601 -17.6210 -17.5570 -17.5193 -17.4562 -17.3135
   -17.2112 -17.1947 -17.1613 -17.0837 -17.0590 -16.7666 -16.6837 -16.1245
   -16.0927  -7.0750  -6.9990  -6.9757  -6.6962  -6.3088  -6.2260  -6.0839
    -5.9883  -5.9437  -5.8650  -5.8542  -5.7721  -5.7437  -5.7374  -5.6316
    -5.5790  -5.5494  -5.5331  -5.4023  -5.3856  -5.3208  -5.1823  -5.1066
    -4.9559  -4.9323  -4.7758  -4.7350  -4.6502  -4.5248  -4.3290  -4.2516
    -4.1272  -4.0986  -3.9811  -3.8880  -3.6368  -3.4639  -3.4271  -3.3282
    -3.3226  -3.2994  -3.2275  -3.1572  -3.1503  -3.0768  -3.0239  -2.9240
    -2.9159  -2.8797  -2.7862  -2.7269  -2.7110  -2.6570  -2.5791  -2.4285
    -2.3900  -2.3667  -2.2957  -2.2010  -2.1592  -2.1290  -2.0128  -1.9945
    -1.9725  -1.9295  -1.8349  -1.7475  -1.5664  -1.4669  -1.4178  -1.2753
    -1.1583  -0.9935  -0.9024  -0.7201  -0.2366  -0.2038   0.0260   0.0306
     0.1217   0.1944   0.3336   0.3736   0.3766   0.4215   0.5017   0.5639
     0.6046   0.6208   0.6891   0.7246   0.7516   0.8230   0.9324   1.0095
     1.0604   1.1555   1.2620   1.3091   1.3230   1.4913   1.5695   1.5879
     1.6245   1.7734   1.8040   1.9491   2.1057   2.1715   2.3522   2.3751
     2.4650   2.6574   2.7835   3.4316   3.8709   3.9431   4.2654   4.3200
     4.4655   4.5263   4.5750   4.6922   4.8318   4.8979   4.9784   5.0493
     5.1233   5.3926   5.4244   5.4862   5.5473

          k = 0.2500 0.2445 0.0000 ( 81774 PWs)   bands (ev):

   -73.1608 -72.6951 -72.6371 -72.4680 -72.4597 -72.3561 -72.3305 -72.2867
   -72.2495 -72.2147 -71.9717 -71.9450 -43.6761 -43.0068 -42.8456 -42.8285
   -42.7311 -42.7153 -42.6698 -42.6351 -42.6263 -42.5718 -42.5714 -42.5535
   -42.5407 -42.5179 -42.4945 -42.4898 -42.4812 -42.3747 -42.3606 -42.3254
   -42.3065 -42.2886 -42.2603 -42.2425 -42.2322 -42.1974 -42.1778 -42.1599
   -42.1569 -42.0982 -42.0580 -42.0577 -42.0210 -41.8911 -41.8241 -41.7836
   -18.7424 -18.3741 -18.3206 -18.1831 -18.0850 -17.9262 -17.8859 -17.8672
   -17.8119 -17.7854 -17.6932 -17.6782 -17.5265 -17.4524 -17.4002 -17.3290
   -17.3113 -17.2961 -17.2545 -17.1862 -17.0546 -16.7615 -16.6891 -16.1247
   -16.0904  -6.7472  -6.6414  -6.5471  -6.5331  -6.2980  -6.1435  -6.0557
    -6.0033  -5.9456  -5.8506  -5.8152  -5.7420  -5.6884  -5.6331  -5.6207
    -5.5886  -5.5253  -5.4913  -5.4637  -5.3994  -5.3308  -5.1903  -5.0812
    -4.9384  -4.8827  -4.6583  -4.6455  -4.5843  -4.4378  -4.3679  -4.2386
    -4.1638  -4.0441  -3.9798  -3.9490  -3.7695  -3.7250  -3.6223  -3.5435
    -3.4360  -3.3892  -3.3460  -3.2694  -3.2525  -3.2403  -3.1456  -3.1130
    -3.0645  -3.0373  -2.9551  -2.8383  -2.8143  -2.7737  -2.6768  -2.6427
    -2.6018  -2.4832  -2.3509  -2.2493  -2.1864  -2.1456  -2.1072  -1.9903
    -1.9447  -1.8872  -1.8227  -1.6565  -1.6220  -1.5533  -1.3740  -1.2525
    -1.0486  -1.0143  -0.9916  -0.8475  -0.1403  -0.0133   0.0563   0.1175
     0.1831   0.2775   0.3355   0.3903   0.4636   0.5417   0.5899   0.6389
     0.6762   0.6978   0.7466   0.7953   0.8267   0.8880   0.8946   0.9657
     1.0047   1.1172   1.2416   1.3522   1.3603   1.4829   1.6341   1.7217
     1.8094   1.8900   1.9187   2.0116   2.0576   2.1016   2.1364   2.3984
     2.5406   2.6312   2.9476   3.2984   3.5091   3.7220   3.8371   4.0867
     4.3381   4.3976   4.6607   4.9049   4.9616   5.0569   5.0800   5.2861
     5.3448   5.3938   5.4068   5.6001   5.6807

          k = 0.2500-0.4891 0.0000 ( 81830 PWs)   bands (ev):

   -73.1608 -72.6951 -72.6371 -72.4680 -72.4597 -72.3560 -72.3305 -72.2867
   -72.2495 -72.2147 -71.9717 -71.9450 -43.6761 -43.0075 -42.8451 -42.8262
   -42.7326 -42.7158 -42.6698 -42.6344 -42.6268 -42.5718 -42.5711 -42.5535
   -42.5410 -42.5179 -42.4944 -42.4899 -42.4813 -42.3749 -42.3606 -42.3254
   -42.3063 -42.2872 -42.2602 -42.2426 -42.2318 -42.1974 -42.1778 -42.1600
   -42.1569 -42.0994 -42.0584 -42.0581 -42.0203 -41.8910 -41.8249 -41.7839
   -18.6567 -18.2829 -18.1578 -18.0674 -18.0221 -17.9457 -17.9346 -17.9063
   -17.8370 -17.8062 -17.8042 -17.7122 -17.5090 -17.4738 -17.4673 -17.4045
   -17.4017 -17.3611 -17.3108 -17.1869 -17.0518 -16.7556 -16.6968 -16.1249
   -16.0886  -6.7203  -6.3227  -6.1269  -6.0564  -6.0342  -5.8605  -5.8390
    -5.8376  -5.7888  -5.7584  -5.7423  -5.6877  -5.6848  -5.6369  -5.6243
    -5.6088  -5.5673  -5.5533  -5.5282  -5.4793  -5.4514  -5.1185  -4.9557
    -4.9026  -4.7385  -4.6765  -4.6592  -4.4564  -4.4041  -4.3991  -4.3312
    -4.2080  -4.1344  -4.1188  -4.0928  -4.0548  -4.0224  -3.8917  -3.8835
    -3.8073  -3.7000  -3.5572  -3.4413  -3.3940  -3.3121  -3.2937  -3.2691
    -3.2001  -3.1400  -3.1335  -3.0331  -2.8953  -2.7678  -2.7544  -2.6962
    -2.6855  -2.5096  -2.3501  -2.2422  -2.1981  -2.1473  -1.9550  -1.9312
    -1.8477  -1.7505  -1.7061  -1.5417  -1.5118  -1.3313  -1.2953  -1.2374
    -1.2231  -1.1844  -0.9867  -0.9375  -0.3239  -0.2377  -0.1427   0.0660
     0.1632   0.2596   0.3806   0.4464   0.5200   0.5679   0.6062   0.6708
     0.7842   0.8268   0.8854   0.9559   1.0303   1.0431   1.0951   1.1597
     1.1667   1.2299   1.2831   1.3312   1.4038   1.5325   1.6219   1.6548
     1.6782   1.8310   2.0037   2.0325   2.0374   2.1740   2.2094   2.2721
     2.6489   2.7781   2.9110   3.0869   3.2923   3.4017   3.5237   4.2942
     4.3408   4.3879   4.5586   4.6947   4.8004   4.9878   5.1351   5.3511
     5.3854   5.4800   5.6245   5.7419   5.9532

          k =-0.5000 0.0000 0.0000 ( 81894 PWs)   bands (ev):

   -73.1607 -72.6948 -72.6374 -72.4658 -72.4619 -72.3555 -72.3311 -72.2863
   -72.2499 -72.2147 -71.9711 -71.9455 -43.6761 -43.0017 -42.8459 -42.7945
   -42.7303 -42.7146 -42.7067 -42.6319 -42.6297 -42.5709 -42.5688 -42.5543
   -42.5412 -42.5172 -42.4938 -42.4899 -42.4245 -42.4203 -42.3315 -42.3176
   -42.3128 -42.2945 -42.2432 -42.2401 -42.2341 -42.2128 -42.2103 -42.1776
   -42.1568 -42.0943 -42.0604 -42.0574 -41.9609 -41.9528 -41.8202 -41.7866
   -18.5590 -18.4282 -18.2168 -18.1937 -18.1550 -18.0384 -18.0114 -17.9963
   -17.7816 -17.6730 -17.6567 -17.4705 -17.4517 -17.4044 -17.3631 -17.3464
   -17.3324 -17.2759 -17.2688 -17.2473 -17.0476 -16.8704 -16.7028 -16.1546
   -16.1454  -6.6936  -6.5890  -6.5646  -6.5458  -6.5111  -6.5037  -6.3174
    -6.1841  -6.1015  -6.0455  -5.8740  -5.8184  -5.7990  -5.7446  -5.7152
    -5.7071  -5.4576  -5.4082  -5.3741  -5.3663  -4.9605  -4.9400  -4.9352
    -4.8475  -4.5897  -4.5301  -4.4392  -4.3991  -4.3639  -4.2790  -4.1959
    -4.1821  -4.0776  -4.0257  -3.9210  -3.9195  -3.8332  -3.8067  -3.6702
    -3.5797  -3.5533  -3.4393  -3.1760  -3.1554  -3.0579  -3.0199  -2.9783
    -2.9622  -2.9597  -2.8821  -2.8227  -2.7053  -2.6997  -2.6850  -2.6613
    -2.4826  -2.4197  -2.3203  -2.3176  -2.2381  -2.1741  -2.1561  -2.1318
    -2.1141  -2.0559  -1.9900  -1.8311  -1.5873  -1.5050  -1.2433  -1.1914
    -1.1629  -1.1612  -0.9881  -0.8876  -0.1658  -0.0635  -0.0554  -0.0039
     0.3079   0.3809   0.4198   0.4886   0.5168   0.5555   0.6784   0.6916
     0.8666   0.8668   0.8878   1.0254   1.0434   1.0544   1.0983   1.1536
     1.2022   1.2423   1.2828   1.3427   1.4061   1.4494   1.4910   1.5236
     1.5652   1.6378   1.7061   1.7942   1.9715   2.0745   2.2585   2.2730
     2.5363   2.5863   2.8642   3.9412   4.0458   4.1172   4.2102   4.3827
     4.4966   4.5540   4.6777   4.7339   4.7872   4.8534   4.9206   4.9645
     4.9753   4.9936   5.0308   5.0834   5.1184

          k =-0.5000 0.2445 0.0000 ( 81810 PWs)   bands (ev):

   -73.1607 -72.6948 -72.6374 -72.4658 -72.4619 -72.3555 -72.3311 -72.2863
   -72.2499 -72.2147 -71.9711 -71.9455 -43.6761 -43.0024 -42.8438 -42.7941
   -42.7304 -42.7163 -42.7065 -42.6317 -42.6296 -42.5708 -42.5688 -42.5543
   -42.5411 -42.5172 -42.4936 -42.4900 -42.4245 -42.4204 -42.3316 -42.3176
   -42.3128 -42.2946 -42.2429 -42.2394 -42.2340 -42.2121 -42.2105 -42.1776
   -42.1569 -42.0950 -42.0610 -42.0580 -41.9605 -41.9525 -41.8207 -41.7871
   -18.5146 -18.3634 -18.1305 -18.1138 -18.0979 -17.9903 -17.9349 -17.9304
   -17.8018 -17.6784 -17.6680 -17.5549 -17.5240 -17.4618 -17.4481 -17.4158
   -17.3942 -17.3870 -17.3830 -17.2251 -17.0429 -16.8684 -16.7063 -16.1541
   -16.1449  -6.4483  -6.3089  -6.2809  -6.2599  -6.2298  -6.1942  -6.1832
    -6.1339  -6.0870  -6.0372  -5.8247  -5.7548  -5.7121  -5.6269  -5.5666
    -5.5551  -5.4826  -5.4699  -5.3439  -5.2779  -5.0174  -4.9459  -4.7601
    -4.7286  -4.6641  -4.6190  -4.5605  -4.5223  -4.4280  -4.3907  -4.3860
    -4.3510  -4.2815  -4.2202  -4.1529  -4.0741  -4.0005  -3.9531  -3.8627
    -3.8067  -3.5163  -3.4524  -3.3559  -3.2730  -3.2359  -3.1569  -3.1140
    -3.0200  -2.9857  -2.9479  -2.8731  -2.8590  -2.8454  -2.8321  -2.8129
    -2.6815  -2.4796  -2.4287  -2.2904  -2.2253  -2.1976  -2.1666  -2.0773
    -2.0454  -2.0127  -1.8923  -1.8512  -1.5952  -1.5675  -1.1953  -1.1754
    -1.1518  -1.1165  -1.0150  -0.9530  -0.2020  -0.1570   0.1289   0.2347
     0.2949   0.4393   0.4627   0.5747   0.5828   0.7253   0.8235   0.8533
     0.9302   0.9749   1.0094   1.0487   1.0866   1.1178   1.1579   1.1664
     1.1953   1.2927   1.3175   1.3440   1.3875   1.4853   1.6049   1.6425
     1.6543   1.6718   1.7500   1.7687   1.8977   1.9451   2.1026   2.1328
     2.6661   2.7039   2.9933   3.6624   3.9865   4.1032   4.1255   4.2384
     4.2765   4.3162   4.3243   4.4792   4.5344   4.6757   4.7567   4.9525
     5.0188   5.3121   5.3300   5.4983   5.5568

          k =-0.5000-0.4891 0.0000 ( 81784 PWs)   bands (ev):

   -73.1607 -72.6948 -72.6374 -72.4658 -72.4619 -72.3555 -72.3311 -72.2863
   -72.2499 -72.2147 -71.9711 -71.9455 -43.6761 -43.0030 -42.8416 -42.7938
   -42.7312 -42.7174 -42.7064 -42.6316 -42.6295 -42.5706 -42.5688 -42.5543
   -42.5410 -42.5171 -42.4935 -42.4902 -42.4246 -42.4205 -42.3317 -42.3176
   -42.3128 -42.2946 -42.2426 -42.2387 -42.2339 -42.2113 -42.2107 -42.1777
   -42.1569 -42.0958 -42.0616 -42.0586 -41.9601 -41.9521 -41.8212 -41.7876
   -18.4681 -18.2838 -18.0501 -18.0280 -17.9453 -17.8503 -17.8414 -17.8233
   -17.8087 -17.6972 -17.6811 -17.6733 -17.6590 -17.6489 -17.6046 -17.5294
   -17.5232 -17.4263 -17.4040 -17.2156 -17.0388 -16.8669 -16.7102 -16.1536
   -16.1445  -6.3836  -6.2043  -6.1228  -6.0687  -5.8669  -5.8224  -5.7674
    -5.7385  -5.7335  -5.7078  -5.7047  -5.6686  -5.5747  -5.5466  -5.4887
    -5.3741  -5.3017  -5.2771  -5.1847  -5.1718  -5.1441  -5.0555  -4.9989
    -4.9751  -4.9433  -4.9261  -4.8768  -4.8726  -4.6762  -4.6094  -4.4590
    -4.4299  -4.3341  -4.2934  -4.1735  -4.1095  -3.9481  -3.8259  -3.7964
    -3.6926  -3.6791  -3.6110  -3.6079  -3.5621  -3.4970  -3.4450  -3.4332
    -3.4157  -3.3711  -3.3243  -3.2151  -3.1907  -3.1177  -3.0916  -2.7281
    -2.7129  -2.5960  -2.3930  -2.2974  -2.1857  -2.0294  -1.9068  -1.8719
    -1.7953  -1.7889  -1.6920  -1.6135  -1.5347  -1.4045  -1.2806  -1.2563
    -1.2203  -1.0924  -1.0282  -1.0238  -0.1123  -0.0569   0.1163   0.1418
     0.3719   0.3784   0.4268   0.4766   0.5280   0.5967   0.6779   1.0133
     1.0660   1.0976   1.1738   1.1876   1.2096   1.2619   1.2738   1.2948
     1.3255   1.3903   1.4525   1.4601   1.4718   1.5261   1.6464   1.6861
     1.7202   1.7311   1.7715   1.8285   1.9071   1.9420   1.9661   2.0128
     2.7667   2.7946   3.1152   3.2467   3.7738   3.8252   3.8878   3.9217
     3.9270   4.0599   4.1577   4.4783   4.5584   4.6756   4.7669   5.0729
     5.2047   5.4276   5.6600   5.6974   5.7955

     the Fermi energy is     1.2810 ev

!    total energy              =   -3302.92970922 Ry
     estimated scf accuracy    <       0.00000004 Ry
     smearing contrib. (-TS)   =       0.00075160 Ry
     internal energy E=F+TS    =   -3302.93046082 Ry

     The total energy is F=E-TS. E is the sum of the following terms:
     one-electron contribution =  -33519.21260479 Ry
     hartree contribution      =   16802.20873777 Ry
     xc contribution           =    -420.95400429 Ry
     ewald contribution        =   14073.05315955 Ry
     one-center paw contrib.   =    -238.02574906 Ry

     convergence has been achieved in  13 iterations

     negative rho (up, down):  2.119E-04 0.000E+00

     Forces acting on atoms (cartesian axes, Ry/au):

     atom    1 type  1   force =     0.00004153    0.00000000    0.06959491
     atom    2 type  1   force =    -0.00195719    0.00000000   -0.08862976
     atom    3 type  1   force =     0.00021780    0.00000000   -0.00228937
     atom    4 type  1   force =    -0.00679518    0.00000000   -0.00662674
     atom    5 type  1   force =    -0.00077093    0.00000000   -0.00144417
     atom    6 type  1   force =     0.00156695    0.00000000   -0.00242357
     atom    7 type  2   force =    -0.00046529    0.00000000    0.02346647
     atom    8 type  2   force =     0.00015886    0.00000000    0.06159583
     atom    9 type  2   force =    -0.00018722    0.02398474   -0.02435107
     atom   10 type  2   force =    -0.00018722   -0.02398474   -0.02435107
     atom   11 type  2   force =    -0.00288175    0.00000000   -0.00863390
     atom   12 type  2   force =    -0.00090735    0.00000000   -0.01630060
     atom   13 type  2   force =     0.00091635    0.00033887   -0.00054086
     atom   14 type  2   force =     0.00091635   -0.00033887   -0.00054086
     atom   15 type  2   force =    -0.00090332    0.00000000    0.00850380
     atom   16 type  2   force =    -0.00284196    0.00000000    0.00013890
     atom   17 type  2   force =     0.00554998    0.00394442   -0.00242066
     atom   18 type  2   force =     0.00554998   -0.00394442   -0.00242066
     atom   19 type  1   force =    -0.00002614    0.00000000    0.06043790
     atom   20 type  1   force =     0.00206448    0.00000000   -0.08781100
     atom   21 type  1   force =    -0.00060699    0.00000000    0.00148089
     atom   22 type  1   force =     0.00703637    0.00000000    0.00207073
     atom   23 type  1   force =    -0.00272394    0.00000000    0.00598853
     atom   24 type  1   force =     0.00246461    0.00000000   -0.00138533
     atom   25 type  2   force =     0.00055130    0.00000000    0.02803870
     atom   26 type  2   force =    -0.00036095    0.00000000    0.06326517
     atom   27 type  2   force =     0.00017261    0.02394218   -0.02429107
     atom   28 type  2   force =     0.00017261   -0.02394218   -0.02429107
     atom   29 type  2   force =     0.00305378    0.00000000    0.00440315
     atom   30 type  2   force =     0.00029648    0.00000000   -0.01947260
     atom   31 type  2   force =    -0.00082285    0.00032485    0.00052682
     atom   32 type  2   force =    -0.00082285   -0.00032485    0.00052682
     atom   33 type  2   force =    -0.00407128    0.00000000   -0.00617265
     atom   34 type  2   force =     0.00098779    0.00000000    0.00059895
     atom   35 type  2   force =    -0.00313931    0.00152194    0.00400757
     atom   36 type  2   force =    -0.00313931   -0.00152194    0.00400757
     atom   37 type  2   force =     0.00189320    0.00000000    0.00574432

     Total force =     0.025786     Total SCF correction =     0.000677
     Energy error            =      1.2E-03 Ry
     Gradient error          =      8.6E-03 Ry/Bohr

     number of scf cycles    =   4
     number of bfgs steps    =   3

     energy             old  =   -3302.9285117144 Ry
     energy             new  =   -3302.9297092226 Ry

     CASE: energy            _new < energy            _old

     new trust radius        =       0.0358014508 bohr
     new conv_thr            =       0.0000000432 Ry


ATOMIC_POSITIONS (angstrom)
Ru               0.0000000000        1.5881618300        9.5289709800    0   0   0
Ru               1.5535000000        4.7644854900        9.5289709800    0   0   0
Ru               0.0033377296        4.7644855800       12.7309667450
Ru               1.5768390370        1.5881617100       12.6946678812
Ru              -0.0001458121        1.5881614900       15.7440268487
Ru               1.5296168147        4.7644852600       16.0025416210
O                0.0000000000        4.7644854900       10.7677372100    0   0   0
O                0.0000000000        4.7644854900        8.2902047600    0   0   0
O                1.5535000000        0.3493956000        9.5289709800    0   0   0
O                1.5535000000        2.8269280600        9.5289709800    0   0   0
O                0.0062976767        1.5881613800       13.8864416182
O                0.0000000000        1.5881618300       11.4665284200    0   0   0
O                1.5583732310        3.5307301592       12.7160603196
O                1.5583730510        5.9982408608       12.7160603396
O               -0.0098661086        4.7644855000       17.1472735492
O                0.0121160438        4.7644854500       14.6641090121
O                1.5229486791        0.3755674502       15.9330847522
O                1.5229486691        2.8007556698       15.9330846922
Ru               3.1070000000        1.5881618300        9.5289709800    0   0   0
Ru               4.6605000000        4.7644854900        9.5289709800    0   0   0
Ru               3.1048662254        4.7644854900       12.7460701912
Ru               4.6367657371        1.5881618300       12.6879549299
Ru               3.1092125086        1.5881618300       16.1171002379
Ru               4.6751723036        4.7644854900       15.9815888596
O                3.1070000000        4.7644854900       10.7677372100    0   0   0
O                3.1070000000        4.7644854900        8.2902047600    0   0   0
O                4.6605000000        0.3493956000        9.5289709800    0   0   0
O                4.6605000000        2.8269280600        9.5289709800    0   0   0
O                3.0964876616        1.5881618300       13.9901202998
O                3.1070000000        1.5881618300       11.4665284200    0   0   0
O                4.6559644831        3.5348425255       12.7217293789
O                4.6559644831        5.9941284545       12.7217293789
O                3.1128848007        4.7644854900       17.0427476471
O                3.0883281888        4.7644854900       14.6824960507
O                4.6862120697        0.3720866209       15.8897003564
O                4.6862120697        2.8042370391       15.8897003564
O                3.1373226212        1.5881618300       17.8190011923



     Writing config-only to output data dir ./tmp_ref__2x1o_mir/ref__2x1o_mir.save/ :
     XML data file
     NEW-OLD atomic charge density approx. for the potential

     negative rho (up, down):  2.109E-04 0.000E+00

     total cpu time spent up to now is     1255.1 secs

     per-process dynamical memory:   372.6 Mb

     Self-consistent Calculation

     iteration #  1     ecut=    80.00 Ry     beta= 0.30
     Davidson diagonalization with overlap
     ethr =  1.00E-06,  avg # of iterations =  5.8

     negative rho (up, down):  2.425E-04 0.000E+00

     total cpu time spent up to now is     1295.4 secs

     total energy              =   -3302.93059047 Ry
     estimated scf accuracy    <       0.00276374 Ry

     iteration #  2     ecut=    80.00 Ry     beta= 0.30
     Davidson diagonalization with overlap
     ethr =  8.08E-07,  avg # of iterations =  1.0

     negative rho (up, down):  2.626E-04 0.000E+00

     total cpu time spent up to now is     1313.3 secs

     total energy              =   -3302.93070135 Ry
     estimated scf accuracy    <       0.00079930 Ry

     iteration #  3     ecut=    80.00 Ry     beta= 0.30
     Davidson diagonalization with overlap
     ethr =  2.34E-07,  avg # of iterations =  1.1

     negative rho (up, down):  2.991E-04 0.000E+00

     total cpu time spent up to now is     1331.6 secs

     total energy              =   -3302.93070060 Ry
     estimated scf accuracy    <       0.00023919 Ry

     iteration #  4     ecut=    80.00 Ry     beta= 0.30
     Davidson diagonalization with overlap
     ethr =  6.99E-08,  avg # of iterations =  1.2

     negative rho (up, down):  3.555E-04 0.000E+00

     total cpu time spent up to now is     1350.5 secs

     total energy              =   -3302.93068452 Ry
     estimated scf accuracy    <       0.00010050 Ry

     iteration #  5     ecut=    80.00 Ry     beta= 0.30
     Davidson diagonalization with overlap
     ethr =  2.94E-08,  avg # of iterations =  2.0

     negative rho (up, down):  3.806E-04 0.000E+00

     total cpu time spent up to now is     1371.1 secs

     total energy              =   -3302.93068737 Ry
     estimated scf accuracy    <       0.00002490 Ry

     iteration #  6     ecut=    80.00 Ry     beta= 0.30
     Davidson diagonalization with overlap
     ethr =  7.28E-09,  avg # of iterations =  2.7

     negative rho (up, down):  3.881E-04 0.000E+00

     total cpu time spent up to now is     1392.0 secs

     total energy              =   -3302.93068850 Ry
     estimated scf accuracy    <       0.00000649 Ry

     iteration #  7     ecut=    80.00 Ry     beta= 0.30
     Davidson diagonalization with overlap
     ethr =  1.90E-09,  avg # of iterations =  3.8

     negative rho (up, down):  3.908E-04 0.000E+00

     total cpu time spent up to now is     1413.7 secs

     total energy              =   -3302.93068871 Ry
     estimated scf accuracy    <       0.00000331 Ry

     iteration #  8     ecut=    80.00 Ry     beta= 0.30
     Davidson diagonalization with overlap
     ethr =  9.67E-10,  avg # of iterations =  2.6

     negative rho (up, down):  3.895E-04 0.000E+00

     total cpu time spent up to now is     1434.1 secs

     total energy              =   -3302.93068872 Ry
     estimated scf accuracy    <       0.00000114 Ry

     iteration #  9     ecut=    80.00 Ry     beta= 0.30
     Davidson diagonalization with overlap
     ethr =  3.32E-10,  avg # of iterations =  3.1

     negative rho (up, down):  3.844E-04 0.000E+00

     total cpu time spent up to now is     1455.0 secs

     total energy              =   -3302.93068874 Ry
     estimated scf accuracy    <       0.00000105 Ry

     iteration # 10     ecut=    80.00 Ry     beta= 0.30
     Davidson diagonalization with overlap
     ethr =  3.07E-10,  avg # of iterations =  1.0

     negative rho (up, down):  3.748E-04 0.000E+00

     total cpu time spent up to now is     1473.2 secs

     total energy              =   -3302.93068871 Ry
     estimated scf accuracy    <       0.00000045 Ry

     iteration # 11     ecut=    80.00 Ry     beta= 0.30
     Davidson diagonalization with overlap
     ethr =  1.31E-10,  avg # of iterations =  1.2

     negative rho (up, down):  3.484E-04 0.000E+00

     total cpu time spent up to now is     1492.2 secs

     total energy              =   -3302.93068860 Ry
     estimated scf accuracy    <       0.00000034 Ry

     iteration # 12     ecut=    80.00 Ry     beta= 0.30
     Davidson diagonalization with overlap
     ethr =  1.00E-10,  avg # of iterations =  1.1

     negative rho (up, down):  3.183E-04 0.000E+00

     total cpu time spent up to now is     1510.9 secs

     total energy              =   -3302.93068851 Ry
     estimated scf accuracy    <       0.00000015 Ry

     iteration # 13     ecut=    80.00 Ry     beta= 0.30
     Davidson diagonalization with overlap
     ethr =  4.39E-11,  avg # of iterations =  2.0

     negative rho (up, down):  2.882E-04 0.000E+00

     total cpu time spent up to now is     1531.1 secs

     total energy              =   -3302.93068845 Ry
     estimated scf accuracy    <       0.00000005 Ry

     iteration # 14     ecut=    80.00 Ry     beta= 0.30
     Davidson diagonalization with overlap
     ethr =  1.52E-11,  avg # of iterations =  2.3

     negative rho (up, down):  2.129E-04 0.000E+00

     total cpu time spent up to now is     1550.6 secs

     End of self-consistent calculation

          k = 0.0000 0.0000 0.0000 ( 81707 PWs)   bands (ev):

   -73.1785 -72.6824 -72.6492 -72.4737 -72.4632 -72.3660 -72.3408 -72.2951
   -72.2496 -72.2287 -71.9754 -71.9503 -43.6890 -43.0273 -42.8612 -42.8483
   -42.7265 -42.7179 -42.6507 -42.6424 -42.6285 -42.5824 -42.5703 -42.5477
   -42.5460 -42.5255 -42.5087 -42.5052 -42.4972 -42.4129 -42.3393 -42.3341
   -42.3259 -42.3031 -42.2648 -42.2525 -42.2441 -42.1911 -42.1832 -42.1635
   -42.1369 -42.1081 -42.0679 -42.0558 -42.0526 -41.8682 -41.8303 -41.7855
   -18.9658 -18.6205 -18.4945 -18.3801 -17.9906 -17.9520 -17.8562 -17.7459
   -17.7418 -17.7059 -17.6932 -17.6373 -17.6293 -17.5960 -17.5358 -17.3330
   -17.1581 -17.1279 -17.0914 -17.0091 -16.9959 -16.6945 -16.6315 -16.0928
   -16.0549  -7.2431  -7.1814  -7.1590  -6.9066  -6.3109  -6.3034  -6.0361
    -5.8710  -5.8513  -5.8344  -5.8099  -5.6852  -5.6440  -5.6347  -5.6275
    -5.5959  -5.5506  -5.4652  -5.4314  -5.4298  -5.4256  -5.4200  -5.2211
    -5.0736  -5.0683  -5.0627  -4.9687  -4.8834  -4.6274  -4.5254  -4.2091
    -4.0518  -3.8559  -3.6929  -3.6124  -3.5996  -3.5912  -3.5585  -3.4298
    -3.3844  -3.2956  -3.1500  -3.1467  -3.0361  -2.9847  -2.8668  -2.8596
    -2.7917  -2.7055  -2.6669  -2.6121  -2.6036  -2.4389  -2.4185  -2.4117
    -2.3345  -2.3076  -2.1808  -2.1642  -2.0672  -2.0543  -1.9296  -1.8331
    -1.7998  -1.7692  -1.5843  -1.5345  -1.4448  -1.3907  -1.2959  -1.1770
    -1.0961  -0.8709  -0.7512  -0.6903  -0.4055  -0.3968  -0.2159  -0.1581
    -0.1378  -0.0694   0.1249   0.1831   0.1908   0.2515   0.2816   0.3687
     0.5167   0.5565   0.6122   0.6315   0.6396   0.7174   0.8092   0.8527
     0.9682   1.0145   1.0636   1.0754   1.2070   1.3078   1.4685   1.7028
     1.7497   1.9192   2.0129   2.0798   2.1850   2.2592   2.3393   2.3422
     2.4910   2.7049   2.7974   3.2120   3.7212   3.7863   4.1875   4.2675
     4.3316   4.4535   4.5660   4.6035   4.7956   4.8277   4.9672   5.3307
     5.5102   5.5591   5.7000   5.7106   5.8040

          k = 0.0000 0.2445 0.0000 ( 81832 PWs)   bands (ev):

   -73.1785 -72.6824 -72.6492 -72.4737 -72.4632 -72.3660 -72.3408 -72.2951
   -72.2496 -72.2287 -71.9754 -71.9503 -43.6890 -43.0281 -42.8616 -42.8455
   -42.7285 -42.7175 -42.6507 -42.6414 -42.6293 -42.5818 -42.5703 -42.5486
   -42.5460 -42.5256 -42.5087 -42.5053 -42.4973 -42.4132 -42.3393 -42.3340
   -42.3241 -42.3030 -42.2647 -42.2524 -42.2439 -42.1910 -42.1831 -42.1636
   -42.1371 -42.1095 -42.0685 -42.0559 -42.0517 -41.8682 -41.8312 -41.7855
   -18.8868 -18.4974 -18.4296 -18.2962 -18.0026 -17.9509 -17.8866 -17.8796
   -17.8785 -17.8405 -17.7659 -17.6999 -17.4700 -17.3915 -17.3627 -17.3386
   -17.2667 -17.2379 -17.1926 -17.1336 -16.9931 -16.6869 -16.6378 -16.0922
   -16.0521  -6.9368  -6.8009  -6.7148  -6.6907  -6.3035  -6.2764  -6.1357
    -6.1085  -6.0092  -5.9148  -5.8090  -5.7466  -5.6463  -5.5986  -5.5907
    -5.5752  -5.5622  -5.5069  -5.4702  -5.4662  -5.3634  -5.2225  -5.2189
    -5.1834  -5.1139  -4.7974  -4.7199  -4.4530  -4.3480  -4.2415  -4.0818
    -3.9806  -3.9405  -3.8503  -3.8408  -3.7550  -3.7323  -3.6526  -3.5733
    -3.5695  -3.5159  -3.3493  -3.2321  -3.1841  -3.0454  -3.0120  -2.8801
    -2.8280  -2.7670  -2.7259  -2.6927  -2.6653  -2.5949  -2.5614  -2.4858
    -2.3513  -2.3384  -2.3209  -2.2391  -2.2082  -2.1232  -2.0615  -1.9365
    -1.8510  -1.7904  -1.7787  -1.6400  -1.5599  -1.5053  -1.3873  -1.3346
    -1.1330  -1.0340  -0.9469  -0.8006  -0.0988  -0.0346   0.0225   0.0727
     0.0982   0.1052   0.1947   0.2918   0.3846   0.4113   0.4281   0.4561
     0.4756   0.5420   0.5467   0.5549   0.5815   0.6257   0.6572   0.6649
     0.8318   0.9327   1.0540   1.1588   1.1835   1.3633   1.7912   1.8218
     1.9171   2.0466   2.0548   2.1329   2.1605   2.2725   2.3092   2.3813
     2.4711   2.5924   2.9127   3.1411   3.2587   3.5243   3.6603   3.9787
     4.2670   4.3612   4.8512   5.0383   5.1133   5.3143   5.5264   5.5310
     5.5604   5.6135   5.6478   5.7253   5.7695

          k = 0.0000-0.4891 0.0000 ( 81886 PWs)   bands (ev):

   -73.1785 -72.6824 -72.6492 -72.4737 -72.4632 -72.3660 -72.3408 -72.2951
   -72.2497 -72.2287 -71.9754 -71.9503 -43.6890 -43.0288 -42.8619 -42.8426
   -42.7306 -42.7172 -42.6507 -42.6405 -42.6301 -42.5813 -42.5703 -42.5493
   -42.5460 -42.5256 -42.5087 -42.5054 -42.4973 -42.4134 -42.3393 -42.3340
   -42.3223 -42.3028 -42.2647 -42.2523 -42.2437 -42.1909 -42.1831 -42.1636
   -42.1374 -42.1110 -42.0691 -42.0560 -42.0508 -41.8683 -41.8322 -41.7855
   -18.7983 -18.4022 -18.2543 -18.1549 -18.0438 -17.9757 -17.9696 -17.9628
   -17.9320 -17.8865 -17.8425 -17.7103 -17.4146 -17.4121 -17.3877 -17.3836
   -17.3151 -17.2918 -17.2651 -17.1413 -16.9911 -16.6749 -16.6505 -16.0917
   -16.0499  -6.9255  -6.3655  -6.3365  -6.3027  -6.2514  -6.1214  -6.0967
    -5.9858  -5.9774  -5.9047  -5.7306  -5.6657  -5.6449  -5.5939  -5.5562
    -5.5349  -5.5003  -5.4906  -5.4616  -5.3782  -5.2997  -5.2496  -5.2109
    -5.1163  -4.8992  -4.8197  -4.8124  -4.5028  -4.4502  -4.4181  -4.2694
    -4.2371  -4.2097  -4.0635  -3.9195  -3.8945  -3.8191  -3.6912  -3.5693
    -3.5576  -3.4218  -3.3832  -3.3518  -3.2000  -3.1803  -3.1319  -3.0918
    -3.0676  -3.0296  -2.9819  -2.8309  -2.7514  -2.6022  -2.5765  -2.4476
    -2.4220  -2.4075  -2.3147  -2.2496  -2.1199  -2.0649  -1.9265  -1.8325
    -1.7706  -1.7489  -1.7214  -1.6790  -1.6218  -1.4792  -1.4664  -1.3733
    -1.2571  -1.1723  -1.0104  -0.9456  -0.5350  -0.2793  -0.2098  -0.0921
    -0.0201   0.1938   0.2091   0.2695   0.4952   0.5161   0.5356   0.5901
     0.6174   0.6668   0.7335   0.7960   0.8273   0.8450   0.8707   0.8723
     0.8877   0.9841   1.1355   1.1701   1.2276   1.2839   1.6171   1.7230
     1.8232   1.9353   2.1374   2.1509   2.1702   2.3751   2.4107   2.4661
     2.4886   2.6766   2.7578   3.0690   3.1436   3.2732   3.2918   4.2432
     4.2730   4.3595   5.0100   5.2166   5.2476   5.2782   5.3242   5.3352
     5.5592   5.6939   5.7722   5.8332   5.8806

          k = 0.2500 0.0000 0.0000 ( 81703 PWs)   bands (ev):

   -73.1785 -72.6819 -72.6497 -72.4723 -72.4646 -72.3654 -72.3414 -72.2948
   -72.2499 -72.2287 -71.9748 -71.9508 -43.6890 -43.0231 -42.8608 -42.8223
   -42.7264 -42.7183 -42.6777 -42.6404 -42.6305 -42.5815 -42.5680 -42.5486
   -42.5449 -42.5210 -42.5073 -42.4991 -42.4857 -42.3895 -42.3652 -42.3299
   -42.3118 -42.2961 -42.2760 -42.2540 -42.2491 -42.2041 -42.1826 -42.1636
   -42.1631 -42.1061 -42.0680 -42.0579 -42.0260 -41.8956 -41.8275 -41.7883
   -18.8423 -18.5043 -18.4002 -18.2808 -18.1141 -17.9335 -17.8681 -17.8515
   -17.7800 -17.7543 -17.6668 -17.6289 -17.5667 -17.5253 -17.4623 -17.3264
   -17.2043 -17.1762 -17.1682 -17.0896 -17.0507 -16.7384 -16.6755 -16.1298
   -16.0980  -7.0799  -7.0064  -6.9810  -6.7270  -6.3199  -6.2395  -6.0984
    -6.0087  -5.9506  -5.8805  -5.8611  -5.7865  -5.7462  -5.7451  -5.6364
    -5.5825  -5.5546  -5.5381  -5.4076  -5.3877  -5.3154  -5.1863  -5.1070
    -4.9649  -4.9356  -4.7755  -4.7380  -4.6524  -4.5291  -4.3327  -4.2565
    -4.1363  -4.1071  -3.9939  -3.8956  -3.6363  -3.4651  -3.4283  -3.3354
    -3.3166  -3.3071  -3.2233  -3.1696  -3.1636  -3.0850  -3.0293  -2.9294
    -2.9270  -2.8837  -2.7965  -2.7355  -2.7173  -2.6502  -2.5774  -2.4365
    -2.3815  -2.3711  -2.3050  -2.2086  -2.1664  -2.1318  -2.0192  -1.9980
    -1.9627  -1.9320  -1.8474  -1.7465  -1.5887  -1.4599  -1.4119  -1.2798
    -1.1694  -0.9963  -0.9078  -0.7267  -0.2387  -0.2185   0.0222   0.0237
     0.1149   0.1881   0.3252   0.3622   0.3673   0.4166   0.4891   0.5609
     0.5966   0.6105   0.6859   0.7188   0.7426   0.8175   0.9270   1.0014
     1.0571   1.1494   1.2575   1.3085   1.3172   1.4934   1.5646   1.5850
     1.6152   1.7704   1.7927   1.9400   2.0954   2.1667   2.3496   2.3730
     2.4573   2.6527   2.7697   3.4335   3.8545   3.8993   4.2562   4.3154
     4.4600   4.5038   4.5702   4.6762   4.8201   4.8957   4.9698   5.0513
     5.1202   5.3870   5.4199   5.4833   5.5426

          k = 0.2500 0.2445 0.0000 ( 81774 PWs)   bands (ev):

   -73.1785 -72.6819 -72.6497 -72.4723 -72.4646 -72.3654 -72.3414 -72.2948
   -72.2500 -72.2287 -71.9748 -71.9508 -43.6890 -43.0238 -42.8593 -42.8215
   -42.7273 -42.7190 -42.6777 -42.6397 -42.6310 -42.5811 -42.5680 -42.5490
   -42.5449 -42.5210 -42.5073 -42.4991 -42.4858 -42.3897 -42.3652 -42.3299
   -42.3115 -42.2948 -42.2760 -42.2536 -42.2491 -42.2041 -42.1826 -42.1636
   -42.1632 -42.1072 -42.0686 -42.0582 -42.0253 -41.8955 -41.8282 -41.7885
   -18.7719 -18.3857 -18.3430 -18.1907 -18.0957 -17.9403 -17.8952 -17.8790
   -17.8248 -17.7943 -17.7020 -17.6839 -17.5409 -17.4579 -17.4061 -17.3384
   -17.3232 -17.2999 -17.2604 -17.1569 -17.0461 -16.7323 -16.6815 -16.1300
   -16.0958  -6.7735  -6.6511  -6.5556  -6.5387  -6.3082  -6.1676  -6.0626
    -6.0147  -5.9557  -5.8560  -5.8271  -5.7527  -5.6936  -5.6430  -5.6275
    -5.5919  -5.5335  -5.4940  -5.4682  -5.3980  -5.3323  -5.1926  -5.0798
    -4.9440  -4.8904  -4.6595  -4.6486  -4.5834  -4.4390  -4.3738  -4.2447
    -4.1730  -4.0574  -3.9895  -3.9606  -3.7800  -3.7289  -3.6222  -3.5494
    -3.4427  -3.3910  -3.3499  -3.2735  -3.2601  -3.2439  -3.1474  -3.1181
    -3.0720  -3.0411  -2.9633  -2.8455  -2.8137  -2.7666  -2.6827  -2.6426
    -2.5976  -2.4861  -2.3583  -2.2539  -2.1876  -2.1512  -2.1061  -2.0004
    -1.9520  -1.8965  -1.8277  -1.6725  -1.6199  -1.5524  -1.3717  -1.2574
    -1.0540  -1.0165  -0.9981  -0.8543  -0.1467  -0.0258   0.0509   0.1108
     0.1697   0.2661   0.3291   0.3839   0.4555   0.5327   0.5829   0.6245
     0.6699   0.6926   0.7395   0.7877   0.8202   0.8824   0.8905   0.9598
     0.9999   1.1142   1.2373   1.3477   1.3580   1.4837   1.6299   1.7153
     1.7998   1.8857   1.9080   2.0047   2.0534   2.0961   2.1334   2.3937
     2.5363   2.6252   2.9355   3.2750   3.5006   3.7168   3.8322   4.0685
     4.3340   4.3894   4.6429   4.9038   4.9584   5.0494   5.0613   5.2780
     5.3364   5.3886   5.4035   5.5825   5.6703

          k = 0.2500-0.4891 0.0000 ( 81830 PWs)   bands (ev):

   -73.1785 -72.6819 -72.6497 -72.4723 -72.4646 -72.3654 -72.3414 -72.2948
   -72.2500 -72.2287 -71.9748 -71.9508 -43.6890 -43.0244 -42.8579 -42.8206
   -42.7288 -42.7192 -42.6777 -42.6389 -42.6315 -42.5808 -42.5680 -42.5493
   -42.5448 -42.5210 -42.5073 -42.4992 -42.4859 -42.3900 -42.3652 -42.3299
   -42.3113 -42.2934 -42.2759 -42.2533 -42.2490 -42.2041 -42.1826 -42.1636
   -42.1632 -42.1083 -42.0692 -42.0585 -42.0246 -41.8954 -41.8290 -41.7887
   -18.6956 -18.2918 -18.1689 -18.0884 -18.0364 -17.9522 -17.9414 -17.9127
   -17.8466 -17.8141 -17.8140 -17.7191 -17.5265 -17.4816 -17.4733 -17.4156
   -17.4073 -17.3667 -17.3234 -17.1547 -17.0429 -16.7240 -16.6913 -16.1302
   -16.0940  -6.7515  -6.3318  -6.1550  -6.0703  -6.0476  -5.8717  -5.8485
    -5.8457  -5.7971  -5.7649  -5.7497  -5.6951  -5.6908  -5.6359  -5.6246
    -5.6138  -5.5687  -5.5581  -5.5305  -5.4819  -5.4440  -5.1166  -4.9612
    -4.9149  -4.7421  -4.6809  -4.6627  -4.4698  -4.4059  -4.3972  -4.3359
    -4.2132  -4.1471  -4.1358  -4.0991  -4.0604  -4.0250  -3.9059  -3.8925
    -3.8112  -3.7057  -3.5585  -3.4373  -3.3969  -3.3163  -3.3039  -3.2731
    -3.2125  -3.1394  -3.1381  -3.0425  -2.9031  -2.7624  -2.7319  -2.7023
    -2.6960  -2.5022  -2.3478  -2.2508  -2.2123  -2.1363  -1.9572  -1.9356
    -1.8582  -1.7601  -1.7220  -1.5500  -1.5189  -1.3426  -1.3007  -1.2368
    -1.2172  -1.1912  -0.9856  -0.9431  -0.3342  -0.2441  -0.1507   0.0583
     0.1577   0.2436   0.3774   0.4361   0.5070   0.5602   0.5936   0.6617
     0.7814   0.8177   0.8786   0.9504   1.0176   1.0365   1.0906   1.1517
     1.1582   1.2251   1.2833   1.3264   1.4040   1.5304   1.6125   1.6502
     1.6759   1.8255   2.0006   2.0248   2.0318   2.1692   2.2044   2.2658
     2.6447   2.7733   2.8827   3.0761   3.2873   3.3971   3.5230   4.2741
     4.3362   4.3766   4.5531   4.6930   4.7952   4.9866   5.1261   5.3430
     5.3742   5.4662   5.6188   5.7114   5.9500

          k =-0.5000 0.0000 0.0000 ( 81894 PWs)   bands (ev):

   -73.1785 -72.6814 -72.6501 -72.4697 -72.4673 -72.3648 -72.3420 -72.2944
   -72.2503 -72.2287 -71.9742 -71.9514 -43.6890 -43.0189 -42.8605 -42.7769
   -42.7263 -42.7241 -42.7186 -42.6360 -42.6349 -42.5806 -42.5654 -42.5495
   -42.5445 -42.5205 -42.5063 -42.4999 -42.4283 -42.4257 -42.3454 -42.3214
   -42.3183 -42.3126 -42.2609 -42.2510 -42.2425 -42.2183 -42.2112 -42.1820
   -42.1636 -42.1039 -42.0681 -42.0601 -41.9636 -41.9588 -41.8243 -41.7915
   -18.6012 -18.4285 -18.2289 -18.2035 -18.1825 -18.0445 -18.0214 -17.9973
   -17.8113 -17.6919 -17.6555 -17.4798 -17.4676 -17.4159 -17.3713 -17.3518
   -17.3402 -17.2861 -17.2702 -17.2040 -17.0438 -16.8306 -16.6997 -16.1593
   -16.1514  -6.7101  -6.5918  -6.5793  -6.5531  -6.5178  -6.5076  -6.3576
    -6.2072  -6.1213  -6.0337  -5.8927  -5.8085  -5.8020  -5.7466  -5.7239
    -5.7138  -5.4677  -5.4090  -5.3832  -5.3744  -4.9831  -4.9485  -4.9316
    -4.8281  -4.5997  -4.5318  -4.4422  -4.3978  -4.3628  -4.2867  -4.2021
    -4.1937  -4.0845  -4.0191  -3.9250  -3.9242  -3.8388  -3.8126  -3.6733
    -3.5845  -3.5618  -3.4446  -3.1873  -3.1495  -3.0621  -3.0422  -2.9991
    -2.9673  -2.9364  -2.9073  -2.8267  -2.7222  -2.7112  -2.6812  -2.6671
    -2.4835  -2.4227  -2.3224  -2.3156  -2.2495  -2.1772  -2.1715  -2.1295
    -2.1056  -2.0352  -1.9910  -1.8397  -1.5900  -1.5355  -1.2431  -1.2013
    -1.1597  -1.1573  -0.9999  -0.8850  -0.1730  -0.0776  -0.0693  -0.0043
     0.3045   0.3726   0.4049   0.4782   0.5162   0.5485   0.6725   0.6873
     0.8533   0.8573   0.8843   1.0191   1.0368   1.0487   1.0904   1.1514
     1.1859   1.2452   1.2835   1.3367   1.4005   1.4414   1.4740   1.5236
     1.5512   1.6582   1.6973   1.7885   1.9597   2.0716   2.2505   2.2707
     2.5338   2.5765   2.8545   3.9230   4.0551   4.0741   4.1784   4.3733
     4.4885   4.5602   4.6574   4.7372   4.7789   4.8370   4.9283   4.9603
     4.9700   4.9865   5.0227   5.0806   5.1116

          k =-0.5000 0.2445 0.0000 ( 81810 PWs)   bands (ev):

   -73.1785 -72.6814 -72.6501 -72.4697 -72.4673 -72.3648 -72.3420 -72.2945
   -72.2503 -72.2287 -71.9742 -71.9514 -43.6890 -43.0195 -42.8586 -42.7767
   -42.7252 -42.7241 -42.7212 -42.6359 -42.6347 -42.5804 -42.5654 -42.5494
   -42.5445 -42.5205 -42.5062 -42.4999 -42.4284 -42.4258 -42.3455 -42.3214
   -42.3182 -42.3127 -42.2605 -42.2502 -42.2426 -42.2183 -42.2107 -42.1821
   -42.1636 -42.1047 -42.0688 -42.0607 -41.9632 -41.9584 -41.8247 -41.7920
   -18.5623 -18.3628 -18.1483 -18.1219 -18.1185 -17.9904 -17.9459 -17.9357
   -17.8289 -17.6859 -17.6802 -17.5594 -17.5374 -17.4712 -17.4567 -17.4220
   -17.4039 -17.3967 -17.3870 -17.1861 -17.0390 -16.8285 -16.7030 -16.1588
   -16.1508  -6.4868  -6.3103  -6.3013  -6.2716  -6.2465  -6.2007  -6.1891
    -6.1482  -6.0999  -6.0297  -5.8163  -5.7677  -5.7193  -5.6318  -5.5770
    -5.5653  -5.4890  -5.4739  -5.3546  -5.2806  -5.0398  -4.9343  -4.7697
    -4.7281  -4.6631  -4.6294  -4.5656  -4.5172  -4.4267  -4.4049  -4.3918
    -4.3566  -4.2850  -4.2288  -4.1605  -4.0690  -4.0046  -3.9482  -3.8610
    -3.8101  -3.5367  -3.4646  -3.3642  -3.2819  -3.2349  -3.1643  -3.1226
    -3.0234  -2.9676  -2.9551  -2.8763  -2.8638  -2.8477  -2.8363  -2.8235
    -2.6849  -2.4927  -2.4236  -2.2966  -2.2224  -2.2103  -2.1756  -2.0831
    -2.0595  -1.9935  -1.8894  -1.8601  -1.6167  -1.5677  -1.2046  -1.1753
    -1.1521  -1.1216  -1.0264  -0.9467  -0.2101  -0.1644   0.1260   0.2118
     0.2853   0.4347   0.4452   0.5708   0.5795   0.7143   0.8251   0.8331
     0.9195   0.9711   1.0001   1.0439   1.0763   1.1130   1.1377   1.1597
     1.1978   1.2925   1.3166   1.3382   1.3779   1.4936   1.6019   1.6309
     1.6505   1.6741   1.7420   1.7689   1.8868   1.9418   2.0995   2.1247
     2.6638   2.6948   2.9842   3.6290   3.9697   4.0964   4.1245   4.2256
     4.2730   4.3110   4.3187   4.4736   4.5231   4.6583   4.7694   4.9484
     5.0112   5.2828   5.3255   5.4881   5.5542

          k =-0.5000-0.4891 0.0000 ( 81784 PWs)   bands (ev):

   -73.1785 -72.6814 -72.6501 -72.4697 -72.4673 -72.3648 -72.3420 -72.2945
   -72.2503 -72.2287 -71.9742 -71.9514 -43.6890 -43.0201 -42.8566 -42.7766
   -42.7250 -42.7237 -42.7232 -42.6357 -42.6346 -42.5803 -42.5654 -42.5493
   -42.5444 -42.5205 -42.5062 -42.5000 -42.4285 -42.4258 -42.3456 -42.3214
   -42.3182 -42.3127 -42.2600 -42.2494 -42.2427 -42.2183 -42.2101 -42.1821
   -42.1636 -42.1054 -42.0694 -42.0613 -41.9629 -41.9580 -41.8252 -41.7925
   -18.5228 -18.2816 -18.0655 -18.0305 -17.9694 -17.8575 -17.8485 -17.8341
   -17.8294 -17.7039 -17.6861 -17.6795 -17.6685 -17.6504 -17.6185 -17.5417
   -17.5267 -17.4346 -17.4191 -17.1770 -17.0347 -16.8269 -16.7067 -16.1583
   -16.1504  -6.4345  -6.2279  -6.1428  -6.0558  -5.8613  -5.8265  -5.7803
    -5.7420  -5.7303  -5.7128  -5.7067  -5.6734  -5.5843  -5.5523  -5.5116
    -5.3925  -5.3168  -5.2796  -5.1909  -5.1798  -5.1462  -5.0653  -5.0100
    -4.9768  -4.9420  -4.9388  -4.8814  -4.8694  -4.6892  -4.6056  -4.4606
    -4.4309  -4.3365  -4.2851  -4.1806  -4.1038  -3.9446  -3.8318  -3.8216
    -3.6988  -3.6905  -3.6261  -3.6203  -3.5619  -3.4914  -3.4612  -3.4402
    -3.4194  -3.3683  -3.3270  -3.2240  -3.1991  -3.0943  -3.0823  -2.7314
    -2.7291  -2.6001  -2.3848  -2.3022  -2.1661  -2.0438  -1.9168  -1.8693
    -1.8213  -1.7927  -1.7124  -1.6039  -1.5418  -1.4138  -1.2821  -1.2623
    -1.2263  -1.1030  -1.0315  -1.0212  -0.1155  -0.0593   0.1117   0.1275
     0.3657   0.3698   0.4248   0.4562   0.5055   0.5950   0.6705   0.9973
     1.0614   1.0662   1.1557   1.1759   1.2104   1.2630   1.2783   1.2896
     1.3184   1.3909   1.4409   1.4553   1.4645   1.5370   1.6436   1.6781
     1.7160   1.7171   1.7697   1.8199   1.9052   1.9404   1.9717   2.0043
     2.7651   2.7852   3.1074   3.2148   3.7724   3.8206   3.8798   3.9175
     3.9218   4.0394   4.1643   4.4723   4.5453   4.6585   4.7802   5.0656
     5.1915   5.4006   5.6524   5.7036   5.7787

     the Fermi energy is     1.2770 ev

!    total energy              =   -3302.93068839 Ry
     estimated scf accuracy    <       0.00000003 Ry
     smearing contrib. (-TS)   =       0.00090740 Ry
     internal energy E=F+TS    =   -3302.93159579 Ry

     The total energy is F=E-TS. E is the sum of the following terms:
     one-electron contribution =  -33512.21655311 Ry
     hartree contribution      =   16798.63448334 Ry
     xc contribution           =    -420.94409265 Ry
     ewald contribution        =   14069.62125523 Ry
     one-center paw contrib.   =    -238.02668860 Ry

     convergence has been achieved in  14 iterations

     negative rho (up, down):  2.129E-04 0.000E+00

     Forces acting on atoms (cartesian axes, Ry/au):

     atom    1 type  1   force =     0.00006942    0.00000000    0.06891606
     atom    2 type  1   force =    -0.00117624    0.00000000   -0.08866400
     atom    3 type  1   force =    -0.00100690    0.00000000    0.00007930
     atom    4 type  1   force =    -0.00004537    0.00000000   -0.00469402
     atom    5 type  1   force =    -0.00087560    0.00000000    0.00020079
     atom    6 type  1   force =    -0.00076671    0.00000000    0.00086605
     atom    7 type  2   force =    -0.00042879    0.00000000    0.02258976
     atom    8 type  2   force =     0.00014062    0.00000000    0.06152542
     atom    9 type  2   force =    -0.00014506    0.02391570   -0.02432354
     atom   10 type  2   force =    -0.00014506   -0.02391570   -0.02432354
     atom   11 type  2   force =    -0.00306206    0.00000000   -0.00070835
     atom   12 type  2   force =    -0.00106753    0.00000000   -0.01887966
     atom   13 type  2   force =     0.00006471    0.00056389   -0.00049061
     atom   14 type  2   force =     0.00006471   -0.00056389   -0.00049061
     atom   15 type  2   force =     0.00113475    0.00000000    0.00731849
     atom   16 type  2   force =    -0.00340608    0.00000000    0.00147424
     atom   17 type  2   force =     0.00640629    0.00245811   -0.00010399
     atom   18 type  2   force =     0.00640629   -0.00245811   -0.00010399
     atom   19 type  1   force =    -0.00005072    0.00000000    0.06037642
     atom   20 type  1   force =     0.00121466    0.00000000   -0.08811660
     atom   21 type  1   force =     0.00027745    0.00000000   -0.00076157
     atom   22 type  1   force =     0.00030374    0.00000000    0.00319161
     atom   23 type  1   force =    -0.00129570    0.00000000    0.00193015
     atom   24 type  1   force =     0.00222530    0.00000000   -0.00082099
     atom   25 type  2   force =     0.00055879    0.00000000    0.02917521
     atom   26 type  2   force =    -0.00022969    0.00000000    0.06338865
     atom   27 type  2   force =     0.00012606    0.02391131   -0.02426580
     atom   28 type  2   force =     0.00012606   -0.02391131   -0.02426580
     atom   29 type  2   force =     0.00355727    0.00000000    0.00043968
     atom   30 type  2   force =     0.00056442    0.00000000   -0.02013088
     atom   31 type  2   force =    -0.00017228   -0.00009173   -0.00018554
     atom   32 type  2   force =    -0.00017228    0.00009173   -0.00018554
     atom   33 type  2   force =    -0.00305694    0.00000000   -0.00624473
     atom   34 type  2   force =     0.00334076    0.00000000   -0.00171511
     atom   35 type  2   force =    -0.00467886    0.00068140    0.00288717
     atom   36 type  2   force =    -0.00467886   -0.00068140    0.00288717
     atom   37 type  2   force =    -0.00012062    0.00000000    0.00222872

     Total force =     0.019047     Total SCF correction =     0.000474
     Energy error            =      9.8E-04 Ry
     Gradient error          =      7.3E-03 Ry/Bohr

     number of scf cycles    =   5
     number of bfgs steps    =   4

     energy             old  =   -3302.9297092226 Ry
     energy             new  =   -3302.9306883865 Ry

     CASE: energy            _new < energy            _old

     new trust radius        =       0.0207758007 bohr
     new conv_thr            =       0.0000000366 Ry


ATOMIC_POSITIONS (angstrom)
Ru               0.0000000000        1.5881618300        9.5289709800    0   0   0
Ru               1.5535000000        4.7644854900        9.5289709800    0   0   0
Ru               0.0030471516        4.7644855800       12.7283327225
Ru               1.5762073050        1.5881617100       12.6901939171
Ru              -0.0011277547        1.5881614900       15.7377525832
Ru               1.5273016552        4.7644852600       15.9991171512
O                0.0000000000        4.7644854900       10.7677372100    0   0   0
O                0.0000000000        4.7644854900        8.2902047600    0   0   0
O                1.5535000000        0.3493956000        9.5289709800    0   0   0
O                1.5535000000        2.8269280600        9.5289709800    0   0   0
O                0.0036514403        1.5881613800       13.8788641324
O                0.0000000000        1.5881618300       11.4665284200    0   0   0
O                1.5592719745        3.5307761258       12.7149638618
O                1.5592717945        5.9981948942       12.7149638818
O               -0.0104110135        4.7644855000       17.1574723652
O                0.0097577975        4.7644854500       14.6625545862
O                1.5266733449        0.3785221166       15.9285498726
O                1.5266733349        2.7978010034       15.9285498126
Ru               3.1070000000        1.5881618300        9.5289709800    0   0   0
Ru               4.6605000000        4.7644854900        9.5289709800    0   0   0
Ru               3.1045984129        4.7644854900       12.7479248987
Ru               4.6375585383        1.5881618300       12.6890916530
Ru               3.1074480587        1.5881618300       16.1265709799
Ru               4.6792427881        4.7644854900       15.9828449988
O                3.1070000000        4.7644854900       10.7677372100    0   0   0
O                3.1070000000        4.7644854900        8.2902047600    0   0   0
O                4.6605000000        0.3493956000        9.5289709800    0   0   0
O                4.6605000000        2.8269280600        9.5289709800    0   0   0
O                3.0992049682        1.5881618300       13.9931454505
O                3.1070000000        1.5881618300       11.4665284200    0   0   0
O                4.6550617268        3.5353008693       12.7226051733
O                4.6550617268        5.9936701107       12.7226051733
O                3.1096664609        4.7644854900       17.0341444074
O                3.0892397055        4.7644854900       14.6839468236
O                4.6842073057        0.3734456497       15.8958623850
O                4.6842073057        2.8028780103       15.8958623850
O                3.1409920685        1.5881618300       17.8293648286



     Writing config-only to output data dir ./tmp_ref__2x1o_mir/ref__2x1o_mir.save/ :
     XML data file
     NEW-OLD atomic charge density approx. for the potential

     negative rho (up, down):  2.120E-04 0.000E+00

     total cpu time spent up to now is     1557.2 secs

     per-process dynamical memory:   375.6 Mb

     Self-consistent Calculation

     iteration #  1     ecut=    80.00 Ry     beta= 0.30
     Davidson diagonalization with overlap
     ethr =  1.00E-06,  avg # of iterations =  4.8

     negative rho (up, down):  2.393E-04 0.000E+00

     total cpu time spent up to now is     1593.5 secs

     total energy              =   -3302.93115969 Ry
     estimated scf accuracy    <       0.00053829 Ry

     iteration #  2     ecut=    80.00 Ry     beta= 0.30
     Davidson diagonalization with overlap
     ethr =  1.57E-07,  avg # of iterations =  1.9

     negative rho (up, down):  2.493E-04 0.000E+00

     total cpu time spent up to now is     1613.9 secs

     total energy              =   -3302.93118429 Ry
     estimated scf accuracy    <       0.00030829 Ry

     iteration #  3     ecut=    80.00 Ry     beta= 0.30
     Davidson diagonalization with overlap
     ethr =  9.01E-08,  avg # of iterations =  1.0

     negative rho (up, down):  2.720E-04 0.000E+00

     total cpu time spent up to now is     1632.3 secs

     total energy              =   -3302.93117752 Ry
     estimated scf accuracy    <       0.00010794 Ry

     iteration #  4     ecut=    80.00 Ry     beta= 0.30
     Davidson diagonalization with overlap
     ethr =  3.16E-08,  avg # of iterations =  1.1

     negative rho (up, down):  3.073E-04 0.000E+00

     total cpu time spent up to now is     1650.9 secs

     total energy              =   -3302.93116984 Ry
     estimated scf accuracy    <       0.00004074 Ry

     iteration #  5     ecut=    80.00 Ry     beta= 0.30
     Davidson diagonalization with overlap
     ethr =  1.19E-08,  avg # of iterations =  2.0

     negative rho (up, down):  3.249E-04 0.000E+00

     total cpu time spent up to now is     1671.8 secs

     total energy              =   -3302.93117071 Ry
     estimated scf accuracy    <       0.00002620 Ry

     iteration #  6     ecut=    80.00 Ry     beta= 0.30
     Davidson diagonalization with overlap
     ethr =  7.66E-09,  avg # of iterations =  1.1

     negative rho (up, down):  3.312E-04 0.000E+00

     total cpu time spent up to now is     1690.4 secs

     total energy              =   -3302.93117115 Ry
     estimated scf accuracy    <       0.00000536 Ry

     iteration #  7     ecut=    80.00 Ry     beta= 0.30
     Davidson diagonalization with overlap
     ethr =  1.57E-09,  avg # of iterations =  3.2

     negative rho (up, down):  3.331E-04 0.000E+00

     total cpu time spent up to now is     1711.9 secs

     total energy              =   -3302.93117128 Ry
     estimated scf accuracy    <       0.00000261 Ry

     iteration #  8     ecut=    80.00 Ry     beta= 0.30
     Davidson diagonalization with overlap
     ethr =  7.63E-10,  avg # of iterations =  2.1

     negative rho (up, down):  3.304E-04 0.000E+00

     total cpu time spent up to now is     1732.5 secs

     total energy              =   -3302.93117131 Ry
     estimated scf accuracy    <       0.00000088 Ry

     iteration #  9     ecut=    80.00 Ry     beta= 0.30
     Davidson diagonalization with overlap
     ethr =  2.58E-10,  avg # of iterations =  3.1

     negative rho (up, down):  3.248E-04 0.000E+00

     total cpu time spent up to now is     1754.0 secs

     total energy              =   -3302.93117133 Ry
     estimated scf accuracy    <       0.00000039 Ry

     iteration # 10     ecut=    80.00 Ry     beta= 0.30
     Davidson diagonalization with overlap
     ethr =  1.14E-10,  avg # of iterations =  2.4

     negative rho (up, down):  3.124E-04 0.000E+00

     total cpu time spent up to now is     1774.5 secs

     total energy              =   -3302.93117130 Ry
     estimated scf accuracy    <       0.00000023 Ry

     iteration # 11     ecut=    80.00 Ry     beta= 0.30
     Davidson diagonalization with overlap
     ethr =  6.59E-11,  avg # of iterations =  1.1

     negative rho (up, down):  2.955E-04 0.000E+00

     total cpu time spent up to now is     1793.0 secs

     total energy              =   -3302.93117126 Ry
     estimated scf accuracy    <       0.00000009 Ry

     iteration # 12     ecut=    80.00 Ry     beta= 0.30
     Davidson diagonalization with overlap
     ethr =  2.57E-11,  avg # of iterations =  1.9

     negative rho (up, down):  2.812E-04 0.000E+00

     total cpu time spent up to now is     1813.5 secs

     total energy              =   -3302.93117124 Ry
     estimated scf accuracy    <       0.00000005 Ry

     iteration # 13     ecut=    80.00 Ry     beta= 0.30
     Davidson diagonalization with overlap
     ethr =  1.35E-11,  avg # of iterations =  1.2

     negative rho (up, down):  2.134E-04 0.000E+00

     total cpu time spent up to now is     1831.6 secs

     End of self-consistent calculation

          k = 0.0000 0.0000 0.0000 ( 81707 PWs)   bands (ev):

   -73.1925 -72.6799 -72.6562 -72.4774 -72.4670 -72.3706 -72.3495 -72.3022
   -72.2502 -72.2282 -71.9785 -71.9548 -43.6988 -43.0434 -42.8752 -42.8513
   -42.7273 -42.7171 -42.6561 -42.6459 -42.6321 -42.5864 -42.5741 -42.5556
   -42.5446 -42.5269 -42.5088 -42.5081 -42.5019 -42.4215 -42.3433 -42.3380
   -42.3309 -42.3072 -42.2708 -42.2580 -42.2491 -42.1956 -42.1883 -42.1686
   -42.1401 -42.1157 -42.0619 -42.0565 -42.0563 -41.8719 -41.8338 -41.7896
   -18.9788 -18.6264 -18.5065 -18.3879 -18.0015 -17.9661 -17.8652 -17.7513
   -17.7498 -17.7104 -17.6961 -17.6404 -17.6335 -17.6001 -17.5402 -17.3371
   -17.1393 -17.1315 -17.0954 -17.0131 -17.0004 -16.6809 -16.6131 -16.0974
   -16.0592  -7.2428  -7.1862  -7.1631  -6.9211  -6.3191  -6.3173  -6.0431
    -5.8730  -5.8619  -5.8484  -5.8208  -5.6934  -5.6490  -5.6351  -5.6284
    -5.5992  -5.5548  -5.4695  -5.4332  -5.4323  -5.4303  -5.4204  -5.2265
    -5.0796  -5.0736  -5.0605  -4.9668  -4.8833  -4.6263  -4.5315  -4.2096
    -4.0578  -3.8680  -3.6835  -3.6161  -3.6030  -3.6001  -3.5599  -3.4344
    -3.3866  -3.3032  -3.1502  -3.1484  -3.0406  -2.9832  -2.8687  -2.8572
    -2.7974  -2.7113  -2.6612  -2.6130  -2.6075  -2.4378  -2.4203  -2.4149
    -2.3373  -2.3142  -2.1782  -2.1640  -2.0727  -2.0501  -1.9304  -1.8413
    -1.8051  -1.7738  -1.5843  -1.5345  -1.4483  -1.3955  -1.2945  -1.1759
    -1.0988  -0.8751  -0.7486  -0.6971  -0.4093  -0.3980  -0.2201  -0.1648
    -0.1426  -0.0730   0.1179   0.1816   0.1878   0.2470   0.2796   0.3598
     0.5097   0.5482   0.6160   0.6239   0.6350   0.7100   0.8053   0.8468
     0.9645   1.0108   1.0594   1.0703   1.1993   1.3052   1.4652   1.7017
     1.7463   1.9119   2.0108   2.0735   2.1826   2.2524   2.3352   2.3380
     2.4878   2.6972   2.7934   3.2122   3.7112   3.7774   4.1793   4.2639
     4.3278   4.4496   4.5497   4.5890   4.7839   4.8249   4.9618   5.3382
     5.4981   5.5530   5.6960   5.6999   5.8021

          k = 0.0000 0.2445 0.0000 ( 81832 PWs)   bands (ev):

   -73.1925 -72.6799 -72.6562 -72.4774 -72.4670 -72.3706 -72.3495 -72.3022
   -72.2502 -72.2282 -71.9785 -71.9548 -43.6988 -43.0441 -42.8747 -42.8497
   -42.7289 -42.7168 -42.6561 -42.6449 -42.6328 -42.5857 -42.5741 -42.5566
   -42.5446 -42.5269 -42.5087 -42.5082 -42.5019 -42.4217 -42.3432 -42.3379
   -42.3290 -42.3071 -42.2707 -42.2580 -42.2488 -42.1955 -42.1883 -42.1686
   -42.1403 -42.1170 -42.0625 -42.0567 -42.0555 -41.8720 -41.8348 -41.7896
   -18.9025 -18.5053 -18.4405 -18.3015 -18.0133 -17.9643 -17.8887 -17.8882
   -17.8824 -17.8445 -17.7729 -17.7034 -17.4780 -17.3958 -17.3671 -17.3439
   -17.2682 -17.2407 -17.1954 -17.1185 -16.9975 -16.6740 -16.6184 -16.0969
   -16.0564  -6.9502  -6.8026  -6.7199  -6.6950  -6.3098  -6.2935  -6.1414
    -6.1131  -6.0158  -5.9193  -5.8116  -5.7653  -5.6453  -5.6026  -5.5951
    -5.5799  -5.5670  -5.5149  -5.4726  -5.4662  -5.3650  -5.2273  -5.2242
    -5.1805  -5.1126  -4.7956  -4.7185  -4.4606  -4.3532  -4.2438  -4.0833
    -3.9875  -3.9447  -3.8575  -3.8479  -3.7531  -3.7347  -3.6573  -3.5813
    -3.5744  -3.5214  -3.3453  -3.2361  -3.1838  -3.0443  -3.0215  -2.8764
    -2.8331  -2.7675  -2.7271  -2.6959  -2.6680  -2.5907  -2.5673  -2.4864
    -2.3510  -2.3476  -2.3129  -2.2462  -2.2090  -2.1231  -2.0650  -1.9376
    -1.8564  -1.7936  -1.7853  -1.6419  -1.5664  -1.5003  -1.3875  -1.3318
    -1.1358  -1.0389  -0.9478  -0.8053  -0.1038  -0.0377   0.0170   0.0682
     0.0931   0.1007   0.1914   0.2850   0.3791   0.4063   0.4235   0.4523
     0.4699   0.5376   0.5406   0.5514   0.5739   0.6287   0.6524   0.6608
     0.8279   0.9282   1.0497   1.1529   1.1760   1.3603   1.7878   1.8162
     1.9113   2.0402   2.0502   2.1308   2.1579   2.2690   2.3056   2.3795
     2.4661   2.5880   2.9064   3.1298   3.2588   3.5200   3.6564   3.9670
     4.2635   4.3544   4.8339   5.0361   5.1199   5.3151   5.5143   5.5172
     5.5569   5.6085   5.6448   5.7097   5.7633

          k = 0.0000-0.4891 0.0000 ( 81886 PWs)   bands (ev):

   -73.1925 -72.6799 -72.6562 -72.4774 -72.4670 -72.3706 -72.3495 -72.3023
   -72.2502 -72.2282 -71.9785 -71.9548 -43.6988 -43.0447 -42.8742 -42.8479
   -42.7307 -42.7165 -42.6561 -42.6440 -42.6336 -42.5851 -42.5740 -42.5574
   -42.5446 -42.5269 -42.5086 -42.5084 -42.5019 -42.4220 -42.3432 -42.3379
   -42.3272 -42.3069 -42.2706 -42.2580 -42.2484 -42.1954 -42.1882 -42.1686
   -42.1405 -42.1184 -42.0631 -42.0568 -42.0546 -41.8720 -41.8357 -41.7896
   -18.8183 -18.4098 -18.2622 -18.1643 -18.0522 -17.9869 -17.9738 -17.9627
   -17.9360 -17.8927 -17.8486 -17.7155 -17.4179 -17.4168 -17.3975 -17.3920
   -17.3154 -17.2961 -17.2696 -17.1232 -16.9955 -16.6651 -16.6278 -16.0963
   -16.0543  -6.9400  -6.3621  -6.3429  -6.3114  -6.2703  -6.1257  -6.1082
    -5.9909  -5.9846  -5.9091  -5.7266  -5.6808  -5.6519  -5.5933  -5.5616
    -5.5404  -5.4998  -5.4958  -5.4603  -5.3824  -5.2981  -5.2527  -5.2159
    -5.1146  -4.9003  -4.8178  -4.8160  -4.5060  -4.4528  -4.4193  -4.2690
    -4.2362  -4.2116  -4.0649  -3.9434  -3.8980  -3.8151  -3.6982  -3.5797
    -3.5630  -3.4244  -3.3872  -3.3574  -3.2035  -3.1842  -3.1336  -3.0987
    -3.0719  -3.0331  -2.9803  -2.8333  -2.7563  -2.5946  -2.5780  -2.4434
    -2.4353  -2.4058  -2.3107  -2.2447  -2.1147  -2.0767  -1.9272  -1.8333
    -1.7722  -1.7507  -1.7301  -1.6851  -1.6305  -1.4794  -1.4596  -1.3706
    -1.2663  -1.1749  -1.0098  -0.9501  -0.5382  -0.2811  -0.2137  -0.0970
    -0.0253   0.1883   0.2056   0.2646   0.4822   0.5095   0.5313   0.5951
     0.6088   0.6620   0.7297   0.7952   0.8216   0.8412   0.8672   0.8683
     0.8781   0.9797   1.1294   1.1647   1.2229   1.2805   1.6117   1.7212
     1.8177   1.9297   2.1352   2.1470   2.1650   2.3732   2.4059   2.4622
     2.4867   2.6720   2.7475   3.0633   3.1393   3.2693   3.2920   4.2297
     4.2694   4.3517   5.0248   5.2026   5.2458   5.2759   5.3271   5.3312
     5.5483   5.6740   5.7604   5.8245   5.8768

          k = 0.2500 0.0000 0.0000 ( 81703 PWs)   bands (ev):

   -73.1925 -72.6793 -72.6568 -72.4759 -72.4685 -72.3699 -72.3502 -72.3020
   -72.2504 -72.2282 -71.9779 -71.9554 -43.6989 -43.0393 -42.8749 -42.8248
   -42.7270 -42.7176 -42.6836 -42.6439 -42.6341 -42.5854 -42.5721 -42.5566
   -42.5424 -42.5218 -42.5071 -42.5041 -42.4895 -42.3983 -42.3692 -42.3338
   -42.3160 -42.3012 -42.2850 -42.2574 -42.2530 -42.2098 -42.1867 -42.1686
   -42.1660 -42.1139 -42.0620 -42.0583 -42.0298 -41.8993 -41.8310 -41.7924
   -18.8561 -18.5099 -18.4136 -18.2877 -18.1219 -17.9435 -17.8758 -17.8623
   -17.7887 -17.7581 -17.6759 -17.6327 -17.5697 -17.5294 -17.4667 -17.3356
   -17.2080 -17.1723 -17.1550 -17.0937 -17.0503 -16.7170 -16.6638 -16.1344
   -16.1024  -7.0807  -7.0115  -6.9852  -6.7428  -6.3306  -6.2478  -6.1065
    -6.0189  -5.9548  -5.8906  -5.8667  -5.7940  -5.7505  -5.7487  -5.6440
    -5.5853  -5.5575  -5.5408  -5.4107  -5.3899  -5.3126  -5.1897  -5.1104
    -4.9692  -4.9395  -4.7754  -4.7405  -4.6523  -4.5317  -4.3351  -4.2591
    -4.1407  -4.1122  -4.0005  -3.9014  -3.6334  -3.4627  -3.4324  -3.3402
    -3.3139  -3.3115  -3.2210  -3.1757  -3.1704  -3.0893  -3.0337  -2.9334
    -2.9321  -2.8866  -2.8002  -2.7396  -2.7218  -2.6470  -2.5769  -2.4407
    -2.3777  -2.3749  -2.3094  -2.2128  -2.1720  -2.1324  -2.0237  -1.9985
    -1.9543  -1.9358  -1.8522  -1.7472  -1.5911  -1.4566  -1.4083  -1.2829
    -1.1734  -0.9990  -0.9121  -0.7293  -0.2388  -0.2231   0.0187   0.0191
     0.1109   0.1839   0.3188   0.3560   0.3614   0.4121   0.4807   0.5580
     0.5920   0.6015   0.6821   0.7138   0.7355   0.8130   0.9225   0.9953
     1.0540   1.1439   1.2540   1.3070   1.3125   1.4962   1.5618   1.5807
     1.6095   1.7703   1.7847   1.9346   2.0886   2.1624   2.3460   2.3706
     2.4524   2.6485   2.7631   3.4304   3.8437   3.8967   4.2500   4.3095
     4.4561   4.4860   4.5663   4.6644   4.8081   4.8904   4.9639   5.0514
     5.1178   5.3815   5.4040   5.4812   5.5386

          k = 0.2500 0.2445 0.0000 ( 81774 PWs)   bands (ev):

   -73.1925 -72.6793 -72.6568 -72.4759 -72.4685 -72.3699 -72.3502 -72.3020
   -72.2504 -72.2282 -71.9779 -71.9554 -43.6989 -43.0399 -42.8735 -42.8242
   -42.7278 -42.7182 -42.6836 -42.6431 -42.6346 -42.5849 -42.5721 -42.5570
   -42.5424 -42.5218 -42.5070 -42.5042 -42.4896 -42.3985 -42.3691 -42.3338
   -42.3158 -42.3000 -42.2850 -42.2571 -42.2529 -42.2097 -42.1867 -42.1686
   -42.1660 -42.1150 -42.0626 -42.0587 -42.0290 -41.8993 -41.8318 -41.7926
   -18.7885 -18.3931 -18.3544 -18.1961 -18.1036 -17.9494 -17.9000 -17.8864
   -17.8347 -17.7996 -17.7113 -17.6861 -17.5471 -17.4622 -17.4105 -17.3463
   -17.3288 -17.3035 -17.2638 -17.1382 -17.0453 -16.7104 -16.6701 -16.1345
   -16.1002  -6.7872  -6.6547  -6.5613  -6.5430  -6.3178  -6.1816  -6.0652
    -6.0212  -5.9612  -5.8614  -5.8276  -5.7640  -5.7011  -5.6488  -5.6340
    -5.5940  -5.5381  -5.4979  -5.4707  -5.3992  -5.3320  -5.1955  -5.0809
    -4.9490  -4.8943  -4.6611  -4.6499  -4.5825  -4.4395  -4.3777  -4.2491
    -4.1761  -4.0644  -3.9960  -3.9698  -3.7841  -3.7303  -3.6196  -3.5512
    -3.4479  -3.3923  -3.3519  -3.2778  -3.2644  -3.2458  -3.1479  -3.1206
    -3.0773  -3.0432  -2.9680  -2.8488  -2.8141  -2.7627  -2.6869  -2.6425
    -2.5956  -2.4870  -2.3630  -2.2577  -2.1898  -2.1522  -2.1029  -2.0079
    -1.9566  -1.9017  -1.8284  -1.6772  -1.6192  -1.5500  -1.3679  -1.2609
    -1.0580  -1.0188  -0.9997  -0.8575  -0.1512  -0.0319   0.0476   0.1063
     0.1632   0.2602   0.3243   0.3788   0.4508   0.5266   0.5787   0.6139
     0.6650   0.6890   0.7345   0.7812   0.8154   0.8781   0.8863   0.9548
     0.9958   1.1112   1.2342   1.3432   1.3552   1.4853   1.6251   1.7107
     1.7947   1.8823   1.9017   2.0007   2.0499   2.0921   2.1298   2.3896
     2.5331   2.6212   2.9297   3.2691   3.4957   3.7125   3.8283   4.0571
     4.3287   4.3835   4.6367   4.9016   4.9567   5.0444   5.0530   5.2732
     5.3262   5.3804   5.3996   5.5716   5.6584

          k = 0.2500-0.4891 0.0000 ( 81830 PWs)   bands (ev):

   -73.1925 -72.6793 -72.6568 -72.4759 -72.4685 -72.3699 -72.3502 -72.3020
   -72.2504 -72.2282 -71.9779 -71.9554 -43.6989 -43.0405 -42.8721 -42.8235
   -42.7290 -42.7184 -42.6835 -42.6424 -42.6351 -42.5845 -42.5721 -42.5574
   -42.5424 -42.5218 -42.5070 -42.5043 -42.4897 -42.3987 -42.3691 -42.3338
   -42.3155 -42.2987 -42.2849 -42.2568 -42.2528 -42.2097 -42.1867 -42.1686
   -42.1660 -42.1161 -42.0632 -42.0590 -42.0283 -41.8992 -41.8325 -41.7928
   -18.7164 -18.2995 -18.1757 -18.0996 -18.0460 -17.9596 -17.9452 -17.9142
   -17.8524 -17.8203 -17.8199 -17.7241 -17.5355 -17.4865 -17.4766 -17.4233
   -17.4117 -17.3709 -17.3315 -17.1353 -17.0419 -16.6996 -16.6821 -16.1347
   -16.0984  -6.7674  -6.3410  -6.1702  -6.0709  -6.0558  -5.8852  -5.8516
    -5.8479  -5.8065  -5.7710  -5.7501  -5.7007  -5.6952  -5.6369  -5.6287
    -5.6180  -5.5698  -5.5618  -5.5327  -5.4848  -5.4383  -5.1181  -4.9663
    -4.9224  -4.7452  -4.6849  -4.6639  -4.4736  -4.4090  -4.3952  -4.3384
    -4.2175  -4.1550  -4.1428  -4.1035  -4.0649  -4.0249  -3.9134  -3.8964
    -3.8138  -3.7087  -3.5602  -3.4349  -3.3995  -3.3202  -3.3091  -3.2761
    -3.2185  -3.1414  -3.1377  -3.0478  -2.9093  -2.7602  -2.7183  -2.7068
    -2.6990  -2.4996  -2.3426  -2.2585  -2.2217  -2.1298  -1.9578  -1.9377
    -1.8663  -1.7647  -1.7290  -1.5537  -1.5219  -1.3495  -1.3012  -1.2386
    -1.2118  -1.1912  -0.9860  -0.9472  -0.3388  -0.2488  -0.1548   0.0523
     0.1529   0.2342   0.3747   0.4307   0.5027   0.5548   0.5861   0.6512
     0.7799   0.8093   0.8731   0.9461   1.0111   1.0317   1.0868   1.1463
     1.1528   1.2217   1.2834   1.3224   1.3998   1.5299   1.6065   1.6480
     1.6716   1.8209   1.9974   2.0207   2.0270   2.1653   2.2013   2.2613
     2.6414   2.7698   2.8764   3.0709   3.2834   3.3932   3.5191   4.2627
     4.3309   4.3709   4.5565   4.6913   4.7914   4.9840   5.1185   5.3365
     5.3693   5.4574   5.6092   5.6990   5.9484

          k =-0.5000 0.0000 0.0000 ( 81894 PWs)   bands (ev):

   -73.1925 -72.6786 -72.6575 -72.4729 -72.4715 -72.3692 -72.3510 -72.3017
   -72.2507 -72.2282 -71.9773 -71.9561 -43.6989 -43.0352 -42.8746 -42.7760
   -42.7333 -42.7267 -42.7181 -42.6392 -42.6388 -42.5843 -42.5700 -42.5577
   -42.5410 -42.5212 -42.5065 -42.5046 -42.4318 -42.4300 -42.3529 -42.3250
   -42.3242 -42.3227 -42.2633 -42.2589 -42.2448 -42.2255 -42.2114 -42.1859
   -42.1687 -42.1121 -42.0622 -42.0602 -41.9665 -41.9633 -41.8277 -41.7957
   -18.6221 -18.4318 -18.2343 -18.2128 -18.1927 -18.0496 -18.0273 -18.0012
   -17.8272 -17.7048 -17.6582 -17.4900 -17.4817 -17.4165 -17.3763 -17.3559
   -17.3454 -17.2913 -17.2735 -17.1795 -17.0425 -16.8004 -16.6919 -16.1638
   -16.1557  -6.7116  -6.5985  -6.5866  -6.5597  -6.5223  -6.5124  -6.3759
    -6.2260  -6.1342  -6.0279  -5.9044  -5.8031  -5.8025  -5.7497  -5.7273
    -5.7195  -5.4741  -5.4105  -5.3903  -5.3812  -4.9938  -4.9516  -4.9309
    -4.8200  -4.6120  -4.5361  -4.4396  -4.3963  -4.3646  -4.2934  -4.2020
    -4.1992  -4.0884  -4.0117  -3.9287  -3.9266  -3.8397  -3.8169  -3.6737
    -3.5916  -3.5670  -3.4472  -3.1955  -3.1465  -3.0697  -3.0506  -3.0094
    -2.9575  -2.9251  -2.9236  -2.8309  -2.7325  -2.7128  -2.6941  -2.6605
    -2.4890  -2.4251  -2.3256  -2.3157  -2.2630  -2.1750  -2.1702  -2.1291
    -2.1008  -2.0202  -1.9950  -1.8444  -1.5926  -1.5400  -1.2428  -1.2093
    -1.1583  -1.1520  -1.0067  -0.8849  -0.1754  -0.0842  -0.0723  -0.0051
     0.3011   0.3678   0.3946   0.4734   0.5121   0.5428   0.6685   0.6832
     0.8445   0.8485   0.8820   1.0114   1.0325   1.0448   1.0851   1.1491
     1.1708   1.2455   1.2849   1.3324   1.3958   1.4354   1.4609   1.5257
     1.5378   1.6763   1.6940   1.7836   1.9538   2.0668   2.2456   2.2664
     2.5309   2.5707   2.8506   3.9067   4.0578   4.0835   4.1578   4.3671
     4.4796   4.5597   4.6389   4.7364   4.7729   4.8285   4.9306   4.9567
     4.9658   4.9840   5.0170   5.0540   5.1063

          k =-0.5000 0.2445 0.0000 ( 81810 PWs)   bands (ev):

   -73.1925 -72.6786 -72.6575 -72.4729 -72.4715 -72.3692 -72.3510 -72.3017
   -72.2507 -72.2282 -71.9773 -71.9561 -43.6989 -43.0357 -42.8729 -42.7760
   -42.7331 -42.7260 -42.7201 -42.6390 -42.6386 -42.5841 -42.5700 -42.5576
   -42.5409 -42.5212 -42.5062 -42.5049 -42.4319 -42.4301 -42.3530 -42.3249
   -42.3243 -42.3227 -42.2628 -42.2582 -42.2448 -42.2255 -42.2109 -42.1859
   -42.1687 -42.1128 -42.0628 -42.0608 -41.9662 -41.9629 -41.8282 -41.7962
   -18.5857 -18.3659 -18.1588 -18.1309 -18.1232 -17.9933 -17.9524 -17.9406
   -17.8429 -17.6971 -17.6847 -17.5626 -17.5460 -17.4761 -17.4628 -17.4274
   -17.4093 -17.4066 -17.3901 -17.1635 -17.0378 -16.7983 -16.6950 -16.1633
   -16.1552  -6.5050  -6.3166  -6.3054  -6.2791  -6.2576  -6.2052  -6.1940
    -6.1584  -6.1088  -6.0253  -5.8100  -5.7762  -5.7237  -5.6370  -5.5833
    -5.5728  -5.4939  -5.4779  -5.3612  -5.2841  -5.0508  -4.9297  -4.7773
    -4.7254  -4.6662  -4.6390  -4.5659  -4.5140  -4.4276  -4.4136  -4.3957
    -4.3604  -4.2892  -4.2327  -4.1650  -4.0657  -4.0054  -3.9478  -3.8561
    -3.8102  -3.5479  -3.4723  -3.3674  -3.2896  -3.2334  -3.1679  -3.1282
    -3.0237  -2.9599  -2.9563  -2.8788  -2.8681  -2.8494  -2.8340  -2.8269
    -2.6894  -2.4990  -2.4228  -2.3019  -2.2264  -2.2207  -2.1726  -2.0886
    -2.0685  -1.9804  -1.8876  -1.8626  -1.6244  -1.5671  -1.2120  -1.1737
    -1.1516  -1.1212  -1.0336  -0.9433  -0.2146  -0.1692   0.1240   0.2039
     0.2804   0.4307   0.4343   0.5673   0.5780   0.7082   0.8158   0.8265
     0.9134   0.9676   0.9913   1.0400   1.0652   1.1094   1.1218   1.1543
     1.1995   1.2929   1.3148   1.3337   1.3707   1.5000   1.5986   1.6202
     1.6499   1.6759   1.7357   1.7712   1.8805   1.9382   2.0958   2.1197
     2.6608   2.6891   2.9803   3.6308   3.9526   4.0892   4.1250   4.2165
     4.2693   4.3074   4.3140   4.4743   4.5109   4.6430   4.7767   4.9436
     5.0016   5.2633   5.3268   5.4757   5.5514

          k =-0.5000-0.4891 0.0000 ( 81784 PWs)   bands (ev):

   -73.1925 -72.6786 -72.6575 -72.4729 -72.4715 -72.3692 -72.3509 -72.3017
   -72.2507 -72.2282 -71.9773 -71.9561 -43.6989 -43.0363 -42.8712 -42.7759
   -42.7329 -42.7262 -42.7214 -42.6389 -42.6385 -42.5840 -42.5700 -42.5574
   -42.5409 -42.5212 -42.5056 -42.5055 -42.4319 -42.4301 -42.3531 -42.3249
   -42.3244 -42.3227 -42.2623 -42.2574 -42.2449 -42.2256 -42.2103 -42.1860
   -42.1687 -42.1136 -42.0633 -42.0614 -41.9658 -41.9626 -41.8287 -41.7967
   -18.5490 -18.2847 -18.0764 -18.0331 -17.9819 -17.8607 -17.8600 -17.8398
   -17.8336 -17.7076 -17.6896 -17.6841 -17.6732 -17.6545 -17.6265 -17.5503
   -17.5304 -17.4415 -17.4331 -17.1549 -17.0336 -16.7967 -16.6984 -16.1629
   -16.1547  -6.4582  -6.2481  -6.1563  -6.0493  -5.8577  -5.8066  -5.7888
    -5.7552  -5.7293  -5.7167  -5.7134  -5.6755  -5.5903  -5.5561  -5.5151
    -5.4030  -5.3386  -5.2829  -5.1956  -5.1857  -5.1488  -5.0707  -5.0152
    -4.9799  -4.9467  -4.9428  -4.8853  -4.8655  -4.7015  -4.6070  -4.4615
    -4.4328  -4.3354  -4.2797  -4.1842  -4.1034  -3.9411  -3.8355  -3.8338
    -3.7034  -3.7004  -3.6272  -3.6204  -3.5625  -3.4924  -3.4698  -3.4476
    -3.4213  -3.3664  -3.3266  -3.2304  -3.2055  -3.0944  -3.0608  -2.7356
    -2.7329  -2.6000  -2.3789  -2.3110  -2.1536  -2.0534  -1.9242  -1.8681
    -1.8351  -1.7967  -1.7217  -1.5983  -1.5460  -1.4162  -1.2788  -1.2669
    -1.2308  -1.1110  -1.0331  -1.0158  -0.1180  -0.0620   0.1085   0.1196
     0.3621   0.3643   0.4213   0.4451   0.4968   0.5959   0.6670   0.9841
     1.0365   1.0577   1.1414   1.1695   1.2085   1.2659   1.2795   1.2870
     1.3160   1.3906   1.4327   1.4512   1.4588   1.5479   1.6413   1.6724
     1.7094   1.7112   1.7677   1.8138   1.8999   1.9371   1.9735   2.0010
     2.7625   2.7793   3.1038   3.2152   3.7707   3.8177   3.8745   3.9138
     3.9176   4.0191   4.1677   4.4740   4.5312   4.6439   4.7885   5.0608
     5.1816   5.3904   5.6531   5.7056   5.7522

     the Fermi energy is     1.2736 ev

!    total energy              =   -3302.93117120 Ry
     estimated scf accuracy    <       0.00000002 Ry
     smearing contrib. (-TS)   =       0.00099413 Ry
     internal energy E=F+TS    =   -3302.93216532 Ry

     The total energy is F=E-TS. E is the sum of the following terms:
     one-electron contribution =  -33505.70312588 Ry
     hartree contribution      =   16795.32237500 Ry
     xc contribution           =    -420.93683143 Ry
     ewald contribution        =   14066.41272086 Ry
     one-center paw contrib.   =    -238.02730387 Ry

     convergence has been achieved in  13 iterations

     negative rho (up, down):  2.134E-04 0.000E+00

     Forces acting on atoms (cartesian axes, Ry/au):

     atom    1 type  1   force =    -0.00001125    0.00000000    0.06851243
     atom    2 type  1   force =    -0.00084373    0.00000000   -0.08883242
     atom    3 type  1   force =    -0.00123074    0.00000000    0.00095856
     atom    4 type  1   force =     0.00256507    0.00000000   -0.00088564
     atom    5 type  1   force =    -0.00049180    0.00000000    0.00124141
     atom    6 type  1   force =    -0.00221622    0.00000000    0.00178363
     atom    7 type  2   force =    -0.00043269    0.00000000    0.02229232
     atom    8 type  2   force =     0.00011531    0.00000000    0.06153105
     atom    9 type  2   force =    -0.00013857    0.02384033   -0.02430194
     atom   10 type  2   force =    -0.00013857   -0.02384033   -0.02430194
     atom   11 type  2   force =    -0.00158069    0.00000000    0.00342879
     atom   12 type  2   force =    -0.00102064    0.00000000   -0.02035919
     atom   13 type  2   force =    -0.00047173    0.00049489   -0.00041823
     atom   14 type  2   force =    -0.00047173   -0.00049489   -0.00041823
     atom   15 type  2   force =     0.00202422    0.00000000    0.00540182
     atom   16 type  2   force =    -0.00259335    0.00000000    0.00168155
     atom   17 type  2   force =     0.00377063    0.00064227    0.00071474
     atom   18 type  2   force =     0.00377063   -0.00064227    0.00071474
     atom   19 type  1   force =     0.00003341    0.00000000    0.06024595
     atom   20 type  1   force =     0.00084787    0.00000000   -0.08840459
     atom   21 type  1   force =     0.00061790    0.00000000   -0.00178025
     atom   22 type  1   force =    -0.00298373    0.00000000    0.00218051
     atom   23 type  1   force =     0.00028617    0.00000000    0.00148907
     atom   24 type  1   force =     0.00132986    0.00000000    0.00053970
     atom   25 type  2   force =     0.00055448    0.00000000    0.02970461
     atom   26 type  2   force =    -0.00014822    0.00000000    0.06357978
     atom   27 type  2   force =     0.00012313    0.02390809   -0.02427429
     atom   28 type  2   force =     0.00012313   -0.02390809   -0.02427429
     atom   29 type  2   force =     0.00264352    0.00000000   -0.00236076
     atom   30 type  2   force =     0.00081898    0.00000000   -0.02070071
     atom   31 type  2   force =     0.00015308   -0.00042667   -0.00055965
     atom   32 type  2   force =     0.00015308    0.00042667   -0.00055965
     atom   33 type  2   force =    -0.00125028    0.00000000   -0.00490460
     atom   34 type  2   force =     0.00360760    0.00000000   -0.00239114
     atom   35 type  2   force =    -0.00321776    0.00017779    0.00197713
     atom   36 type  2   force =    -0.00321776   -0.00017779    0.00197713
     atom   37 type  2   force =    -0.00107861    0.00000000   -0.00022742

     Total force =     0.014753     Total SCF correction =     0.000628
     Energy error            =      4.8E-04 Ry
     Gradient error          =      5.4E-03 Ry/Bohr

     number of scf cycles    =   6
     number of bfgs steps    =   5

     energy             old  =   -3302.9306883865 Ry
     energy             new  =   -3302.9311711972 Ry

     CASE: energy            _new < energy            _old

     new trust radius        =       0.0193366657 bohr
     new conv_thr            =       0.0000000270 Ry


ATOMIC_POSITIONS (angstrom)
Ru               0.0000000000        1.5881618300        9.5289709800    0   0   0
Ru               1.5535000000        4.7644854900        9.5289709800    0   0   0
Ru               0.0020536297        4.7644855800       12.7274665328
Ru               1.5766024044        1.5881617100       12.6868331606
Ru              -0.0019954137        1.5881614900       15.7356586837
Ru               1.5247652524        4.7644852600       15.9984412232
O                0.0000000000        4.7644854900       10.7677372100    0   0   0
O                0.0000000000        4.7644854900        8.2902047600    0   0   0
O                1.5535000000        0.3493956000        9.5289709800    0   0   0
O                1.5535000000        2.8269280600        9.5289709800    0   0   0
O                0.0009532266        1.5881613800       13.8767021249
O                0.0000000000        1.5881618300       11.4665284200    0   0   0
O                1.5594458721        3.5312190949       12.7140479920
O                1.5594456921        5.9977519251       12.7140480120
O               -0.0092371831        4.7644855000       17.1676373367
O                0.0063238101        4.7644854500       14.6631395707
O                1.5318075728        0.3808916351       15.9266049754
O                1.5318075628        2.7954314849       15.9266049154
Ru               3.1070000000        1.5881618300        9.5289709800    0   0   0
Ru               4.6605000000        4.7644854900        9.5289709800    0   0   0
Ru               3.1048375576        4.7644854900       12.7476341300
Ru               4.6368434479        1.5881618300       12.6914474019
Ru               3.1065206387        1.5881618300       16.1330682979
Ru               4.6823943009        4.7644854900       15.9837496134
O                3.1070000000        4.7644854900       10.7677372100    0   0   0
O                3.1070000000        4.7644854900        8.2902047600    0   0   0
O                4.6605000000        0.3493956000        9.5289709800    0   0   0
O                4.6605000000        2.8269280600        9.5289709800    0   0   0
O                3.1028481387        1.5881618300       13.9932433407
O                3.1070000000        1.5881618300       11.4665284200    0   0   0
O                4.6546282013        3.5351995862       12.7226486049
O                4.6546282013        5.9937713938       12.7226486049
O                3.1067282247        4.7644854900       17.0255160016
O                3.0925473219        4.7644854900       14.6828881119
O                4.6805633348        0.3744619981       15.9008469734
O                4.6805633348        2.8018616619       15.9008469734
O                3.1421353648        1.5881618300       17.8349495108



     Writing config-only to output data dir ./tmp_ref__2x1o_mir/ref__2x1o_mir.save/ :
     XML data file
     NEW-OLD atomic charge density approx. for the potential

     negative rho (up, down):  2.126E-04 0.000E+00

     total cpu time spent up to now is     1838.2 secs

     per-process dynamical memory:   372.6 Mb

     Self-consistent Calculation

     iteration #  1     ecut=    80.00 Ry     beta= 0.30
     Davidson diagonalization with overlap
     ethr =  1.00E-06,  avg # of iterations =  4.2

     negative rho (up, down):  2.154E-04 0.000E+00

     total cpu time spent up to now is     1872.8 secs

     total energy              =   -3302.93147187 Ry
     estimated scf accuracy    <       0.00038638 Ry

     iteration #  2     ecut=    80.00 Ry     beta= 0.30
     Davidson diagonalization with overlap
     ethr =  1.13E-07,  avg # of iterations =  2.1

     negative rho (up, down):  2.198E-04 0.000E+00

     total cpu time spent up to now is     1893.4 secs

     total energy              =   -3302.93148422 Ry
     estimated scf accuracy    <       0.00013316 Ry

     iteration #  3     ecut=    80.00 Ry     beta= 0.30
     Davidson diagonalization with overlap
     ethr =  3.89E-08,  avg # of iterations =  1.8

     negative rho (up, down):  2.254E-04 0.000E+00

     total cpu time spent up to now is     1912.8 secs

     total energy              =   -3302.93147876 Ry
     estimated scf accuracy    <       0.00007430 Ry

     iteration #  4     ecut=    80.00 Ry     beta= 0.30
     Davidson diagonalization with overlap
     ethr =  2.17E-08,  avg # of iterations =  1.3

     negative rho (up, down):  2.306E-04 0.000E+00

     total cpu time spent up to now is     1932.3 secs

     total energy              =   -3302.93147492 Ry
     estimated scf accuracy    <       0.00002438 Ry

     iteration #  5     ecut=    80.00 Ry     beta= 0.30
     Davidson diagonalization with overlap
     ethr =  7.13E-09,  avg # of iterations =  2.7

     negative rho (up, down):  2.353E-04 0.000E+00

     total cpu time spent up to now is     1953.4 secs

     total energy              =   -3302.93147521 Ry
     estimated scf accuracy    <       0.00000548 Ry

     iteration #  6     ecut=    80.00 Ry     beta= 0.30
     Davidson diagonalization with overlap
     ethr =  1.60E-09,  avg # of iterations =  4.0

     negative rho (up, down):  2.366E-04 0.000E+00

     total cpu time spent up to now is     1976.2 secs

     total energy              =   -3302.93147560 Ry
     estimated scf accuracy    <       0.00000112 Ry

     iteration #  7     ecut=    80.00 Ry     beta= 0.30
     Davidson diagonalization with overlap
     ethr =  3.28E-10,  avg # of iterations =  4.8

     negative rho (up, down):  2.370E-04 0.000E+00

     total cpu time spent up to now is     1999.0 secs

     total energy              =   -3302.93147566 Ry
     estimated scf accuracy    <       0.00000029 Ry

     iteration #  8     ecut=    80.00 Ry     beta= 0.30
     Davidson diagonalization with overlap
     ethr =  8.40E-11,  avg # of iterations =  3.4

     negative rho (up, down):  2.366E-04 0.000E+00

     total cpu time spent up to now is     2020.7 secs

     total energy              =   -3302.93147567 Ry
     estimated scf accuracy    <       0.00000011 Ry

     iteration #  9     ecut=    80.00 Ry     beta= 0.30
     Davidson diagonalization with overlap
     ethr =  3.10E-11,  avg # of iterations =  1.9

     negative rho (up, down):  2.357E-04 0.000E+00

     total cpu time spent up to now is     2041.0 secs

     total energy              =   -3302.93147568 Ry
     estimated scf accuracy    <       0.00000003 Ry

     iteration # 10     ecut=    80.00 Ry     beta= 0.30
     Davidson diagonalization with overlap
     ethr =  8.60E-12,  avg # of iterations =  1.3

     negative rho (up, down):  2.135E-04 0.000E+00

     total cpu time spent up to now is     2060.0 secs

     End of self-consistent calculation

          k = 0.0000 0.0000 0.0000 ( 81707 PWs)   bands (ev):

   -73.2066 -72.6814 -72.6602 -72.4784 -72.4681 -72.3708 -72.3548 -72.3061
   -72.2488 -72.2205 -71.9796 -71.9565 -43.7138 -43.0597 -42.8900 -42.8574
   -42.7274 -42.7151 -42.6623 -42.6465 -42.6327 -42.5857 -42.5778 -42.5614
   -42.5448 -42.5269 -42.5086 -42.5041 -42.5022 -42.4239 -42.3447 -42.3392
   -42.3327 -42.3086 -42.2715 -42.2603 -42.2436 -42.1978 -42.1904 -42.1707
   -42.1407 -42.1197 -42.0576 -42.0554 -42.0488 -41.8732 -41.8350 -41.7911
   -18.9824 -18.6292 -18.5100 -18.3903 -18.0056 -17.9766 -17.8681 -17.7550
   -17.7524 -17.7118 -17.6964 -17.6401 -17.6346 -17.6014 -17.5414 -17.3360
   -17.1336 -17.1314 -17.0964 -17.0142 -17.0085 -16.6783 -16.5988 -16.0994
   -16.0609  -7.2414  -7.1876  -7.1644  -6.9236  -6.3232  -6.3204  -6.0486
    -5.8741  -5.8690  -5.8542  -5.8244  -5.7004  -5.6506  -5.6364  -5.6263
    -5.5985  -5.5562  -5.4707  -5.4355  -5.4346  -5.4316  -5.4182  -5.2293
    -5.0801  -5.0759  -5.0593  -4.9685  -4.8816  -4.6212  -4.5340  -4.2091
    -4.0655  -3.8789  -3.6747  -3.6167  -3.6077  -3.6037  -3.5616  -3.4384
    -3.3860  -3.3031  -3.1519  -3.1488  -3.0419  -2.9796  -2.8700  -2.8526
    -2.8021  -2.7179  -2.6579  -2.6125  -2.6118  -2.4384  -2.4205  -2.4144
    -2.3384  -2.3165  -2.1755  -2.1640  -2.0754  -2.0494  -1.9318  -1.8439
    -1.8069  -1.7758  -1.5836  -1.5316  -1.4495  -1.3956  -1.2975  -1.1728
    -1.1002  -0.8765  -0.7445  -0.6993  -0.4121  -0.3976  -0.2210  -0.1670
    -0.1440  -0.0739   0.1154   0.1803   0.1888   0.2452   0.2806   0.3561
     0.5073   0.5457   0.6196   0.6214   0.6338   0.7058   0.8040   0.8441
     0.9646   1.0087   1.0577   1.0684   1.1947   1.3041   1.4642   1.7034
     1.7432   1.9091   2.0124   2.0704   2.1818   2.2507   2.3348   2.3361
     2.4857   2.6967   2.7913   3.2094   3.7079   3.7834   4.1761   4.2608
     4.3270   4.4482   4.5377   4.5803   4.7767   4.8238   4.9602   5.3413
     5.4934   5.5489   5.6880   5.6961   5.8023

          k = 0.0000 0.2445 0.0000 ( 81832 PWs)   bands (ev):

   -73.2066 -72.6814 -72.6602 -72.4784 -72.4681 -72.3707 -72.3548 -72.3062
   -72.2488 -72.2205 -71.9796 -71.9565 -43.7138 -43.0603 -42.8892 -42.8562
   -42.7288 -42.7149 -42.6623 -42.6455 -42.6335 -42.5848 -42.5777 -42.5626
   -42.5447 -42.5269 -42.5086 -42.5041 -42.5022 -42.4241 -42.3446 -42.3392
   -42.3309 -42.3084 -42.2714 -42.2604 -42.2433 -42.1976 -42.1904 -42.1707
   -42.1409 -42.1210 -42.0568 -42.0556 -42.0494 -41.8733 -41.8359 -41.7911
   -18.9067 -18.5096 -18.4436 -18.3036 -18.0190 -17.9723 -17.8920 -17.8875
   -17.8828 -17.8454 -17.7760 -17.7041 -17.4811 -17.3972 -17.3683 -17.3448
   -17.2670 -17.2418 -17.1954 -17.1141 -17.0050 -16.6725 -16.6028 -16.0989
   -16.0581  -6.9522  -6.8023  -6.7215  -6.6963  -6.3127  -6.2979  -6.1442
    -6.1151  -6.0210  -5.9210  -5.8069  -5.7836  -5.6455  -5.6024  -5.5972
    -5.5814  -5.5687  -5.5185  -5.4737  -5.4615  -5.3659  -5.2295  -5.2268
    -5.1795  -5.1105  -4.7950  -4.7134  -4.4641  -4.3560  -4.2444  -4.0830
    -3.9942  -3.9505  -3.8600  -3.8485  -3.7514  -3.7354  -3.6592  -3.5875
    -3.5754  -3.5239  -3.3425  -3.2367  -3.1846  -3.0419  -3.0293  -2.8723
    -2.8360  -2.7686  -2.7264  -2.6954  -2.6697  -2.5907  -2.5696  -2.4873
    -2.3570  -2.3511  -2.3083  -2.2518  -2.2063  -2.1240  -2.0651  -1.9386
    -1.8567  -1.7949  -1.7863  -1.6417  -1.5709  -1.5011  -1.3846  -1.3278
    -1.1362  -1.0418  -0.9457  -0.8061  -0.1062  -0.0375   0.0155   0.0659
     0.0908   0.1000   0.1893   0.2823   0.3776   0.4049   0.4226   0.4514
     0.4680   0.5362   0.5380   0.5506   0.5723   0.6338   0.6508   0.6591
     0.8266   0.9277   1.0481   1.1486   1.1714   1.3591   1.7846   1.8139
     1.9100   2.0380   2.0490   2.1316   2.1574   2.2670   2.3053   2.3789
     2.4650   2.5865   2.9065   3.1290   3.2558   3.5188   3.6552   3.9631
     4.2609   4.3518   4.8226   5.0353   5.1383   5.3169   5.4985   5.5126
     5.5558   5.6054   5.6396   5.6949   5.7620

          k = 0.0000-0.4891 0.0000 ( 81886 PWs)   bands (ev):

   -73.2066 -72.6814 -72.6602 -72.4784 -72.4681 -72.3707 -72.3548 -72.3062
   -72.2488 -72.2205 -71.9796 -71.9565 -43.7138 -43.0610 -42.8885 -42.8549
   -42.7302 -42.7148 -42.6623 -42.6446 -42.6342 -42.5840 -42.5777 -42.5636
   -42.5447 -42.5270 -42.5087 -42.5040 -42.5023 -42.4243 -42.3446 -42.3392
   -42.3291 -42.3083 -42.2714 -42.2604 -42.2429 -42.1975 -42.1905 -42.1707
   -42.1412 -42.1224 -42.0559 -42.0558 -42.0500 -41.8733 -41.8369 -41.7912
   -18.8235 -18.4150 -18.2663 -18.1666 -18.0610 -17.9896 -17.9751 -17.9598
   -17.9368 -17.8953 -17.8496 -17.7175 -17.4194 -17.4177 -17.4020 -17.3967
   -17.3108 -17.2975 -17.2709 -17.1183 -17.0027 -16.6665 -16.6093 -16.0983
   -16.0560  -6.9423  -6.3581  -6.3461  -6.3137  -6.2751  -6.1273  -6.1187
    -5.9949  -5.9885  -5.9106  -5.7194  -5.7009  -5.6522  -5.5912  -5.5658
    -5.5410  -5.5022  -5.4872  -5.4600  -5.3839  -5.2994  -5.2537  -5.2185
    -5.1119  -4.9010  -4.8159  -4.8123  -4.5076  -4.4532  -4.4185  -4.2663
    -4.2355  -4.2113  -4.0643  -3.9588  -3.9004  -3.8122  -3.7021  -3.5850
    -3.5644  -3.4251  -3.3894  -3.3605  -3.2066  -3.1876  -3.1332  -3.1030
    -3.0732  -3.0349  -2.9785  -2.8365  -2.7585  -2.5903  -2.5811  -2.4462
    -2.4442  -2.4093  -2.3055  -2.2394  -2.1124  -2.0868  -1.9243  -1.8344
    -1.7726  -1.7512  -1.7318  -1.6876  -1.6354  -1.4777  -1.4535  -1.3694
    -1.2684  -1.1747  -1.0099  -0.9516  -0.5375  -0.2783  -0.2152  -0.0985
    -0.0276   0.1868   0.2039   0.2630   0.4760   0.5057   0.5297   0.6017
     0.6047   0.6607   0.7289   0.7975   0.8180   0.8400   0.8661   0.8671
     0.8744   0.9782   1.1261   1.1622   1.2190   1.2802   1.6090   1.7228
     1.8142   1.9273   2.1354   2.1459   2.1611   2.3744   2.4045   2.4612
     2.4866   2.6715   2.7464   3.0639   3.1381   3.2681   3.2889   4.2264
     4.2664   4.3471   5.0482   5.1919   5.2450   5.2765   5.3294   5.3298
     5.5363   5.6687   5.7484   5.8207   5.8731

          k = 0.2500 0.0000 0.0000 ( 81703 PWs)   bands (ev):

   -73.2066 -72.6807 -72.6609 -72.4769 -72.4696 -72.3698 -72.3558 -72.3059
   -72.2491 -72.2205 -71.9790 -71.9571 -43.7138 -43.0558 -42.8897 -42.8308
   -42.7271 -42.7156 -42.6897 -42.6445 -42.6347 -42.5844 -42.5760 -42.5627
   -42.5422 -42.5207 -42.5070 -42.5002 -42.4906 -42.4009 -42.3705 -42.3351
   -42.3175 -42.3031 -42.2877 -42.2559 -42.2489 -42.2128 -42.1883 -42.1707
   -42.1664 -42.1181 -42.0571 -42.0489 -42.0310 -41.9006 -41.8321 -41.7940
   -18.8597 -18.5124 -18.4173 -18.2897 -18.1260 -17.9471 -17.8788 -17.8695
   -17.7908 -17.7590 -17.6823 -17.6344 -17.5692 -17.5306 -17.4677 -17.3406
   -17.2082 -17.1734 -17.1484 -17.0948 -17.0523 -16.7050 -16.6582 -16.1363
   -16.1041  -7.0796  -7.0129  -6.9864  -6.7455  -6.3393  -6.2499  -6.1094
    -6.0212  -5.9560  -5.8958  -5.8703  -5.7957  -5.7528  -5.7495  -5.6520
    -5.5858  -5.5574  -5.5419  -5.4104  -5.3892  -5.3095  -5.1912  -5.1146
    -4.9705  -4.9422  -4.7761  -4.7408  -4.6500  -4.5330  -4.3345  -4.2606
    -4.1449  -4.1151  -4.0024  -3.9071  -3.6294  -3.4583  -3.4375  -3.3421
    -3.3137  -3.3135  -3.2205  -3.1778  -3.1706  -3.0907  -3.0353  -2.9371
    -2.9354  -2.8873  -2.7995  -2.7400  -2.7239  -2.6452  -2.5787  -2.4428
    -2.3782  -2.3768  -2.3098  -2.2137  -2.1802  -2.1338  -2.0257  -1.9963
    -1.9460  -1.9391  -1.8524  -1.7484  -1.5892  -1.4556  -1.4067  -1.2838
    -1.1727  -1.0000  -0.9138  -0.7281  -0.2367  -0.2241   0.0175   0.0182
     0.1105   0.1829   0.3160   0.3539   0.3599   0.4093   0.4775   0.5575
     0.5916   0.5954   0.6795   0.7117   0.7313   0.8113   0.9207   0.9928
     1.0526   1.1409   1.2532   1.3074   1.3108   1.5018   1.5620   1.5771
     1.6077   1.7735   1.7808   1.9323   2.0865   2.1604   2.3437   2.3695
     2.4519   2.6464   2.7635   3.4251   3.8398   3.9097   4.2473   4.3047
     4.4554   4.4732   4.5649   4.6573   4.7998   4.8851   4.9623   5.0518
     5.1175   5.3781   5.3859   5.4813   5.5373

          k = 0.2500 0.2445 0.0000 ( 81774 PWs)   bands (ev):

   -73.2066 -72.6807 -72.6609 -72.4769 -72.4696 -72.3698 -72.3557 -72.3059
   -72.2491 -72.2205 -71.9790 -71.9571 -43.7138 -43.0564 -42.8884 -42.8303
   -42.7277 -42.7162 -42.6897 -42.6438 -42.6352 -42.5838 -42.5760 -42.5633
   -42.5422 -42.5207 -42.5069 -42.5002 -42.4907 -42.4011 -42.3705 -42.3351
   -42.3172 -42.3019 -42.2877 -42.2559 -42.2485 -42.2127 -42.1883 -42.1707
   -42.1665 -42.1191 -42.0575 -42.0495 -42.0303 -41.9006 -41.8329 -41.7942
   -18.7927 -18.3971 -18.3573 -18.1983 -18.1073 -17.9526 -17.9008 -17.8910
   -17.8393 -17.8009 -17.7152 -17.6877 -17.5490 -17.4636 -17.4118 -17.3520
   -17.3291 -17.3052 -17.2642 -17.1327 -17.0468 -16.6984 -16.6644 -16.1365
   -16.1019  -6.7891  -6.6553  -6.5629  -6.5443  -6.3255  -6.1852  -6.0663
    -6.0227  -5.9621  -5.8647  -5.8226  -5.7743  -5.7084  -5.6500  -5.6378
    -5.5934  -5.5389  -5.4999  -5.4699  -5.3993  -5.3301  -5.1968  -5.0822
    -4.9517  -4.8965  -4.6621  -4.6495  -4.5812  -4.4370  -4.3789  -4.2517
    -4.1782  -4.0680  -3.9991  -3.9787  -3.7837  -3.7299  -3.6154  -3.5511
    -3.4503  -3.3932  -3.3522  -3.2822  -3.2658  -3.2460  -3.1489  -3.1203
    -3.0805  -3.0433  -2.9693  -2.8487  -2.8151  -2.7621  -2.6885  -2.6412
    -2.5955  -2.4869  -2.3673  -2.2640  -2.1927  -2.1529  -2.0991  -2.0131
    -1.9592  -1.9025  -1.8258  -1.6767  -1.6205  -1.5479  -1.3648  -1.2618
    -1.0591  -1.0195  -0.9985  -0.8576  -0.1526  -0.0340   0.0470   0.1053
     0.1610   0.2579   0.3220   0.3765   0.4495   0.5250   0.5779   0.6066
     0.6632   0.6885   0.7335   0.7781   0.8136   0.8768   0.8840   0.9524
     0.9943   1.1106   1.2339   1.3412   1.3538   1.4899   1.6216   1.7089
     1.7938   1.8815   1.9003   2.0000   2.0490   2.0910   2.1276   2.3878
     2.5321   2.6206   2.9304   3.2707   3.4917   3.7112   3.8270   4.0534
     4.3240   4.3813   4.6362   4.9013   4.9573   5.0418   5.0512   5.2725
     5.3150   5.3736   5.3959   5.5676   5.6475

          k = 0.2500-0.4891 0.0000 ( 81830 PWs)   bands (ev):

   -73.2066 -72.6807 -72.6609 -72.4769 -72.4696 -72.3698 -72.3557 -72.3059
   -72.2491 -72.2205 -71.9790 -71.9571 -43.7138 -43.0569 -42.8871 -42.8298
   -42.7287 -42.7164 -42.6897 -42.6430 -42.6357 -42.5833 -42.5760 -42.5637
   -42.5421 -42.5207 -42.5069 -42.5003 -42.4908 -42.4014 -42.3705 -42.3351
   -42.3169 -42.3006 -42.2877 -42.2559 -42.2482 -42.2127 -42.1883 -42.1707
   -42.1664 -42.1202 -42.0578 -42.0501 -42.0296 -41.9005 -41.8336 -41.7944
   -18.7214 -18.3045 -18.1791 -18.1042 -18.0479 -17.9668 -17.9461 -17.9128
   -17.8523 -17.8229 -17.8213 -17.7263 -17.5394 -17.4878 -17.4776 -17.4285
   -17.4131 -17.3725 -17.3349 -17.1298 -17.0430 -16.6844 -16.6796 -16.1367
   -16.1001  -6.7699  -6.3484  -6.1739  -6.0673  -6.0581  -5.8978  -5.8537
    -5.8466  -5.8157  -5.7743  -5.7482  -5.7016  -5.6962  -5.6388  -5.6267
    -5.6193  -5.5670  -5.5620  -5.5325  -5.4856  -5.4356  -5.1202  -4.9693
    -4.9269  -4.7477  -4.6869  -4.6612  -4.4717  -4.4117  -4.3933  -4.3393
    -4.2192  -4.1605  -4.1446  -4.1055  -4.0667  -4.0220  -3.9165  -3.8992
    -3.8145  -3.7111  -3.5611  -3.4341  -3.4015  -3.3233  -3.3098  -3.2773
    -3.2211  -3.1426  -3.1344  -3.0500  -2.9125  -2.7588  -2.7129  -2.7081
    -2.7028  -2.4988  -2.3430  -2.2646  -2.2304  -2.1256  -1.9565  -1.9382
    -1.8717  -1.7666  -1.7320  -1.5532  -1.5207  -1.3511  -1.3011  -1.2396
    -1.2076  -1.1895  -0.9865  -0.9483  -0.3390  -0.2504  -0.1549   0.0491
     0.1507   0.2287   0.3749   0.4296   0.5033   0.5531   0.5846   0.6409
     0.7809   0.8037   0.8707   0.9450   1.0083   1.0300   1.0856   1.1451
     1.1511   1.2213   1.2855   1.3211   1.3963   1.5327   1.6043   1.6493
     1.6682   1.8189   1.9961   2.0198   2.0247   2.1640   2.2009   2.2599
     2.6404   2.7694   2.8787   3.0719   3.2825   3.3917   3.5139   4.2605
     4.3255   4.3697   4.5636   4.6913   4.7903   4.9841   5.1114   5.3324
     5.3688   5.4527   5.5994   5.6959   5.9414

          k =-0.5000 0.0000 0.0000 ( 81894 PWs)   bands (ev):

   -73.2066 -72.6799 -72.6617 -72.4737 -72.4728 -72.3687 -72.3568 -72.3057
   -72.2493 -72.2205 -71.9783 -71.9578 -43.7139 -43.0518 -42.8894 -42.7820
   -42.7395 -42.7267 -42.7162 -42.6397 -42.6395 -42.5829 -42.5743 -42.5642
   -42.5401 -42.5204 -42.5080 -42.4986 -42.4330 -42.4316 -42.3549 -42.3286
   -42.3259 -42.3243 -42.2623 -42.2566 -42.2428 -42.2308 -42.2105 -42.1873
   -42.1708 -42.1164 -42.0588 -42.0490 -41.9676 -41.9648 -41.8288 -41.7974
   -18.6258 -18.4350 -18.2342 -18.2199 -18.1930 -18.0517 -18.0293 -18.0051
   -17.8289 -17.7115 -17.6609 -17.5003 -17.4930 -17.4119 -17.3783 -17.3571
   -17.3481 -17.2914 -17.2763 -17.1718 -17.0397 -16.7767 -16.6952 -16.1662
   -16.1569  -6.7062  -6.6067  -6.5856  -6.5633  -6.5233  -6.5147  -6.3788
    -6.2414  -6.1396  -6.0235  -5.9087  -5.8027  -5.7992  -5.7511  -5.7287
    -5.7217  -5.4762  -5.4112  -5.3942  -5.3845  -4.9929  -4.9485  -4.9328
    -4.8203  -4.6247  -4.5410  -4.4343  -4.3959  -4.3706  -4.2978  -4.2008
    -4.1977  -4.0889  -4.0041  -3.9298  -3.9265  -3.8368  -3.8190  -3.6718
    -3.5988  -3.5712  -3.4472  -3.1997  -3.1432  -3.0718  -3.0538  -3.0130
    -2.9459  -2.9334  -2.9230  -2.8339  -2.7351  -2.7126  -2.7062  -2.6551
    -2.4940  -2.4265  -2.3263  -2.3186  -2.2767  -2.1681  -2.1610  -2.1330
    -2.1026  -2.0100  -1.9995  -1.8447  -1.5958  -1.5399  -1.2408  -1.2145
    -1.1559  -1.1463  -1.0082  -0.8851  -0.1744  -0.0845  -0.0716  -0.0044
     0.3011   0.3662   0.3908   0.4747   0.5073   0.5400   0.6674   0.6811
     0.8399   0.8412   0.8820   1.0054   1.0312   1.0432   1.0845   1.1479
     1.1591   1.2453   1.2886   1.3325   1.3933   1.4334   1.4524   1.5275
     1.5304   1.6950   1.6956   1.7814   1.9526   2.0630   2.2444   2.2631
     2.5288   2.5700   2.8526   3.8932   4.0574   4.1119   4.1460   4.3642
     4.4743   4.5565   4.6241   4.7341   4.7702   4.8272   4.9312   4.9554
     4.9643   4.9881   5.0149   5.0210   5.1042

          k =-0.5000 0.2445 0.0000 ( 81810 PWs)   bands (ev):

   -73.2066 -72.6799 -72.6617 -72.4737 -72.4728 -72.3687 -72.3568 -72.3057
   -72.2493 -72.2205 -71.9783 -71.9578 -43.7139 -43.0523 -42.8879 -42.7820
   -42.7393 -42.7263 -42.7177 -42.6395 -42.6394 -42.5827 -42.5743 -42.5640
   -42.5401 -42.5204 -42.5080 -42.4987 -42.4330 -42.4317 -42.3550 -42.3287
   -42.3259 -42.3243 -42.2616 -42.2562 -42.2428 -42.2309 -42.2100 -42.1874
   -42.1708 -42.1171 -42.0594 -42.0496 -41.9672 -41.9645 -41.8293 -41.7978
   -18.5899 -18.3695 -18.1619 -18.1370 -18.1221 -17.9960 -17.9538 -17.9437
   -17.8442 -17.7021 -17.6884 -17.5658 -17.5511 -17.4768 -17.4661 -17.4313
   -17.4148 -17.4078 -17.3930 -17.1567 -17.0348 -16.7746 -16.6982 -16.1657
   -16.1564  -6.5067  -6.3234  -6.3039  -6.2812  -6.2643  -6.2063  -6.1960
    -6.1641  -6.1125  -6.0213  -5.8056  -5.7789  -5.7248  -5.6409  -5.5855
    -5.5772  -5.4961  -5.4797  -5.3634  -5.2862  -5.0511  -4.9300  -4.7834
    -4.7228  -4.6718  -4.6468  -4.5634  -4.5105  -4.4298  -4.4159  -4.3979
    -4.3611  -4.2918  -4.2304  -4.1668  -4.0650  -4.0052  -3.9490  -3.8511
    -3.8079  -3.5534  -3.4775  -3.3662  -3.2948  -3.2300  -3.1681  -3.1306
    -3.0218  -2.9614  -2.9545  -2.8812  -2.8702  -2.8501  -2.8330  -2.8237
    -2.6931  -2.4998  -2.4252  -2.3064  -2.2324  -2.2276  -2.1685  -2.0969
    -2.0715  -1.9714  -1.8840  -1.8632  -1.6262  -1.5682  -1.2165  -1.1705
    -1.1496  -1.1200  -1.0360  -0.9408  -0.2160  -0.1705   0.1240   0.2045
     0.2778   0.4287   0.4306   0.5666   0.5788   0.7057   0.8025   0.8291
     0.9130   0.9667   0.9836   1.0389   1.0553   1.1090   1.1123   1.1512
     1.2033   1.2954   1.3143   1.3325   1.3669   1.5079   1.5969   1.6119
     1.6530   1.6789   1.7325   1.7770   1.8784   1.9364   2.0936   2.1185
     2.6588   2.6884   2.9820   3.6444   3.9361   4.0858   4.1257   4.2112
     4.2691   4.3065   4.3125   4.4800   4.5028   4.6310   4.7812   4.9398
     4.9932   5.2511   5.3328   5.4660   5.5503

          k =-0.5000-0.4891 0.0000 ( 81784 PWs)   bands (ev):

   -73.2066 -72.6799 -72.6617 -72.4737 -72.4728 -72.3687 -72.3568 -72.3057
   -72.2493 -72.2205 -71.9783 -71.9578 -43.7139 -43.0528 -42.8863 -42.7819
   -42.7391 -42.7266 -42.7187 -42.6394 -42.6392 -42.5826 -42.5743 -42.5639
   -42.5401 -42.5204 -42.5079 -42.4987 -42.4331 -42.4317 -42.3551 -42.3287
   -42.3259 -42.3243 -42.2608 -42.2558 -42.2429 -42.2309 -42.2094 -42.1874
   -42.1708 -42.1179 -42.0600 -42.0502 -41.9669 -41.9641 -41.8298 -41.7983
   -18.5537 -18.2895 -18.0825 -18.0341 -17.9821 -17.8694 -17.8617 -17.8382
   -17.8357 -17.7077 -17.6909 -17.6850 -17.6731 -17.6578 -17.6280 -17.5547
   -17.5322 -17.4480 -17.4441 -17.1484 -17.0305 -16.7730 -16.7015 -16.1652
   -16.1560  -6.4607  -6.2655  -6.1623  -6.0442  -5.8564  -5.7911  -5.7880
    -5.7643  -5.7285  -5.7185  -5.7171  -5.6754  -5.5922  -5.5556  -5.5095
    -5.4053  -5.3603  -5.2848  -5.1990  -5.1882  -5.1501  -5.0731  -5.0146
    -4.9821  -4.9491  -4.9427  -4.8861  -4.8636  -4.7121  -4.6111  -4.4611
    -4.4350  -4.3302  -4.2763  -4.1834  -4.1066  -3.9388  -3.8375  -3.8353
    -3.7094  -3.7066  -3.6289  -3.6052  -3.5629  -3.4980  -3.4714  -3.4533
    -3.4200  -3.3659  -3.3238  -3.2331  -3.2088  -3.0918  -3.0510  -2.7400
    -2.7389  -2.5963  -2.3805  -2.3193  -2.1475  -2.0593  -1.9302  -1.8674
    -1.8397  -1.8000  -1.7207  -1.5976  -1.5478  -1.4119  -1.2775  -1.2687
    -1.2320  -1.1153  -1.0341  -1.0120  -0.1191  -0.0634   0.1083   0.1167
     0.3605   0.3644   0.4181   0.4414   0.4938   0.5993   0.6707   0.9741
     1.0093   1.0568   1.1312   1.1692   1.2070   1.2712   1.2791   1.2895
     1.3175   1.3920   1.4287   1.4496   1.4560   1.5610   1.6413   1.6703
     1.7064   1.7085   1.7679   1.8115   1.8942   1.9341   1.9758   2.0036
     2.7605   2.7786   3.1052   3.2260   3.7698   3.8164   3.8741   3.9126
     3.9162   4.0003   4.1703   4.4814   4.5222   4.6327   4.7945   5.0579
     5.1761   5.3890   5.6590   5.7059   5.7238

     the Fermi energy is     1.2729 ev

!    total energy              =   -3302.93147568 Ry
     estimated scf accuracy    <       0.00000002 Ry
     smearing contrib. (-TS)   =       0.00101991 Ry
     internal energy E=F+TS    =   -3302.93249559 Ry

     The total energy is F=E-TS. E is the sum of the following terms:
     one-electron contribution =  -33497.88952030 Ry
     hartree contribution      =   16791.40213552 Ry
     xc contribution           =    -420.93300714 Ry
     ewald contribution        =   14062.51557608 Ry
     one-center paw contrib.   =    -238.02767976 Ry

     convergence has been achieved in  10 iterations

     negative rho (up, down):  2.135E-04 0.000E+00

     Forces acting on atoms (cartesian axes, Ry/au):

     atom    1 type  1   force =    -0.00009741    0.00000000    0.06840567
     atom    2 type  1   force =    -0.00081635    0.00000000   -0.08905771
     atom    3 type  1   force =    -0.00078473    0.00000000    0.00075936
     atom    4 type  1   force =     0.00227177    0.00000000    0.00239387
     atom    5 type  1   force =     0.00015093    0.00000000    0.00212287
     atom    6 type  1   force =    -0.00235118    0.00000000    0.00099621
     atom    7 type  2   force =    -0.00047294    0.00000000    0.02239748
     atom    8 type  2   force =     0.00007883    0.00000000    0.06153826
     atom    9 type  2   force =    -0.00016055    0.02378122   -0.02430718
     atom   10 type  2   force =    -0.00016055   -0.02378122   -0.02430718
     atom   11 type  2   force =     0.00015750    0.00000000    0.00447413
     atom   12 type  2   force =    -0.00095887    0.00000000   -0.02077553
     atom   13 type  2   force =    -0.00071852    0.00030020   -0.00020639
     atom   14 type  2   force =    -0.00071852   -0.00030020   -0.00020639
     atom   15 type  2   force =     0.00198116    0.00000000    0.00333189
     atom   16 type  2   force =    -0.00126065    0.00000000    0.00130429
     atom   17 type  2   force =     0.00014384   -0.00085330    0.00087675
     atom   18 type  2   force =     0.00014384    0.00085330    0.00087675
     atom   19 type  1   force =     0.00014360    0.00000000    0.06014180
     atom   20 type  1   force =     0.00080923    0.00000000   -0.08870355
     atom   21 type  1   force =     0.00053767    0.00000000   -0.00184899
     atom   22 type  1   force =    -0.00289592    0.00000000    0.00036818
     atom   23 type  1   force =     0.00127350    0.00000000   -0.00007177
     atom   24 type  1   force =     0.00035150    0.00000000    0.00149310
     atom   25 type  2   force =     0.00054365    0.00000000    0.02984905
     atom   26 type  2   force =    -0.00010252    0.00000000    0.06376532
     atom   27 type  2   force =     0.00015519    0.02391122   -0.02431047
     atom   28 type  2   force =     0.00015519   -0.02391122   -0.02431047
     atom   29 type  2   force =     0.00099591    0.00000000   -0.00336585
     atom   30 type  2   force =     0.00081615    0.00000000   -0.02109651
     atom   31 type  2   force =     0.00026415   -0.00060896   -0.00076272
     atom   32 type  2   force =     0.00026415    0.00060896   -0.00076272
     atom   33 type  2   force =     0.00037066    0.00000000   -0.00246270
     atom   34 type  2   force =     0.00246494    0.00000000   -0.00194225
     atom   35 type  2   force =    -0.00055605   -0.00006869    0.00137086
     atom   36 type  2   force =    -0.00055605    0.00006869    0.00137086
     atom   37 type  2   force =    -0.00146257    0.00000000    0.00066171

     Total force =     0.010928     Total SCF correction =     0.000684
     Energy error            =      3.0E-04 Ry
     Gradient error          =      4.5E-03 Ry/Bohr

     number of scf cycles    =   7
     number of bfgs steps    =   6

     energy             old  =   -3302.9311711972 Ry
     energy             new  =   -3302.9314756783 Ry

     CASE: energy            _new < energy            _old

     new trust radius        =       0.0126276594 bohr
     new conv_thr            =       0.0000000224 Ry


ATOMIC_POSITIONS (angstrom)
Ru               0.0000000000        1.5881618300        9.5289709800    0   0   0
Ru               1.5535000000        4.7644854900        9.5289709800    0   0   0
Ru               0.0011367154        4.7644855800       12.7278026950
Ru               1.5773065875        1.5881617100       12.6867373041
Ru              -0.0021880239        1.5881614900       15.7373733993
Ru               1.5227715976        4.7644852600       15.9991894703
O                0.0000000000        4.7644854900       10.7677372100    0   0   0
O                0.0000000000        4.7644854900        8.2902047600    0   0   0
O                1.5535000000        0.3493956000        9.5289709800    0   0   0
O                1.5535000000        2.8269280600        9.5289709800    0   0   0
O               -0.0001712279        1.5881613800       13.8790706610
O                0.0000000000        1.5881618300       11.4665284200    0   0   0
O                1.5589743827        3.5316990550       12.7136276589
O                1.5589742027        5.9972719650       12.7136276789
O               -0.0073102833        4.7644855000       17.1740357571
O                0.0038085910        4.7644854500       14.6647444595
O                1.5345480861        0.3814656845       15.9269532844
O                1.5345480761        2.7948574355       15.9269532244
Ru               3.1070000000        1.5881618300        9.5289709800    0   0   0
Ru               4.6605000000        4.7644854900        9.5289709800    0   0   0
Ru               3.1052807506        4.7644854900       12.7460223146
Ru               4.6356104587        1.5881618300       12.6929779649
Ru               3.1068545264        1.5881618300       16.1346412643
Ru               4.6836215962        4.7644854900       15.9846459125
O                3.1070000000        4.7644854900       10.7677372100    0   0   0
O                3.1070000000        4.7644854900        8.2902047600    0   0   0
O                4.6605000000        0.3493956000        9.5289709800    0   0   0
O                4.6605000000        2.8269280600        9.5289709800    0   0   0
O                3.1052036695        1.5881618300       13.9910022216
O                3.1070000000        1.5881618300       11.4665284200    0   0   0
O                4.6546702323        3.5346687921       12.7220124403
O                4.6546702323        5.9943021879       12.7220124403
O                3.1055776875        4.7644854900       17.0205447960
O                3.0958546130        4.7644854900       14.6807667005
O                4.6782915823        0.3748588546       15.9034882678
O                4.6782915823        2.8014648054       15.9034882678
O                3.1411141523        1.5881618300       17.8369527545



     Writing config-only to output data dir ./tmp_ref__2x1o_mir/ref__2x1o_mir.save/ :
     XML data file
     NEW-OLD atomic charge density approx. for the potential

     negative rho (up, down):  2.131E-04 0.000E+00

     total cpu time spent up to now is     2066.6 secs

     per-process dynamical memory:   372.3 Mb

     Self-consistent Calculation

     iteration #  1     ecut=    80.00 Ry     beta= 0.30
     Davidson diagonalization with overlap
     ethr =  1.00E-06,  avg # of iterations =  3.0

     Threshold (ethr) on eigenvalues was too large:
     Diagonalizing with lowered threshold

     Davidson diagonalization with overlap
     ethr =  7.21E-08,  avg # of iterations =  1.3

     negative rho (up, down):  2.166E-04 0.000E+00

     total cpu time spent up to now is     2116.5 secs

     total energy              =   -3302.93161617 Ry
     estimated scf accuracy    <       0.00024826 Ry

     iteration #  2     ecut=    80.00 Ry     beta= 0.30
     Davidson diagonalization with overlap
     ethr =  7.26E-08,  avg # of iterations =  1.2

     negative rho (up, down):  2.173E-04 0.000E+00

     total cpu time spent up to now is     2135.4 secs

     total energy              =   -3302.93162529 Ry
     estimated scf accuracy    <       0.00012317 Ry

     iteration #  3     ecut=    80.00 Ry     beta= 0.30
     Davidson diagonalization with overlap
     ethr =  3.60E-08,  avg # of iterations =  1.0

     negative rho (up, down):  2.191E-04 0.000E+00

     total cpu time spent up to now is     2153.4 secs

     total energy              =   -3302.93162543 Ry
     estimated scf accuracy    <       0.00002778 Ry

     iteration #  4     ecut=    80.00 Ry     beta= 0.30
     Davidson diagonalization with overlap
     ethr =  8.12E-09,  avg # of iterations =  2.0

     negative rho (up, down):  2.227E-04 0.000E+00

     total cpu time spent up to now is     2173.4 secs

     total energy              =   -3302.93162282 Ry
     estimated scf accuracy    <       0.00001115 Ry

     iteration #  5     ecut=    80.00 Ry     beta= 0.30
     Davidson diagonalization with overlap
     ethr =  3.26E-09,  avg # of iterations =  2.0

     negative rho (up, down):  2.242E-04 0.000E+00

     total cpu time spent up to now is     2194.4 secs

     total energy              =   -3302.93162342 Ry
     estimated scf accuracy    <       0.00000173 Ry

     iteration #  6     ecut=    80.00 Ry     beta= 0.30
     Davidson diagonalization with overlap
     ethr =  5.05E-10,  avg # of iterations =  3.6

     negative rho (up, down):  2.247E-04 0.000E+00

     total cpu time spent up to now is     2215.8 secs

     total energy              =   -3302.93162353 Ry
     estimated scf accuracy    <       0.00000026 Ry

     iteration #  7     ecut=    80.00 Ry     beta= 0.30
     Davidson diagonalization with overlap
     ethr =  7.62E-11,  avg # of iterations =  4.4

     negative rho (up, down):  2.250E-04 0.000E+00

     total cpu time spent up to now is     2238.1 secs

     total energy              =   -3302.93162355 Ry
     estimated scf accuracy    <       0.00000010 Ry

     iteration #  8     ecut=    80.00 Ry     beta= 0.30
     Davidson diagonalization with overlap
     ethr =  2.95E-11,  avg # of iterations =  1.8

     negative rho (up, down):  2.249E-04 0.000E+00

     total cpu time spent up to now is     2257.9 secs

     total energy              =   -3302.93162355 Ry
     estimated scf accuracy    <       0.00000005 Ry

     iteration #  9     ecut=    80.00 Ry     beta= 0.30
     Davidson diagonalization with overlap
     ethr =  1.51E-11,  avg # of iterations =  1.9

     negative rho (up, down):  2.135E-04 0.000E+00

     total cpu time spent up to now is     2276.9 secs

     End of self-consistent calculation

          k = 0.0000 0.0000 0.0000 ( 81707 PWs)   bands (ev):

   -73.2087 -72.6853 -72.6635 -72.4791 -72.4688 -72.3704 -72.3575 -72.3079
   -72.2488 -72.2156 -71.9809 -71.9577 -43.7143 -43.0637 -42.8935 -42.8634
   -42.7283 -42.7161 -42.6681 -42.6469 -42.6331 -42.5850 -42.5810 -42.5652
   -42.5470 -42.5277 -42.5097 -42.5056 -42.4987 -42.4236 -42.3458 -42.3401
   -42.3334 -42.3094 -42.2704 -42.2619 -42.2383 -42.1994 -42.1920 -42.1721
   -42.1413 -42.1212 -42.0589 -42.0557 -42.0416 -41.8745 -41.8361 -41.7925
   -18.9801 -18.6302 -18.5088 -18.3904 -18.0059 -17.9807 -17.8671 -17.7580
   -17.7522 -17.7127 -17.6968 -17.6397 -17.6353 -17.6022 -17.5420 -17.3335
   -17.1315 -17.1311 -17.0969 -17.0154 -17.0149 -16.6800 -16.5921 -16.1009
   -16.0622  -7.2414  -7.1882  -7.1653  -6.9192  -6.3216  -6.3194  -6.0527
    -5.8747  -5.8711  -5.8543  -5.8238  -5.7046  -5.6510  -5.6383  -5.6247
    -5.5972  -5.5572  -5.4698  -5.4364  -5.4357  -5.4345  -5.4160  -5.2315
    -5.0789  -5.0766  -5.0578  -4.9711  -4.8805  -4.6167  -4.5346  -4.2053
    -4.0675  -3.8798  -3.6721  -3.6172  -3.6129  -3.6044  -3.5632  -3.4394
    -3.3864  -3.2997  -3.1517  -3.1515  -3.0413  -2.9787  -2.8710  -2.8503
    -2.8045  -2.7191  -2.6583  -2.6169  -2.6122  -2.4395  -2.4203  -2.4140
    -2.3398  -2.3165  -2.1768  -2.1643  -2.0766  -2.0512  -1.9342  -1.8403
    -1.8070  -1.7774  -1.5836  -1.5301  -1.4502  -1.3946  -1.3035  -1.1709
    -1.1022  -0.8772  -0.7442  -0.6995  -0.4144  -0.3957  -0.2212  -0.1675
    -0.1448  -0.0748   0.1151   0.1791   0.1900   0.2444   0.2811   0.3565
     0.5071   0.5456   0.6176   0.6239   0.6336   0.7043   0.8029   0.8433
     0.9649   1.0066   1.0564   1.0674   1.1921   1.3022   1.4630   1.7040
     1.7396   1.9083   2.0130   2.0688   2.1804   2.2510   2.3345   2.3345
     2.4834   2.6990   2.7897   3.2047   3.7079   3.7938   4.1743   4.2577
     4.3265   4.4471   4.5332   4.5773   4.7743   4.8222   4.9600   5.3387
     5.4899   5.5455   5.6827   5.6971   5.8014

          k = 0.0000 0.2445 0.0000 ( 81832 PWs)   bands (ev):

   -73.2087 -72.6853 -72.6635 -72.4791 -72.4688 -72.3703 -72.3574 -72.3080
   -72.2488 -72.2156 -71.9809 -71.9577 -43.7143 -43.0644 -42.8928 -42.8621
   -42.7297 -42.7159 -42.6681 -42.6459 -42.6338 -42.5839 -42.5809 -42.5667
   -42.5470 -42.5277 -42.5097 -42.5056 -42.4987 -42.4238 -42.3458 -42.3400
   -42.3315 -42.3092 -42.2703 -42.2619 -42.2379 -42.1992 -42.1920 -42.1721
   -42.1415 -42.1225 -42.0580 -42.0559 -42.0422 -41.8745 -41.8370 -41.7925
   -18.9035 -18.5109 -18.4429 -18.3045 -18.0211 -17.9740 -17.8920 -17.8876
   -17.8827 -17.8460 -17.7773 -17.7047 -17.4813 -17.3981 -17.3689 -17.3438
   -17.2659 -17.2430 -17.1953 -17.1124 -17.0113 -16.6752 -16.5953 -16.1003
   -16.0595  -6.9479  -6.8023  -6.7219  -6.6972  -6.3137  -6.2935  -6.1449
    -6.1156  -6.0253  -5.9223  -5.8030  -5.7928  -5.6462  -5.6017  -5.5988
    -5.5815  -5.5696  -5.5191  -5.4747  -5.4583  -5.3671  -5.2301  -5.2289
    -5.1788  -5.1081  -4.7947  -4.7089  -4.4636  -4.3575  -4.2430  -4.0812
    -3.9954  -3.9513  -3.8599  -3.8467  -3.7516  -3.7357  -3.6601  -3.5915
    -3.5752  -3.5252  -3.3399  -3.2365  -3.1869  -3.0409  -3.0340  -2.8698
    -2.8375  -2.7706  -2.7267  -2.6950  -2.6703  -2.5927  -2.5701  -2.4900
    -2.3622  -2.3529  -2.3107  -2.2529  -2.2018  -2.1251  -2.0643  -1.9408
    -1.8548  -1.7963  -1.7829  -1.6421  -1.5743  -1.5068  -1.3828  -1.3256
    -1.1368  -1.0437  -0.9454  -0.8061  -0.1055  -0.0373   0.0157   0.0650
     0.0897   0.1012   0.1881   0.2816   0.3776   0.4046   0.4225   0.4508
     0.4674   0.5352   0.5373   0.5498   0.5728   0.6363   0.6503   0.6576
     0.8255   0.9280   1.0469   1.1453   1.1687   1.3575   1.7810   1.8130
     1.9096   2.0377   2.0483   2.1318   2.1564   2.2647   2.3052   2.3775
     2.4645   2.5855   2.9088   3.1334   3.2509   3.5183   3.6542   3.9631
     4.2583   4.3511   4.8184   5.0334   5.1514   5.3177   5.4857   5.5092
     5.5545   5.6031   5.6351   5.6872   5.7626

          k = 0.0000-0.4891 0.0000 ( 81886 PWs)   bands (ev):

   -73.2087 -72.6853 -72.6635 -72.4791 -72.4688 -72.3703 -72.3574 -72.3080
   -72.2488 -72.2156 -71.9809 -71.9577 -43.7143 -43.0650 -42.8922 -42.8607
   -42.7311 -42.7157 -42.6680 -42.6450 -42.6346 -42.5829 -42.5809 -42.5679
   -42.5470 -42.5278 -42.5097 -42.5056 -42.4988 -42.4240 -42.3457 -42.3400
   -42.3297 -42.3091 -42.2702 -42.2619 -42.2375 -42.1991 -42.1920 -42.1721
   -42.1418 -42.1239 -42.0571 -42.0560 -42.0428 -41.8745 -41.8380 -41.7925
   -18.8187 -18.4179 -18.2673 -18.1655 -18.0675 -17.9867 -17.9761 -17.9586
   -17.9373 -17.8965 -17.8488 -17.7186 -17.4214 -17.4175 -17.4026 -17.3989
   -17.3067 -17.2984 -17.2715 -17.1166 -17.0086 -16.6706 -16.6004 -16.0998
   -16.0573  -6.9377  -6.3565  -6.3474  -6.3129  -6.2701  -6.1285  -6.1235
    -5.9997  -5.9892  -5.9117  -5.7181  -5.7121  -5.6503  -5.5915  -5.5678
    -5.5399  -5.5005  -5.4817  -5.4625  -5.3850  -5.3003  -5.2534  -5.2207
    -5.1097  -4.9013  -4.8156  -4.8080  -4.5085  -4.4544  -4.4182  -4.2646
    -4.2324  -4.2085  -4.0633  -3.9597  -3.9027  -3.8118  -3.7031  -3.5827
    -3.5642  -3.4252  -3.3895  -3.3618  -3.2092  -3.1882  -3.1329  -3.1053
    -3.0742  -3.0356  -2.9799  -2.8405  -2.7590  -2.5905  -2.5847  -2.4524
    -2.4475  -2.4137  -2.3028  -2.2337  -2.1126  -2.0929  -1.9216  -1.8361
    -1.7737  -1.7526  -1.7290  -1.6877  -1.6376  -1.4772  -1.4541  -1.3707
    -1.2666  -1.1741  -1.0127  -0.9524  -0.5367  -0.2762  -0.2163  -0.0983
    -0.0274   0.1888   0.2032   0.2626   0.4751   0.5041   0.5286   0.6034
     0.6048   0.6604   0.7284   0.7987   0.8158   0.8390   0.8650   0.8662
     0.8739   0.9773   1.1240   1.1608   1.2150   1.2800   1.6074   1.7233
     1.8115   1.9263   2.1343   2.1450   2.1578   2.3751   2.4038   2.4606
     2.4855   2.6717   2.7502   3.0666   3.1374   3.2671   3.2839   4.2286
     4.2630   4.3450   5.0628   5.1866   5.2415   5.2762   5.3286   5.3288
     5.5258   5.6676   5.7392   5.8208   5.8692

          k = 0.2500 0.0000 0.0000 ( 81703 PWs)   bands (ev):

   -73.2087 -72.6846 -72.6642 -72.4776 -72.4703 -72.3691 -72.3587 -72.3077
   -72.2490 -72.2156 -71.9803 -71.9584 -43.7143 -43.0598 -42.8932 -42.8369
   -42.7280 -42.7166 -42.6954 -42.6449 -42.6351 -42.5834 -42.5793 -42.5669
   -42.5445 -42.5208 -42.5093 -42.4965 -42.4914 -42.4007 -42.3716 -42.3359
   -42.3183 -42.3038 -42.2872 -42.2565 -42.2437 -42.2148 -42.1897 -42.1721
   -42.1670 -42.1196 -42.0573 -42.0418 -42.0323 -41.9018 -41.8332 -41.7954
   -18.8569 -18.5133 -18.4155 -18.2897 -18.1267 -17.9468 -17.8801 -17.8720
   -17.7893 -17.7595 -17.6865 -17.6359 -17.5686 -17.5314 -17.4683 -17.3425
   -17.2080 -17.1741 -17.1478 -17.0955 -17.0544 -16.7024 -16.6549 -16.1378
   -16.1053  -7.0794  -7.0134  -6.9873  -6.7406  -6.3445  -6.2481  -6.1086
    -6.0192  -5.9564  -5.8965  -5.8728  -5.7950  -5.7538  -5.7499  -5.6580
    -5.5860  -5.5564  -5.5428  -5.4098  -5.3870  -5.3090  -5.1927  -5.1181
    -4.9700  -4.9441  -4.7760  -4.7409  -4.6461  -4.5331  -4.3330  -4.2603
    -4.1445  -4.1147  -4.0004  -3.9087  -3.6277  -3.4565  -3.4420  -3.3429
    -3.3167  -3.3145  -3.2206  -3.1774  -3.1678  -3.0908  -3.0364  -2.9401
    -2.9359  -2.8880  -2.7985  -2.7402  -2.7245  -2.6458  -2.5801  -2.4437
    -2.3809  -2.3774  -2.3098  -2.2132  -2.1856  -2.1373  -2.0273  -1.9954
    -1.9418  -1.9410  -1.8514  -1.7506  -1.5843  -1.4582  -1.4081  -1.2847
    -1.1711  -1.0013  -0.9149  -0.7275  -0.2364  -0.2217   0.0169   0.0181
     0.1104   0.1826   0.3154   0.3533   0.3603   0.4074   0.4773   0.5572
     0.5921   0.5923   0.6775   0.7106   0.7291   0.8101   0.9194   0.9919
     1.0509   1.1389   1.2526   1.3070   1.3096   1.5051   1.5619   1.5737
     1.6070   1.7745   1.7790   1.9310   2.0865   2.1588   2.3415   2.3676
     2.4520   2.6448   2.7661   3.4194   3.8392   3.9231   4.2452   4.3010
     4.4549   4.4681   4.5638   4.6548   4.7971   4.8799   4.9617   5.0498
     5.1166   5.3754   5.3774   5.4803   5.5362

          k = 0.2500 0.2445 0.0000 ( 81774 PWs)   bands (ev):

   -73.2087 -72.6846 -72.6642 -72.4776 -72.4703 -72.3691 -72.3587 -72.3077
   -72.2490 -72.2156 -71.9803 -71.9584 -43.7143 -43.0604 -42.8919 -42.8364
   -42.7286 -42.7172 -42.6954 -42.6441 -42.6356 -42.5826 -42.5793 -42.5676
   -42.5445 -42.5208 -42.5093 -42.4965 -42.4915 -42.4009 -42.3716 -42.3359
   -42.3180 -42.3025 -42.2872 -42.2565 -42.2432 -42.2147 -42.1897 -42.1721
   -42.1670 -42.1207 -42.0577 -42.0423 -42.0315 -41.9018 -41.8340 -41.7956
   -18.7889 -18.3982 -18.3562 -18.1993 -18.1077 -17.9524 -17.9009 -17.8936
   -17.8397 -17.8010 -17.7163 -17.6900 -17.5488 -17.4646 -17.4126 -17.3550
   -17.3285 -17.3068 -17.2644 -17.1323 -17.0482 -16.6968 -16.6603 -16.1379
   -16.1031  -6.7844  -6.6551  -6.5632  -6.5452  -6.3301  -6.1818  -6.0670
    -6.0220  -5.9618  -5.8671  -5.8190  -5.7795  -5.7129  -5.6492  -5.6396
    -5.5928  -5.5387  -5.5005  -5.4685  -5.4000  -5.3298  -5.1976  -5.0836
    -4.9538  -4.8950  -4.6625  -4.6491  -4.5799  -4.4345  -4.3796  -4.2527
    -4.1747  -4.0666  -3.9996  -3.9810  -3.7821  -3.7299  -3.6149  -3.5505
    -3.4510  -3.3934  -3.3531  -3.2843  -3.2667  -3.2462  -3.1492  -3.1202
    -3.0826  -3.0434  -2.9693  -2.8481  -2.8173  -2.7649  -2.6892  -2.6417
    -2.5970  -2.4869  -2.3694  -2.2681  -2.1960  -2.1531  -2.0971  -2.0159
    -1.9605  -1.9018  -1.8227  -1.6745  -1.6239  -1.5480  -1.3641  -1.2624
    -1.0599  -1.0208  -0.9978  -0.8577  -0.1529  -0.0333   0.0469   0.1053
     0.1617   0.2572   0.3207   0.3752   0.4492   0.5251   0.5776   0.6026
     0.6627   0.6887   0.7334   0.7769   0.8127   0.8760   0.8821   0.9509
     0.9932   1.1098   1.2335   1.3396   1.3518   1.4927   1.6187   1.7077
     1.7934   1.8806   1.9005   1.9996   2.0483   2.0902   2.1254   2.3863
     2.5308   2.6203   2.9329   3.2742   3.4885   3.7105   3.8261   4.0532
     4.3198   4.3805   4.6375   4.9006   4.9567   5.0374   5.0533   5.2721
     5.3063   5.3691   5.3927   5.5675   5.6418

          k = 0.2500-0.4891 0.0000 ( 81830 PWs)   bands (ev):

   -73.2087 -72.6846 -72.6642 -72.4776 -72.4703 -72.3691 -72.3587 -72.3077
   -72.2490 -72.2156 -71.9803 -71.9584 -43.7143 -43.0610 -42.8907 -42.8358
   -42.7296 -42.7174 -42.6953 -42.6434 -42.6361 -42.5820 -42.5793 -42.5683
   -42.5444 -42.5208 -42.5093 -42.4966 -42.4916 -42.4012 -42.3716 -42.3359
   -42.3178 -42.3013 -42.2872 -42.2566 -42.2428 -42.2147 -42.1897 -42.1721
   -42.1670 -42.1217 -42.0580 -42.0429 -42.0308 -41.9017 -41.8348 -41.7958
   -18.7161 -18.3073 -18.1802 -18.1040 -18.0453 -17.9724 -17.9466 -17.9124
   -17.8506 -17.8240 -17.8210 -17.7277 -17.5395 -17.4880 -17.4789 -17.4316
   -17.4139 -17.3737 -17.3358 -17.1293 -17.0442 -16.6883 -16.6700 -16.1381
   -16.1013  -6.7646  -6.3530  -6.1692  -6.0647  -6.0575  -5.9035  -5.8545
    -5.8495  -5.8205  -5.7758  -5.7484  -5.7012  -5.6963  -5.6403  -5.6239
    -5.6201  -5.5661  -5.5609  -5.5320  -5.4856  -5.4365  -5.1222  -4.9716
    -4.9257  -4.7488  -4.6880  -4.6584  -4.4684  -4.4129  -4.3917  -4.3384
    -4.2203  -4.1607  -4.1436  -4.1066  -4.0678  -4.0200  -3.9161  -3.8979
    -3.8152  -3.7116  -3.5614  -3.4345  -3.4024  -3.3256  -3.3092  -3.2783
    -3.2213  -3.1430  -3.1331  -3.0511  -2.9140  -2.7598  -2.7191  -2.7082
    -2.7009  -2.5005  -2.3448  -2.2688  -2.2351  -2.1254  -1.9556  -1.9386
    -1.8741  -1.7653  -1.7328  -1.5523  -1.5184  -1.3500  -1.3013  -1.2408
    -1.2093  -1.1874  -0.9891  -0.9489  -0.3387  -0.2511  -0.1545   0.0483
     0.1497   0.2282   0.3751   0.4300   0.5049   0.5526   0.5852   0.6341
     0.7812   0.8010   0.8693   0.9444   1.0077   1.0293   1.0845   1.1455
     1.1507   1.2210   1.2861   1.3200   1.3930   1.5345   1.6031   1.6496
     1.6652   1.8175   1.9946   2.0187   2.0233   2.1630   2.2004   2.2592
     2.6391   2.7691   2.8836   3.0744   3.2818   3.3903   3.5087   4.2625
     4.3200   4.3705   4.5678   4.6901   4.7894   4.9841   5.1054   5.3295
     5.3656   5.4503   5.5937   5.6946   5.9328

          k =-0.5000 0.0000 0.0000 ( 81894 PWs)   bands (ev):

   -73.2087 -72.6838 -72.6650 -72.4743 -72.4736 -72.3676 -72.3603 -72.3075
   -72.2492 -72.2156 -71.9796 -71.9590 -43.7144 -43.0559 -42.8929 -42.7887
   -42.7446 -42.7276 -42.7172 -42.6401 -42.6398 -42.5813 -42.5777 -42.5689
   -42.5422 -42.5212 -42.5096 -42.4949 -42.4340 -42.4327 -42.3548 -42.3283
   -42.3267 -42.3253 -42.2630 -42.2517 -42.2412 -42.2345 -42.2111 -42.1887
   -42.1722 -42.1180 -42.0590 -42.0419 -41.9690 -41.9659 -41.8299 -41.7988
   -18.6193 -18.4377 -18.2325 -18.2230 -18.1901 -18.0528 -18.0301 -18.0079
   -17.8229 -17.7135 -17.6638 -17.5079 -17.4996 -17.4086 -17.3795 -17.3577
   -17.3497 -17.2904 -17.2790 -17.1729 -17.0364 -16.7657 -16.6988 -16.1682
   -16.1576  -6.7018  -6.6111  -6.5821  -6.5651  -6.5236  -6.5164  -6.3731
    -6.2500  -6.1392  -6.0223  -5.9078  -5.8037  -5.7990  -5.7525  -5.7293
    -5.7224  -5.4761  -5.4131  -5.3968  -5.3848  -4.9866  -4.9455  -4.9347
    -4.8222  -4.6337  -4.5433  -4.4312  -4.3923  -4.3723  -4.2998  -4.1972
    -4.1953  -4.0888  -3.9997  -3.9304  -3.9268  -3.8351  -3.8202  -3.6706
    -3.6028  -3.5719  -3.4464  -3.2020  -3.1426  -3.0683  -3.0558  -3.0116
    -2.9398  -2.9335  -2.9310  -2.8360  -2.7326  -2.7127  -2.7120  -2.6554
    -2.4977  -2.4286  -2.3270  -2.3232  -2.2854  -2.1624  -2.1539  -2.1351
    -2.1080  -2.0074  -2.0038  -1.8440  -1.5992  -1.5336  -1.2394  -1.2179
    -1.1557  -1.1456  -1.0080  -0.8874  -0.1741  -0.0798  -0.0706  -0.0051
     0.3023   0.3653   0.3921   0.4771   0.5023   0.5384   0.6666   0.6793
     0.8364   0.8382   0.8820   1.0014   1.0304   1.0415   1.0854   1.1467
     1.1522   1.2431   1.2904   1.3338   1.3910   1.4330   1.4482   1.5223
     1.5313   1.6958   1.7060   1.7799   1.9523   2.0602   2.2440   2.2605
     2.5263   2.5708   2.8553   3.8846   4.0540   4.1338   4.1413   4.3639
     4.4726   4.5518   4.6154   4.7308   4.7679   4.8291   4.9278   4.9543
     4.9632   4.9933   5.0039   5.0139   5.1036

          k =-0.5000 0.2445 0.0000 ( 81810 PWs)   bands (ev):

   -73.2087 -72.6838 -72.6650 -72.4743 -72.4736 -72.3675 -72.3602 -72.3075
   -72.2492 -72.2156 -71.9796 -71.9590 -43.7144 -43.0564 -42.8914 -42.7886
   -42.7444 -42.7272 -42.7188 -42.6400 -42.6397 -42.5811 -42.5777 -42.5688
   -42.5422 -42.5212 -42.5096 -42.4949 -42.4340 -42.4328 -42.3549 -42.3284
   -42.3266 -42.3253 -42.2622 -42.2513 -42.2412 -42.2346 -42.2105 -42.1887
   -42.1722 -42.1187 -42.0596 -42.0425 -41.9686 -41.9655 -41.8303 -41.7992
   -18.5825 -18.3726 -18.1611 -18.1391 -18.1200 -17.9987 -17.9533 -17.9458
   -17.8391 -17.7029 -17.6911 -17.5694 -17.5538 -17.4766 -17.4681 -17.4344
   -17.4183 -17.4066 -17.3961 -17.1577 -17.0315 -16.7637 -16.7018 -16.1677
   -16.1570  -6.4998  -6.3264  -6.3030  -6.2809  -6.2672  -6.2068  -6.1971
    -6.1663  -6.1127  -6.0202  -5.8045  -5.7782  -5.7251  -5.6434  -5.5851
    -5.5790  -5.4976  -5.4805  -5.3635  -5.2883  -5.0462  -4.9308  -4.7876
    -4.7193  -4.6748  -4.6521  -4.5620  -4.5090  -4.4314  -4.4145  -4.3996
    -4.3617  -4.2939  -4.2266  -4.1657  -4.0632  -4.0030  -3.9511  -3.8487
    -3.8064  -3.5517  -3.4780  -3.3638  -3.2979  -3.2287  -3.1677  -3.1313
    -3.0211  -2.9633  -2.9583  -2.8836  -2.8717  -2.8516  -2.8348  -2.8192
    -2.6965  -2.4981  -2.4293  -2.3089  -2.2367  -2.2306  -2.1658  -2.1020
    -2.0705  -1.9692  -1.8836  -1.8640  -1.6235  -1.5705  -1.2192  -1.1698
    -1.1492  -1.1180  -1.0360  -0.9425  -0.2169  -0.1707   0.1234   0.2093
     0.2774   0.4263   0.4327   0.5661   0.5785   0.7049   0.7965   0.8295
     0.9145   0.9660   0.9780   1.0381   1.0493   1.1076   1.1092   1.1487
     1.2052   1.2965   1.3128   1.3325   1.3646   1.5124   1.5951   1.6070
     1.6548   1.6783   1.7309   1.7807   1.8777   1.9348   2.0917   2.1183
     2.6564   2.6890   2.9842   3.6556   3.9250   4.0847   4.1241   4.2091
     4.2696   4.3062   4.3113   4.4822   4.5002   4.6240   4.7808   4.9365
     4.9882   5.2454   5.3372   5.4615   5.5489

          k =-0.5000-0.4891 0.0000 ( 81784 PWs)   bands (ev):

   -73.2087 -72.6838 -72.6650 -72.4743 -72.4736 -72.3675 -72.3602 -72.3075
   -72.2492 -72.2156 -71.9796 -71.9590 -43.7144 -43.0569 -42.8899 -42.7885
   -42.7442 -42.7275 -42.7198 -42.6398 -42.6395 -42.5810 -42.5776 -42.5687
   -42.5421 -42.5212 -42.5096 -42.4950 -42.4341 -42.4329 -42.3550 -42.3284
   -42.3266 -42.3252 -42.2614 -42.2510 -42.2412 -42.2346 -42.2100 -42.1887
   -42.1722 -42.1195 -42.0602 -42.0430 -41.9683 -41.9651 -41.8308 -41.7997
   -18.5453 -18.2934 -18.0852 -18.0351 -17.9762 -17.8722 -17.8630 -17.8373
   -17.8360 -17.7078 -17.6920 -17.6856 -17.6716 -17.6612 -17.6264 -17.5567
   -17.5338 -17.4531 -17.4509 -17.1493 -17.0272 -16.7622 -16.7052 -16.1672
   -16.1566  -6.4513  -6.2757  -6.1619  -6.0429  -5.8560  -5.7934  -5.7900
    -5.7569  -5.7303  -5.7204  -5.7179  -5.6755  -5.5927  -5.5542  -5.5020
    -5.4033  -5.3706  -5.2865  -5.1993  -5.1890  -5.1515  -5.0744  -5.0126
    -4.9841  -4.9489  -4.9433  -4.8864  -4.8636  -4.7190  -4.6142  -4.4620
    -4.4352  -4.3260  -4.2747  -4.1821  -4.1084  -3.9369  -3.8335  -3.8325
    -3.7125  -3.7078  -3.6274  -3.5949  -3.5646  -3.5019  -3.4694  -3.4570
    -3.4192  -3.3659  -3.3230  -3.2339  -3.2107  -3.0908  -3.0570  -2.7444
    -2.7383  -2.5940  -2.3857  -2.3244  -2.1478  -2.0618  -1.9328  -1.8675
    -1.8380  -1.8029  -1.7156  -1.5998  -1.5486  -1.4067  -1.2798  -1.2697
    -1.2327  -1.1174  -1.0331  -1.0127  -0.1209  -0.0650   0.1078   0.1161
     0.3606   0.3646   0.4147   0.4428   0.4959   0.6005   0.6754   0.9702
     0.9931   1.0560   1.1265   1.1709   1.2046   1.2738   1.2778   1.2912
     1.3189   1.3923   1.4268   1.4485   1.4545   1.5685   1.6407   1.6698
     1.7047   1.7065   1.7675   1.8107   1.8902   1.9305   1.9745   2.0067
     2.7580   2.7793   3.1071   3.2352   3.7680   3.8156   3.8748   3.9116
     3.9151   3.9887   4.1696   4.4846   4.5202   4.6263   4.7951   5.0552
     5.1748   5.3860   5.6635   5.7026   5.7099

     the Fermi energy is     1.2721 ev

!    total energy              =   -3302.93162355 Ry
     estimated scf accuracy    <          8.4E-09 Ry
     smearing contrib. (-TS)   =       0.00101536 Ry
     internal energy E=F+TS    =   -3302.93263891 Ry

     The total energy is F=E-TS. E is the sum of the following terms:
     one-electron contribution =  -33491.43214450 Ry
     hartree contribution      =   16788.16821504 Ry
     xc contribution           =    -420.93026210 Ry
     ewald contribution        =   14059.28937247 Ry
     one-center paw contrib.   =    -238.02781982 Ry

     convergence has been achieved in   9 iterations

     negative rho (up, down):  2.135E-04 0.000E+00

     Forces acting on atoms (cartesian axes, Ry/au):

     atom    1 type  1   force =    -0.00010937    0.00000000    0.06856938
     atom    2 type  1   force =    -0.00100035    0.00000000   -0.08922736
     atom    3 type  1   force =    -0.00026420    0.00000000    0.00009646
     atom    4 type  1   force =     0.00066499    0.00000000    0.00282286
     atom    5 type  1   force =     0.00053863    0.00000000    0.00243972
     atom    6 type  1   force =    -0.00144906    0.00000000    0.00010113
     atom    7 type  2   force =    -0.00050825    0.00000000    0.02266222
     atom    8 type  2   force =     0.00005293    0.00000000    0.06152162
     atom    9 type  2   force =    -0.00019074    0.02376666   -0.02433471
     atom   10 type  2   force =    -0.00019074   -0.02376666   -0.02433471
     atom   11 type  2   force =     0.00080999    0.00000000    0.00321191
     atom   12 type  2   force =    -0.00090223    0.00000000   -0.02023132
     atom   13 type  2   force =    -0.00060224    0.00015045    0.00006188
     atom   14 type  2   force =    -0.00060224   -0.00015045    0.00006188
     atom   15 type  2   force =     0.00127684    0.00000000    0.00203591
     atom   16 type  2   force =    -0.00041822    0.00000000    0.00065956
     atom   17 type  2   force =    -0.00169781   -0.00120186    0.00060791
     atom   18 type  2   force =    -0.00169781    0.00120186    0.00060791
     atom   19 type  1   force =     0.00018383    0.00000000    0.06014561
     atom   20 type  1   force =     0.00099712    0.00000000   -0.08892000
     atom   21 type  1   force =     0.00024712    0.00000000   -0.00123060
     atom   22 type  1   force =    -0.00071998    0.00000000   -0.00077440
     atom   23 type  1   force =     0.00109240    0.00000000    0.00117481
     atom   24 type  1   force =     0.00017184    0.00000000    0.00165620
     atom   25 type  2   force =     0.00051839    0.00000000    0.02969159
     atom   26 type  2   force =    -0.00009828    0.00000000    0.06387502
     atom   27 type  2   force =     0.00019397    0.02390411   -0.02434639
     atom   28 type  2   force =     0.00019397   -0.02390411   -0.02434639
     atom   29 type  2   force =    -0.00025998    0.00000000   -0.00224282
     atom   30 type  2   force =     0.00056788    0.00000000   -0.02105679
     atom   31 type  2   force =     0.00022410   -0.00050776   -0.00079158
     atom   32 type  2   force =     0.00022410    0.00050776   -0.00079158
     atom   33 type  2   force =     0.00075036    0.00000000   -0.00082909
     atom   34 type  2   force =     0.00107207    0.00000000   -0.00095959
     atom   35 type  2   force =     0.00120052   -0.00007093    0.00115656
     atom   36 type  2   force =     0.00120052    0.00007093    0.00115656
     atom   37 type  2   force =    -0.00147006    0.00000000    0.00010065

     Total force =     0.008393     Total SCF correction =     0.000400
     Energy error            =      1.5E-04 Ry
     Gradient error          =      3.2E-03 Ry/Bohr

     number of scf cycles    =   8
     number of bfgs steps    =   7

     energy             old  =   -3302.9314756783 Ry
     energy             new  =   -3302.9316235500 Ry

     CASE: energy            _new < energy            _old

     new trust radius        =       0.0111878548 bohr
     new conv_thr            =       0.0000000148 Ry


ATOMIC_POSITIONS (angstrom)
Ru               0.0000000000        1.5881618300        9.5289709800    0   0   0
Ru               1.5535000000        4.7644854900        9.5289709800    0   0   0
Ru               0.0003696848        4.7644855800       12.7281567855
Ru               1.5778413288        1.5881617100       12.6885155088
Ru              -0.0018767158        1.5881614900       15.7407835060
Ru               1.5207609551        4.7644852600       15.9999253838
O                0.0000000000        4.7644854900       10.7677372100    0   0   0
O                0.0000000000        4.7644854900        8.2902047600    0   0   0
O                1.5535000000        0.3493956000        9.5289709800    0   0   0
O                1.5535000000        2.8269280600        9.5289709800    0   0   0
O               -0.0003772151        1.5881613800       13.8830549052
O                0.0000000000        1.5881618300       11.4665284200    0   0   0
O                1.5582108899        3.5321560228       12.7134700930
O                1.5582107099        5.9968149972       12.7134701130
O               -0.0051243873        4.7644855000       17.1795378017
O                0.0017971861        4.7644854500       14.6664306032
O                1.5352801182        0.3810234170       15.9278775892
O                1.5352801082        2.7952997030       15.9278775292
Ru               3.1070000000        1.5881618300        9.5289709800    0   0   0
Ru               4.6605000000        4.7644854900        9.5289709800    0   0   0
Ru               3.1057309653        4.7644854900       12.7440050069
Ru               4.6348085006        1.5881618300       12.6935114500
Ru               3.1077636113        1.5881618300       16.1362901591
Ru               4.6844380868        4.7644854900       15.9862231746
O                3.1070000000        4.7644854900       10.7677372100    0   0   0
O                3.1070000000        4.7644854900        8.2902047600    0   0   0
O                4.6605000000        0.3493956000        9.5289709800    0   0   0
O                4.6605000000        2.8269280600        9.5289709800    0   0   0
O                3.1065434354        1.5881618300       13.9880158748
O                3.1070000000        1.5881618300       11.4665284200    0   0   0
O                4.6548870939        3.5339363562       12.7209495360
O                4.6548870939        5.9950346238       12.7209495360
O                3.1052895971        4.7644854900       17.0169107730
O                3.0988314624        4.7644854900       14.6785829460
O                4.6775813055        0.3750585516       15.9058681914
O                4.6775813055        2.8012651084       15.9058681914
O                3.1391262671        1.5881618300       17.8377022196



     Writing config-only to output data dir ./tmp_ref__2x1o_mir/ref__2x1o_mir.save/ :
     XML data file
     NEW-OLD atomic charge density approx. for the potential

     negative rho (up, down):  2.132E-04 0.000E+00

     total cpu time spent up to now is     2283.4 secs

     per-process dynamical memory:   363.1 Mb

     Self-consistent Calculation

     iteration #  1     ecut=    80.00 Ry     beta= 0.30
     Davidson diagonalization with overlap
     ethr =  1.00E-06,  avg # of iterations =  3.0

     Threshold (ethr) on eigenvalues was too large:
     Diagonalizing with lowered threshold

     Davidson diagonalization with overlap
     ethr =  3.56E-08,  avg # of iterations =  2.7

     negative rho (up, down):  2.073E-04 0.000E+00

     total cpu time spent up to now is     2335.1 secs

     total energy              =   -3302.93172155 Ry
     estimated scf accuracy    <       0.00012289 Ry

     iteration #  2     ecut=    80.00 Ry     beta= 0.30
     Davidson diagonalization with overlap
     ethr =  3.59E-08,  avg # of iterations =  1.0

     negative rho (up, down):  2.058E-04 0.000E+00

     total cpu time spent up to now is     2353.0 secs

     total energy              =   -3302.93172652 Ry
     estimated scf accuracy    <       0.00004379 Ry

     iteration #  3     ecut=    80.00 Ry     beta= 0.30
     Davidson diagonalization with overlap
     ethr =  1.28E-08,  avg # of iterations =  1.1

     negative rho (up, down):  2.014E-04 0.000E+00

     total cpu time spent up to now is     2371.3 secs

     total energy              =   -3302.93172581 Ry
     estimated scf accuracy    <       0.00001803 Ry

     iteration #  4     ecut=    80.00 Ry     beta= 0.30
     Davidson diagonalization with overlap
     ethr =  5.27E-09,  avg # of iterations =  1.3

     negative rho (up, down):  1.949E-04 0.000E+00

     total cpu time spent up to now is     2390.0 secs

     total energy              =   -3302.93172463 Ry
     estimated scf accuracy    <       0.00000662 Ry

     iteration #  5     ecut=    80.00 Ry     beta= 0.30
     Davidson diagonalization with overlap
     ethr =  1.94E-09,  avg # of iterations =  2.0

     negative rho (up, down):  1.934E-04 0.000E+00

     total cpu time spent up to now is     2410.9 secs

     total energy              =   -3302.93172510 Ry
     estimated scf accuracy    <       0.00000136 Ry

     iteration #  6     ecut=    80.00 Ry     beta= 0.30
     Davidson diagonalization with overlap
     ethr =  3.98E-10,  avg # of iterations =  3.7

     negative rho (up, down):  1.925E-04 0.000E+00

     total cpu time spent up to now is     2432.1 secs

     total energy              =   -3302.93172516 Ry
     estimated scf accuracy    <       0.00000026 Ry

     iteration #  7     ecut=    80.00 Ry     beta= 0.30
     Davidson diagonalization with overlap
     ethr =  7.57E-11,  avg # of iterations =  4.1

     negative rho (up, down):  1.918E-04 0.000E+00

     total cpu time spent up to now is     2453.6 secs

     total energy              =   -3302.93172516 Ry
     estimated scf accuracy    <       0.00000016 Ry

     iteration #  8     ecut=    80.00 Ry     beta= 0.30
     Davidson diagonalization with overlap
     ethr =  4.67E-11,  avg # of iterations =  1.0

     negative rho (up, down):  1.917E-04 0.000E+00

     total cpu time spent up to now is     2471.5 secs

     total energy              =   -3302.93172516 Ry
     estimated scf accuracy    <       0.00000009 Ry

     iteration #  9     ecut=    80.00 Ry     beta= 0.30
     Davidson diagonalization with overlap
     ethr =  2.61E-11,  avg # of iterations =  1.2

     negative rho (up, down):  1.922E-04 0.000E+00

     total cpu time spent up to now is     2490.3 secs

     total energy              =   -3302.93172516 Ry
     estimated scf accuracy    <       0.00000003 Ry

     iteration # 10     ecut=    80.00 Ry     beta= 0.30
     Davidson diagonalization with overlap
     ethr =  9.64E-12,  avg # of iterations =  1.1

     negative rho (up, down):  1.934E-04 0.000E+00

     total cpu time spent up to now is     2508.8 secs

     total energy              =   -3302.93172516 Ry
     estimated scf accuracy    <       0.00000002 Ry

     iteration # 11     ecut=    80.00 Ry     beta= 0.30
     Davidson diagonalization with overlap
     ethr =  4.42E-12,  avg # of iterations =  1.1

     negative rho (up, down):  2.135E-04 0.000E+00

     total cpu time spent up to now is     2526.5 secs

     End of self-consistent calculation

          k = 0.0000 0.0000 0.0000 ( 81707 PWs)   bands (ev):

   -73.2098 -72.6876 -72.6660 -72.4782 -72.4678 -72.3689 -72.3576 -72.3073
   -72.2477 -72.2129 -71.9808 -71.9574 -43.7173 -43.0648 -42.8946 -42.8672
   -42.7287 -42.7172 -42.6724 -42.6457 -42.6318 -42.5839 -42.5820 -42.5667
   -42.5482 -42.5270 -42.5105 -42.5050 -42.4964 -42.4211 -42.3453 -42.3391
   -42.3320 -42.3083 -42.2674 -42.2617 -42.2349 -42.1994 -42.1920 -42.1717
   -42.1403 -42.1201 -42.0586 -42.0551 -42.0388 -41.8742 -41.8357 -41.7923
   -18.9744 -18.6300 -18.5048 -18.3881 -18.0050 -17.9793 -17.8635 -17.7597
   -17.7518 -17.7121 -17.6955 -17.6394 -17.6346 -17.6016 -17.5410 -17.3286
   -17.1352 -17.1305 -17.0965 -17.0189 -17.0142 -16.6880 -16.5860 -16.1007
   -16.0620  -7.2419  -7.1871  -7.1646  -6.9108  -6.3205  -6.3114  -6.0550
    -5.8739  -5.8708  -5.8517  -5.8206  -5.7066  -5.6493  -5.6383  -5.6221
    -5.5943  -5.5565  -5.4684  -5.4373  -5.4361  -5.4334  -5.4129  -5.2322
    -5.0763  -5.0757  -5.0562  -4.9734  -4.8785  -4.6108  -4.5329  -4.2041
    -4.0698  -3.8809  -3.6729  -3.6163  -3.6160  -3.6039  -3.5631  -3.4399
    -3.3857  -3.2942  -3.1533  -3.1514  -3.0406  -2.9782  -2.8718  -2.8475
    -2.8060  -2.7226  -2.6580  -2.6207  -2.6126  -2.4410  -2.4195  -2.4130
    -2.3398  -2.3141  -2.1789  -2.1631  -2.0756  -2.0534  -1.9356  -1.8404
    -1.8053  -1.7772  -1.5830  -1.5284  -1.4516  -1.3920  -1.3088  -1.1693
    -1.1029  -0.8761  -0.7443  -0.6976  -0.4160  -0.3959  -0.2198  -0.1660
    -0.1438  -0.0741   0.1168   0.1801   0.1923   0.2458   0.2828   0.3583
     0.5088   0.5477   0.6182   0.6277   0.6353   0.7050   0.8034   0.8444
     0.9662   1.0056   1.0567   1.0682   1.1914   1.3020   1.4630   1.7054
     1.7371   1.9093   2.0136   2.0683   2.1799   2.2532   2.3345   2.3354
     2.4826   2.7018   2.7895   3.2010   3.7108   3.7971   4.1741   4.2560
     4.3274   4.4475   4.5335   4.5774   4.7753   4.8217   4.9619   5.3361
     5.4860   5.5433   5.6819   5.6993   5.8012

          k = 0.0000 0.2445 0.0000 ( 81832 PWs)   bands (ev):

   -73.2098 -72.6876 -72.6660 -72.4782 -72.4678 -72.3689 -72.3576 -72.3073
   -72.2477 -72.2129 -71.9808 -71.9574 -43.7173 -43.0654 -42.8941 -42.8658
   -42.7301 -42.7170 -42.6724 -42.6447 -42.6326 -42.5826 -42.5818 -42.5685
   -42.5482 -42.5271 -42.5105 -42.5050 -42.4965 -42.4214 -42.3452 -42.3391
   -42.3302 -42.3082 -42.2673 -42.2618 -42.2345 -42.1992 -42.1920 -42.1717
   -42.1406 -42.1215 -42.0577 -42.0553 -42.0394 -41.8742 -41.8367 -41.7923
   -18.8964 -18.5102 -18.4397 -18.3036 -18.0211 -17.9710 -17.8896 -17.8872
   -17.8825 -17.8451 -17.7769 -17.7038 -17.4810 -17.3975 -17.3677 -17.3406
   -17.2646 -17.2432 -17.1944 -17.1160 -17.0140 -16.6839 -16.5886 -16.1001
   -16.0592  -6.9399  -6.8024  -6.7204  -6.6964  -6.3127  -6.2846  -6.1446
    -6.1141  -6.0279  -5.9220  -5.8004  -5.7959  -5.6450  -5.6004  -5.5988
    -5.5802  -5.5682  -5.5170  -5.4741  -5.4547  -5.3670  -5.2298  -5.2276
    -5.1780  -5.1053  -4.7946  -4.7031  -4.4625  -4.3574  -4.2423  -4.0790
    -3.9965  -3.9526  -3.8581  -3.8452  -3.7513  -3.7355  -3.6594  -3.5936
    -3.5731  -3.5253  -3.3408  -3.2357  -3.1879  -3.0405  -3.0367  -2.8682
    -2.8382  -2.7717  -2.7264  -2.6940  -2.6701  -2.5956  -2.5690  -2.4922
    -2.3660  -2.3546  -2.3128  -2.2548  -2.1983  -2.1247  -2.0619  -1.9426
    -1.8525  -1.7963  -1.7821  -1.6412  -1.5762  -1.5119  -1.3807  -1.3231
    -1.1364  -1.0441  -0.9445  -0.8045  -0.1046  -0.0360   0.0181   0.0658
     0.0891   0.1025   0.1890   0.2833   0.3796   0.4063   0.4239   0.4514
     0.4686   0.5358   0.5383   0.5505   0.5748   0.6401   0.6514   0.6576
     0.8259   0.9297   1.0472   1.1441   1.1679   1.3575   1.7784   1.8137
     1.9103   2.0387   2.0489   2.1329   2.1568   2.2637   2.3061   2.3770
     2.4653   2.5857   2.9115   3.1350   3.2470   3.5194   3.6548   3.9663
     4.2570   4.3523   4.8176   5.0323   5.1549   5.3198   5.4768   5.5054
     5.5540   5.6029   5.6342   5.6847   5.7651

          k = 0.0000-0.4891 0.0000 ( 81886 PWs)   bands (ev):

   -73.2098 -72.6876 -72.6660 -72.4781 -72.4678 -72.3689 -72.3576 -72.3073
   -72.2477 -72.2129 -71.9808 -71.9574 -43.7173 -43.0660 -42.8936 -42.8643
   -42.7315 -42.7168 -42.6724 -42.6437 -42.6334 -42.5822 -42.5808 -42.5700
   -42.5482 -42.5271 -42.5105 -42.5050 -42.4965 -42.4216 -42.3452 -42.3391
   -42.3284 -42.3080 -42.2672 -42.2618 -42.2342 -42.1991 -42.1920 -42.1717
   -42.1408 -42.1228 -42.0568 -42.0554 -42.0399 -41.8742 -41.8376 -41.7923
   -18.8090 -18.4185 -18.2666 -18.1622 -18.0716 -17.9803 -17.9755 -17.9588
   -17.9364 -17.8960 -17.8456 -17.7181 -17.4231 -17.4157 -17.4023 -17.3993
   -17.3017 -17.2978 -17.2703 -17.1209 -17.0110 -16.6806 -16.5925 -16.0995
   -16.0571  -6.9291  -6.3569  -6.3463  -6.3097  -6.2602  -6.1281  -6.1245
    -6.0031  -5.9873  -5.9111  -5.7220  -5.7132  -5.6468  -5.5919  -5.5665
    -5.5367  -5.4962  -5.4789  -5.4642  -5.3846  -5.3006  -5.2502  -5.2214
    -5.1069  -4.9008  -4.8142  -4.8023  -4.5085  -4.4545  -4.4183  -4.2633
    -4.2313  -4.2078  -4.0626  -3.9587  -3.9042  -3.8104  -3.7028  -3.5810
    -3.5617  -3.4248  -3.3884  -3.3614  -3.2107  -3.1895  -3.1322  -3.1053
    -3.0738  -3.0352  -2.9813  -2.8432  -2.7577  -2.5899  -2.5870  -2.4552
    -2.4504  -2.4214  -2.2993  -2.2359  -2.1123  -2.0960  -1.9173  -1.8371
    -1.7745  -1.7530  -1.7274  -1.6876  -1.6380  -1.4758  -1.4555  -1.3712
    -1.2627  -1.1717  -1.0144  -0.9514  -0.5349  -0.2742  -0.2158  -0.0958
    -0.0260   0.1903   0.2049   0.2644   0.4768   0.5051   0.5290   0.6037
     0.6089   0.6621   0.7294   0.7998   0.8156   0.8396   0.8652   0.8670
     0.8756   0.9781   1.1236   1.1609   1.2136   1.2813   1.6071   1.7244
     1.8101   1.9268   2.1335   2.1455   2.1563   2.3763   2.4047   2.4614
     2.4852   2.6728   2.7513   3.0697   3.1383   3.2677   3.2798   4.2344
     4.2608   4.3451   5.0677   5.1845   5.2383   5.2764   5.3289   5.3289
     5.5167   5.6657   5.7330   5.8232   5.8673

          k = 0.2500 0.0000 0.0000 ( 81703 PWs)   bands (ev):

   -73.2098 -72.6869 -72.6667 -72.4767 -72.4693 -72.3675 -72.3590 -72.3071
   -72.2480 -72.2129 -71.9802 -71.9580 -43.7173 -43.0609 -42.8943 -42.8407
   -42.7283 -42.7178 -42.6998 -42.6436 -42.6338 -42.5819 -42.5804 -42.5687
   -42.5458 -42.5199 -42.5105 -42.4943 -42.4907 -42.3982 -42.3711 -42.3350
   -42.3173 -42.3023 -42.2843 -42.2560 -42.2404 -42.2150 -42.1896 -42.1718
   -42.1661 -42.1186 -42.0567 -42.0389 -42.0320 -41.9015 -41.8328 -41.7952
   -18.8508 -18.5130 -18.4107 -18.2877 -18.1240 -17.9450 -17.8812 -17.8707
   -17.7856 -17.7585 -17.6891 -17.6357 -17.5683 -17.5308 -17.4673 -17.3419
   -17.2075 -17.1736 -17.1527 -17.0948 -17.0532 -16.7072 -16.6519 -16.1377
   -16.1049  -7.0797  -7.0121  -6.9866  -6.7318  -6.3470  -6.2435  -6.1067
    -6.0146  -5.9549  -5.8948  -5.8735  -5.7931  -5.7526  -5.7485  -5.6610
    -5.5846  -5.5532  -5.5432  -5.4078  -5.3831  -5.3084  -5.1930  -5.1194
    -4.9692  -4.9444  -4.7761  -4.7395  -4.6416  -4.5323  -4.3299  -4.2594
    -4.1448  -4.1139  -3.9976  -3.9099  -3.6272  -3.4556  -3.4445  -3.3426
    -3.3197  -3.3148  -3.2205  -3.1757  -3.1636  -3.0888  -3.0360  -2.9418
    -2.9373  -2.8877  -2.7969  -2.7401  -2.7240  -2.6453  -2.5823  -2.4432
    -2.3837  -2.3772  -2.3089  -2.2114  -2.1919  -2.1411  -2.0280  -1.9940
    -1.9435  -1.9361  -1.8503  -1.7522  -1.5845  -1.4605  -1.4083  -1.2845
    -1.1692  -1.0013  -0.9144  -0.7258  -0.2359  -0.2213   0.0180   0.0199
     0.1115   0.1836   0.3166   0.3540   0.3624   0.4072   0.4798   0.5583
     0.5919   0.5938   0.6775   0.7112   0.7289   0.8104   0.9197   0.9931
     1.0499   1.1386   1.2535   1.3084   1.3101   1.5092   1.5629   1.5715
     1.6079   1.7756   1.7792   1.9306   2.0885   2.1588   2.3409   2.3670
     2.4534   2.6448   2.7687   3.4149   3.8415   3.9267   4.2447   4.2990
     4.4559   4.4671   4.5643   4.6552   4.7983   4.8759   4.9630   5.0484
     5.1171   5.3741   5.3762   5.4801   5.5367

          k = 0.2500 0.2445 0.0000 ( 81774 PWs)   bands (ev):

   -73.2098 -72.6869 -72.6667 -72.4766 -72.4693 -72.3675 -72.3590 -72.3071
   -72.2480 -72.2129 -71.9802 -71.9580 -43.7173 -43.0615 -42.8931 -42.8402
   -42.7289 -42.7183 -42.6997 -42.6429 -42.6343 -42.5810 -42.5802 -42.5697
   -42.5458 -42.5199 -42.5105 -42.4944 -42.4908 -42.3985 -42.3711 -42.3350
   -42.3170 -42.3011 -42.2843 -42.2560 -42.2399 -42.2150 -42.1896 -42.1718
   -42.1661 -42.1196 -42.0571 -42.0395 -42.0312 -41.9015 -41.8336 -41.7954
   -18.7813 -18.3976 -18.3526 -18.1985 -18.1046 -17.9507 -17.8998 -17.8948
   -17.8374 -17.7994 -17.7160 -17.6906 -17.5484 -17.4638 -17.4117 -17.3558
   -17.3271 -17.3072 -17.2636 -17.1372 -17.0464 -16.7031 -16.6559 -16.1378
   -16.1027  -6.7764  -6.6546  -6.5615  -6.5444  -6.3322  -6.1744  -6.0671
    -6.0192  -5.9597  -5.8677  -5.8165  -5.7811  -5.7145  -5.6469  -5.6392
    -5.5903  -5.5369  -5.4991  -5.4656  -5.3995  -5.3287  -5.1968  -5.0834
    -4.9545  -4.8935  -4.6629  -4.6478  -4.5782  -4.4303  -4.3788  -4.2525
    -4.1720  -4.0654  -3.9982  -3.9824  -3.7790  -3.7299  -3.6155  -3.5501
    -3.4499  -3.3932  -3.3534  -3.2856  -3.2662  -3.2455  -3.1502  -3.1193
    -3.0832  -3.0430  -2.9681  -2.8467  -2.8198  -2.7673  -2.6884  -2.6420
    -2.5977  -2.4867  -2.3705  -2.2730  -2.1990  -2.1547  -2.0958  -2.0166
    -1.9609  -1.8996  -1.8194  -1.6737  -1.6266  -1.5479  -1.3640  -1.2617
    -1.0593  -1.0207  -0.9968  -0.8566  -0.1516  -0.0323   0.0480   0.1070
     0.1630   0.2574   0.3210   0.3756   0.4504   0.5273   0.5788   0.6006
     0.6638   0.6902   0.7347   0.7779   0.8134   0.8770   0.8821   0.9512
     0.9937   1.1104   1.2344   1.3401   1.3510   1.4966   1.6172   1.7079
     1.7939   1.8811   1.9021   2.0001   2.0491   2.0908   2.1244   2.3862
     2.5307   2.6213   2.9353   3.2743   3.4854   3.7114   3.8267   4.0561
     4.3171   4.3816   4.6384   4.9011   4.9570   5.0332   5.0542   5.2723
     5.3022   5.3666   5.3914   5.5706   5.6396

          k = 0.2500-0.4891 0.0000 ( 81830 PWs)   bands (ev):

   -73.2098 -72.6869 -72.6667 -72.4766 -72.4693 -72.3675 -72.3590 -72.3071
   -72.2480 -72.2129 -71.9802 -71.9580 -43.7173 -43.0620 -42.8918 -42.8396
   -42.7299 -42.7186 -42.6997 -42.6422 -42.6348 -42.5806 -42.5796 -42.5706
   -42.5457 -42.5199 -42.5104 -42.4944 -42.4909 -42.3987 -42.3711 -42.3350
   -42.3168 -42.2999 -42.2843 -42.2561 -42.2395 -42.2149 -42.1896 -42.1718
   -42.1661 -42.1207 -42.0574 -42.0401 -42.0305 -41.9014 -41.8344 -41.7956
   -18.7060 -18.3078 -18.1789 -18.1012 -18.0403 -17.9761 -17.9460 -17.9124
   -17.8474 -17.8233 -17.8186 -17.7277 -17.5388 -17.4865 -17.4799 -17.4336
   -17.4131 -17.3732 -17.3346 -17.1343 -17.0421 -16.6987 -16.6618 -16.1379
   -16.1010  -6.7554  -6.3549  -6.1610  -6.0634  -6.0545  -5.9043  -5.8534
    -5.8531  -5.8211  -5.7751  -5.7478  -5.6993  -5.6943  -5.6402  -5.6198
    -5.6193  -5.5653  -5.5598  -5.5298  -5.4833  -5.4375  -5.1222  -4.9725
    -4.9238  -4.7488  -4.6879  -4.6538  -4.4647  -4.4126  -4.3906  -4.3364
    -4.2199  -4.1607  -4.1420  -4.1063  -4.0673  -4.0181  -3.9148  -3.8980
    -3.8149  -3.7129  -3.5612  -3.4349  -3.4014  -3.3266  -3.3076  -3.2782
    -3.2211  -3.1425  -3.1311  -3.0514  -2.9137  -2.7597  -2.7268  -2.7063
    -2.7004  -2.5014  -2.3513  -2.2719  -2.2390  -2.1245  -1.9540  -1.9387
    -1.8743  -1.7662  -1.7317  -1.5500  -1.5149  -1.3467  -1.3026  -1.2406
    -1.2109  -1.1860  -0.9905  -0.9479  -0.3379  -0.2502  -0.1533   0.0493
     0.1508   0.2291   0.3769   0.4317   0.5068   0.5539   0.5880   0.6298
     0.7822   0.8011   0.8696   0.9455   1.0073   1.0302   1.0849   1.1480
     1.1517   1.2223   1.2878   1.3205   1.3927   1.5373   1.6033   1.6508
     1.6637   1.8173   1.9943   2.0182   2.0237   2.1635   2.2010   2.2602
     2.6391   2.7701   2.8843   3.0768   3.2827   3.3904   3.5046   4.2677
     4.3161   4.3720   4.5700   4.6896   4.7898   4.9857   5.0993   5.3278
     5.3614   5.4494   5.5929   5.6928   5.9323

          k =-0.5000 0.0000 0.0000 ( 81894 PWs)   bands (ev):

   -73.2098 -72.6861 -72.6675 -72.4734 -72.4726 -72.3652 -72.3612 -72.3068
   -72.2482 -72.2129 -71.9796 -71.9587 -43.7173 -43.0570 -42.8940 -42.7920
   -42.7494 -42.7279 -42.7184 -42.6388 -42.6386 -42.5789 -42.5787 -42.5717
   -42.5434 -42.5212 -42.5098 -42.4927 -42.4334 -42.4322 -42.3523 -42.3257
   -42.3252 -42.3244 -42.2610 -42.2489 -42.2392 -42.2357 -42.2107 -42.1886
   -42.1719 -42.1169 -42.0584 -42.0390 -41.9691 -41.9652 -41.8294 -41.7986
   -18.6091 -18.4375 -18.2301 -18.2230 -18.1866 -18.0521 -18.0293 -18.0077
   -17.8150 -17.7128 -17.6649 -17.5132 -17.5031 -17.4078 -17.3790 -17.3570
   -17.3497 -17.2881 -17.2798 -17.1790 -17.0301 -16.7570 -16.7091 -16.1685
   -16.1565  -6.7001  -6.6122  -6.5780  -6.5645  -6.5223  -6.5162  -6.3639
    -6.2553  -6.1340  -6.0196  -5.9040  -5.8043  -5.7972  -5.7521  -5.7283
    -5.7227  -5.4736  -5.4140  -5.3976  -5.3825  -4.9780  -4.9426  -4.9345
    -4.8247  -4.6401  -4.5437  -4.4300  -4.3890  -4.3745  -4.2992  -4.1938
    -4.1937  -4.0869  -3.9955  -3.9297  -3.9258  -3.8340  -3.8189  -3.6689
    -3.6035  -3.5725  -3.4448  -3.2026  -3.1414  -3.0620  -3.0550  -3.0097
    -2.9413  -2.9404  -2.9301  -2.8357  -2.7296  -2.7141  -2.7128  -2.6558
    -2.4989  -2.4295  -2.3271  -2.3267  -2.2920  -2.1558  -2.1492  -2.1394
    -2.1151  -2.0063  -2.0046  -1.8418  -1.6016  -1.5350  -1.2368  -1.2197
    -1.1545  -1.1452  -1.0062  -0.8886  -0.1738  -0.0773  -0.0681  -0.0048
     0.3059   0.3649   0.3980   0.4806   0.4991   0.5386   0.6673   0.6789
     0.8336   0.8380   0.8833   0.9998   1.0306   1.0411   1.0886   1.1462
     1.1480   1.2418   1.2932   1.3372   1.3906   1.4347   1.4465   1.5205
     1.5320   1.6969   1.7158   1.7801   1.9528   2.0594   2.2449   2.2601
     2.5257   2.5727   2.8570   3.8786   4.0514   4.1383   4.1399   4.3677
     4.4725   4.5491   4.6097   4.7296   4.7663   4.8338   4.9240   4.9547
     4.9637   5.0003   5.0017   5.0146   5.1053

          k =-0.5000 0.2445 0.0000 ( 81810 PWs)   bands (ev):

   -73.2098 -72.6861 -72.6675 -72.4734 -72.4726 -72.3652 -72.3612 -72.3068
   -72.2482 -72.2129 -71.9796 -71.9587 -43.7173 -43.0575 -42.8925 -42.7919
   -42.7492 -42.7273 -42.7201 -42.6387 -42.6385 -42.5790 -42.5784 -42.5716
   -42.5434 -42.5212 -42.5097 -42.4928 -42.4335 -42.4323 -42.3525 -42.3257
   -42.3253 -42.3244 -42.2602 -42.2486 -42.2392 -42.2357 -42.2101 -42.1886
   -42.1719 -42.1177 -42.0590 -42.0396 -41.9687 -41.9648 -41.8299 -41.7991
   -18.5710 -18.3724 -18.1583 -18.1385 -18.1184 -17.9991 -17.9517 -17.9461
   -17.8321 -17.7013 -17.6917 -17.5726 -17.5548 -17.4766 -17.4682 -17.4360
   -17.4194 -17.4040 -17.3974 -17.1636 -17.0249 -16.7551 -16.7122 -16.1680
   -16.1560  -6.4906  -6.3272  -6.3022  -6.2787  -6.2680  -6.2056  -6.1963
    -6.1662  -6.1091  -6.0177  -5.8025  -5.7756  -5.7235  -5.6438  -5.5830
    -5.5790  -5.4976  -5.4793  -5.3615  -5.2888  -5.0391  -4.9320  -4.7904
    -4.7173  -4.6760  -4.6556  -4.5616  -4.5068  -4.4320  -4.4115  -4.3996
    -4.3608  -4.2938  -4.2210  -4.1636  -4.0615  -4.0017  -3.9513  -3.8473
    -3.8049  -3.5483  -3.4780  -3.3606  -3.2989  -3.2272  -3.1671  -3.1304
    -3.0204  -2.9696  -2.9596  -2.8851  -2.8717  -2.8517  -2.8365  -2.8170
    -2.6982  -2.4951  -2.4328  -2.3109  -2.2382  -2.2319  -2.1663  -2.1072
    -2.0675  -1.9669  -1.8843  -1.8631  -1.6221  -1.5730  -1.2202  -1.1687
    -1.1482  -1.1171  -1.0343  -0.9435  -0.2170  -0.1694   0.1237   0.2131
     0.2775   0.4247   0.4398   0.5665   0.5787   0.7052   0.7942   0.8307
     0.9179   0.9667   0.9742   1.0390   1.0461   1.1062   1.1101   1.1475
     1.2077   1.2986   1.3127   1.3343   1.3643   1.5176   1.5946   1.6048
     1.6575   1.6781   1.7310   1.7851   1.8782   1.9346   2.0914   2.1197
     2.6558   2.6909   2.9856   3.6564   3.9162   4.0863   4.1233   4.2102
     4.2709   4.3080   4.3115   4.4835   4.5022   4.6196   4.7802   4.9343
     4.9874   5.2436   5.3418   5.4608   5.5491

          k =-0.5000-0.4891 0.0000 ( 81784 PWs)   bands (ev):

   -73.2098 -72.6861 -72.6675 -72.4734 -72.4726 -72.3652 -72.3612 -72.3069
   -72.2482 -72.2130 -71.9796 -71.9587 -43.7173 -43.0580 -42.8910 -42.7918
   -42.7490 -42.7275 -42.7212 -42.6385 -42.6384 -42.5790 -42.5782 -42.5715
   -42.5434 -42.5212 -42.5097 -42.4928 -42.4335 -42.4323 -42.3526 -42.3256
   -42.3254 -42.3244 -42.2595 -42.2482 -42.2393 -42.2356 -42.2095 -42.1887
   -42.1719 -42.1184 -42.0596 -42.0402 -41.9683 -41.9645 -41.8304 -41.7996
   -18.5321 -18.2932 -18.0859 -18.0348 -17.9688 -17.8713 -17.8642 -17.8376
   -17.8348 -17.7069 -17.6919 -17.6848 -17.6685 -17.6629 -17.6223 -17.5569
   -17.5344 -17.4570 -17.4545 -17.1553 -17.0205 -16.7535 -16.7158 -16.1675
   -16.1555  -6.4379  -6.2823  -6.1566  -6.0401  -5.8540  -5.7971  -5.7864
    -5.7541  -5.7316  -5.7200  -5.7171  -5.6746  -5.5912  -5.5517  -5.4970
    -5.3988  -5.3726  -5.2857  -5.1987  -5.1884  -5.1518  -5.0752  -5.0092
    -4.9838  -4.9467  -4.9431  -4.8849  -4.8648  -4.7236  -4.6155  -4.4629
    -4.4349  -4.3210  -4.2734  -4.1797  -4.1085  -3.9357  -3.8293  -3.8264
    -3.7134  -3.7074  -3.6250  -3.5892  -3.5655  -3.5057  -3.4659  -3.4587
    -3.4174  -3.3667  -3.3221  -3.2327  -3.2108  -3.0896  -3.0653  -2.7478
    -2.7423  -2.5918  -2.3932  -2.3274  -2.1477  -2.0627  -1.9328  -1.8669
    -1.8343  -1.8046  -1.7086  -1.6034  -1.5486  -1.4001  -1.2841  -1.2686
    -1.2320  -1.1178  -1.0335  -1.0135  -0.1221  -0.0646   0.1084   0.1168
     0.3612   0.3652   0.4130   0.4484   0.4977   0.6012   0.6822   0.9696
     0.9813   1.0568   1.1246   1.1744   1.2036   1.2761   1.2778   1.2938
     1.3202   1.3943   1.4268   1.4490   1.4547   1.5760   1.6412   1.6712
     1.7038   1.7064   1.7684   1.8119   1.8884   1.9285   1.9743   2.0111
     2.7572   2.7815   3.1081   3.2347   3.7681   3.8166   3.8763   3.9121
     3.9157   3.9810   4.1693   4.4865   4.5239   4.6223   4.7953   5.0525
     5.1775   5.3808   5.6682   5.7004   5.7051

     the Fermi energy is     1.2729 ev

!    total energy              =   -3302.93172515 Ry
     estimated scf accuracy    <          8.5E-09 Ry
     smearing contrib. (-TS)   =       0.00101062 Ry
     internal energy E=F+TS    =   -3302.93273577 Ry

     The total energy is F=E-TS. E is the sum of the following terms:
     one-electron contribution =  -33483.37930642 Ry
     hartree contribution      =   16784.16023585 Ry
     xc contribution           =    -420.92822961 Ry
     ewald contribution        =   14055.24247003 Ry
     one-center paw contrib.   =    -238.02790562 Ry

     convergence has been achieved in  11 iterations

     negative rho (up, down):  2.135E-04 0.000E+00

     Forces acting on atoms (cartesian axes, Ry/au):

     atom    1 type  1   force =    -0.00007026    0.00000000    0.06879881
     atom    2 type  1   force =    -0.00121366    0.00000000   -0.08939282
     atom    3 type  1   force =     0.00008049    0.00000000   -0.00050248
     atom    4 type  1   force =    -0.00059381    0.00000000    0.00173198
     atom    5 type  1   force =     0.00062207    0.00000000    0.00214921
     atom    6 type  1   force =    -0.00001933    0.00000000   -0.00070283
     atom    7 type  2   force =    -0.00051528    0.00000000    0.02290420
     atom    8 type  2   force =     0.00003949    0.00000000    0.06152389
     atom    9 type  2   force =    -0.00021712    0.02377443   -0.02438410
     atom   10 type  2   force =    -0.00021712   -0.02377443   -0.02438410
     atom   11 type  2   force =     0.00082124    0.00000000    0.00135019
     atom   12 type  2   force =    -0.00078205    0.00000000   -0.01943820
     atom   13 type  2   force =    -0.00031231    0.00002768    0.00031577
     atom   14 type  2   force =    -0.00031231   -0.00002768    0.00031577
     atom   15 type  2   force =     0.00034035    0.00000000    0.00124399
     atom   16 type  2   force =     0.00005992    0.00000000    0.00001877
     atom   17 type  2   force =    -0.00192878   -0.00084251    0.00047700
     atom   18 type  2   force =    -0.00192878    0.00084251    0.00047700
     atom   19 type  1   force =     0.00015857    0.00000000    0.06023328
     atom   20 type  1   force =     0.00121553    0.00000000   -0.08914117
     atom   21 type  1   force =    -0.00005507    0.00000000   -0.00029217
     atom   22 type  1   force =     0.00114020    0.00000000   -0.00100917
     atom   23 type  1   force =     0.00029970    0.00000000   -0.00003010
     atom   24 type  1   force =     0.00032148    0.00000000    0.00103409
     atom   25 type  2   force =     0.00046317    0.00000000    0.02944367
     atom   26 type  2   force =    -0.00010744    0.00000000    0.06397569
     atom   27 type  2   force =     0.00022570    0.02388384   -0.02438917
     atom   28 type  2   force =     0.00022570   -0.02388384   -0.02438917
     atom   29 type  2   force =    -0.00096747    0.00000000   -0.00029174
     atom   30 type  2   force =     0.00026623    0.00000000   -0.02074833
     atom   31 type  2   force =     0.00016258   -0.00025057   -0.00077555
     atom   32 type  2   force =     0.00016258    0.00025057   -0.00077555
     atom   33 type  2   force =     0.00043034    0.00000000    0.00053831
     atom   34 type  2   force =    -0.00010604    0.00000000    0.00010381
     atom   35 type  2   force =     0.00184763    0.00006465    0.00122288
     atom   36 type  2   force =     0.00184763   -0.00006465    0.00122288
     atom   37 type  2   force =    -0.00138375    0.00000000    0.00156545

     Total force =     0.006614     Total SCF correction =     0.000552
     Energy error            =      1.0E-04 Ry
     Gradient error          =      2.1E-03 Ry/Bohr

     number of scf cycles    =   9
     number of bfgs steps    =   8

     energy             old  =   -3302.9316235500 Ry
     energy             new  =   -3302.9317251485 Ry

     CASE: energy            _new < energy            _old

     new trust radius        =       0.0088635077 bohr
     new conv_thr            =       0.0000000102 Ry


ATOMIC_POSITIONS (angstrom)
Ru               0.0000000000        1.5881618300        9.5289709800    0   0   0
Ru               1.5535000000        4.7644854900        9.5289709800    0   0   0
Ru              -0.0000825610        4.7644855800       12.7279890680
Ru               1.5780258872        1.5881617100       12.6907314648
Ru              -0.0012824288        1.5881614900       15.7441508560
Ru               1.5194204558        4.7644852600       15.9998294881
O                0.0000000000        4.7644854900       10.7677372100    0   0   0
O                0.0000000000        4.7644854900        8.2902047600    0   0   0
O                1.5535000000        0.3493956000        9.5289709800    0   0   0
O                1.5535000000        2.8269280600        9.5289709800    0   0   0
O                0.0000127895        1.5881613800       13.8864121354
O                0.0000000000        1.5881618300       11.4665284200    0   0   0
O                1.5575408202        3.5324472662       12.7135784294
O                1.5575406402        5.9965237538       12.7135784494
O               -0.0035583675        4.7644855000       17.1839590140
O                0.0005795632        4.7644854500       14.6673964346
O                1.5344555339        0.3801931109       15.9287023496
O                1.5344555239        2.7961300091       15.9287022896
Ru               3.1070000000        1.5881618300        9.5289709800    0   0   0
Ru               4.6605000000        4.7644854900        9.5289709800    0   0   0
Ru               3.1059772456        4.7644854900       12.7426203044
Ru               4.6348732974        1.5881618300       12.6931742866
Ru               3.1084939440        1.5881618300       16.1372565342
Ru               4.6852959824        4.7644854900       15.9879622805
O                3.1070000000        4.7644854900       10.7677372100    0   0   0
O                3.1070000000        4.7644854900        8.2902047600    0   0   0
O                4.6605000000        0.3493956000        9.5289709800    0   0   0
O                4.6605000000        2.8269280600        9.5289709800    0   0   0
O                3.1067164557        1.5881618300       13.9860474832
O                3.1070000000        1.5881618300       11.4665284200    0   0   0
O                4.6551296249        3.5333342244       12.7197569727
O                4.6551296249        5.9956367556       12.7197569727
O                3.1053626663        4.7644854900       17.0149227891
O                3.1005917849        4.7644854900       14.6773764571
O                4.6784022666        0.3752380924       15.9083502485
O                4.6784022666        2.8010855676       15.9083502485
O                3.1369969417        1.5881618300       17.8396703564



     Writing config-only to output data dir ./tmp_ref__2x1o_mir/ref__2x1o_mir.save/ :
     XML data file
     NEW-OLD atomic charge density approx. for the potential

     negative rho (up, down):  2.131E-04 0.000E+00

     total cpu time spent up to now is     2533.0 secs

     per-process dynamical memory:   363.1 Mb

     Self-consistent Calculation

     iteration #  1     ecut=    80.00 Ry     beta= 0.30
     Davidson diagonalization with overlap
     ethr =  1.00E-06,  avg # of iterations =  3.0

     Threshold (ethr) on eigenvalues was too large:
     Diagonalizing with lowered threshold

     Davidson diagonalization with overlap
     ethr =  4.32E-08,  avg # of iterations =  2.0

     negative rho (up, down):  2.210E-04 0.000E+00

     total cpu time spent up to now is     2582.8 secs

     total energy              =   -3302.93178456 Ry
     estimated scf accuracy    <       0.00014990 Ry

     iteration #  2     ecut=    80.00 Ry     beta= 0.30
     Davidson diagonalization with overlap
     ethr =  4.38E-08,  avg # of iterations =  1.0

     negative rho (up, down):  2.233E-04 0.000E+00

     total cpu time spent up to now is     2600.7 secs

     total energy              =   -3302.93178830 Ry
     estimated scf accuracy    <       0.00004009 Ry

     iteration #  3     ecut=    80.00 Ry     beta= 0.30
     Davidson diagonalization with overlap
     ethr =  1.17E-08,  avg # of iterations =  1.2

     negative rho (up, down):  2.287E-04 0.000E+00

     total cpu time spent up to now is     2619.3 secs

     total energy              =   -3302.93178808 Ry
     estimated scf accuracy    <       0.00001575 Ry

     iteration #  4     ecut=    80.00 Ry     beta= 0.30
     Davidson diagonalization with overlap
     ethr =  4.60E-09,  avg # of iterations =  1.3

     negative rho (up, down):  2.383E-04 0.000E+00

     total cpu time spent up to now is     2638.4 secs

     total energy              =   -3302.93178738 Ry
     estimated scf accuracy    <       0.00000576 Ry

     iteration #  5     ecut=    80.00 Ry     beta= 0.30
     Davidson diagonalization with overlap
     ethr =  1.68E-09,  avg # of iterations =  2.7

     negative rho (up, down):  2.413E-04 0.000E+00

     total cpu time spent up to now is     2659.0 secs

     total energy              =   -3302.93178767 Ry
     estimated scf accuracy    <       0.00000159 Ry

     iteration #  6     ecut=    80.00 Ry     beta= 0.30
     Davidson diagonalization with overlap
     ethr =  4.64E-10,  avg # of iterations =  2.2

     negative rho (up, down):  2.430E-04 0.000E+00

     total cpu time spent up to now is     2679.2 secs

     total energy              =   -3302.93178772 Ry
     estimated scf accuracy    <       0.00000035 Ry

     iteration #  7     ecut=    80.00 Ry     beta= 0.30
     Davidson diagonalization with overlap
     ethr =  1.02E-10,  avg # of iterations =  4.9

     negative rho (up, down):  2.444E-04 0.000E+00

     total cpu time spent up to now is     2701.2 secs

     total energy              =   -3302.93178773 Ry
     estimated scf accuracy    <       0.00000017 Ry

     iteration #  8     ecut=    80.00 Ry     beta= 0.30
     Davidson diagonalization with overlap
     ethr =  5.09E-11,  avg # of iterations =  1.2

     negative rho (up, down):  2.444E-04 0.000E+00

     total cpu time spent up to now is     2720.0 secs

     total energy              =   -3302.93178774 Ry
     estimated scf accuracy    <       0.00000007 Ry

     iteration #  9     ecut=    80.00 Ry     beta= 0.30
     Davidson diagonalization with overlap
     ethr =  1.99E-11,  avg # of iterations =  1.7

     negative rho (up, down):  2.432E-04 0.000E+00

     total cpu time spent up to now is     2739.4 secs

     total energy              =   -3302.93178774 Ry
     estimated scf accuracy    <       0.00000004 Ry

     iteration # 10     ecut=    80.00 Ry     beta= 0.30
     Davidson diagonalization with overlap
     ethr =  1.05E-11,  avg # of iterations =  1.6

     negative rho (up, down):  2.403E-04 0.000E+00

     total cpu time spent up to now is     2759.1 secs

     total energy              =   -3302.93178774 Ry
     estimated scf accuracy    <       0.00000002 Ry

     iteration # 11     ecut=    80.00 Ry     beta= 0.30
     Davidson diagonalization with overlap
     ethr =  5.33E-12,  avg # of iterations =  1.3

     negative rho (up, down):  2.135E-04 0.000E+00

     total cpu time spent up to now is     2777.3 secs

     End of self-consistent calculation

          k = 0.0000 0.0000 0.0000 ( 81707 PWs)   bands (ev):

   -73.2043 -72.6888 -72.6689 -72.4783 -72.4680 -72.3691 -72.3581 -72.3071
   -72.2481 -72.2146 -71.9818 -71.9581 -43.7091 -43.0593 -42.8892 -42.8692
   -42.7296 -42.7189 -42.6755 -42.6457 -42.6318 -42.5845 -42.5826 -42.5682
   -42.5491 -42.5273 -42.5122 -42.5053 -42.4978 -42.4201 -42.3458 -42.3393
   -42.3316 -42.3084 -42.2662 -42.2624 -42.2362 -42.2001 -42.1929 -42.1724
   -42.1404 -42.1197 -42.0593 -42.0558 -42.0415 -41.8749 -41.8364 -41.7931
   -18.9705 -18.6301 -18.5022 -18.3869 -18.0051 -17.9770 -17.8615 -17.7621
   -17.7521 -17.7126 -17.6954 -17.6401 -17.6350 -17.6021 -17.5412 -17.3256
   -17.1316 -17.1310 -17.0971 -17.0188 -17.0146 -16.6880 -16.5789 -16.1015
   -16.0628  -7.2430  -7.1871  -7.1650  -6.9048  -6.3201  -6.3050  -6.0567
    -5.8728  -5.8697  -5.8498  -5.8185  -5.7066  -5.6487  -5.6382  -5.6208
    -5.5924  -5.5570  -5.4675  -5.4370  -5.4364  -5.4317  -5.4118  -5.2340
    -5.0755  -5.0752  -5.0530  -4.9733  -4.8773  -4.6063  -4.5316  -4.2010
    -4.0672  -3.8763  -3.6746  -3.6188  -3.6167  -3.6045  -3.5617  -3.4383
    -3.3863  -3.2902  -3.1543  -3.1505  -3.0397  -2.9795  -2.8720  -2.8466
    -2.8064  -2.7209  -2.6569  -2.6225  -2.6143  -2.4412  -2.4187  -2.4134
    -2.3403  -2.3130  -2.1796  -2.1628  -2.0747  -2.0537  -1.9365  -1.8390
    -1.8037  -1.7780  -1.5814  -1.5287  -1.4532  -1.3910  -1.3118  -1.1682
    -1.1042  -0.8760  -0.7456  -0.6971  -0.4172  -0.3954  -0.2197  -0.1658
    -0.1441  -0.0746   0.1170   0.1815   0.1927   0.2462   0.2830   0.3596
     0.5091   0.5485   0.6179   0.6304   0.6358   0.7057   0.8028   0.8448
     0.9663   1.0039   1.0559   1.0680   1.1896   1.3008   1.4621   1.7051
     1.7342   1.9089   2.0123   2.0674   2.1785   2.2536   2.3335   2.3346
     2.4812   2.7017   2.7886   3.1986   3.7111   3.7965   4.1719   4.2541
     4.3271   4.4469   4.5340   4.5770   4.7757   4.8203   4.9624   5.3325
     5.4793   5.5400   5.6854   5.6996   5.7998

          k = 0.0000 0.2445 0.0000 ( 81832 PWs)   bands (ev):

   -73.2043 -72.6888 -72.6689 -72.4783 -72.4680 -72.3690 -72.3581 -72.3071
   -72.2481 -72.2146 -71.9818 -71.9581 -43.7091 -43.0600 -42.8892 -42.8673
   -42.7311 -42.7187 -42.6755 -42.6447 -42.6326 -42.5831 -42.5824 -42.5700
   -42.5491 -42.5274 -42.5122 -42.5053 -42.4978 -42.4204 -42.3458 -42.3393
   -42.3298 -42.3083 -42.2661 -42.2625 -42.2358 -42.1999 -42.1929 -42.1724
   -42.1406 -42.1210 -42.0584 -42.0560 -42.0421 -41.8749 -41.8374 -41.7932
   -18.8912 -18.5095 -18.4380 -18.3037 -18.0211 -17.9683 -17.8886 -17.8880
   -17.8833 -17.8454 -17.7779 -17.7041 -17.4810 -17.3979 -17.3677 -17.3387
   -17.2644 -17.2440 -17.1947 -17.1130 -17.0134 -16.6846 -16.5811 -16.1009
   -16.0600  -6.9343  -6.8028  -6.7200  -6.6967  -6.3123  -6.2774  -6.1439
    -6.1126  -6.0301  -5.9227  -5.8005  -5.7946  -5.6422  -5.6008  -5.5990
    -5.5801  -5.5677  -5.5159  -5.4747  -5.4530  -5.3667  -5.2315  -5.2253
    -5.1755  -5.1020  -4.7929  -4.6989  -4.4612  -4.3575  -4.2410  -4.0762
    -3.9938  -3.9499  -3.8573  -3.8438  -3.7509  -3.7346  -3.6594  -3.5955
    -3.5723  -3.5258  -3.3397  -3.2356  -3.1883  -3.0407  -3.0382  -2.8667
    -2.8386  -2.7725  -2.7269  -2.6944  -2.6688  -2.5956  -2.5685  -2.4947
    -2.3682  -2.3547  -2.3145  -2.2539  -2.1946  -2.1236  -2.0603  -1.9445
    -1.8504  -1.7968  -1.7808  -1.6412  -1.5784  -1.5144  -1.3799  -1.3207
    -1.1370  -1.0447  -0.9448  -0.8043  -0.1033  -0.0361   0.0192   0.0665
     0.0883   0.1031   0.1899   0.2842   0.3804   0.4068   0.4241   0.4508
     0.4688   0.5353   0.5387   0.5501   0.5751   0.6428   0.6514   0.6566
     0.8253   0.9300   1.0465   1.1429   1.1661   1.3564   1.7754   1.8135
     1.9093   2.0383   2.0486   2.1326   2.1560   2.2618   2.3055   2.3757
     2.4646   2.5847   2.9116   3.1349   3.2445   3.5193   3.6543   3.9667
     4.2554   4.3518   4.8165   5.0302   5.1514   5.3194   5.4716   5.4984
     5.5523   5.6022   5.6343   5.6843   5.7654

          k = 0.0000-0.4891 0.0000 ( 81886 PWs)   bands (ev):

   -73.2043 -72.6888 -72.6689 -72.4783 -72.4680 -72.3690 -72.3581 -72.3071
   -72.2481 -72.2146 -71.9818 -71.9581 -43.7091 -43.0606 -42.8891 -42.8652
   -42.7327 -42.7184 -42.6755 -42.6438 -42.6334 -42.5828 -42.5812 -42.5718
   -42.5491 -42.5274 -42.5122 -42.5054 -42.4979 -42.4206 -42.3458 -42.3392
   -42.3280 -42.3081 -42.2660 -42.2625 -42.2354 -42.1998 -42.1930 -42.1724
   -42.1408 -42.1224 -42.0575 -42.0562 -42.0427 -41.8750 -41.8383 -41.7932
   -18.8017 -18.4190 -18.2661 -18.1606 -18.0739 -17.9761 -17.9760 -17.9602
   -17.9367 -17.8968 -17.8439 -17.7188 -17.4251 -17.4155 -17.4020 -17.4005
   -17.2989 -17.2983 -17.2703 -17.1177 -17.0101 -16.6819 -16.5845 -16.1003
   -16.0579  -6.9229  -6.3573  -6.3458  -6.3079  -6.2522  -6.1288  -6.1233
    -6.0058  -5.9863  -5.9116  -5.7222  -5.7139  -5.6453  -5.5930  -5.5651
    -5.5347  -5.4936  -5.4788  -5.4661  -5.3852  -5.2985  -5.2469  -5.2231
    -5.1039  -4.8992  -4.8144  -4.7984  -4.5083  -4.4558  -4.4189  -4.2636
    -4.2277  -4.2060  -4.0616  -3.9543  -3.9059  -3.8086  -3.7019  -3.5769
    -3.5606  -3.4245  -3.3872  -3.3612  -3.2118  -3.1892  -3.1320  -3.1053
    -3.0745  -3.0348  -2.9830  -2.8455  -2.7567  -2.5884  -2.5877  -2.4569
    -2.4512  -2.4239  -2.2971  -2.2352  -2.1107  -2.0979  -1.9148  -1.8375
    -1.7755  -1.7539  -1.7264  -1.6876  -1.6393  -1.4754  -1.4579  -1.3711
    -1.2595  -1.1703  -1.0163  -0.9516  -0.5348  -0.2744  -0.2161  -0.0943
    -0.0247   0.1917   0.2064   0.2652   0.4785   0.5054   0.5285   0.6032
     0.6117   0.6625   0.7292   0.7996   0.8151   0.8390   0.8644   0.8666
     0.8762   0.9777   1.1220   1.1603   1.2119   1.2810   1.6060   1.7234
     1.8081   1.9261   2.1313   2.1448   2.1543   2.3761   2.4045   2.4610
     2.4838   2.6722   2.7513   3.0701   3.1381   3.2672   3.2772   4.2364
     4.2587   4.3443   5.0670   5.1827   5.2333   5.2750   5.3271   5.3282
     5.5088   5.6590   5.7284   5.8236   5.8658

          k = 0.2500 0.0000 0.0000 ( 81703 PWs)   bands (ev):

   -73.2043 -72.6880 -72.6697 -72.4768 -72.4695 -72.3676 -72.3596 -72.3068
   -72.2484 -72.2146 -71.9812 -71.9587 -43.7091 -43.0554 -42.8890 -42.8425
   -42.7293 -42.7194 -42.7030 -42.6437 -42.6339 -42.5823 -42.5810 -42.5704
   -42.5466 -42.5202 -42.5121 -42.4959 -42.4911 -42.3971 -42.3716 -42.3351
   -42.3173 -42.3019 -42.2830 -42.2566 -42.2418 -42.2159 -42.1906 -42.1724
   -42.1663 -42.1181 -42.0575 -42.0416 -42.0327 -41.9022 -41.8335 -41.7960
   -18.8466 -18.5132 -18.4076 -18.2869 -18.1218 -17.9444 -17.8824 -17.8698
   -17.7840 -17.7586 -17.6918 -17.6364 -17.5689 -17.5313 -17.4675 -17.3417
   -17.2080 -17.1742 -17.1505 -17.0952 -17.0499 -16.7058 -16.6454 -16.1384
   -16.1056  -7.0805  -7.0119  -6.9870  -6.7255  -6.3485  -6.2399  -6.1051
    -6.0116  -5.9540  -5.8928  -5.8742  -5.7924  -5.7524  -5.7475  -5.6624
    -5.5841  -5.5505  -5.5436  -5.4069  -5.3800  -5.3086  -5.1936  -5.1192
    -4.9690  -4.9442  -4.7744  -4.7388  -4.6366  -4.5310  -4.3273  -4.2575
    -4.1432  -4.1107  -3.9949  -3.9083  -3.6273  -3.4558  -3.4455  -3.3429
    -3.3214  -3.3149  -3.2187  -3.1741  -3.1615  -3.0866  -3.0366  -2.9425
    -2.9372  -2.8881  -2.7966  -2.7410  -2.7238  -2.6444  -2.5818  -2.4420
    -2.3841  -2.3772  -2.3093  -2.2102  -2.1947  -2.1436  -2.0292  -1.9941
    -1.9447  -1.9313  -1.8504  -1.7531  -1.5833  -1.4617  -1.4079  -1.2851
    -1.1686  -1.0020  -0.9148  -0.7258  -0.2366  -0.2202   0.0184   0.0203
     0.1115   0.1834   0.3171   0.3537   0.3635   0.4068   0.4812   0.5582
     0.5912   0.5938   0.6771   0.7108   0.7283   0.8098   0.9191   0.9934
     1.0484   1.1377   1.2532   1.3084   1.3094   1.5114   1.5625   1.5690
     1.6077   1.7744   1.7785   1.9295   2.0887   2.1580   2.3396   2.3657
     2.4528   2.6440   2.7682   3.4116   3.8414   3.9246   4.2427   4.2969
     4.4557   4.4664   4.5637   4.6550   4.7989   4.8721   4.9625   5.0461
     5.1161   5.3719   5.3811   5.4788   5.5361

          k = 0.2500 0.2445 0.0000 ( 81774 PWs)   bands (ev):

   -73.2043 -72.6880 -72.6697 -72.4768 -72.4695 -72.3676 -72.3596 -72.3068
   -72.2484 -72.2146 -71.9812 -71.9587 -43.7092 -43.0560 -42.8878 -42.8419
   -42.7299 -42.7201 -42.7030 -42.6429 -42.6344 -42.5814 -42.5807 -42.5715
   -42.5466 -42.5202 -42.5121 -42.4959 -42.4912 -42.3973 -42.3716 -42.3351
   -42.3171 -42.3007 -42.2830 -42.2567 -42.2413 -42.2158 -42.1906 -42.1724
   -42.1663 -42.1191 -42.0578 -42.0422 -42.0320 -41.9022 -41.8343 -41.7963
   -18.7758 -18.3970 -18.3507 -18.1986 -18.1022 -17.9502 -17.8997 -17.8962
   -17.8366 -17.7991 -17.7172 -17.6915 -17.5486 -17.4643 -17.4119 -17.3566
   -17.3270 -17.3081 -17.2640 -17.1351 -17.0426 -16.7026 -16.6487 -16.1385
   -16.1034  -6.7710  -6.6543  -6.5610  -6.5448  -6.3335  -6.1688  -6.0667
    -6.0172  -5.9589  -5.8686  -5.8160  -5.7807  -5.7147  -5.6457  -5.6392
    -5.5886  -5.5361  -5.4982  -5.4635  -5.3997  -5.3281  -5.1963  -5.0822
    -4.9559  -4.8903  -4.6626  -4.6466  -4.5759  -4.4273  -4.3782  -4.2518
    -4.1661  -4.0633  -3.9962  -3.9806  -3.7770  -3.7302  -3.6173  -3.5496
    -3.4489  -3.3921  -3.3540  -3.2853  -3.2665  -3.2449  -3.1498  -3.1194
    -3.0839  -3.0433  -2.9678  -2.8465  -2.8213  -2.7687  -2.6883  -2.6431
    -2.5973  -2.4861  -2.3696  -2.2740  -2.2010  -2.1551  -2.0944  -2.0168
    -1.9609  -1.8988  -1.8169  -1.6733  -1.6280  -1.5472  -1.3631  -1.2620
    -1.0596  -1.0214  -0.9967  -0.8566  -0.1512  -0.0314   0.0483   0.1075
     0.1639   0.2568   0.3205   0.3754   0.4505   0.5284   0.5788   0.5984
     0.6640   0.6905   0.7346   0.7779   0.8134   0.8768   0.8814   0.9507
     0.9931   1.1100   1.2341   1.3397   1.3495   1.4985   1.6151   1.7073
     1.7929   1.8806   1.9021   1.9994   2.0488   2.0902   2.1226   2.3853
     2.5296   2.6207   2.9348   3.2729   3.4823   3.7112   3.8262   4.0563
     4.3144   4.3812   4.6377   4.9002   4.9554   5.0280   5.0528   5.2708
     5.3006   5.3638   5.3900   5.5723   5.6379

          k = 0.2500-0.4891 0.0000 ( 81830 PWs)   bands (ev):

   -73.2043 -72.6880 -72.6697 -72.4768 -72.4695 -72.3675 -72.3596 -72.3069
   -72.2484 -72.2146 -71.9812 -71.9587 -43.7092 -43.0566 -42.8866 -42.8411
   -42.7310 -42.7203 -42.7029 -42.6422 -42.6349 -42.5812 -42.5798 -42.5725
   -42.5466 -42.5202 -42.5121 -42.4959 -42.4912 -42.3975 -42.3716 -42.3351
   -42.3168 -42.2994 -42.2829 -42.2567 -42.2409 -42.2158 -42.1906 -42.1724
   -42.1663 -42.1202 -42.0582 -42.0428 -42.0312 -41.9021 -41.8350 -41.7965
   -18.6985 -18.3084 -18.1779 -18.0988 -18.0377 -17.9784 -17.9466 -17.9135
   -17.8465 -17.8238 -17.8176 -17.7286 -17.5382 -17.4864 -17.4816 -17.4356
   -17.4135 -17.3738 -17.3342 -17.1321 -17.0383 -16.6996 -16.6533 -16.1387
   -16.1017  -6.7489  -6.3559  -6.1544  -6.0622  -6.0527  -5.9024  -5.8562
    -5.8535  -5.8208  -5.7749  -5.7472  -5.6992  -5.6933  -5.6407  -5.6194
    -5.6173  -5.5663  -5.5612  -5.5286  -5.4808  -5.4373  -5.1208  -4.9738
    -4.9203  -4.7476  -4.6881  -4.6510  -4.4625  -4.4112  -4.3888  -4.3334
    -4.2203  -4.1588  -4.1412  -4.1064  -4.0676  -4.0175  -3.9136  -3.8953
    -3.8152  -3.7125  -3.5608  -3.4340  -3.3996  -3.3271  -3.3074  -3.2785
    -3.2210  -3.1424  -3.1303  -3.0518  -2.9143  -2.7595  -2.7312  -2.7053
    -2.6965  -2.5016  -2.3535  -2.2741  -2.2402  -2.1233  -1.9527  -1.9390
    -1.8740  -1.7657  -1.7309  -1.5491  -1.5128  -1.3450  -1.3039  -1.2414
    -1.2129  -1.1826  -0.9921  -0.9479  -0.3386  -0.2502  -0.1536   0.0500
     0.1514   0.2307   0.3771   0.4322   0.5072   0.5540   0.5891   0.6265
     0.7817   0.8012   0.8690   0.9453   1.0068   1.0301   1.0843   1.1492
     1.1515   1.2223   1.2880   1.3199   1.3921   1.5385   1.6024   1.6500
     1.6619   1.8159   1.9931   2.0165   2.0231   2.1630   2.2004   2.2601
     2.6381   2.7695   2.8833   3.0763   3.2824   3.3896   3.5013   4.2692
     4.3126   4.3720   4.5702   4.6880   4.7892   4.9849   5.0931   5.3254
     5.3540   5.4474   5.5940   5.6878   5.9349

          k =-0.5000 0.0000 0.0000 ( 81894 PWs)   bands (ev):

   -73.2043 -72.6872 -72.6706 -72.4735 -72.4728 -72.3649 -72.3622 -72.3066
   -72.2486 -72.2147 -71.9805 -71.9593 -43.7092 -43.0514 -42.8887 -42.7923
   -42.7541 -42.7289 -42.7200 -42.6388 -42.6387 -42.5793 -42.5787 -42.5740
   -42.5442 -42.5223 -42.5107 -42.4944 -42.4339 -42.4327 -42.3511 -42.3258
   -42.3247 -42.3237 -42.2599 -42.2502 -42.2396 -42.2372 -42.2114 -42.1896
   -42.1725 -42.1164 -42.0592 -42.0418 -41.9701 -41.9657 -41.8301 -41.7995
   -18.6025 -18.4367 -18.2302 -18.2216 -18.1853 -18.0522 -18.0297 -18.0068
   -17.8117 -17.7132 -17.6659 -17.5163 -17.5059 -17.4096 -17.3787 -17.3577
   -17.3498 -17.2875 -17.2810 -17.1782 -17.0241 -16.7477 -16.7094 -16.1696
   -16.1568  -6.7014  -6.6105  -6.5769  -6.5643  -6.5223  -6.5169  -6.3578
    -6.2588  -6.1291  -6.0170  -5.9009  -5.8055  -5.7943  -5.7523  -5.7284
    -5.7229  -5.4720  -5.4155  -5.3986  -5.3809  -4.9733  -4.9422  -4.9325
    -4.8224  -4.6442  -4.5422  -4.4303  -4.3828  -4.3712  -4.2978  -4.1945
    -4.1894  -4.0860  -3.9911  -3.9301  -3.9254  -3.8348  -3.8179  -3.6682
    -3.6019  -3.5711  -3.4430  -3.2039  -3.1412  -3.0584  -3.0530  -3.0086
    -2.9466  -2.9411  -2.9278  -2.8351  -2.7274  -2.7146  -2.7136  -2.6566
    -2.4996  -2.4307  -2.3295  -2.3276  -2.2959  -2.1518  -2.1480  -2.1397
    -2.1183  -2.0078  -2.0009  -1.8415  -1.6027  -1.5334  -1.2340  -1.2219
    -1.1543  -1.1466  -1.0062  -0.8900  -0.1750  -0.0745  -0.0671  -0.0053
     0.3087   0.3633   0.4026   0.4819   0.4962   0.5379   0.6667   0.6778
     0.8307   0.8372   0.8836   0.9977   1.0299   1.0400   1.0900   1.1439
     1.1454   1.2400   1.2941   1.3387   1.3895   1.4351   1.4444   1.5195
     1.5303   1.6960   1.7223   1.7792   1.9517   2.0583   2.2444   2.2596
     2.5248   2.5725   2.8555   3.8726   4.0493   4.1326   4.1368   4.3707
     4.4709   4.5476   4.6042   4.7287   4.7632   4.8370   4.9194   4.9541
     4.9631   5.0046   5.0101   5.0140   5.1061

          k =-0.5000 0.2445 0.0000 ( 81810 PWs)   bands (ev):

   -73.2043 -72.6872 -72.6706 -72.4735 -72.4728 -72.3649 -72.3622 -72.3066
   -72.2486 -72.2147 -71.9805 -71.9594 -43.7092 -43.0520 -42.8871 -42.7922
   -42.7539 -42.7282 -42.7220 -42.6386 -42.6386 -42.5794 -42.5783 -42.5739
   -42.5442 -42.5223 -42.5107 -42.4944 -42.4340 -42.4328 -42.3512 -42.3257
   -42.3246 -42.3238 -42.2591 -42.2498 -42.2396 -42.2371 -42.2108 -42.1896
   -42.1725 -42.1171 -42.0598 -42.0424 -41.9697 -41.9653 -41.8306 -41.8000
   -18.5632 -18.3714 -18.1574 -18.1370 -18.1188 -17.9994 -17.9520 -17.9464
   -17.8292 -17.7012 -17.6918 -17.5752 -17.5562 -17.4778 -17.4685 -17.4377
   -17.4206 -17.4035 -17.3988 -17.1628 -17.0189 -16.7457 -16.7127 -16.1691
   -16.1563  -6.4855  -6.3272  -6.3015  -6.2774  -6.2689  -6.2057  -6.1967
    -6.1664  -6.1056  -6.0155  -5.7999  -5.7739  -5.7228  -5.6438  -5.5816
    -5.5790  -5.4982  -5.4787  -5.3605  -5.2896  -5.0353  -4.9299  -4.7925
    -4.7141  -4.6736  -4.6585  -4.5623  -4.5055  -4.4308  -4.4097  -4.4000
    -4.3612  -4.2937  -4.2179  -4.1612  -4.0569  -3.9985  -3.9502  -3.8454
    -3.8044  -3.5432  -3.4763  -3.3588  -3.2998  -3.2272  -3.1676  -3.1300
    -3.0203  -2.9739  -2.9598  -2.8863  -2.8722  -2.8525  -2.8364  -2.8174
    -2.6997  -2.4935  -2.4343  -2.3108  -2.2386  -2.2326  -2.1654  -2.1077
    -2.0658  -1.9644  -1.8855  -1.8629  -1.6204  -1.5738  -1.2220  -1.1690
    -1.1482  -1.1143  -1.0341  -0.9451  -0.2180  -0.1689   0.1230   0.2151
     0.2783   0.4225   0.4452   0.5653   0.5778   0.7049   0.7939   0.8305
     0.9192   0.9664   0.9702   1.0387   1.0433   1.1043   1.1096   1.1455
     1.2084   1.2989   1.3115   1.3349   1.3631   1.5205   1.5930   1.6034
     1.6581   1.6761   1.7301   1.7877   1.8777   1.9335   2.0906   2.1197
     2.6548   2.6908   2.9841   3.6520   3.9086   4.0871   4.1219   4.2118
     4.2701   4.3086   4.3106   4.4804   4.5039   4.6155   4.7790   4.9318
     4.9880   5.2411   5.3435   5.4608   5.5483

          k =-0.5000-0.4891 0.0000 ( 81784 PWs)   bands (ev):

   -73.2043 -72.6872 -72.6706 -72.4735 -72.4728 -72.3649 -72.3622 -72.3066
   -72.2486 -72.2147 -71.9805 -71.9594 -43.7092 -43.0525 -42.8856 -42.7922
   -42.7536 -42.7282 -42.7232 -42.6385 -42.6385 -42.5795 -42.5781 -42.5738
   -42.5441 -42.5222 -42.5107 -42.4944 -42.4340 -42.4329 -42.3513 -42.3257
   -42.3246 -42.3239 -42.2583 -42.2495 -42.2397 -42.2370 -42.2103 -42.1896
   -42.1725 -42.1179 -42.0604 -42.0429 -41.9693 -41.9649 -41.8311 -41.8004
   -18.5229 -18.2915 -18.0873 -18.0350 -17.9656 -17.8688 -17.8660 -17.8384
   -17.8356 -17.7073 -17.6924 -17.6853 -17.6673 -17.6645 -17.6206 -17.5580
   -17.5355 -17.4603 -17.4569 -17.1542 -17.0145 -16.7442 -16.7163 -16.1686
   -16.1558  -6.4293  -6.2866  -6.1514  -6.0375  -5.8499  -5.7952  -5.7845
    -5.7589  -5.7334  -5.7202  -5.7177  -5.6744  -5.5907  -5.5513  -5.4951
    -5.3964  -5.3688  -5.2849  -5.1972  -5.1885  -5.1522  -5.0764  -5.0079
    -4.9834  -4.9462  -4.9436  -4.8847  -4.8643  -4.7269  -4.6141  -4.4644
    -4.4327  -4.3183  -4.2713  -4.1785  -4.1047  -3.9319  -3.8263  -3.8200
    -3.7113  -3.7064  -3.6235  -3.5892  -3.5667  -3.5048  -3.4642  -3.4603
    -3.4171  -3.3662  -3.3226  -3.2323  -3.2117  -3.0904  -3.0721  -2.7503
    -2.7395  -2.5916  -2.3963  -2.3283  -2.1460  -2.0638  -1.9307  -1.8649
    -1.8325  -1.8058  -1.7051  -1.6040  -1.5491  -1.3965  -1.2873  -1.2685
    -1.2325  -1.1190  -1.0310  -1.0144  -0.1238  -0.0644   0.1075   0.1162
     0.3604   0.3641   0.4113   0.4527   0.5000   0.5999   0.6854   0.9703
     0.9720   1.0565   1.1234   1.1758   1.2022   1.2768   1.2769   1.2945
     1.3188   1.3946   1.4258   1.4486   1.4541   1.5809   1.6402   1.6714
     1.7017   1.7056   1.7678   1.8122   1.8878   1.9264   1.9724   2.0132
     2.7561   2.7815   3.1064   3.2303   3.7680   3.8175   3.8752   3.9117
     3.9152   3.9749   4.1683   4.4831   4.5271   4.6184   4.7947   5.0493
     5.1799   5.3709   5.6712   5.6982   5.7050

     the Fermi energy is     1.2724 ev

!    total energy              =   -3302.93178774 Ry
     estimated scf accuracy    <          9.5E-09 Ry
     smearing contrib. (-TS)   =       0.00101262 Ry
     internal energy E=F+TS    =   -3302.93280036 Ry

     The total energy is F=E-TS. E is the sum of the following terms:
     one-electron contribution =  -33475.43303104 Ry
     hartree contribution      =   16780.17058957 Ry
     xc contribution           =    -420.92332694 Ry
     ewald contribution        =   14051.28103753 Ry
     one-center paw contrib.   =    -238.02806948 Ry

     convergence has been achieved in  11 iterations

     negative rho (up, down):  2.135E-04 0.000E+00

     Forces acting on atoms (cartesian axes, Ry/au):

     atom    1 type  1   force =    -0.00001758    0.00000000    0.06895118
     atom    2 type  1   force =    -0.00131556    0.00000000   -0.08951655
     atom    3 type  1   force =     0.00014184    0.00000000   -0.00066566
     atom    4 type  1   force =    -0.00102854    0.00000000    0.00025778
     atom    5 type  1   force =     0.00038939    0.00000000    0.00150590
     atom    6 type  1   force =     0.00093005    0.00000000   -0.00060502
     atom    7 type  2   force =    -0.00047670    0.00000000    0.02296304
     atom    8 type  2   force =     0.00003640    0.00000000    0.06156420
     atom    9 type  2   force =    -0.00022454    0.02379459   -0.02442454
     atom   10 type  2   force =    -0.00022454   -0.02379459   -0.02442454
     atom   11 type  2   force =     0.00049757    0.00000000    0.00011801
     atom   12 type  2   force =    -0.00061252    0.00000000   -0.01884036
     atom   13 type  2   force =    -0.00002296   -0.00003400    0.00045281
     atom   14 type  2   force =    -0.00002296    0.00003400    0.00045281
     atom   15 type  2   force =    -0.00030818    0.00000000    0.00049288
     atom   16 type  2   force =     0.00020334    0.00000000   -0.00041081
     atom   17 type  2   force =    -0.00109528   -0.00029786    0.00043924
     atom   18 type  2   force =    -0.00109528    0.00029786    0.00043924
     atom   19 type  1   force =     0.00009626    0.00000000    0.06034147
     atom   20 type  1   force =     0.00131968    0.00000000   -0.08932029
     atom   21 type  1   force =    -0.00019487    0.00000000    0.00038247
     atom   22 type  1   force =     0.00163314    0.00000000   -0.00051417
     atom   23 type  1   force =    -0.00024695    0.00000000    0.00124223
     atom   24 type  1   force =     0.00053944    0.00000000    0.00063449
     atom   25 type  2   force =     0.00038502    0.00000000    0.02927732
     atom   26 type  2   force =    -0.00011317    0.00000000    0.06406494
     atom   27 type  2   force =     0.00023351    0.02386200   -0.02441966
     atom   28 type  2   force =     0.00023351   -0.02386200   -0.02441966
     atom   29 type  2   force =    -0.00089339    0.00000000    0.00129372
     atom   30 type  2   force =     0.00010337    0.00000000   -0.02036356
     atom   31 type  2   force =     0.00009177    0.00001184   -0.00068404
     atom   32 type  2   force =     0.00009177   -0.00001184   -0.00068404
     atom   33 type  2   force =     0.00001295    0.00000000    0.00107161
     atom   34 type  2   force =    -0.00057249    0.00000000    0.00073099
     atom   35 type  2   force =     0.00146330    0.00012622    0.00124790
     atom   36 type  2   force =     0.00146330   -0.00012622    0.00124790
     atom   37 type  2   force =    -0.00140011    0.00000000    0.00012076

     Total force =     0.005448     Total SCF correction =     0.000496
     Energy error            =      6.3E-05 Ry
     Gradient error          =      1.6E-03 Ry/Bohr

     bfgs converged in  10 scf cycles and   9 bfgs steps
     (criteria: energy <  1.0E-04 Ry, force <  2.0E-03 Ry/Bohr)

     End of BFGS Geometry Optimization

     Final energy             =   -3302.9317877395 Ry

     File ./tmp_ref__2x1o_mir/ref__2x1o_mir.bfgs deleted, as requested
Begin final coordinates

ATOMIC_POSITIONS (angstrom)
Ru               0.0000000000        1.5881618300        9.5289709800    0   0   0
Ru               1.5535000000        4.7644854900        9.5289709800    0   0   0
Ru              -0.0000825610        4.7644855800       12.7279890680
Ru               1.5780258872        1.5881617100       12.6907314648
Ru              -0.0012824288        1.5881614900       15.7441508560
Ru               1.5194204558        4.7644852600       15.9998294881
O                0.0000000000        4.7644854900       10.7677372100    0   0   0
O                0.0000000000        4.7644854900        8.2902047600    0   0   0
O                1.5535000000        0.3493956000        9.5289709800    0   0   0
O                1.5535000000        2.8269280600        9.5289709800    0   0   0
O                0.0000127895        1.5881613800       13.8864121354
O                0.0000000000        1.5881618300       11.4665284200    0   0   0
O                1.5575408202        3.5324472662       12.7135784294
O                1.5575406402        5.9965237538       12.7135784494
O               -0.0035583675        4.7644855000       17.1839590140
O                0.0005795632        4.7644854500       14.6673964346
O                1.5344555339        0.3801931109       15.9287023496
O                1.5344555239        2.7961300091       15.9287022896
Ru               3.1070000000        1.5881618300        9.5289709800    0   0   0
Ru               4.6605000000        4.7644854900        9.5289709800    0   0   0
Ru               3.1059772456        4.7644854900       12.7426203044
Ru               4.6348732974        1.5881618300       12.6931742866
Ru               3.1084939440        1.5881618300       16.1372565342
Ru               4.6852959824        4.7644854900       15.9879622805
O                3.1070000000        4.7644854900       10.7677372100    0   0   0
O                3.1070000000        4.7644854900        8.2902047600    0   0   0
O                4.6605000000        0.3493956000        9.5289709800    0   0   0
O                4.6605000000        2.8269280600        9.5289709800    0   0   0
O                3.1067164557        1.5881618300       13.9860474832
O                3.1070000000        1.5881618300       11.4665284200    0   0   0
O                4.6551296249        3.5333342244       12.7197569727
O                4.6551296249        5.9956367556       12.7197569727
O                3.1053626663        4.7644854900       17.0149227891
O                3.1005917849        4.7644854900       14.6773764571
O                4.6784022666        0.3752380924       15.9083502485
O                4.6784022666        2.8010855676       15.9083502485
O                3.1369969417        1.5881618300       17.8396703564
End final coordinates



     Writing all to output data dir ./tmp_ref__2x1o_mir/ref__2x1o_mir.save/ :
     XML data file, charge density, pseudopotentials, collected wavefunctions

     init_run     :      8.35s CPU      9.43s WALL (       1 calls)
     electrons    :   2442.16s CPU   2710.16s WALL (      10 calls)
     update_pot   :      3.28s CPU      3.62s WALL (       9 calls)
     forces       :     44.94s CPU     47.82s WALL (      10 calls)

     Called by init_run:
     wfcinit      :      6.41s CPU      7.28s WALL (       1 calls)
     potinit      :      0.74s CPU      0.82s WALL (       1 calls)
     hinit0       :      0.51s CPU      0.53s WALL (       1 calls)

     Called by electrons:
     c_bands      :   2014.34s CPU   2221.12s WALL (     130 calls)
     sum_band     :    289.81s CPU    325.03s WALL (     130 calls)
     v_of_rho     :     29.76s CPU     32.71s WALL (     137 calls)
     newd         :     13.34s CPU     23.65s WALL (     137 calls)
     PAW_pot      :     12.49s CPU     12.51s WALL (     146 calls)
     mix_rho      :     82.51s CPU     94.62s WALL (     130 calls)

     Called by c_bands:
     init_us_2    :     45.34s CPU     45.56s WALL (    1400 calls)
     cegterg      :   1903.28s CPU   2108.74s WALL (     650 calls)

     Called by *egterg:
     cdiaghg      :     55.37s CPU     58.73s WALL (    2060 calls)
     h_psi        :   1019.79s CPU   1146.81s WALL (    2125 calls)
     s_psi        :    174.64s CPU    175.27s WALL (    2125 calls)
     g_psi        :      7.65s CPU      7.73s WALL (    1470 calls)

     Called by h_psi:
     h_psi:calbec :    184.22s CPU    186.91s WALL (    2125 calls)
     vloc_psi     :    654.11s CPU    758.53s WALL (    2125 calls)
                                        0.00s GPU  (    2125 calls)
     add_vuspsi   :    174.91s CPU    175.17s WALL (    2125 calls)

     General routines
     calbec       :    298.67s CPU    302.74s WALL (    3020 calls)
     fft          :     23.90s CPU     28.17s WALL (    1883 calls)
     ffts         :     32.53s CPU     40.52s WALL (   14658 calls)
     fftw         :    744.57s CPU    860.19s WALL (  708264 calls)
     interpolate  :      2.10s CPU      2.55s WALL (     137 calls)

     Parallel routines

     PWSCF        :  41m49.71s CPU  46m24.15s WALL


   This run was terminated on:  19:10:47  13Aug2026            

=------------------------------------------------------------------------------=
   JOB DONE.
=------------------------------------------------------------------------------=
Note: The following floating-point exceptions are signalling: IEEE_UNDERFLOW_FLAG IEEE_DENORMAL
Note: The following floating-point exceptions are signalling: IEEE_UNDERFLOW_FLAG IEEE_DENORMAL
