
     Program PWSCF v.7.5 starts on 11Aug2026 at 10:21:46 

     This program is part of the open-source Quantum ESPRESSO suite
     for quantum simulation of materials; please cite
         "P. Giannozzi et al., J. Phys.:Condens. Matter 21 395502 (2009);
         "P. Giannozzi et al., J. Phys.:Condens. Matter 29 465901 (2017);
         "P. Giannozzi et al., J. Chem. Phys. 152 154105 (2020);
          URL http://www.quantum-espresso.org", 
     in publications or presentations arising from this work. More details at
     http://www.quantum-espresso.org/quote

     Parallel version (MPI & OpenMP), running on       4 processor cores
     Number of MPI processes:                 4
     Threads/MPI process:                     1

     MPI processes distributed on     1 nodes
     196743 MiB available memory on the printing compute node when the environment starts

     Reading input from s0_O__1x1_off.run.in

     Current dimensions of program PWSCF are:
     Max number of different atomic species (ntypx) = 10
     Max number of k-points (npk) =  40000
     Max angular momentum in pseudopotentials (lmaxx) =  4
     file O.pbe-n-kjpaw_psl.0.1.UPF: wavefunction(s)  2P renormalized

     K-points division:     npool     =       4
     Subspace diagonalization in iterative solution of the eigenvalue problem:
     a serial algorithm will be used


     G-vector sticks info
     --------------------
     sticks:   dense  smooth     PW     G-vecs:    dense   smooth      PW
     Sum        3587    1793    513               925697   327113   49625

     Using Slab Decomposition



     bravais-lattice index     =            0
     lattice parameter (alat)  =       5.8714  a.u.
     unit-cell volume          =    3384.5999 (a.u.)^3
     number of atoms/cell      =           19
     number of atomic types    =            2
     number of electrons       =       174.00
     number of Kohn-Sham states=          104
     kinetic-energy cutoff     =      80.0000  Ry
     charge density cutoff     =     640.0000  Ry
     scf convergence threshold =      1.0E-06
     mixing beta               =       0.3000
     number of iterations used =            8  local-TF  mixing
     energy convergence thresh.=      1.0E-04
     force convergence thresh. =      2.0E-03
     Exchange-correlation= SLA  PW   PBX  PBC
                           (   1   4   3   4   0   0   0)
     nstep                     =          200


     celldm(1)=   5.871379  celldm(2)=   0.000000  celldm(3)=   0.000000
     celldm(4)=   0.000000  celldm(5)=   0.000000  celldm(6)=   0.000000

     crystal axes: (cart. coord. in units of alat)
               a(1) = (   1.000000   0.000000   0.000000 )  
               a(2) = (   0.000000   2.044624   0.000000 )  
               a(3) = (   0.000000   0.000000   8.178497 )  

     reciprocal axes: (cart. coord. in units 2 pi/alat)
               b(1) = (  1.000000  0.000000  0.000000 )  
               b(2) = (  0.000000  0.489087  0.000000 )  
               b(3) = (  0.000000  0.000000  0.122272 )  


     PseudoPot. # 1 for Ru read from file:
     /usr/share/espresso/pseudo/Ru_ONCV_PBE-1.0.oncvpsp.upf
     MD5 check sum: be037bb81c227cfb9b1461a9f099f4bd
     Pseudo is Norm-conserving, Zval = 16.0
     Generated using ONCVPSP code by D. R. Hamann
     Using radial grid of 1458 points,  6 beta functions with: 
                l(1) =   0
                l(2) =   0
                l(3) =   1
                l(4) =   1
                l(5) =   2
                l(6) =   2

     PseudoPot. # 2 for O  read from file:
     /usr/share/espresso/pseudo/O.pbe-n-kjpaw_psl.0.1.UPF
     MD5 check sum: 0234752ac141de4415c5fc33072bef88
     Pseudo is Projector augmented-wave + core cor, Zval =  6.0
     Generated using "atomic" code by A. Dal Corso  v.5.0.99 svn rev. 10869
     Shape of augmentation charge: BESSEL
     Using radial grid of 1095 points,  4 beta functions with: 
                l(1) =   0
                l(2) =   0
                l(3) =   1
                l(4) =   1
     Q(r) pseudized with 0 coefficients 


     atomic species   valence    mass     pseudopotential
     Ru               16.00   101.07000     Ru( 1.00)
     O                 6.00    15.99900     O ( 1.00)

     No symmetry found



   Cartesian axes

     site n.     atom                  positions (alat units)
         1        Ru     tau(   1) = (   0.0000000   0.5111560   3.0669363  )
         2        Ru     tau(   2) = (   0.5000000   1.5334681   3.0669363  )
         3        Ru     tau(   3) = (   0.0000000   1.5334681   4.0964881  )
         4        Ru     tau(   4) = (   0.5000000   0.5111560   4.0899285  )
         5        Ru     tau(   5) = (   0.0000000   0.5111560   5.1681390  )
         6        Ru     tau(   6) = (   0.5000000   1.5334681   5.1357893  )
         7        O      tau(   7) = (   0.0000000   1.5334681   3.4656380  )
         8        O      tau(   8) = (   0.0000000   1.5334681   2.6682346  )
         9        O      tau(   9) = (   0.5000000   0.1124543   3.0669363  )
        10        O      tau(  10) = (   0.5000000   0.9098578   3.0669363  )
        11        O      tau(  11) = (   0.0000000   0.5111560   4.4997990  )
        12        O      tau(  12) = (   0.0000000   0.5111560   3.6905466  )
        13        O      tau(  13) = (   0.5000000   1.1364034   4.0919575  )
        14        O      tau(  14) = (   0.5000000   1.9305329   4.0919575  )
        15        O      tau(  15) = (   0.0000000   1.5334681   5.4909830  )
        16        O      tau(  16) = (   0.0000000   1.5334681   4.7177498  )
        17        O      tau(  17) = (   0.5000000   0.1190249   5.1060797  )
        18        O      tau(  18) = (   0.5000000   0.9032872   5.1060797  )
        19        O      tau(  19) = (   0.0000000   0.6238049   5.7147932  )

     number of k points=    32  Marzari-Vanderbilt smearing, width (Ry)=  0.0100
                       cart. coord. in units 2pi/alat
        k(    1) = (   0.0000000   0.0000000   0.0000000), wk =   0.0625000
        k(    2) = (   0.0000000   0.1222719   0.0000000), wk =   0.0625000
        k(    3) = (   0.0000000  -0.2445437   0.0000000), wk =   0.0625000
        k(    4) = (   0.0000000  -0.1222719   0.0000000), wk =   0.0625000
        k(    5) = (   0.1250000   0.0000000   0.0000000), wk =   0.0625000
        k(    6) = (   0.1250000   0.1222719   0.0000000), wk =   0.0625000
        k(    7) = (   0.1250000  -0.2445437   0.0000000), wk =   0.0625000
        k(    8) = (   0.1250000  -0.1222719   0.0000000), wk =   0.0625000
        k(    9) = (   0.2500000   0.0000000   0.0000000), wk =   0.0625000
        k(   10) = (   0.2500000   0.1222719   0.0000000), wk =   0.0625000
        k(   11) = (   0.2500000  -0.2445437   0.0000000), wk =   0.0625000
        k(   12) = (   0.2500000  -0.1222719   0.0000000), wk =   0.0625000
        k(   13) = (   0.3750000   0.0000000   0.0000000), wk =   0.0625000
        k(   14) = (   0.3750000   0.1222719   0.0000000), wk =   0.0625000
        k(   15) = (   0.3750000  -0.2445437   0.0000000), wk =   0.0625000
        k(   16) = (   0.3750000  -0.1222719   0.0000000), wk =   0.0625000
        k(   17) = (  -0.5000000   0.0000000   0.0000000), wk =   0.0625000
        k(   18) = (  -0.5000000   0.1222719   0.0000000), wk =   0.0625000
        k(   19) = (  -0.5000000  -0.2445437   0.0000000), wk =   0.0625000
        k(   20) = (  -0.5000000  -0.1222719   0.0000000), wk =   0.0625000
        k(   21) = (  -0.3750000   0.0000000   0.0000000), wk =   0.0625000
        k(   22) = (  -0.3750000   0.1222719   0.0000000), wk =   0.0625000
        k(   23) = (  -0.3750000  -0.2445437   0.0000000), wk =   0.0625000
        k(   24) = (  -0.3750000  -0.1222719   0.0000000), wk =   0.0625000
        k(   25) = (  -0.2500000   0.0000000   0.0000000), wk =   0.0625000
        k(   26) = (  -0.2500000   0.1222719   0.0000000), wk =   0.0625000
        k(   27) = (  -0.2500000  -0.2445437   0.0000000), wk =   0.0625000
        k(   28) = (  -0.2500000  -0.1222719   0.0000000), wk =   0.0625000
        k(   29) = (  -0.1250000   0.0000000   0.0000000), wk =   0.0625000
        k(   30) = (  -0.1250000   0.1222719   0.0000000), wk =   0.0625000
        k(   31) = (  -0.1250000  -0.2445437   0.0000000), wk =   0.0625000
        k(   32) = (  -0.1250000  -0.1222719   0.0000000), wk =   0.0625000

     Dense  grid:   925697 G-vectors     FFT dimensions: (  48, 100, 400)

     Smooth grid:   327113 G-vectors     FFT dimensions: (  36,  72, 288)

     Estimated max dynamical RAM per process >       1.61 GB

     Estimated total dynamical RAM >       5.79 GB

     Initial potential from superposition of free atoms

     starting charge     173.9967, renormalised to     174.0000

     negative rho (up, down):  9.229E-05 0.000E+00
     Starting wfcs are  112 randomized atomic wfcs
     Checking if some PAW data can be deallocated... 

     total cpu time spent up to now is       47.4 secs

     per-process dynamical memory:  1098.7 Mb

     Self-consistent Calculation

     iteration #  1     ecut=    80.00 Ry     beta= 0.30
     Davidson diagonalization with overlap
     ethr =  1.00E-02,  avg # of iterations =  2.0

     negative rho (up, down):  4.143E-07 0.000E+00

     total cpu time spent up to now is      166.2 secs

     total energy              =   -1672.04821431 Ry
     estimated scf accuracy    <       5.33104849 Ry

     iteration #  2     ecut=    80.00 Ry     beta= 0.30
     Davidson diagonalization with overlap
     ethr =  3.06E-03,  avg # of iterations =  1.0

     negative rho (up, down):  6.830E-08 0.000E+00

     total cpu time spent up to now is      266.6 secs

     total energy              =   -1672.13545688 Ry
     estimated scf accuracy    <       1.29457872 Ry

     iteration #  3     ecut=    80.00 Ry     beta= 0.30
     Davidson diagonalization with overlap
     ethr =  7.44E-04,  avg # of iterations =  2.2

     total cpu time spent up to now is      374.3 secs

     total energy              =   -1672.22119612 Ry
     estimated scf accuracy    <       0.74006429 Ry

     iteration #  4     ecut=    80.00 Ry     beta= 0.30
     Davidson diagonalization with overlap
     ethr =  4.25E-04,  avg # of iterations =  2.0

     total cpu time spent up to now is      480.3 secs

     total energy              =   -1672.24460367 Ry
     estimated scf accuracy    <       0.13972029 Ry

     iteration #  5     ecut=    80.00 Ry     beta= 0.30
     Davidson diagonalization with overlap
     ethr =  8.03E-05,  avg # of iterations =  2.0

     total cpu time spent up to now is      586.6 secs

     total energy              =   -1672.24733972 Ry
     estimated scf accuracy    <       0.07582614 Ry

     iteration #  6     ecut=    80.00 Ry     beta= 0.30
     Davidson diagonalization with overlap
     ethr =  4.36E-05,  avg # of iterations =  2.8

     total cpu time spent up to now is      692.3 secs

     total energy              =   -1672.24582151 Ry
     estimated scf accuracy    <       0.03021256 Ry

     iteration #  7     ecut=    80.00 Ry     beta= 0.30
     Davidson diagonalization with overlap
     ethr =  1.74E-05,  avg # of iterations =  4.8

     total cpu time spent up to now is      811.5 secs

     total energy              =   -1672.24626919 Ry
     estimated scf accuracy    <       0.01338538 Ry

     iteration #  8     ecut=    80.00 Ry     beta= 0.30
     Davidson diagonalization with overlap
     ethr =  7.69E-06,  avg # of iterations =  4.1

     total cpu time spent up to now is      927.2 secs

     total energy              =   -1672.24584026 Ry
     estimated scf accuracy    <       0.01090466 Ry

     iteration #  9     ecut=    80.00 Ry     beta= 0.30
     Davidson diagonalization with overlap
     ethr =  6.27E-06,  avg # of iterations =  1.5

     total cpu time spent up to now is     1030.3 secs

     total energy              =   -1672.24516930 Ry
     estimated scf accuracy    <       0.00526181 Ry

     iteration # 10     ecut=    80.00 Ry     beta= 0.30
     Davidson diagonalization with overlap
     ethr =  3.02E-06,  avg # of iterations =  4.2

     total cpu time spent up to now is     1143.1 secs

     total energy              =   -1672.24505461 Ry
     estimated scf accuracy    <       0.00293184 Ry

     iteration # 11     ecut=    80.00 Ry     beta= 0.30
     Davidson diagonalization with overlap
     ethr =  1.68E-06,  avg # of iterations =  1.7

     negative rho (up, down):  3.383E-04 0.000E+00

     total cpu time spent up to now is     1246.5 secs

     total energy              =   -1672.24489295 Ry
     estimated scf accuracy    <       0.00183639 Ry

     iteration # 12     ecut=    80.00 Ry     beta= 0.30
     Davidson diagonalization with overlap
     ethr =  1.06E-06,  avg # of iterations =  1.0

     negative rho (up, down):  1.811E-03 0.000E+00

     total cpu time spent up to now is     1346.9 secs

     total energy              =   -1672.24484986 Ry
     estimated scf accuracy    <       0.00089292 Ry

     iteration # 13     ecut=    80.00 Ry     beta= 0.30
     Davidson diagonalization with overlap
     ethr =  5.13E-07,  avg # of iterations =  1.2

     negative rho (up, down):  2.790E-03 0.000E+00

     total cpu time spent up to now is     1449.5 secs

     total energy              =   -1672.24485401 Ry
     estimated scf accuracy    <       0.00052228 Ry

     iteration # 14     ecut=    80.00 Ry     beta= 0.30
     Davidson diagonalization with overlap
     ethr =  3.00E-07,  avg # of iterations =  1.0

     negative rho (up, down):  2.252E-03 0.000E+00

     total cpu time spent up to now is     1550.6 secs

     total energy              =   -1672.24485414 Ry
     estimated scf accuracy    <       0.00043610 Ry

     iteration # 15     ecut=    80.00 Ry     beta= 0.30
     Davidson diagonalization with overlap
     ethr =  2.51E-07,  avg # of iterations =  1.0

     negative rho (up, down):  2.558E-03 0.000E+00

     total cpu time spent up to now is     1651.1 secs

     total energy              =   -1672.24488350 Ry
     estimated scf accuracy    <       0.00024448 Ry

     iteration # 16     ecut=    80.00 Ry     beta= 0.30
     Davidson diagonalization with overlap
     ethr =  1.41E-07,  avg # of iterations =  1.0

     negative rho (up, down):  2.239E-03 0.000E+00

     total cpu time spent up to now is     1751.1 secs

     total energy              =   -1672.24491300 Ry
     estimated scf accuracy    <       0.00011465 Ry

     iteration # 17     ecut=    80.00 Ry     beta= 0.30
     Davidson diagonalization with overlap
     ethr =  6.59E-08,  avg # of iterations =  1.1

     negative rho (up, down):  2.248E-03 0.000E+00

     total cpu time spent up to now is     1850.6 secs

     total energy              =   -1672.24493604 Ry
     estimated scf accuracy    <       0.00005115 Ry

     iteration # 18     ecut=    80.00 Ry     beta= 0.30
     Davidson diagonalization with overlap
     ethr =  2.94E-08,  avg # of iterations =  1.2

     negative rho (up, down):  1.190E-03 0.000E+00

     total cpu time spent up to now is     1953.1 secs

     total energy              =   -1672.24493192 Ry
     estimated scf accuracy    <       0.00003645 Ry

     iteration # 19     ecut=    80.00 Ry     beta= 0.30
     Davidson diagonalization with overlap
     ethr =  2.09E-08,  avg # of iterations =  1.1

     negative rho (up, down):  9.454E-04 0.000E+00

     total cpu time spent up to now is     2054.0 secs

     total energy              =   -1672.24493860 Ry
     estimated scf accuracy    <       0.00001147 Ry

     iteration # 20     ecut=    80.00 Ry     beta= 0.30
     Davidson diagonalization with overlap
     ethr =  6.59E-09,  avg # of iterations =  1.1

     negative rho (up, down):  5.309E-04 0.000E+00

     total cpu time spent up to now is     2153.3 secs

     total energy              =   -1672.24493912 Ry
     estimated scf accuracy    <       0.00000733 Ry

     iteration # 21     ecut=    80.00 Ry     beta= 0.30
     Davidson diagonalization with overlap
     ethr =  4.21E-09,  avg # of iterations =  1.3

     negative rho (up, down):  3.742E-04 0.000E+00

     total cpu time spent up to now is     2258.6 secs

     total energy              =   -1672.24493907 Ry
     estimated scf accuracy    <       0.00000211 Ry

     iteration # 22     ecut=    80.00 Ry     beta= 0.30
     Davidson diagonalization with overlap
     ethr =  1.21E-09,  avg # of iterations =  2.1

     negative rho (up, down):  1.085E-04 0.000E+00

     total cpu time spent up to now is     2359.0 secs

     End of self-consistent calculation

          k = 0.0000 0.0000 0.0000 ( 40831 PWs)   bands (ev):

   -73.4233 -72.8099 -72.5662 -72.4157 -72.3725 -72.0950 -43.9017 -43.2354
   -43.0567 -42.8818 -42.7771 -42.7335 -42.6834 -42.6556 -42.6383 -42.4365
   -42.4251 -42.3274 -42.2800 -42.2438 -42.2313 -42.1913 -41.9875 -41.9505
   -18.9562 -18.7345 -18.5217 -18.2676 -18.0137 -17.8590 -17.3028 -17.2093
   -17.1730 -17.1008 -16.8977 -16.7509 -16.1522  -7.4503  -7.2710  -7.2602
    -6.6601  -6.4585  -6.0532  -5.8003  -5.7660  -5.7295  -5.6575  -5.5656
    -5.5363  -5.3302  -5.1508  -4.4866  -4.1628  -3.4230  -3.4068  -3.2284
    -3.0843  -3.0045  -2.9432  -2.7389  -2.7368  -2.6495  -2.5951  -2.4818
    -2.3991  -2.2728  -2.1612  -2.0161  -2.0034  -1.6808  -1.4880  -1.4431
    -1.2655  -1.1698  -0.7748  -0.7138  -0.5647  -0.4678  -0.2615  -0.2371
    -0.1863  -0.1718   0.2337   0.2737   0.4375   0.4935   0.9610   1.0910
     1.2110   1.3716   1.7177   1.9945   2.1918   2.2568   2.6681   3.4531
     4.1475   4.6803   5.0750   5.1639   5.3483   5.4842   5.6958   5.7437

          k = 0.0000 0.1223 0.0000 ( 40974 PWs)   bands (ev):

   -73.4233 -72.8099 -72.5662 -72.4156 -72.3725 -72.0950 -43.9017 -43.2354
   -43.0527 -42.8859 -42.7772 -42.7325 -42.6834 -42.6539 -42.6382 -42.4364
   -42.4251 -42.3274 -42.2800 -42.2420 -42.2331 -42.1932 -41.9876 -41.9517
   -18.8358 -18.6041 -18.3986 -18.3133 -18.0314 -17.8910 -17.3903 -17.3461
   -17.2916 -17.2002 -16.8830 -16.7629 -16.1494  -7.0316  -6.8261  -6.7972
    -6.6531  -6.4482  -5.9841  -5.7984  -5.6654  -5.6496  -5.5763  -5.5330
    -5.4631  -5.3291  -4.9598  -4.5500  -4.2166  -4.0474  -3.7867  -3.5714
    -3.4794  -3.3837  -3.2871  -2.9195  -2.8881  -2.8211  -2.7341  -2.6978
    -2.5455  -2.3881  -2.2293  -2.1424  -2.1071  -1.7615  -1.6655  -1.5966
    -1.3699  -1.1490  -0.9355  -0.7191  -0.1023  -0.0081   0.0755   0.2192
     0.3084   0.3538   0.3764   0.4737   0.5024   0.5890   0.9501   1.0520
     1.2684   1.4180   1.7257   1.7895   1.9943   2.3230   2.5490   3.8505
     4.5582   4.8371   4.8597   5.1639   5.3565   5.4396   5.4748   5.5144

          k = 0.0000-0.2445 0.0000 ( 41014 PWs)   bands (ev):

   -73.4233 -72.8099 -72.5662 -72.4156 -72.3726 -72.0950 -43.9017 -43.2353
   -43.0485 -42.8903 -42.7772 -42.7315 -42.6834 -42.6522 -42.6382 -42.4364
   -42.4251 -42.3274 -42.2800 -42.2389 -42.2362 -42.1951 -41.9876 -41.9529
   -18.5967 -18.5245 -18.3739 -18.1523 -18.1060 -17.9904 -17.5251 -17.5070
   -17.4644 -17.2200 -16.8612 -16.7830 -16.1471  -6.6958  -6.4847  -6.3804
    -6.0568  -6.0085  -5.9077  -5.7954  -5.6455  -5.5699  -5.5164  -5.4893
    -5.3231  -5.0235  -4.9556  -4.6374  -4.5892  -4.5213  -4.4897  -4.3168
    -4.2192  -3.5792  -3.4955  -3.3415  -3.1738  -3.1499  -2.8416  -2.7345
    -2.5851  -2.4957  -2.1893  -2.1466  -1.9738  -1.7306  -1.6560  -1.4349
    -1.2461  -1.0735  -1.0285  -0.9724   0.1317   0.1566   0.3166   0.3553
     0.4721   0.6414   0.7622   0.7824   0.8398   0.8854   1.0128   1.0871
     1.1808   1.4977   1.5104   1.5732   1.9616   2.0808   2.6794   4.3046
     4.5737   4.7109   5.1585   5.1637   5.1649   5.2211   5.4936   5.5563

          k = 0.0000-0.1223 0.0000 ( 40974 PWs)   bands (ev):

   -73.4233 -72.8099 -72.5662 -72.4156 -72.3725 -72.0950 -43.9017 -43.2354
   -43.0527 -42.8859 -42.7772 -42.7325 -42.6834 -42.6539 -42.6382 -42.4364
   -42.4251 -42.3274 -42.2800 -42.2420 -42.2331 -42.1932 -41.9876 -41.9517
   -18.8358 -18.6041 -18.3986 -18.3133 -18.0314 -17.8910 -17.3903 -17.3461
   -17.2916 -17.2002 -16.8830 -16.7629 -16.1494  -7.0316  -6.8261  -6.7972
    -6.6531  -6.4482  -5.9841  -5.7984  -5.6654  -5.6496  -5.5763  -5.5330
    -5.4631  -5.3291  -4.9598  -4.5500  -4.2166  -4.0474  -3.7867  -3.5714
    -3.4794  -3.3837  -3.2871  -2.9195  -2.8881  -2.8211  -2.7341  -2.6978
    -2.5455  -2.3881  -2.2293  -2.1424  -2.1071  -1.7615  -1.6655  -1.5966
    -1.3699  -1.1490  -0.9355  -0.7191  -0.1023  -0.0081   0.0755   0.2192
     0.3084   0.3538   0.3764   0.4737   0.5024   0.5890   0.9501   1.0520
     1.2684   1.4180   1.7257   1.7895   1.9943   2.3230   2.5490   3.8505
     4.5582   4.8371   4.8597   5.1639   5.3565   5.4396   5.4748   5.5144

          k = 0.1250 0.0000 0.0000 ( 40851 PWs)   bands (ev):

   -73.4218 -72.8083 -72.5647 -72.4142 -72.3710 -72.0934 -43.8999 -43.2611
   -43.0514 -42.8810 -42.8058 -42.7315 -42.6782 -42.6534 -42.6367 -42.4511
   -42.4323 -42.3241 -42.2780 -42.2696 -42.2578 -42.1872 -42.0149 -41.9461
   -18.8276 -18.6183 -18.4126 -18.1823 -17.9339 -17.7819 -17.3448 -17.2811
   -17.2379 -17.1802 -16.9540 -16.7725 -16.1939  -7.2672  -7.0944  -7.0814
    -6.4760  -6.4502  -6.0887  -5.8355  -5.7817  -5.6568  -5.6005  -5.4718
    -5.2407  -5.0535  -4.9384  -4.3474  -4.0454  -3.9460  -3.4509  -3.2993
    -3.2210  -3.1726  -3.1024  -3.0853  -2.9298  -2.7988  -2.7348  -2.6245
    -2.3608  -2.2616  -2.2045  -2.1528  -2.0947  -2.0450  -1.8884  -1.7218
    -1.5616  -1.1122  -1.0860  -0.7030  -0.4165  -0.2370  -0.0154   0.0286
     0.1184   0.2970   0.4253   0.4891   0.6383   0.6579   1.1155   1.1913
     1.2862   1.4008   1.6059   1.8481   2.1091   2.3268   2.5256   3.6284
     4.2672   4.7249   4.7863   4.8587   5.0266   5.3310   5.3772   5.4298

          k = 0.1250 0.1223 0.0000 ( 40932 PWs)   bands (ev):

   -73.4218 -72.8083 -72.5647 -72.4141 -72.3710 -72.0934 -43.8999 -43.2612
   -43.0480 -42.8845 -42.8058 -42.7307 -42.6782 -42.6521 -42.6367 -42.4511
   -42.4323 -42.3241 -42.2779 -42.2680 -42.2593 -42.1885 -42.0148 -41.9471
   -18.7139 -18.4949 -18.2917 -18.2261 -17.9403 -17.8190 -17.4479 -17.4091
   -17.3575 -17.2382 -16.9422 -16.7821 -16.1916  -6.8631  -6.6769  -6.6408
    -6.4795  -6.4322  -5.9952  -5.7928  -5.7206  -5.6712  -5.5587  -5.2820
    -5.2074  -5.0551  -4.8221  -4.4009  -4.1672  -4.0325  -3.9375  -3.7240
    -3.4819  -3.4505  -3.3632  -3.3469  -3.1983  -3.1549  -2.9874  -2.8371
    -2.6279  -2.4956  -2.3017  -2.2284  -2.1006  -2.0175  -1.7685  -1.5538
    -1.3900  -1.0975  -1.0074  -0.7856  -0.0697   0.1271   0.1836   0.2389
     0.3549   0.4097   0.6359   0.6922   0.7720   0.8480   1.1213   1.2044
     1.3213   1.4160   1.6284   1.6955   1.8919   2.2741   2.5473   3.9507
     4.3988   4.6836   4.7956   4.8274   4.9729   5.1668   5.2251   5.3466

          k = 0.1250-0.2445 0.0000 ( 40974 PWs)   bands (ev):

   -73.4218 -72.8083 -72.5647 -72.4141 -72.3710 -72.0934 -43.8999 -43.2613
   -43.0444 -42.8881 -42.8058 -42.7300 -42.6782 -42.6508 -42.6366 -42.4511
   -42.4323 -42.3242 -42.2779 -42.2655 -42.2619 -42.1900 -42.0147 -41.9480
   -18.4899 -18.4154 -18.2691 -18.0584 -18.0088 -17.9134 -17.5862 -17.5761
   -17.5080 -17.2468 -16.9277 -16.7949 -16.1898  -6.5110  -6.4709  -6.1629
    -5.9781  -5.8652  -5.7928  -5.7785  -5.7117  -5.6813  -5.6648  -5.2704
    -5.0770  -4.8676  -4.7823  -4.6491  -4.4957  -4.2858  -4.1664  -4.1445
    -4.0832  -3.9962  -3.8972  -3.7627  -3.4066  -3.3935  -3.2493  -2.8858
    -2.6412  -2.6225  -2.3146  -2.2535  -1.9717  -1.7719  -1.5731  -1.4324
    -1.2066  -1.0617  -1.0371  -0.9381   0.1389   0.2017   0.2688   0.3706
     0.4983   0.5576   0.7429   1.0693   1.0813   1.1250   1.1836   1.2240
     1.3795   1.3981   1.4964   1.6090   1.8785   1.9674   2.6942   4.0892
     4.3971   4.5072   4.6895   4.7707   5.0208   5.0581   5.2757   5.4052

          k = 0.1250-0.1223 0.0000 ( 40932 PWs)   bands (ev):

   -73.4218 -72.8083 -72.5647 -72.4141 -72.3710 -72.0934 -43.8999 -43.2612
   -43.0480 -42.8845 -42.8058 -42.7307 -42.6782 -42.6521 -42.6367 -42.4511
   -42.4323 -42.3241 -42.2779 -42.2680 -42.2593 -42.1885 -42.0148 -41.9471
   -18.7139 -18.4949 -18.2917 -18.2261 -17.9403 -17.8190 -17.4479 -17.4091
   -17.3575 -17.2382 -16.9422 -16.7821 -16.1916  -6.8631  -6.6769  -6.6408
    -6.4795  -6.4322  -5.9952  -5.7928  -5.7206  -5.6712  -5.5587  -5.2820
    -5.2074  -5.0551  -4.8221  -4.4009  -4.1672  -4.0325  -3.9375  -3.7240
    -3.4819  -3.4505  -3.3632  -3.3469  -3.1983  -3.1549  -2.9874  -2.8371
    -2.6279  -2.4956  -2.3017  -2.2284  -2.1006  -2.0175  -1.7685  -1.5538
    -1.3900  -1.0975  -1.0074  -0.7856  -0.0697   0.1271   0.1836   0.2389
     0.3549   0.4097   0.6359   0.6922   0.7720   0.8480   1.1213   1.2044
     1.3213   1.4160   1.6284   1.6955   1.8919   2.2741   2.5473   3.9507
     4.3988   4.6836   4.7956   4.8274   4.9729   5.1668   5.2251   5.3466

          k = 0.2500 0.0000 0.0000 ( 40947 PWs)   bands (ev):

   -73.4182 -72.8044 -72.5611 -72.4105 -72.3673 -72.0897 -43.8955 -43.3225
   -43.0384 -42.8795 -42.8741 -42.7266 -42.6654 -42.6479 -42.6338 -42.5130
   -42.4225 -42.3350 -42.3277 -42.3073 -42.2715 -42.1772 -42.0803 -41.9354
   -18.5014 -18.3321 -18.1440 -18.0134 -17.8009 -17.5896 -17.4856 -17.4533
   -17.3763 -17.3190 -17.0966 -16.7653 -16.2476  -6.7990  -6.6462  -6.6115
    -6.2649  -6.0340  -6.0019  -5.8571  -5.8355  -5.5006  -5.4478  -5.0288
    -4.9728  -4.6567  -4.5364  -4.4754  -4.2700  -4.1366  -4.0545  -4.0077
    -3.7894  -3.6668  -3.3778  -3.2321  -3.0554  -3.0296  -2.8686  -2.8045
    -2.7094  -2.5048  -2.4104  -2.2666  -2.2168  -2.0868  -1.9572  -1.6435
    -1.3984  -1.2780  -1.1573  -0.9864  -0.2263  -0.1394   0.1782   0.4205
     0.4693   0.5582   0.7663   0.9426   1.0237   1.1318   1.1625   1.2609
     1.3321   1.4374   1.4997   1.5891   1.8208   2.1439   2.4557   3.8956
     4.0810   4.2637   4.3639   4.6346   4.6869   4.7823   4.8516   4.9273

          k = 0.2500 0.1223 0.0000 ( 40905 PWs)   bands (ev):

   -73.4182 -72.8044 -72.5611 -72.4105 -72.3673 -72.0897 -43.8955 -43.3230
   -43.0365 -42.8814 -42.8738 -42.7264 -42.6654 -42.6478 -42.6338 -42.5131
   -42.4224 -42.3339 -42.3282 -42.3075 -42.2715 -42.1777 -42.0800 -41.9359
   -18.4154 -18.2405 -18.0517 -18.0420 -17.7988 -17.6634 -17.5665 -17.5190
   -17.4886 -17.3032 -17.0904 -16.7703 -16.2471  -6.4878  -6.3542  -6.2930
    -6.2378  -6.0098  -5.8963  -5.8320  -5.6706  -5.5784  -5.3907  -5.1051
    -4.7883  -4.7229  -4.6741  -4.5083  -4.4722  -4.3791  -4.1974  -4.0997
    -4.0040  -3.5926  -3.4866  -3.3678  -3.2182  -3.1529  -3.0330  -2.9511
    -2.7830  -2.6462  -2.4500  -2.2814  -2.1899  -2.0818  -1.9453  -1.6191
    -1.3915  -1.2755  -1.1127  -1.0313  -0.2369   0.0830   0.4069   0.4462
     0.5288   0.8053   0.8661   0.9390   1.0265   1.1096   1.1726   1.2384
     1.3253   1.4812   1.5624   1.6366   1.7590   2.0256   2.5733   3.7030
     3.9908   4.1099   4.2075   4.3119   4.6382   4.7271   5.1406   5.2970

          k = 0.2500-0.2445 0.0000 ( 40892 PWs)   bands (ev):

   -73.4182 -72.8044 -72.5611 -72.4105 -72.3673 -72.0897 -43.8955 -43.3234
   -43.0346 -42.8831 -42.8736 -42.7263 -42.6654 -42.6477 -42.6338 -42.5131
   -42.4224 -42.3326 -42.3289 -42.3077 -42.2715 -42.1783 -42.0796 -41.9363
   -18.2542 -18.1784 -18.0356 -17.9225 -17.7994 -17.7711 -17.7288 -17.6439
   -17.5306 -17.2976 -17.0840 -16.7756 -16.2466  -6.2838  -6.0377  -6.0084
    -5.8431  -5.8184  -5.8158  -5.6812  -5.5794  -5.3498  -5.3233  -5.2450
    -5.0259  -5.0177  -4.9399  -4.7832  -4.5823  -4.4706  -4.2431  -4.0486
    -3.8108  -3.7399  -3.6657  -3.5878  -3.5358  -3.4475  -3.3174  -3.2953
    -2.8439  -2.8104  -2.3656  -2.2659  -2.0116  -1.8941  -1.6659  -1.6213
    -1.3411  -1.3347  -1.1681  -1.0029  -0.0378   0.0129   0.2477   0.5261
     0.5624   0.8493   0.9903   1.0638   1.0894   1.1134   1.2588   1.3522
     1.3677   1.5567   1.6247   1.7314   1.7887   1.8861   2.6657   3.3088
     3.7251   3.8077   4.0536   4.2938   4.6535   5.0396   5.1608   5.5622

          k = 0.2500-0.1223 0.0000 ( 40905 PWs)   bands (ev):

   -73.4182 -72.8044 -72.5611 -72.4105 -72.3673 -72.0897 -43.8955 -43.3230
   -43.0365 -42.8814 -42.8738 -42.7264 -42.6654 -42.6478 -42.6338 -42.5131
   -42.4224 -42.3339 -42.3282 -42.3075 -42.2715 -42.1777 -42.0800 -41.9359
   -18.4154 -18.2405 -18.0517 -18.0420 -17.7988 -17.6634 -17.5665 -17.5190
   -17.4886 -17.3032 -17.0904 -16.7703 -16.2471  -6.4878  -6.3542  -6.2930
    -6.2378  -6.0098  -5.8963  -5.8320  -5.6706  -5.5784  -5.3907  -5.1051
    -4.7883  -4.7229  -4.6741  -4.5083  -4.4722  -4.3791  -4.1974  -4.0997
    -4.0040  -3.5926  -3.4866  -3.3678  -3.2182  -3.1529  -3.0330  -2.9511
    -2.7830  -2.6462  -2.4500  -2.2814  -2.1899  -2.0818  -1.9453  -1.6191
    -1.3915  -1.2755  -1.1127  -1.0313  -0.2369   0.0830   0.4069   0.4462
     0.5288   0.8053   0.8661   0.9390   1.0265   1.1096   1.1726   1.2384
     1.3253   1.4812   1.5624   1.6366   1.7590   2.0256   2.5733   3.7030
     3.9908   4.1099   4.2075   4.3119   4.6382   4.7271   5.1406   5.2970

          k = 0.3750 0.0000 0.0000 ( 40852 PWs)   bands (ev):

   -73.4146 -72.8006 -72.5574 -72.4069 -72.3636 -72.0859 -43.8911 -43.3834
   -43.0251 -42.9415 -42.8782 -42.7217 -42.6513 -42.6425 -42.6338 -42.5730
   -42.4140 -42.3938 -42.3884 -42.3032 -42.2654 -42.1671 -42.1450 -41.9246
   -18.1560 -18.0476 -17.9088 -17.8729 -17.7615 -17.6465 -17.6228 -17.5551
   -17.4708 -17.3283 -17.1163 -16.7197 -16.2203  -6.3626  -6.1948  -6.0700
    -6.0364  -5.9008  -5.8814  -5.6773  -5.6062  -5.5002  -5.4149  -5.2347
    -5.0397  -4.8529  -4.8071  -4.5669  -4.4403  -4.3287  -4.2155  -3.9715
    -3.6602  -3.5064  -3.4347  -3.3938  -3.3321  -3.1894  -3.0463  -2.8348
    -2.7136  -2.5441  -2.4399  -2.3052  -2.2169  -2.0317  -1.9090  -1.5421
    -1.4103  -1.3882  -1.1270  -0.9883  -0.1664   0.0057   0.2493   0.4419
     0.5468   0.6301   0.7320   0.7596   0.8346   1.0048   1.1176   1.1968
     1.3252   1.4887   1.6119   1.7640   1.9298   2.1202   2.3325   3.3833
     3.8100   3.9843   4.2442   4.3599   4.4551   4.5013   4.7401   4.9054

          k = 0.3750 0.1223 0.0000 ( 40842 PWs)   bands (ev):

   -73.4146 -72.8006 -72.5574 -72.4069 -72.3636 -72.0859 -43.8911 -43.3840
   -43.0253 -42.9406 -42.8782 -42.7222 -42.6513 -42.6438 -42.6338 -42.5731
   -42.4138 -42.3922 -42.3889 -42.3032 -42.2654 -42.1670 -42.1442 -41.9246
   -18.1373 -18.0490 -17.9669 -17.9105 -17.8273 -17.6321 -17.5618 -17.5033
   -17.4693 -17.3179 -17.1157 -16.7227 -16.2205  -6.2437  -6.1372  -6.0934
    -6.0733  -5.9742  -5.7829  -5.6811  -5.6237  -5.5035  -5.4784  -5.3667
    -5.0308  -4.7700  -4.7139  -4.5551  -4.4725  -4.3015  -3.9738  -3.8405
    -3.6652  -3.5702  -3.3894  -3.3168  -3.2391  -3.1163  -3.0327  -2.8977
    -2.7663  -2.6140  -2.5049  -2.2758  -2.1298  -2.0606  -1.9392  -1.6747
    -1.5590  -1.3738  -1.2400  -1.1157  -0.1704  -0.0831   0.1691   0.2362
     0.5082   0.5710   0.5941   0.7275   0.7820   0.8949   0.9402   1.1951
     1.6449   1.6941   1.7957   1.8436   2.0050   2.0254   2.4433   3.1701
     3.4523   3.6223   3.7222   4.0204   4.2625   5.0737   5.4188   5.4386

          k = 0.3750-0.2445 0.0000 ( 40856 PWs)   bands (ev):

   -73.4146 -72.8006 -72.5574 -72.4068 -72.3636 -72.0859 -43.8911 -43.3847
   -43.0255 -42.9397 -42.8782 -42.7227 -42.6513 -42.6450 -42.6338 -42.5732
   -42.4137 -42.3903 -42.3898 -42.3033 -42.2654 -42.1668 -42.1435 -41.9246
   -18.0973 -18.0635 -18.0321 -17.9355 -17.8646 -17.6353 -17.5116 -17.4793
   -17.4527 -17.3082 -17.1149 -16.7258 -16.2208  -6.2672  -6.0914  -5.9549
    -5.9431  -5.8785  -5.8325  -5.7845  -5.7068  -5.6340  -5.5869  -5.4280
    -4.8882  -4.8079  -4.5570  -4.5154  -4.3156  -4.1567  -4.0664  -3.7315
    -3.5704  -3.4442  -3.4038  -3.2985  -3.2296  -3.1827  -3.0558  -2.9984
    -2.8068  -2.7564  -2.3768  -2.2356  -2.1441  -2.0464  -1.9065  -1.8061
    -1.6032  -1.3754  -1.2950  -1.2748  -0.3481  -0.3010  -0.1187   0.2872
     0.4476   0.5698   0.6214   0.7370   0.7907   0.8519   0.9808   1.2055
     1.5479   1.7592   1.9223   1.9479   2.0856   2.1814   2.5412   2.7641
     3.1870   3.2904   3.4804   4.0470   4.2649   5.3986   5.4797   5.7819

          k = 0.3750-0.1223 0.0000 ( 40842 PWs)   bands (ev):

   -73.4146 -72.8006 -72.5574 -72.4069 -72.3636 -72.0859 -43.8911 -43.3840
   -43.0253 -42.9406 -42.8782 -42.7222 -42.6513 -42.6438 -42.6338 -42.5731
   -42.4138 -42.3922 -42.3889 -42.3032 -42.2654 -42.1670 -42.1442 -41.9246
   -18.1373 -18.0490 -17.9669 -17.9105 -17.8273 -17.6321 -17.5617 -17.5033
   -17.4693 -17.3179 -17.1157 -16.7227 -16.2205  -6.2437  -6.1372  -6.0934
    -6.0733  -5.9742  -5.7829  -5.6811  -5.6237  -5.5035  -5.4784  -5.3667
    -5.0308  -4.7700  -4.7139  -4.5551  -4.4725  -4.3015  -3.9738  -3.8405
    -3.6652  -3.5702  -3.3894  -3.3168  -3.2391  -3.1163  -3.0327  -2.8977
    -2.7663  -2.6140  -2.5049  -2.2758  -2.1298  -2.0606  -1.9392  -1.6747
    -1.5590  -1.3738  -1.2400  -1.1157  -0.1704  -0.0831   0.1691   0.2362
     0.5082   0.5710   0.5941   0.7275   0.7820   0.8949   0.9402   1.1951
     1.6449   1.6941   1.7957   1.8436   2.0050   2.0254   2.4433   3.1701
     3.4523   3.6223   3.7222   4.0204   4.2625   5.0737   5.4188   5.4386

          k =-0.5000 0.0000 0.0000 ( 40876 PWs)   bands (ev):

   -73.4132 -72.7990 -72.5559 -72.4053 -72.3621 -72.0844 -43.8892 -43.4085
   -43.0195 -42.9691 -42.8778 -42.7196 -42.6435 -42.6402 -42.6376 -42.5958
   -42.4237 -42.4147 -42.4051 -42.3001 -42.2629 -42.1714 -42.1629 -41.9201
   -18.0552 -17.9094 -17.8600 -17.8137 -17.7337 -17.7058 -17.6670 -17.6221
   -17.4921 -17.3251 -17.0443 -16.6936 -16.1836  -6.3342  -6.1672  -5.9898
    -5.8147  -5.7970  -5.7163  -5.5797  -5.5559  -5.5447  -5.4347  -5.2695
    -5.1858  -5.0606  -4.9244  -4.7494  -4.5139  -4.1281  -3.7549  -3.7122
    -3.7053  -3.7029  -3.6381  -3.5978  -3.4406  -2.9932  -2.8728  -2.7199
    -2.6337  -2.5119  -2.3976  -2.3778  -2.1384  -1.9810  -1.8581  -1.7150
    -1.5913  -1.2767  -1.0328  -0.9289  -0.2014   0.0465   0.0513   0.4337
     0.5386   0.5447   0.5833   0.6369   0.6943   0.7577   0.9968   1.1443
     1.2691   1.4579   1.8113   1.8949   2.1150   2.2218   2.2970   3.1599
     3.6722   3.9252   4.1833   4.2285   4.3375   4.5139   4.7237   4.8761

          k =-0.5000 0.1223 0.0000 ( 40858 PWs)   bands (ev):

   -73.4132 -72.7990 -72.5559 -72.4053 -72.3621 -72.0844 -43.8893 -43.4092
   -43.0212 -42.9674 -42.8770 -42.7204 -42.6439 -42.6419 -42.6376 -42.5959
   -42.4219 -42.4151 -42.4048 -42.3001 -42.2628 -42.1705 -42.1625 -41.9199
   -18.0497 -18.0157 -17.9839 -17.9362 -17.8625 -17.5437 -17.4964 -17.4917
   -17.4553 -17.3249 -17.0464 -16.6957 -16.1831  -6.3021  -6.2337  -6.1303
    -6.1290  -6.0242  -5.7794  -5.6897  -5.6264  -5.6219  -5.3750  -5.2196
    -5.0297  -4.8546  -4.6085  -4.4283  -4.1383  -3.8903  -3.8661  -3.8142
    -3.6921  -3.6566  -3.6396  -3.5509  -3.0389  -2.9395  -2.8357  -2.6433
    -2.6400  -2.5295  -2.4548  -2.2743  -2.2086  -2.0660  -1.8600  -1.6847
    -1.6146  -1.5197  -1.2535  -1.1089  -0.1995  -0.0683   0.0085   0.0536
     0.1841   0.4187   0.4606   0.5366   0.5631   0.5812   0.7163   1.1698
     1.7737   1.8246   1.9647   1.9864   2.1530   2.1714   2.3736   3.0113
     3.2085   3.4239   3.5501   3.9568   4.1862   5.3097   5.4302   5.5627

          k =-0.5000-0.2445 0.0000 ( 40872 PWs)   bands (ev):

   -73.4132 -72.7990 -72.5559 -72.4053 -72.3621 -72.0844 -43.8893 -43.4099
   -43.0227 -42.9658 -42.8762 -42.7213 -42.6450 -42.6428 -42.6377 -42.5960
   -42.4202 -42.4155 -42.4044 -42.3001 -42.2628 -42.1696 -42.1621 -41.9198
   -18.0860 -18.0744 -18.0439 -18.0274 -17.8653 -17.4911 -17.4682 -17.3967
   -17.3578 -17.3247 -17.0485 -16.6979 -16.1826  -6.5126  -6.3040  -6.2267
    -6.1005  -6.0732  -5.8024  -5.6925  -5.6866  -5.6249  -5.4953  -5.2219
    -4.9778  -4.9778  -4.1741  -4.0999  -3.9285  -3.9073  -3.7637  -3.6273
    -3.6110  -3.5153  -3.4371  -3.2429  -3.1603  -2.9474  -2.8412  -2.8335
    -2.6694  -2.4528  -2.2779  -2.1808  -2.1776  -1.9681  -1.8681  -1.8064
    -1.7413  -1.7284  -1.5812  -1.2904  -0.5435  -0.2703  -0.2064  -0.0050
     0.0750   0.1577   0.4214   0.4410   0.5742   0.5802   0.7306   1.2166
     1.7246   1.8781   2.0444   2.0887   2.3288   2.3384   2.4274   2.6078
     3.0394   3.1621   3.2455   3.9862   4.1887   5.7681   5.7762   6.0369

          k =-0.5000-0.1223 0.0000 ( 40858 PWs)   bands (ev):

   -73.4132 -72.7990 -72.5559 -72.4053 -72.3621 -72.0844 -43.8893 -43.4092
   -43.0212 -42.9674 -42.8770 -42.7204 -42.6439 -42.6419 -42.6376 -42.5959
   -42.4219 -42.4151 -42.4048 -42.3001 -42.2628 -42.1705 -42.1625 -41.9199
   -18.0497 -18.0157 -17.9839 -17.9362 -17.8625 -17.5437 -17.4964 -17.4917
   -17.4553 -17.3249 -17.0464 -16.6957 -16.1831  -6.3021  -6.2337  -6.1303
    -6.1290  -6.0242  -5.7794  -5.6897  -5.6264  -5.6219  -5.3750  -5.2196
    -5.0297  -4.8546  -4.6085  -4.4283  -4.1383  -3.8903  -3.8661  -3.8142
    -3.6921  -3.6566  -3.6396  -3.5509  -3.0389  -2.9395  -2.8357  -2.6433
    -2.6400  -2.5295  -2.4548  -2.2743  -2.2086  -2.0660  -1.8600  -1.6847
    -1.6146  -1.5197  -1.2535  -1.1089  -0.1995  -0.0683   0.0085   0.0536
     0.1841   0.4187   0.4606   0.5366   0.5631   0.5812   0.7163   1.1698
     1.7737   1.8246   1.9647   1.9864   2.1530   2.1714   2.3736   3.0113
     3.2085   3.4239   3.5501   3.9568   4.1862   5.3097   5.4302   5.5627

          k =-0.3750 0.0000 0.0000 ( 40852 PWs)   bands (ev):

   -73.4146 -72.8006 -72.5574 -72.4069 -72.3636 -72.0859 -43.8911 -43.3834
   -43.0251 -42.9415 -42.8782 -42.7217 -42.6513 -42.6425 -42.6338 -42.5730
   -42.4140 -42.3938 -42.3884 -42.3032 -42.2654 -42.1671 -42.1450 -41.9246
   -18.1560 -18.0476 -17.9088 -17.8729 -17.7615 -17.6465 -17.6228 -17.5551
   -17.4708 -17.3283 -17.1163 -16.7197 -16.2203  -6.3626  -6.1948  -6.0700
    -6.0364  -5.9008  -5.8814  -5.6773  -5.6062  -5.5002  -5.4149  -5.2347
    -5.0397  -4.8529  -4.8071  -4.5669  -4.4403  -4.3287  -4.2155  -3.9715
    -3.6602  -3.5064  -3.4347  -3.3938  -3.3321  -3.1894  -3.0463  -2.8348
    -2.7136  -2.5441  -2.4399  -2.3052  -2.2169  -2.0317  -1.9090  -1.5421
    -1.4103  -1.3882  -1.1270  -0.9883  -0.1664   0.0057   0.2493   0.4419
     0.5468   0.6301   0.7320   0.7596   0.8346   1.0048   1.1176   1.1968
     1.3252   1.4887   1.6119   1.7640   1.9298   2.1202   2.3325   3.3833
     3.8100   3.9843   4.2442   4.3599   4.4551   4.5013   4.7401   4.9054

          k =-0.3750 0.1223 0.0000 ( 40842 PWs)   bands (ev):

   -73.4146 -72.8006 -72.5574 -72.4069 -72.3636 -72.0859 -43.8911 -43.3840
   -43.0253 -42.9406 -42.8782 -42.7222 -42.6513 -42.6438 -42.6338 -42.5731
   -42.4138 -42.3922 -42.3889 -42.3032 -42.2654 -42.1670 -42.1442 -41.9246
   -18.1373 -18.0490 -17.9669 -17.9105 -17.8273 -17.6321 -17.5617 -17.5033
   -17.4693 -17.3179 -17.1157 -16.7227 -16.2205  -6.2437  -6.1372  -6.0934
    -6.0733  -5.9742  -5.7829  -5.6811  -5.6237  -5.5035  -5.4784  -5.3667
    -5.0308  -4.7700  -4.7139  -4.5551  -4.4725  -4.3015  -3.9738  -3.8405
    -3.6652  -3.5702  -3.3894  -3.3168  -3.2391  -3.1163  -3.0327  -2.8977
    -2.7663  -2.6140  -2.5049  -2.2758  -2.1298  -2.0606  -1.9392  -1.6747
    -1.5590  -1.3738  -1.2400  -1.1157  -0.1704  -0.0831   0.1691   0.2362
     0.5082   0.5710   0.5941   0.7275   0.7820   0.8949   0.9402   1.1951
     1.6449   1.6941   1.7957   1.8436   2.0050   2.0254   2.4433   3.1701
     3.4523   3.6223   3.7222   4.0204   4.2625   5.0737   5.4188   5.4386

          k =-0.3750-0.2445 0.0000 ( 40856 PWs)   bands (ev):

   -73.4146 -72.8006 -72.5574 -72.4068 -72.3636 -72.0859 -43.8911 -43.3847
   -43.0255 -42.9397 -42.8782 -42.7227 -42.6513 -42.6450 -42.6338 -42.5732
   -42.4137 -42.3903 -42.3898 -42.3033 -42.2654 -42.1668 -42.1435 -41.9246
   -18.0973 -18.0635 -18.0321 -17.9355 -17.8646 -17.6353 -17.5116 -17.4793
   -17.4527 -17.3082 -17.1149 -16.7258 -16.2208  -6.2672  -6.0914  -5.9549
    -5.9431  -5.8785  -5.8325  -5.7845  -5.7068  -5.6340  -5.5869  -5.4280
    -4.8882  -4.8079  -4.5570  -4.5154  -4.3156  -4.1567  -4.0664  -3.7315
    -3.5704  -3.4442  -3.4038  -3.2985  -3.2296  -3.1827  -3.0558  -2.9984
    -2.8068  -2.7564  -2.3768  -2.2356  -2.1441  -2.0464  -1.9065  -1.8061
    -1.6032  -1.3754  -1.2950  -1.2748  -0.3481  -0.3010  -0.1187   0.2872
     0.4476   0.5698   0.6214   0.7370   0.7907   0.8519   0.9808   1.2055
     1.5479   1.7592   1.9223   1.9479   2.0856   2.1814   2.5412   2.7641
     3.1870   3.2904   3.4804   4.0470   4.2649   5.3986   5.4797   5.7819

          k =-0.3750-0.1223 0.0000 ( 40842 PWs)   bands (ev):

   -73.4146 -72.8006 -72.5574 -72.4069 -72.3636 -72.0859 -43.8911 -43.3840
   -43.0253 -42.9406 -42.8782 -42.7222 -42.6513 -42.6438 -42.6338 -42.5731
   -42.4138 -42.3922 -42.3889 -42.3032 -42.2654 -42.1670 -42.1442 -41.9246
   -18.1373 -18.0490 -17.9669 -17.9105 -17.8273 -17.6321 -17.5618 -17.5033
   -17.4693 -17.3179 -17.1157 -16.7227 -16.2205  -6.2437  -6.1372  -6.0934
    -6.0733  -5.9742  -5.7829  -5.6811  -5.6237  -5.5035  -5.4784  -5.3667
    -5.0308  -4.7700  -4.7139  -4.5551  -4.4725  -4.3015  -3.9738  -3.8405
    -3.6652  -3.5702  -3.3894  -3.3168  -3.2391  -3.1163  -3.0327  -2.8977
    -2.7663  -2.6140  -2.5049  -2.2758  -2.1298  -2.0606  -1.9392  -1.6747
    -1.5590  -1.3738  -1.2400  -1.1157  -0.1704  -0.0831   0.1691   0.2362
     0.5082   0.5710   0.5941   0.7275   0.7820   0.8949   0.9402   1.1951
     1.6449   1.6941   1.7957   1.8436   2.0050   2.0254   2.4433   3.1701
     3.4523   3.6223   3.7222   4.0204   4.2625   5.0737   5.4188   5.4386

          k =-0.2500 0.0000 0.0000 ( 40947 PWs)   bands (ev):

   -73.4182 -72.8044 -72.5611 -72.4105 -72.3673 -72.0897 -43.8955 -43.3225
   -43.0384 -42.8795 -42.8741 -42.7266 -42.6654 -42.6479 -42.6338 -42.5130
   -42.4225 -42.3350 -42.3277 -42.3073 -42.2715 -42.1772 -42.0803 -41.9354
   -18.5014 -18.3321 -18.1440 -18.0134 -17.8009 -17.5896 -17.4856 -17.4533
   -17.3763 -17.3190 -17.0966 -16.7653 -16.2476  -6.7990  -6.6462  -6.6115
    -6.2649  -6.0340  -6.0019  -5.8571  -5.8355  -5.5006  -5.4478  -5.0288
    -4.9728  -4.6567  -4.5364  -4.4754  -4.2700  -4.1366  -4.0545  -4.0077
    -3.7894  -3.6668  -3.3778  -3.2321  -3.0554  -3.0296  -2.8686  -2.8045
    -2.7094  -2.5048  -2.4104  -2.2666  -2.2168  -2.0868  -1.9572  -1.6435
    -1.3984  -1.2780  -1.1573  -0.9864  -0.2263  -0.1394   0.1782   0.4205
     0.4693   0.5582   0.7663   0.9426   1.0237   1.1318   1.1625   1.2609
     1.3321   1.4374   1.4997   1.5891   1.8208   2.1439   2.4557   3.8956
     4.0810   4.2637   4.3639   4.6346   4.6869   4.7823   4.8516   4.9273

          k =-0.2500 0.1223 0.0000 ( 40905 PWs)   bands (ev):

   -73.4182 -72.8044 -72.5611 -72.4105 -72.3673 -72.0897 -43.8955 -43.3230
   -43.0365 -42.8814 -42.8738 -42.7264 -42.6654 -42.6478 -42.6338 -42.5131
   -42.4224 -42.3339 -42.3282 -42.3075 -42.2715 -42.1777 -42.0800 -41.9359
   -18.4154 -18.2405 -18.0517 -18.0420 -17.7988 -17.6634 -17.5665 -17.5190
   -17.4886 -17.3032 -17.0904 -16.7703 -16.2471  -6.4878  -6.3542  -6.2930
    -6.2378  -6.0098  -5.8963  -5.8320  -5.6706  -5.5784  -5.3907  -5.1051
    -4.7883  -4.7229  -4.6741  -4.5083  -4.4722  -4.3791  -4.1974  -4.0997
    -4.0040  -3.5926  -3.4866  -3.3678  -3.2182  -3.1529  -3.0330  -2.9511
    -2.7830  -2.6462  -2.4500  -2.2814  -2.1899  -2.0818  -1.9453  -1.6191
    -1.3915  -1.2755  -1.1127  -1.0313  -0.2369   0.0830   0.4069   0.4462
     0.5288   0.8053   0.8661   0.9390   1.0265   1.1096   1.1726   1.2384
     1.3253   1.4812   1.5624   1.6366   1.7590   2.0256   2.5733   3.7030
     3.9908   4.1099   4.2075   4.3119   4.6382   4.7271   5.1406   5.2970

          k =-0.2500-0.2445 0.0000 ( 40892 PWs)   bands (ev):

   -73.4182 -72.8044 -72.5611 -72.4105 -72.3673 -72.0897 -43.8955 -43.3234
   -43.0346 -42.8831 -42.8736 -42.7263 -42.6654 -42.6477 -42.6338 -42.5131
   -42.4224 -42.3326 -42.3289 -42.3077 -42.2715 -42.1783 -42.0796 -41.9363
   -18.2542 -18.1784 -18.0356 -17.9225 -17.7994 -17.7711 -17.7288 -17.6439
   -17.5306 -17.2976 -17.0840 -16.7756 -16.2466  -6.2838  -6.0377  -6.0084
    -5.8431  -5.8184  -5.8158  -5.6812  -5.5794  -5.3498  -5.3233  -5.2450
    -5.0259  -5.0177  -4.9399  -4.7832  -4.5823  -4.4706  -4.2431  -4.0486
    -3.8108  -3.7399  -3.6657  -3.5878  -3.5358  -3.4475  -3.3174  -3.2953
    -2.8439  -2.8104  -2.3656  -2.2659  -2.0116  -1.8941  -1.6659  -1.6213
    -1.3411  -1.3347  -1.1681  -1.0029  -0.0378   0.0129   0.2477   0.5261
     0.5624   0.8493   0.9903   1.0638   1.0894   1.1134   1.2588   1.3522
     1.3677   1.5567   1.6247   1.7314   1.7887   1.8861   2.6657   3.3088
     3.7251   3.8077   4.0536   4.2938   4.6535   5.0396   5.1608   5.5622

          k =-0.2500-0.1223 0.0000 ( 40905 PWs)   bands (ev):

   -73.4182 -72.8044 -72.5611 -72.4105 -72.3673 -72.0897 -43.8955 -43.3230
   -43.0365 -42.8814 -42.8738 -42.7264 -42.6654 -42.6478 -42.6338 -42.5131
   -42.4224 -42.3339 -42.3282 -42.3075 -42.2715 -42.1777 -42.0800 -41.9359
   -18.4154 -18.2405 -18.0517 -18.0420 -17.7988 -17.6634 -17.5665 -17.5190
   -17.4886 -17.3032 -17.0904 -16.7703 -16.2471  -6.4878  -6.3542  -6.2930
    -6.2378  -6.0098  -5.8963  -5.8320  -5.6706  -5.5784  -5.3907  -5.1051
    -4.7883  -4.7229  -4.6741  -4.5083  -4.4722  -4.3791  -4.1974  -4.0997
    -4.0040  -3.5926  -3.4866  -3.3678  -3.2182  -3.1529  -3.0330  -2.9511
    -2.7830  -2.6462  -2.4500  -2.2814  -2.1899  -2.0818  -1.9453  -1.6191
    -1.3915  -1.2755  -1.1127  -1.0313  -0.2369   0.0830   0.4069   0.4462
     0.5288   0.8053   0.8661   0.9390   1.0265   1.1096   1.1726   1.2384
     1.3253   1.4812   1.5624   1.6366   1.7590   2.0256   2.5733   3.7030
     3.9908   4.1099   4.2075   4.3119   4.6382   4.7271   5.1406   5.2970

          k =-0.1250 0.0000 0.0000 ( 40851 PWs)   bands (ev):

   -73.4218 -72.8083 -72.5647 -72.4142 -72.3710 -72.0934 -43.8999 -43.2611
   -43.0514 -42.8810 -42.8058 -42.7315 -42.6782 -42.6534 -42.6367 -42.4511
   -42.4323 -42.3241 -42.2780 -42.2696 -42.2578 -42.1872 -42.0149 -41.9461
   -18.8276 -18.6183 -18.4126 -18.1823 -17.9339 -17.7819 -17.3448 -17.2811
   -17.2379 -17.1802 -16.9540 -16.7725 -16.1939  -7.2672  -7.0944  -7.0814
    -6.4760  -6.4502  -6.0887  -5.8355  -5.7817  -5.6568  -5.6005  -5.4718
    -5.2407  -5.0535  -4.9384  -4.3474  -4.0454  -3.9460  -3.4509  -3.2993
    -3.2210  -3.1726  -3.1024  -3.0853  -2.9298  -2.7988  -2.7348  -2.6245
    -2.3608  -2.2616  -2.2045  -2.1528  -2.0947  -2.0450  -1.8884  -1.7218
    -1.5616  -1.1122  -1.0860  -0.7030  -0.4165  -0.2370  -0.0154   0.0286
     0.1184   0.2970   0.4253   0.4891   0.6383   0.6579   1.1155   1.1913
     1.2862   1.4008   1.6059   1.8481   2.1091   2.3268   2.5256   3.6284
     4.2672   4.7248   4.7863   4.8587   5.0266   5.3311   5.3772   5.4298

          k =-0.1250 0.1223 0.0000 ( 40932 PWs)   bands (ev):

   -73.4218 -72.8083 -72.5647 -72.4141 -72.3710 -72.0934 -43.8999 -43.2612
   -43.0480 -42.8845 -42.8058 -42.7307 -42.6782 -42.6521 -42.6367 -42.4511
   -42.4323 -42.3241 -42.2779 -42.2680 -42.2593 -42.1885 -42.0148 -41.9471
   -18.7139 -18.4949 -18.2917 -18.2261 -17.9403 -17.8190 -17.4479 -17.4091
   -17.3575 -17.2382 -16.9422 -16.7821 -16.1916  -6.8631  -6.6769  -6.6408
    -6.4795  -6.4322  -5.9952  -5.7928  -5.7206  -5.6712  -5.5587  -5.2820
    -5.2074  -5.0551  -4.8221  -4.4009  -4.1672  -4.0325  -3.9375  -3.7240
    -3.4819  -3.4505  -3.3632  -3.3469  -3.1983  -3.1549  -2.9874  -2.8371
    -2.6279  -2.4956  -2.3017  -2.2284  -2.1006  -2.0175  -1.7685  -1.5538
    -1.3900  -1.0975  -1.0074  -0.7856  -0.0697   0.1271   0.1836   0.2389
     0.3549   0.4097   0.6359   0.6922   0.7720   0.8480   1.1213   1.2044
     1.3213   1.4160   1.6284   1.6955   1.8919   2.2741   2.5473   3.9507
     4.3988   4.6836   4.7956   4.8274   4.9729   5.1668   5.2251   5.3466

          k =-0.1250-0.2445 0.0000 ( 40974 PWs)   bands (ev):

   -73.4218 -72.8083 -72.5647 -72.4141 -72.3710 -72.0934 -43.8999 -43.2613
   -43.0444 -42.8881 -42.8058 -42.7300 -42.6782 -42.6508 -42.6366 -42.4511
   -42.4323 -42.3242 -42.2779 -42.2655 -42.2619 -42.1900 -42.0147 -41.9480
   -18.4899 -18.4154 -18.2691 -18.0584 -18.0088 -17.9134 -17.5862 -17.5761
   -17.5080 -17.2468 -16.9277 -16.7949 -16.1898  -6.5110  -6.4709  -6.1629
    -5.9781  -5.8652  -5.7928  -5.7785  -5.7117  -5.6813  -5.6648  -5.2704
    -5.0770  -4.8676  -4.7823  -4.6491  -4.4957  -4.2858  -4.1664  -4.1445
    -4.0832  -3.9962  -3.8972  -3.7627  -3.4066  -3.3935  -3.2493  -2.8858
    -2.6412  -2.6225  -2.3146  -2.2535  -1.9717  -1.7719  -1.5731  -1.4324
    -1.2066  -1.0617  -1.0371  -0.9381   0.1389   0.2017   0.2688   0.3706
     0.4983   0.5576   0.7429   1.0693   1.0813   1.1250   1.1836   1.2240
     1.3795   1.3981   1.4964   1.6090   1.8785   1.9674   2.6942   4.0892
     4.3971   4.5072   4.6895   4.7706   5.0207   5.0581   5.2757   5.4052

          k =-0.1250-0.1223 0.0000 ( 40932 PWs)   bands (ev):

   -73.4218 -72.8083 -72.5647 -72.4141 -72.3710 -72.0934 -43.8999 -43.2612
   -43.0480 -42.8845 -42.8058 -42.7307 -42.6782 -42.6521 -42.6367 -42.4511
   -42.4323 -42.3241 -42.2779 -42.2680 -42.2593 -42.1885 -42.0148 -41.9471
   -18.7139 -18.4949 -18.2917 -18.2261 -17.9403 -17.8190 -17.4479 -17.4091
   -17.3575 -17.2382 -16.9422 -16.7821 -16.1916  -6.8631  -6.6769  -6.6408
    -6.4795  -6.4322  -5.9952  -5.7928  -5.7206  -5.6712  -5.5587  -5.2820
    -5.2074  -5.0551  -4.8221  -4.4009  -4.1672  -4.0325  -3.9375  -3.7240
    -3.4819  -3.4505  -3.3632  -3.3469  -3.1983  -3.1549  -2.9874  -2.8371
    -2.6279  -2.4956  -2.3017  -2.2284  -2.1006  -2.0175  -1.7685  -1.5538
    -1.3900  -1.0975  -1.0074  -0.7856  -0.0697   0.1271   0.1836   0.2389
     0.3549   0.4097   0.6359   0.6922   0.7720   0.8480   1.1213   1.2044
     1.3213   1.4160   1.6284   1.6955   1.8919   2.2741   2.5473   3.9507
     4.3988   4.6836   4.7956   4.8274   4.9729   5.1668   5.2251   5.3466

     the Fermi energy is     1.1698 ev

!    total energy              =   -1672.24493754 Ry
     estimated scf accuracy    <       0.00000099 Ry
     smearing contrib. (-TS)   =      -0.00187699 Ry
     internal energy E=F+TS    =   -1672.24306055 Ry

     The total energy is F=E-TS. E is the sum of the following terms:
     one-electron contribution =  -16943.83392958 Ry
     hartree contribution      =    8493.89666210 Ry
     xc contribution           =    -213.99900075 Ry
     ewald contribution        =    7115.48171824 Ry
     one-center paw contrib.   =    -123.78851056 Ry

     convergence has been achieved in  22 iterations

     negative rho (up, down):  1.085E-04 0.000E+00

     Forces acting on atoms (cartesian axes, Ry/au):

     atom    1 type  1   force =    -0.00000025   -0.00059301    0.07062166
     atom    2 type  1   force =     0.00000025   -0.00020457   -0.08976381
     atom    3 type  1   force =    -0.00000001    0.00001666   -0.00165102
     atom    4 type  1   force =    -0.00000047    0.00785550    0.00282766
     atom    5 type  1   force =    -0.00000022    0.03283320    0.04518104
     atom    6 type  1   force =     0.00000015   -0.01238299    0.00022891
     atom    7 type  2   force =    -0.00000043   -0.00067122    0.02099695
     atom    8 type  2   force =    -0.00000015    0.00014758    0.06185346
     atom    9 type  2   force =    -0.00000059    0.02423317   -0.02494646
     atom   10 type  2   force =     0.00000034   -0.02384123   -0.02437108
     atom   11 type  2   force =     0.00000083   -0.00457952    0.00115094
     atom   12 type  2   force =     0.00000092   -0.00139173   -0.01049869
     atom   13 type  2   force =    -0.00000055   -0.00029362   -0.00164785
     atom   14 type  2   force =     0.00000054    0.00101796    0.00075422
     atom   15 type  2   force =    -0.00000061    0.00286266    0.00007628
     atom   16 type  2   force =    -0.00000055    0.00087640   -0.00228419
     atom   17 type  2   force =     0.00000036    0.00137295    0.01911406
     atom   18 type  2   force =     0.00000023    0.00709888   -0.02433787
     atom   19 type  2   force =     0.00000019   -0.03435708   -0.04330419

     Total force =     0.086323     Total SCF correction =     0.006164

     BFGS Geometry Optimization
     Energy error            =      8.0E-03 Ry
     Gradient error          =      4.5E-02 Ry/Bohr

     number of scf cycles    =   1
     number of bfgs steps    =   0

     energy             new  =   -1672.2449375411 Ry

     new trust radius        =       0.0558511007 bohr
     new conv_thr            =       0.0000010000 Ry


ATOMIC_POSITIONS (angstrom)
Ru               0.0000000000        1.5881618300        9.5289709800    0   0   0
Ru               1.5535000000        4.7644854900        9.5289709800    0   0   0
Ru              -0.0000000039        4.7644943073       12.7269148554
Ru               1.5534997529        1.5923187831       12.7089042253
Ru              -0.0000001145        1.6055364129       16.0813165958
Ru               1.5535000794        4.7579326919       15.9570184527
O                0.0000000000        4.7644854900       10.7677372100    0   0   0
O                0.0000000000        4.7644854900        8.2902047600    0   0   0
O                1.5535000000        0.3493956000        9.5289709800    0   0   0
O                1.5535000000        2.8269280600        9.5289709800    0   0   0
O                0.0000004391        1.5857384535       13.9814844427
O                0.0000000000        1.5881618300       11.4665284200    0   0   0
O                1.5534997116        3.5306498407       12.7128398142
O                1.5535002846        5.9987044426       12.7141109339
O               -0.0000003224        4.7660003438       17.0605246079
O               -0.0000002910        4.7649492586       14.6568397366
O                1.5535001894        0.3705369853       15.8747044628
O                1.5535001230        2.8102697751       15.8517106925
O                0.0000001019        1.9199808467       17.7329469583



     Writing config-only to output data dir ./tmp_s0_O__1x1_off/s0_O__1x1_off.save/ :
     XML data file
     NEW-OLD atomic charge density approx. for the potential

     negative rho (up, down):  1.083E-04 0.000E+00

     total cpu time spent up to now is     2379.6 secs

     per-process dynamical memory:  1113.7 Mb

     Self-consistent Calculation

     iteration #  1     ecut=    80.00 Ry     beta= 0.30
     Davidson diagonalization with overlap
     ethr =  1.00E-06,  avg # of iterations =  9.2

     negative rho (up, down):  5.847E-05 0.000E+00

     total cpu time spent up to now is     2597.0 secs

     total energy              =   -1672.24730447 Ry
     estimated scf accuracy    <       0.03715690 Ry

     iteration #  2     ecut=    80.00 Ry     beta= 0.30
     Davidson diagonalization with overlap
     ethr =  2.14E-05,  avg # of iterations =  1.0

     negative rho (up, down):  4.056E-05 0.000E+00

     total cpu time spent up to now is     2695.6 secs

     total energy              =   -1672.24816818 Ry
     estimated scf accuracy    <       0.00690094 Ry

     iteration #  3     ecut=    80.00 Ry     beta= 0.30
     Davidson diagonalization with overlap
     ethr =  3.97E-06,  avg # of iterations =  1.0

     negative rho (up, down):  3.052E-05 0.000E+00

     total cpu time spent up to now is     2795.4 secs

     total energy              =   -1672.24825802 Ry
     estimated scf accuracy    <       0.00247221 Ry

     iteration #  4     ecut=    80.00 Ry     beta= 0.30
     Davidson diagonalization with overlap
     ethr =  1.42E-06,  avg # of iterations =  1.0

     negative rho (up, down):  2.805E-05 0.000E+00

     total cpu time spent up to now is     2894.7 secs

     total energy              =   -1672.24822928 Ry
     estimated scf accuracy    <       0.00163832 Ry

     iteration #  5     ecut=    80.00 Ry     beta= 0.30
     Davidson diagonalization with overlap
     ethr =  9.42E-07,  avg # of iterations =  1.0

     negative rho (up, down):  2.193E-05 0.000E+00

     total cpu time spent up to now is     2992.6 secs

     total energy              =   -1672.24817174 Ry
     estimated scf accuracy    <       0.00053228 Ry

     iteration #  6     ecut=    80.00 Ry     beta= 0.30
     Davidson diagonalization with overlap
     ethr =  3.06E-07,  avg # of iterations =  1.1

     negative rho (up, down):  1.977E-05 0.000E+00

     total cpu time spent up to now is     3093.6 secs

     total energy              =   -1672.24816699 Ry
     estimated scf accuracy    <       0.00034413 Ry

     iteration #  7     ecut=    80.00 Ry     beta= 0.30
     Davidson diagonalization with overlap
     ethr =  1.98E-07,  avg # of iterations =  1.0

     negative rho (up, down):  1.179E-05 0.000E+00

     total cpu time spent up to now is     3192.6 secs

     total energy              =   -1672.24816532 Ry
     estimated scf accuracy    <       0.00009713 Ry

     iteration #  8     ecut=    80.00 Ry     beta= 0.30
     Davidson diagonalization with overlap
     ethr =  5.58E-08,  avg # of iterations =  1.1

     negative rho (up, down):  5.567E-06 0.000E+00

     total cpu time spent up to now is     3293.3 secs

     total energy              =   -1672.24816560 Ry
     estimated scf accuracy    <       0.00002468 Ry

     iteration #  9     ecut=    80.00 Ry     beta= 0.30
     Davidson diagonalization with overlap
     ethr =  1.42E-08,  avg # of iterations =  2.1

     negative rho (up, down):  3.373E-06 0.000E+00

     total cpu time spent up to now is     3400.5 secs

     total energy              =   -1672.24816834 Ry
     estimated scf accuracy    <       0.00001489 Ry

     iteration # 10     ecut=    80.00 Ry     beta= 0.30
     Davidson diagonalization with overlap
     ethr =  8.56E-09,  avg # of iterations =  1.2

     negative rho (up, down):  2.659E-06 0.000E+00

     total cpu time spent up to now is     3502.0 secs

     total energy              =   -1672.24817079 Ry
     estimated scf accuracy    <       0.00000637 Ry

     iteration # 11     ecut=    80.00 Ry     beta= 0.30
     Davidson diagonalization with overlap
     ethr =  3.66E-09,  avg # of iterations =  2.2

     negative rho (up, down):  4.376E-06 0.000E+00

     total cpu time spent up to now is     3608.7 secs

     total energy              =   -1672.24817330 Ry
     estimated scf accuracy    <       0.00000164 Ry

     iteration # 12     ecut=    80.00 Ry     beta= 0.30
     Davidson diagonalization with overlap
     ethr =  9.45E-10,  avg # of iterations =  4.0

     negative rho (up, down):  1.082E-04 0.000E+00

     total cpu time spent up to now is     3715.3 secs

     End of self-consistent calculation

          k = 0.0000 0.0000 0.0000 ( 40831 PWs)   bands (ev):

   -73.5196 -72.7282 -72.4921 -72.3452 -72.2998 -72.0226 -44.1178 -43.3095
   -43.1237 -42.8107 -42.7010 -42.6594 -42.5999 -42.5893 -42.5625 -42.3623
   -42.3517 -42.2538 -42.2054 -42.1712 -42.1586 -42.1179 -41.9152 -41.8783
   -18.8925 -18.6816 -18.4521 -18.1873 -17.9417 -17.7888 -17.4898 -17.1918
   -17.1276 -17.0331 -16.8892 -16.7410 -16.0806  -7.4323  -7.1980  -7.1875
    -6.5797  -6.3889  -6.0217  -5.7261  -5.7221  -5.6544  -5.5849  -5.4964
    -5.4440  -5.2582  -5.1927  -4.6462  -4.1787  -3.6407  -3.3880  -3.1868
    -3.0620  -2.9413  -2.8870  -2.8057  -2.6788  -2.6305  -2.6274  -2.4713
    -2.3363  -2.2480  -2.1657  -1.9674  -1.9552  -1.6349  -1.4175  -1.4057
    -1.2343  -1.1115  -0.7152  -0.6962  -0.5104  -0.4666  -0.1866  -0.1640
    -0.1140  -0.0984   0.3109   0.3673   0.5111   0.5670   1.0328   1.1528
     1.2847   1.4548   1.7841   2.0519   2.2674   2.3199   2.7404   3.5561
     4.2348   4.7525   4.9781   5.2479   5.4263   5.5554   5.7667   5.8159

          k = 0.0000 0.1223 0.0000 ( 40974 PWs)   bands (ev):

   -73.5196 -72.7282 -72.4921 -72.3452 -72.2998 -72.0226 -44.1178 -43.3095
   -43.1215 -42.8130 -42.7011 -42.6584 -42.5999 -42.5876 -42.5625 -42.3622
   -42.3517 -42.2539 -42.2054 -42.1695 -42.1603 -42.1197 -41.9152 -41.8795
   -18.7706 -18.5510 -18.3304 -18.2339 -17.9620 -17.8205 -17.4922 -17.3128
   -17.2693 -17.2173 -16.8681 -16.7493 -16.0777  -7.0196  -6.7519  -6.7245
    -6.5728  -6.3789  -5.9526  -5.7244  -5.5998  -5.5739  -5.5038  -5.4407
    -5.4251  -5.2573  -5.0090  -4.6889  -4.2288  -4.0010  -3.7315  -3.6824
    -3.5053  -3.3853  -3.2402  -2.9185  -2.8493  -2.8433  -2.7171  -2.6459
    -2.6000  -2.3457  -2.1901  -2.1262  -2.0402  -1.7050  -1.6047  -1.5949
    -1.3263  -1.0982  -0.8702  -0.6913  -0.0610  -0.0414   0.1672   0.2943
     0.3818   0.4265   0.4514   0.5524   0.5755   0.6611   1.0217   1.1140
     1.3403   1.5090   1.7807   1.8613   2.0567   2.3961   2.6212   3.9488
     4.6558   4.7388   4.9314   5.2480   5.4404   5.5103   5.5460   5.5859

          k = 0.0000-0.2445 0.0000 ( 41014 PWs)   bands (ev):

   -73.5196 -72.7282 -72.4921 -72.3451 -72.2998 -72.0226 -44.1177 -43.3095
   -43.1193 -42.8154 -42.7011 -42.6574 -42.5999 -42.5859 -42.5625 -42.3622
   -42.3517 -42.2539 -42.2054 -42.1666 -42.1632 -42.1216 -41.9153 -41.8807
   -18.5257 -18.4535 -18.3255 -18.0879 -18.0326 -17.9176 -17.4969 -17.4442
   -17.4291 -17.4084 -16.8452 -16.7665 -16.0755  -6.6323  -6.4167  -6.3609
    -5.9826  -5.9365  -5.8758  -5.7221  -5.5746  -5.4903  -5.4276  -5.4172
    -5.2516  -5.0914  -4.9008  -4.6419  -4.5892  -4.4665  -4.4499  -4.3669
    -4.2082  -3.7436  -3.4614  -3.3102  -3.1027  -3.0776  -3.0301  -2.6926
    -2.6099  -2.4262  -2.1994  -2.0829  -1.9444  -1.6599  -1.6183  -1.3650
    -1.1964  -1.1041  -0.9542  -0.9483   0.2119   0.2278   0.2789   0.4078
     0.5464   0.7142   0.8359   0.8555   0.9137   0.9581   1.0826   1.1541
     1.2511   1.5811   1.6009   1.6279   2.0280   2.1521   2.7531   4.3758
     4.4699   4.8449   5.2271   5.2342   5.2491   5.2932   5.5639   5.6418

          k = 0.0000-0.1223 0.0000 ( 40974 PWs)   bands (ev):

   -73.5196 -72.7282 -72.4921 -72.3452 -72.2998 -72.0226 -44.1178 -43.3095
   -43.1215 -42.8130 -42.7011 -42.6584 -42.5999 -42.5876 -42.5625 -42.3622
   -42.3517 -42.2539 -42.2054 -42.1695 -42.1603 -42.1197 -41.9152 -41.8795
   -18.7706 -18.5510 -18.3304 -18.2339 -17.9620 -17.8205 -17.4922 -17.3128
   -17.2693 -17.2173 -16.8681 -16.7493 -16.0777  -7.0196  -6.7519  -6.7245
    -6.5728  -6.3789  -5.9526  -5.7244  -5.5998  -5.5739  -5.5038  -5.4407
    -5.4251  -5.2573  -5.0090  -4.6889  -4.2288  -4.0010  -3.7315  -3.6824
    -3.5053  -3.3853  -3.2402  -2.9185  -2.8493  -2.8433  -2.7171  -2.6459
    -2.6000  -2.3457  -2.1901  -2.1262  -2.0402  -1.7050  -1.6047  -1.5949
    -1.3263  -1.0982  -0.8702  -0.6913  -0.0610  -0.0414   0.1672   0.2943
     0.3818   0.4265   0.4514   0.5524   0.5755   0.6611   1.0217   1.1140
     1.3403   1.5090   1.7807   1.8613   2.0567   2.3961   2.6212   3.9488
     4.6558   4.7388   4.9314   5.2480   5.4404   5.5103   5.5460   5.5859

          k = 0.1250 0.0000 0.0000 ( 40851 PWs)   bands (ev):

   -73.5181 -72.7266 -72.4906 -72.3437 -72.2982 -72.0210 -44.1160 -43.3349
   -43.1189 -42.8096 -42.7297 -42.6573 -42.5950 -42.5870 -42.5607 -42.3777
   -42.3582 -42.2507 -42.2033 -42.1970 -42.1849 -42.1137 -41.9425 -41.8739
   -18.7640 -18.5666 -18.3431 -18.1023 -17.8618 -17.7119 -17.4863 -17.2677
   -17.2040 -17.1134 -16.9318 -16.8039 -16.1222  -7.2493  -7.0215  -7.0087
    -6.4015  -6.3781  -6.0638  -5.7613  -5.7142  -5.5894  -5.5377  -5.4307
    -5.1724  -4.9885  -4.9802  -4.4820  -4.1333  -4.0132  -3.4061  -3.2717
    -3.2378  -3.1400  -3.0592  -3.0424  -2.8644  -2.7578  -2.6681  -2.6282
    -2.3865  -2.2750  -2.1515  -2.1083  -2.0424  -1.9980  -1.8295  -1.7580
    -1.5413  -1.0808  -1.0215  -0.6603  -0.4245  -0.2038   0.0606   0.0976
     0.1892   0.3739   0.5006   0.5580   0.7236   0.7358   1.1853   1.2636
     1.3661   1.4766   1.6740   1.9006   2.1732   2.4000   2.5976   3.7325
     4.3547   4.7094   4.8030   4.9328   5.0994   5.3999   5.4487   5.5021

          k = 0.1250 0.1223 0.0000 ( 40932 PWs)   bands (ev):

   -73.5181 -72.7266 -72.4906 -72.3437 -72.2983 -72.0210 -44.1160 -43.3349
   -43.1171 -42.8114 -42.7297 -42.6566 -42.5950 -42.5858 -42.5607 -42.3777
   -42.3581 -42.2507 -42.2033 -42.1955 -42.1865 -42.1151 -41.9425 -41.8749
   -18.6485 -18.4429 -18.2235 -18.1475 -17.8710 -17.7500 -17.4953 -17.3716
   -17.3317 -17.2849 -16.9110 -16.8143 -16.1199  -6.8496  -6.6033  -6.5682
    -6.4060  -6.3599  -5.9708  -5.7224  -5.6516  -5.6099  -5.4874  -5.2159
    -5.1819  -4.9845  -4.8633  -4.5254  -4.2313  -4.0065  -3.9630  -3.6638
    -3.4583  -3.4125  -3.3270  -3.2905  -3.1646  -3.0974  -3.0796  -2.7871
    -2.6115  -2.5022  -2.2982  -2.1641  -2.0556  -1.9589  -1.7115  -1.5985
    -1.3900  -1.0291  -0.9546  -0.7633  -0.0549   0.1857   0.2233   0.3044
     0.4165   0.4830   0.7086   0.7782   0.8451   0.9212   1.1890   1.2755
     1.3972   1.4993   1.6907   1.7613   1.9525   2.3457   2.6204   4.0448
     4.3694   4.7505   4.8708   4.8979   5.0437   5.2406   5.2996   5.4158

          k = 0.1250-0.2445 0.0000 ( 40974 PWs)   bands (ev):

   -73.5181 -72.7266 -72.4906 -72.3436 -72.2983 -72.0210 -44.1159 -43.3350
   -43.1152 -42.8133 -42.7297 -42.6558 -42.5950 -42.5845 -42.5607 -42.3777
   -42.3581 -42.2507 -42.2033 -42.1932 -42.1888 -42.1165 -41.9424 -41.8758
   -18.4169 -18.3445 -18.2229 -17.9989 -17.9366 -17.8409 -17.5381 -17.5017
   -17.4658 -17.4383 -16.8823 -16.8375 -16.1180  -6.4502  -6.4018  -6.1441
    -5.9522  -5.7918  -5.7206  -5.7061  -5.6496  -5.6132  -5.5924  -5.2144
    -5.0228  -4.9169  -4.7493  -4.6492  -4.4708  -4.2961  -4.1473  -4.1124
    -4.0857  -3.9813  -3.8301  -3.7715  -3.4905  -3.3302  -3.2413  -2.8182
    -2.7442  -2.5863  -2.3118  -2.1907  -1.9175  -1.7600  -1.5324  -1.3690
    -1.1810  -1.0723  -0.9594  -0.9442   0.1957   0.2300   0.3417   0.4433
     0.5633   0.5774   0.8222   1.1432   1.1548   1.1884   1.2580   1.2960
     1.4420   1.4753   1.5674   1.6909   1.9461   2.0364   2.7677   4.0307
     4.4627   4.5933   4.7608   4.8786   5.1120   5.1277   5.3394   5.4748

          k = 0.1250-0.1223 0.0000 ( 40932 PWs)   bands (ev):

   -73.5181 -72.7266 -72.4906 -72.3437 -72.2983 -72.0210 -44.1160 -43.3349
   -43.1171 -42.8114 -42.7297 -42.6566 -42.5950 -42.5858 -42.5607 -42.3777
   -42.3581 -42.2507 -42.2033 -42.1955 -42.1865 -42.1151 -41.9425 -41.8749
   -18.6485 -18.4429 -18.2235 -18.1475 -17.8710 -17.7500 -17.4953 -17.3716
   -17.3317 -17.2849 -16.9110 -16.8143 -16.1199  -6.8496  -6.6033  -6.5682
    -6.4060  -6.3599  -5.9708  -5.7224  -5.6516  -5.6099  -5.4874  -5.2159
    -5.1819  -4.9845  -4.8633  -4.5254  -4.2313  -4.0065  -3.9630  -3.6638
    -3.4583  -3.4125  -3.3270  -3.2905  -3.1646  -3.0974  -3.0796  -2.7871
    -2.6115  -2.5022  -2.2982  -2.1641  -2.0556  -1.9589  -1.7115  -1.5985
    -1.3900  -1.0291  -0.9546  -0.7633  -0.0549   0.1857   0.2233   0.3044
     0.4165   0.4830   0.7086   0.7782   0.8451   0.9212   1.1890   1.2755
     1.3972   1.4993   1.6907   1.7613   1.9525   2.3457   2.6204   4.0448
     4.3694   4.7505   4.8708   4.8979   5.0437   5.2406   5.2996   5.4158

          k = 0.2500 0.0000 0.0000 ( 40947 PWs)   bands (ev):

   -73.5146 -72.7227 -72.4870 -72.3401 -72.2946 -72.0173 -44.1116 -43.3956
   -43.1072 -42.8067 -42.7980 -42.6524 -42.5827 -42.5816 -42.5573 -42.4396
   -42.3483 -42.2622 -42.2550 -42.2341 -42.1966 -42.1037 -42.0080 -41.8631
   -18.4369 -18.2832 -18.0741 -17.9343 -17.7289 -17.5170 -17.4924 -17.4340
   -17.3837 -17.3020 -17.0424 -16.8798 -16.1757  -6.7811  -6.5736  -6.5389
    -6.1968  -6.0103  -5.9460  -5.8278  -5.7642  -5.4305  -5.3980  -5.0419
    -4.9698  -4.5920  -4.5596  -4.4987  -4.3228  -4.1176  -4.0089  -3.9479
    -3.7279  -3.6497  -3.4385  -3.1778  -3.0854  -2.9752  -2.8222  -2.7506
    -2.6350  -2.4380  -2.3826  -2.2458  -2.1702  -2.0427  -1.9949  -1.5973
    -1.4890  -1.2085  -1.1446  -0.9239  -0.2335  -0.1115   0.2300   0.4942
     0.5509   0.6302   0.8393   1.0138   1.1048   1.2038   1.2407   1.3424
     1.4044   1.5077   1.5729   1.6353   1.8853   2.2154   2.5300   3.9831
     4.1394   4.2422   4.4398   4.7066   4.7680   4.8543   4.9238   5.0031

          k = 0.2500 0.1223 0.0000 ( 40905 PWs)   bands (ev):

   -73.5146 -72.7227 -72.4870 -72.3400 -72.2946 -72.0173 -44.1116 -43.3959
   -43.1063 -42.8076 -42.7979 -42.6523 -42.5827 -42.5815 -42.5573 -42.4397
   -42.3483 -42.2609 -42.2556 -42.2343 -42.1966 -42.1043 -42.0076 -41.8636
   -18.3479 -18.1898 -17.9775 -17.9709 -17.7311 -17.6250 -17.5134 -17.4670
   -17.4287 -17.4126 -17.0301 -16.8873 -16.1751  -6.4671  -6.2849  -6.2206
    -6.1680  -5.9615  -5.8765  -5.8094  -5.5995  -5.5201  -5.3259  -5.1002
    -4.7970  -4.7382  -4.6142  -4.4810  -4.4097  -4.3196  -4.2455  -4.1214
    -3.9632  -3.6010  -3.4843  -3.3247  -3.2208  -3.1468  -2.9783  -2.8811
    -2.7739  -2.6318  -2.4050  -2.2234  -2.1380  -2.0885  -1.8942  -1.5919
    -1.4439  -1.2065  -1.1245  -0.9752  -0.1947   0.0756   0.4529   0.5129
     0.6113   0.8803   0.9394   1.0119   1.0994   1.1814   1.2445   1.3061
     1.3999   1.5563   1.6349   1.6936   1.8238   2.0970   2.6473   3.6834
     4.0682   4.1818   4.2828   4.4107   4.7019   4.7975   5.2249   5.3761

          k = 0.2500-0.2445 0.0000 ( 40892 PWs)   bands (ev):

   -73.5146 -72.7227 -72.4870 -72.3400 -72.2946 -72.0173 -44.1116 -43.3963
   -43.1053 -42.8084 -42.7977 -42.6521 -42.5827 -42.5813 -42.5573 -42.4398
   -42.3482 -42.2594 -42.2566 -42.2345 -42.1966 -42.1049 -42.0072 -41.8641
   -18.1747 -18.1078 -17.9732 -17.9004 -17.7376 -17.7107 -17.6553 -17.5724
   -17.4696 -17.4371 -17.0173 -16.8969 -16.1747  -6.2146  -6.0129  -5.9725
    -5.8297  -5.7527  -5.7455  -5.6093  -5.5718  -5.2851  -5.2743  -5.1838
    -4.9740  -4.9526  -4.9254  -4.7742  -4.5780  -4.4615  -4.2322  -4.0234
    -3.8288  -3.7336  -3.6520  -3.5781  -3.4997  -3.4627  -3.2569  -3.2271
    -2.9280  -2.7496  -2.3627  -2.2108  -1.9758  -1.8360  -1.6575  -1.5747
    -1.3287  -1.2620  -1.1229  -1.0528  -0.0105   0.0804   0.2723   0.6109
     0.6372   0.8888   1.0605   1.1265   1.1623   1.1850   1.3298   1.4243
     1.4353   1.6261   1.6959   1.8019   1.8585   1.9573   2.7397   3.2812
     3.7977   3.8800   4.1248   4.4006   4.7224   5.0974   5.2878   5.6209

          k = 0.2500-0.1223 0.0000 ( 40905 PWs)   bands (ev):

   -73.5146 -72.7227 -72.4870 -72.3400 -72.2946 -72.0173 -44.1116 -43.3959
   -43.1063 -42.8076 -42.7979 -42.6523 -42.5827 -42.5815 -42.5573 -42.4397
   -42.3483 -42.2609 -42.2556 -42.2343 -42.1966 -42.1043 -42.0076 -41.8636
   -18.3479 -18.1898 -17.9775 -17.9709 -17.7311 -17.6250 -17.5134 -17.4670
   -17.4287 -17.4126 -17.0301 -16.8873 -16.1751  -6.4671  -6.2849  -6.2206
    -6.1680  -5.9615  -5.8765  -5.8094  -5.5995  -5.5201  -5.3259  -5.1002
    -4.7970  -4.7382  -4.6142  -4.4810  -4.4097  -4.3196  -4.2456  -4.1214
    -3.9632  -3.6010  -3.4843  -3.3247  -3.2208  -3.1468  -2.9783  -2.8811
    -2.7739  -2.6318  -2.4050  -2.2234  -2.1380  -2.0885  -1.8942  -1.5919
    -1.4439  -1.2065  -1.1245  -0.9752  -0.1947   0.0756   0.4529   0.5129
     0.6113   0.8803   0.9394   1.0119   1.0994   1.1814   1.2445   1.3061
     1.3999   1.5563   1.6349   1.6936   1.8238   2.0970   2.6473   3.6834
     4.0682   4.1818   4.2828   4.4107   4.7019   4.7975   5.2249   5.3761

          k = 0.3750 0.0000 0.0000 ( 40852 PWs)   bands (ev):

   -73.5110 -72.7188 -72.4833 -72.3364 -72.2909 -72.0135 -44.1073 -43.4558
   -43.0955 -42.8654 -42.8040 -42.6475 -42.5762 -42.5698 -42.5560 -42.4996
   -42.3400 -42.3211 -42.3153 -42.2303 -42.1903 -42.0937 -42.0727 -41.8524
   -18.0809 -17.9958 -17.8334 -17.8007 -17.6900 -17.6320 -17.5584 -17.4851
   -17.4560 -17.3975 -17.0498 -16.8605 -16.1483  -6.3522  -6.1301  -6.0127
    -5.9897  -5.8629  -5.8436  -5.6171  -5.5934  -5.4661  -5.3559  -5.1712
    -5.0618  -4.7909  -4.7698  -4.5709  -4.4032  -4.3633  -4.1578  -3.9534
    -3.7337  -3.4650  -3.3750  -3.3569  -3.2994  -3.1561  -3.0536  -2.7758
    -2.6526  -2.5462  -2.3944  -2.2454  -2.1893  -2.0054  -1.9259  -1.4850
    -1.3496  -1.3315  -1.2241  -0.9229  -0.2072   0.0719   0.3019   0.5168
     0.6225   0.7054   0.8065   0.8168   0.9084   1.0815   1.1957   1.2610
     1.3926   1.5542   1.6809   1.8403   1.9985   2.1939   2.4066   3.4561
     3.7598   4.0908   4.3163   4.4322   4.5273   4.5792   4.8189   4.9811

          k = 0.3750 0.1223 0.0000 ( 40842 PWs)   bands (ev):

   -73.5110 -72.7188 -72.4833 -72.3364 -72.2909 -72.0135 -44.1073 -43.4563
   -43.0955 -42.8650 -42.8038 -42.6480 -42.5775 -42.5698 -42.5560 -42.4997
   -42.3398 -42.3195 -42.3158 -42.2303 -42.1903 -42.0935 -42.0719 -41.8524
   -18.0617 -17.9937 -17.8925 -17.8374 -17.7574 -17.6401 -17.4894 -17.4442
   -17.4210 -17.3971 -17.0494 -16.8642 -16.1486  -6.2251  -6.1379  -6.0498
    -6.0000  -5.9057  -5.7221  -5.6108  -5.5550  -5.5151  -5.4281  -5.3185
    -5.0612  -4.7530  -4.6688  -4.4926  -4.4222  -4.2533  -4.0952  -3.8553
    -3.6453  -3.5387  -3.3642  -3.2733  -3.1970  -3.1054  -3.0072  -2.8282
    -2.6965  -2.5818  -2.5070  -2.2423  -2.1450  -2.0268  -1.9089  -1.6094
    -1.4946  -1.3859  -1.2264  -1.0763  -0.1561  -0.0595   0.2381   0.2829
     0.5772   0.6429   0.6716   0.8022   0.8547   0.9690   1.0170   1.2627
     1.7119   1.7541   1.8648   1.9132   2.0756   2.0977   2.5171   3.1619
     3.5139   3.6954   3.7949   4.1307   4.3340   5.1403   5.4892   5.5480

          k = 0.3750-0.2445 0.0000 ( 40856 PWs)   bands (ev):

   -73.5110 -72.7188 -72.4833 -72.3364 -72.2909 -72.0135 -44.1073 -43.4568
   -43.0955 -42.8647 -42.8036 -42.6485 -42.5788 -42.5698 -42.5560 -42.4998
   -42.3396 -42.3173 -42.3170 -42.2303 -42.1903 -42.0934 -42.0711 -41.8524
   -18.0157 -18.0044 -17.9640 -17.8628 -17.7937 -17.6545 -17.4401 -17.4210
   -17.4051 -17.3778 -17.0487 -16.8680 -16.1488  -6.2840  -6.0216  -5.9079
    -5.8777  -5.8248  -5.7762  -5.7243  -5.6569  -5.6318  -5.5153  -5.3790
    -4.9477  -4.7412  -4.5422  -4.4629  -4.2629  -4.2419  -4.0339  -3.7122
    -3.5291  -3.4705  -3.4018  -3.2655  -3.2091  -3.1167  -3.1099  -2.9327
    -2.7336  -2.7035  -2.3623  -2.1845  -2.1570  -1.9905  -1.8829  -1.8010
    -1.5619  -1.3872  -1.2348  -1.2019  -0.2909  -0.2289  -0.1350   0.3653
     0.4833   0.6429   0.7045   0.8077   0.8639   0.9250   1.0535   1.2786
     1.6126   1.8291   1.9740   2.0124   2.1579   2.2550   2.6145   2.7506
     3.2599   3.3625   3.5509   4.1560   4.3366   5.5289   5.5354   5.8365

          k = 0.3750-0.1223 0.0000 ( 40842 PWs)   bands (ev):

   -73.5110 -72.7188 -72.4833 -72.3364 -72.2909 -72.0135 -44.1073 -43.4563
   -43.0955 -42.8650 -42.8038 -42.6480 -42.5775 -42.5698 -42.5560 -42.4997
   -42.3398 -42.3195 -42.3158 -42.2303 -42.1903 -42.0935 -42.0719 -41.8524
   -18.0617 -17.9937 -17.8925 -17.8374 -17.7574 -17.6401 -17.4894 -17.4442
   -17.4210 -17.3971 -17.0494 -16.8642 -16.1486  -6.2251  -6.1379  -6.0498
    -6.0000  -5.9057  -5.7221  -5.6108  -5.5550  -5.5151  -5.4281  -5.3185
    -5.0612  -4.7530  -4.6688  -4.4926  -4.4222  -4.2533  -4.0952  -3.8553
    -3.6453  -3.5387  -3.3642  -3.2733  -3.1970  -3.1054  -3.0072  -2.8282
    -2.6965  -2.5818  -2.5070  -2.2423  -2.1450  -2.0268  -1.9089  -1.6094
    -1.4946  -1.3859  -1.2264  -1.0763  -0.1561  -0.0595   0.2381   0.2829
     0.5772   0.6429   0.6716   0.8022   0.8547   0.9690   1.0170   1.2627
     1.7119   1.7541   1.8648   1.9132   2.0756   2.0977   2.5171   3.1619
     3.5139   3.6954   3.7949   4.1307   4.3340   5.1403   5.4892   5.5480

          k =-0.5000 0.0000 0.0000 ( 40876 PWs)   bands (ev):

   -73.5095 -72.7172 -72.4818 -72.3349 -72.2893 -72.0120 -44.1055 -43.4806
   -43.0906 -42.8930 -42.8029 -42.6454 -42.5740 -42.5652 -42.5566 -42.5225
   -42.3511 -42.3413 -42.3311 -42.2273 -42.1876 -42.0991 -42.0895 -41.8479
   -17.9715 -17.8301 -17.7890 -17.7405 -17.7021 -17.6565 -17.6282 -17.5566
   -17.4562 -17.4170 -16.9756 -16.8339 -16.1116  -6.3411  -6.0942  -5.9576
    -5.7626  -5.7492  -5.6469  -5.5863  -5.5261  -5.4817  -5.3754  -5.3155
    -5.1181  -4.9870  -4.8828  -4.6900  -4.4967  -4.1278  -3.9555  -3.7564
    -3.6399  -3.6304  -3.6245  -3.5264  -3.3679  -2.9198  -2.8332  -2.6824
    -2.5647  -2.4761  -2.4431  -2.3236  -2.1215  -1.9607  -1.7868  -1.6854
    -1.5755  -1.1957  -1.1127  -0.8558  -0.2515   0.1216   0.1240   0.5069
     0.5759   0.6185   0.6619   0.7088   0.7667   0.8291   1.0702   1.2240
     1.3313   1.5235   1.8780   1.9758   2.1849   2.2951   2.3711   3.2332
     3.6125   4.0387   4.2561   4.3008   4.4097   4.5938   4.8034   4.9508

          k =-0.5000 0.1223 0.0000 ( 40858 PWs)   bands (ev):

   -73.5095 -72.7172 -72.4818 -72.3349 -72.2893 -72.0120 -44.1055 -43.4812
   -43.0911 -42.8926 -42.8023 -42.6463 -42.5760 -42.5653 -42.5565 -42.5226
   -42.3493 -42.3417 -42.3309 -42.2273 -42.1876 -42.0982 -42.0891 -41.8477
   -17.9656 -17.9630 -17.9119 -17.8638 -17.7918 -17.5503 -17.4556 -17.4243
   -17.4162 -17.3807 -16.9791 -16.8354 -16.1111  -6.2969  -6.2373  -6.0560
    -6.0552  -5.9525  -5.7379  -5.6184  -5.6053  -5.5539  -5.4014  -5.1452
    -5.0763  -4.7914  -4.5842  -4.3677  -4.1380  -3.9359  -3.8370  -3.7662
    -3.7599  -3.6133  -3.5961  -3.5665  -2.9777  -2.9167  -2.7834  -2.5857
    -2.5577  -2.5146  -2.4655  -2.2329  -2.1673  -2.1002  -1.7979  -1.6276
    -1.6011  -1.4490  -1.2883  -1.0400  -0.2471   0.0038   0.0823   0.1258
     0.2415   0.4873   0.5306   0.6083   0.6369   0.6615   0.7887   1.2512
     1.8165   1.9014   2.0353   2.0581   2.2259   2.2422   2.4466   2.9887
     3.2814   3.4969   3.6225   4.0685   4.2589   5.3514   5.5568   5.6375

          k =-0.5000-0.2445 0.0000 ( 40872 PWs)   bands (ev):

   -73.5095 -72.7172 -72.4818 -72.3349 -72.2893 -72.0120 -44.1055 -43.4817
   -43.0915 -42.8921 -42.8017 -42.6471 -42.5780 -42.5653 -42.5565 -42.5228
   -42.3475 -42.3421 -42.3306 -42.2273 -42.1876 -42.0973 -42.0887 -41.8476
   -18.0376 -18.0024 -17.9594 -17.9544 -17.7950 -17.4720 -17.4550 -17.4153
   -17.3246 -17.2829 -16.9827 -16.8368 -16.1106  -6.5053  -6.2276  -6.1546
    -6.0790  -6.0226  -5.7674  -5.6536  -5.6171  -5.6096  -5.4626  -5.1426
    -5.0340  -4.9113  -4.1774  -4.1731  -3.8760  -3.8462  -3.8441  -3.5782
    -3.5498  -3.4863  -3.4115  -3.2457  -3.1742  -2.9053  -2.8142  -2.7656
    -2.6234  -2.3830  -2.3186  -2.1533  -2.1485  -1.9196  -1.8763  -1.7505
    -1.7029  -1.6765  -1.5426  -1.2206  -0.4685  -0.2494  -0.1987   0.0672
     0.1499   0.2162   0.4929   0.5142   0.6480   0.6607   0.8029   1.3017
     1.7916   1.9530   2.0758   2.1597   2.3998   2.4111   2.5006   2.5906
     3.1121   3.2345   3.3181   4.0962   4.2611   5.6289   5.7989   5.8523

          k =-0.5000-0.1223 0.0000 ( 40858 PWs)   bands (ev):

   -73.5095 -72.7172 -72.4818 -72.3349 -72.2893 -72.0120 -44.1055 -43.4812
   -43.0911 -42.8926 -42.8023 -42.6463 -42.5760 -42.5653 -42.5565 -42.5226
   -42.3493 -42.3417 -42.3309 -42.2273 -42.1876 -42.0982 -42.0891 -41.8477
   -17.9656 -17.9630 -17.9119 -17.8638 -17.7918 -17.5503 -17.4556 -17.4243
   -17.4162 -17.3807 -16.9791 -16.8354 -16.1111  -6.2969  -6.2373  -6.0560
    -6.0552  -5.9525  -5.7379  -5.6184  -5.6053  -5.5539  -5.4014  -5.1452
    -5.0763  -4.7914  -4.5842  -4.3677  -4.1380  -3.9359  -3.8370  -3.7662
    -3.7599  -3.6133  -3.5961  -3.5665  -2.9777  -2.9167  -2.7834  -2.5857
    -2.5577  -2.5146  -2.4655  -2.2329  -2.1673  -2.1002  -1.7979  -1.6276
    -1.6011  -1.4490  -1.2883  -1.0400  -0.2471   0.0038   0.0823   0.1258
     0.2415   0.4873   0.5306   0.6083   0.6369   0.6615   0.7887   1.2512
     1.8165   1.9014   2.0353   2.0581   2.2259   2.2422   2.4466   2.9887
     3.2814   3.4969   3.6225   4.0685   4.2589   5.3514   5.5568   5.6375

          k =-0.3750 0.0000 0.0000 ( 40852 PWs)   bands (ev):

   -73.5110 -72.7188 -72.4833 -72.3364 -72.2909 -72.0135 -44.1073 -43.4558
   -43.0955 -42.8654 -42.8040 -42.6475 -42.5762 -42.5698 -42.5560 -42.4996
   -42.3400 -42.3211 -42.3153 -42.2303 -42.1903 -42.0937 -42.0727 -41.8524
   -18.0809 -17.9958 -17.8334 -17.8007 -17.6900 -17.6320 -17.5584 -17.4851
   -17.4560 -17.3975 -17.0498 -16.8605 -16.1483  -6.3522  -6.1301  -6.0127
    -5.9897  -5.8629  -5.8436  -5.6171  -5.5934  -5.4661  -5.3559  -5.1712
    -5.0618  -4.7909  -4.7698  -4.5709  -4.4032  -4.3633  -4.1578  -3.9534
    -3.7337  -3.4650  -3.3750  -3.3569  -3.2994  -3.1561  -3.0536  -2.7758
    -2.6526  -2.5462  -2.3944  -2.2454  -2.1893  -2.0054  -1.9259  -1.4850
    -1.3496  -1.3315  -1.2241  -0.9229  -0.2072   0.0719   0.3019   0.5168
     0.6225   0.7054   0.8065   0.8168   0.9084   1.0815   1.1957   1.2610
     1.3926   1.5542   1.6809   1.8403   1.9985   2.1939   2.4066   3.4561
     3.7598   4.0908   4.3163   4.4322   4.5273   4.5792   4.8189   4.9811

          k =-0.3750 0.1223 0.0000 ( 40842 PWs)   bands (ev):

   -73.5110 -72.7188 -72.4833 -72.3364 -72.2909 -72.0135 -44.1073 -43.4563
   -43.0955 -42.8650 -42.8038 -42.6480 -42.5775 -42.5698 -42.5560 -42.4997
   -42.3398 -42.3195 -42.3158 -42.2303 -42.1903 -42.0935 -42.0719 -41.8524
   -18.0617 -17.9937 -17.8925 -17.8374 -17.7574 -17.6401 -17.4894 -17.4442
   -17.4210 -17.3971 -17.0494 -16.8642 -16.1486  -6.2251  -6.1379  -6.0498
    -6.0000  -5.9057  -5.7221  -5.6108  -5.5550  -5.5151  -5.4281  -5.3185
    -5.0612  -4.7530  -4.6688  -4.4926  -4.4222  -4.2533  -4.0952  -3.8553
    -3.6453  -3.5387  -3.3642  -3.2733  -3.1970  -3.1054  -3.0072  -2.8282
    -2.6965  -2.5818  -2.5070  -2.2423  -2.1450  -2.0268  -1.9089  -1.6094
    -1.4946  -1.3859  -1.2264  -1.0763  -0.1561  -0.0595   0.2381   0.2829
     0.5772   0.6429   0.6716   0.8022   0.8547   0.9690   1.0170   1.2627
     1.7119   1.7541   1.8648   1.9132   2.0756   2.0977   2.5171   3.1619
     3.5139   3.6954   3.7949   4.1307   4.3340   5.1403   5.4892   5.5480

          k =-0.3750-0.2445 0.0000 ( 40856 PWs)   bands (ev):

   -73.5110 -72.7188 -72.4833 -72.3364 -72.2909 -72.0135 -44.1073 -43.4568
   -43.0955 -42.8647 -42.8036 -42.6485 -42.5788 -42.5698 -42.5560 -42.4998
   -42.3396 -42.3173 -42.3170 -42.2303 -42.1903 -42.0934 -42.0711 -41.8524
   -18.0157 -18.0044 -17.9640 -17.8628 -17.7937 -17.6545 -17.4401 -17.4210
   -17.4051 -17.3778 -17.0487 -16.8680 -16.1488  -6.2840  -6.0216  -5.9079
    -5.8777  -5.8248  -5.7762  -5.7243  -5.6569  -5.6318  -5.5153  -5.3790
    -4.9477  -4.7412  -4.5422  -4.4629  -4.2629  -4.2419  -4.0339  -3.7122
    -3.5291  -3.4705  -3.4018  -3.2655  -3.2091  -3.1167  -3.1099  -2.9327
    -2.7336  -2.7035  -2.3623  -2.1845  -2.1570  -1.9905  -1.8829  -1.8010
    -1.5619  -1.3872  -1.2348  -1.2019  -0.2909  -0.2289  -0.1350   0.3653
     0.4833   0.6429   0.7045   0.8077   0.8639   0.9250   1.0535   1.2786
     1.6126   1.8291   1.9740   2.0124   2.1579   2.2550   2.6145   2.7506
     3.2599   3.3625   3.5509   4.1560   4.3366   5.5289   5.5354   5.8365

          k =-0.3750-0.1223 0.0000 ( 40842 PWs)   bands (ev):

   -73.5110 -72.7188 -72.4833 -72.3364 -72.2909 -72.0135 -44.1073 -43.4563
   -43.0955 -42.8650 -42.8038 -42.6480 -42.5775 -42.5698 -42.5560 -42.4997
   -42.3398 -42.3195 -42.3158 -42.2303 -42.1903 -42.0935 -42.0719 -41.8524
   -18.0617 -17.9937 -17.8925 -17.8374 -17.7574 -17.6401 -17.4894 -17.4442
   -17.4210 -17.3971 -17.0494 -16.8642 -16.1486  -6.2251  -6.1379  -6.0498
    -6.0000  -5.9057  -5.7221  -5.6108  -5.5550  -5.5151  -5.4281  -5.3185
    -5.0612  -4.7530  -4.6688  -4.4926  -4.4222  -4.2533  -4.0952  -3.8553
    -3.6453  -3.5387  -3.3642  -3.2733  -3.1970  -3.1054  -3.0072  -2.8282
    -2.6965  -2.5818  -2.5070  -2.2423  -2.1450  -2.0268  -1.9089  -1.6094
    -1.4946  -1.3859  -1.2264  -1.0763  -0.1561  -0.0595   0.2381   0.2829
     0.5772   0.6429   0.6716   0.8022   0.8547   0.9690   1.0170   1.2627
     1.7119   1.7541   1.8648   1.9132   2.0756   2.0977   2.5171   3.1619
     3.5139   3.6954   3.7949   4.1307   4.3340   5.1403   5.4892   5.5480

          k =-0.2500 0.0000 0.0000 ( 40947 PWs)   bands (ev):

   -73.5146 -72.7227 -72.4870 -72.3401 -72.2946 -72.0173 -44.1116 -43.3956
   -43.1072 -42.8067 -42.7980 -42.6524 -42.5827 -42.5816 -42.5573 -42.4396
   -42.3483 -42.2622 -42.2550 -42.2341 -42.1966 -42.1037 -42.0080 -41.8631
   -18.4369 -18.2832 -18.0741 -17.9343 -17.7289 -17.5170 -17.4924 -17.4340
   -17.3837 -17.3020 -17.0424 -16.8798 -16.1757  -6.7811  -6.5736  -6.5389
    -6.1968  -6.0103  -5.9460  -5.8278  -5.7642  -5.4305  -5.3980  -5.0419
    -4.9698  -4.5920  -4.5596  -4.4987  -4.3228  -4.1176  -4.0089  -3.9479
    -3.7279  -3.6497  -3.4385  -3.1778  -3.0854  -2.9752  -2.8222  -2.7506
    -2.6350  -2.4380  -2.3826  -2.2458  -2.1702  -2.0427  -1.9949  -1.5973
    -1.4890  -1.2085  -1.1446  -0.9239  -0.2335  -0.1115   0.2300   0.4942
     0.5509   0.6302   0.8393   1.0138   1.1048   1.2038   1.2407   1.3424
     1.4044   1.5077   1.5729   1.6353   1.8853   2.2154   2.5300   3.9831
     4.1394   4.2422   4.4398   4.7066   4.7680   4.8543   4.9238   5.0031

          k =-0.2500 0.1223 0.0000 ( 40905 PWs)   bands (ev):

   -73.5146 -72.7227 -72.4870 -72.3400 -72.2946 -72.0173 -44.1116 -43.3959
   -43.1063 -42.8076 -42.7979 -42.6523 -42.5827 -42.5815 -42.5573 -42.4397
   -42.3483 -42.2609 -42.2556 -42.2343 -42.1966 -42.1043 -42.0076 -41.8636
   -18.3479 -18.1898 -17.9775 -17.9709 -17.7311 -17.6250 -17.5134 -17.4670
   -17.4287 -17.4126 -17.0301 -16.8873 -16.1751  -6.4671  -6.2849  -6.2206
    -6.1680  -5.9615  -5.8765  -5.8094  -5.5995  -5.5201  -5.3259  -5.1002
    -4.7970  -4.7382  -4.6142  -4.4810  -4.4097  -4.3196  -4.2456  -4.1214
    -3.9632  -3.6010  -3.4843  -3.3247  -3.2208  -3.1468  -2.9783  -2.8811
    -2.7739  -2.6318  -2.4050  -2.2234  -2.1380  -2.0885  -1.8942  -1.5919
    -1.4439  -1.2065  -1.1245  -0.9752  -0.1947   0.0756   0.4529   0.5129
     0.6113   0.8803   0.9394   1.0119   1.0994   1.1814   1.2445   1.3061
     1.3999   1.5563   1.6349   1.6936   1.8238   2.0970   2.6473   3.6834
     4.0682   4.1818   4.2828   4.4107   4.7019   4.7975   5.2249   5.3761

          k =-0.2500-0.2445 0.0000 ( 40892 PWs)   bands (ev):

   -73.5146 -72.7227 -72.4870 -72.3400 -72.2946 -72.0173 -44.1116 -43.3963
   -43.1053 -42.8084 -42.7977 -42.6521 -42.5827 -42.5813 -42.5573 -42.4398
   -42.3482 -42.2594 -42.2566 -42.2345 -42.1966 -42.1049 -42.0072 -41.8641
   -18.1747 -18.1078 -17.9732 -17.9004 -17.7376 -17.7107 -17.6553 -17.5724
   -17.4696 -17.4371 -17.0173 -16.8969 -16.1747  -6.2146  -6.0129  -5.9725
    -5.8297  -5.7527  -5.7455  -5.6093  -5.5718  -5.2851  -5.2743  -5.1838
    -4.9740  -4.9526  -4.9254  -4.7742  -4.5780  -4.4615  -4.2322  -4.0234
    -3.8288  -3.7336  -3.6520  -3.5781  -3.4997  -3.4627  -3.2569  -3.2271
    -2.9280  -2.7496  -2.3627  -2.2108  -1.9758  -1.8360  -1.6575  -1.5747
    -1.3287  -1.2620  -1.1229  -1.0528  -0.0105   0.0804   0.2723   0.6109
     0.6372   0.8888   1.0605   1.1265   1.1623   1.1850   1.3298   1.4243
     1.4353   1.6261   1.6959   1.8019   1.8585   1.9573   2.7397   3.2812
     3.7977   3.8800   4.1248   4.4006   4.7224   5.0974   5.2878   5.6209

          k =-0.2500-0.1223 0.0000 ( 40905 PWs)   bands (ev):

   -73.5146 -72.7227 -72.4870 -72.3400 -72.2946 -72.0173 -44.1116 -43.3959
   -43.1063 -42.8076 -42.7979 -42.6523 -42.5827 -42.5815 -42.5573 -42.4397
   -42.3483 -42.2609 -42.2556 -42.2343 -42.1966 -42.1043 -42.0076 -41.8636
   -18.3479 -18.1898 -17.9775 -17.9709 -17.7311 -17.6250 -17.5134 -17.4670
   -17.4287 -17.4126 -17.0301 -16.8873 -16.1751  -6.4671  -6.2849  -6.2206
    -6.1680  -5.9615  -5.8765  -5.8094  -5.5995  -5.5201  -5.3259  -5.1002
    -4.7970  -4.7382  -4.6142  -4.4810  -4.4097  -4.3196  -4.2455  -4.1214
    -3.9632  -3.6010  -3.4843  -3.3247  -3.2208  -3.1468  -2.9783  -2.8811
    -2.7739  -2.6318  -2.4050  -2.2234  -2.1380  -2.0885  -1.8942  -1.5919
    -1.4439  -1.2065  -1.1245  -0.9752  -0.1947   0.0756   0.4529   0.5129
     0.6113   0.8803   0.9394   1.0119   1.0994   1.1814   1.2445   1.3061
     1.3999   1.5563   1.6349   1.6936   1.8238   2.0970   2.6473   3.6834
     4.0682   4.1818   4.2828   4.4107   4.7019   4.7975   5.2249   5.3761

          k =-0.1250 0.0000 0.0000 ( 40851 PWs)   bands (ev):

   -73.5181 -72.7266 -72.4906 -72.3437 -72.2982 -72.0210 -44.1160 -43.3349
   -43.1189 -42.8096 -42.7297 -42.6573 -42.5950 -42.5870 -42.5607 -42.3777
   -42.3582 -42.2507 -42.2033 -42.1970 -42.1849 -42.1137 -41.9425 -41.8739
   -18.7640 -18.5666 -18.3431 -18.1023 -17.8618 -17.7119 -17.4863 -17.2677
   -17.2040 -17.1134 -16.9318 -16.8039 -16.1222  -7.2493  -7.0215  -7.0087
    -6.4015  -6.3781  -6.0638  -5.7613  -5.7142  -5.5894  -5.5377  -5.4307
    -5.1724  -4.9885  -4.9802  -4.4820  -4.1333  -4.0132  -3.4061  -3.2717
    -3.2378  -3.1400  -3.0592  -3.0424  -2.8644  -2.7578  -2.6681  -2.6282
    -2.3865  -2.2750  -2.1515  -2.1083  -2.0424  -1.9980  -1.8295  -1.7580
    -1.5413  -1.0808  -1.0215  -0.6603  -0.4245  -0.2038   0.0606   0.0976
     0.1892   0.3739   0.5006   0.5580   0.7236   0.7358   1.1853   1.2636
     1.3661   1.4766   1.6740   1.9006   2.1732   2.4000   2.5976   3.7325
     4.3547   4.7094   4.8030   4.9328   5.0994   5.3999   5.4487   5.5021

          k =-0.1250 0.1223 0.0000 ( 40932 PWs)   bands (ev):

   -73.5181 -72.7266 -72.4906 -72.3437 -72.2983 -72.0210 -44.1160 -43.3349
   -43.1171 -42.8114 -42.7297 -42.6566 -42.5950 -42.5858 -42.5607 -42.3777
   -42.3581 -42.2507 -42.2033 -42.1955 -42.1865 -42.1151 -41.9425 -41.8749
   -18.6485 -18.4429 -18.2235 -18.1475 -17.8710 -17.7500 -17.4953 -17.3716
   -17.3317 -17.2849 -16.9110 -16.8143 -16.1199  -6.8496  -6.6033  -6.5682
    -6.4060  -6.3599  -5.9708  -5.7224  -5.6516  -5.6099  -5.4874  -5.2159
    -5.1819  -4.9845  -4.8633  -4.5254  -4.2313  -4.0065  -3.9630  -3.6638
    -3.4583  -3.4125  -3.3270  -3.2905  -3.1646  -3.0974  -3.0796  -2.7871
    -2.6115  -2.5022  -2.2982  -2.1641  -2.0556  -1.9589  -1.7115  -1.5985
    -1.3900  -1.0291  -0.9546  -0.7633  -0.0549   0.1857   0.2233   0.3044
     0.4165   0.4830   0.7086   0.7782   0.8451   0.9212   1.1890   1.2755
     1.3972   1.4993   1.6907   1.7613   1.9525   2.3457   2.6204   4.0448
     4.3694   4.7505   4.8708   4.8979   5.0437   5.2406   5.2996   5.4158

          k =-0.1250-0.2445 0.0000 ( 40974 PWs)   bands (ev):

   -73.5181 -72.7266 -72.4906 -72.3436 -72.2983 -72.0210 -44.1159 -43.3350
   -43.1152 -42.8133 -42.7297 -42.6558 -42.5950 -42.5845 -42.5607 -42.3777
   -42.3581 -42.2507 -42.2033 -42.1932 -42.1888 -42.1165 -41.9424 -41.8758
   -18.4169 -18.3445 -18.2229 -17.9989 -17.9366 -17.8409 -17.5381 -17.5017
   -17.4658 -17.4383 -16.8823 -16.8375 -16.1180  -6.4502  -6.4018  -6.1441
    -5.9522  -5.7918  -5.7206  -5.7061  -5.6496  -5.6132  -5.5924  -5.2144
    -5.0228  -4.9169  -4.7493  -4.6492  -4.4708  -4.2961  -4.1473  -4.1124
    -4.0857  -3.9813  -3.8301  -3.7715  -3.4905  -3.3302  -3.2413  -2.8182
    -2.7442  -2.5863  -2.3118  -2.1907  -1.9175  -1.7600  -1.5324  -1.3690
    -1.1810  -1.0723  -0.9594  -0.9442   0.1957   0.2300   0.3417   0.4433
     0.5633   0.5774   0.8222   1.1432   1.1548   1.1884   1.2580   1.2960
     1.4420   1.4753   1.5674   1.6909   1.9461   2.0364   2.7677   4.0307
     4.4627   4.5933   4.7608   4.8786   5.1120   5.1277   5.3394   5.4748

          k =-0.1250-0.1223 0.0000 ( 40932 PWs)   bands (ev):

   -73.5181 -72.7266 -72.4906 -72.3437 -72.2983 -72.0210 -44.1160 -43.3349
   -43.1171 -42.8114 -42.7297 -42.6566 -42.5950 -42.5858 -42.5607 -42.3777
   -42.3581 -42.2507 -42.2033 -42.1955 -42.1865 -42.1151 -41.9425 -41.8749
   -18.6485 -18.4429 -18.2235 -18.1475 -17.8710 -17.7500 -17.4953 -17.3716
   -17.3317 -17.2849 -16.9110 -16.8143 -16.1199  -6.8496  -6.6033  -6.5682
    -6.4060  -6.3599  -5.9708  -5.7224  -5.6516  -5.6099  -5.4874  -5.2159
    -5.1819  -4.9845  -4.8633  -4.5254  -4.2313  -4.0065  -3.9630  -3.6638
    -3.4583  -3.4125  -3.3270  -3.2905  -3.1646  -3.0974  -3.0796  -2.7871
    -2.6115  -2.5022  -2.2982  -2.1641  -2.0556  -1.9589  -1.7115  -1.5985
    -1.3900  -1.0291  -0.9546  -0.7633  -0.0549   0.1857   0.2233   0.3044
     0.4165   0.4830   0.7086   0.7782   0.8451   0.9212   1.1890   1.2755
     1.3972   1.4993   1.6907   1.7613   1.9525   2.3457   2.6204   4.0448
     4.3694   4.7505   4.8708   4.8979   5.0437   5.2406   5.2996   5.4158

     the Fermi energy is     1.2412 ev

!    total energy              =   -1672.24817638 Ry
     estimated scf accuracy    <       0.00000095 Ry
     smearing contrib. (-TS)   =      -0.00179299 Ry
     internal energy E=F+TS    =   -1672.24638340 Ry

     The total energy is F=E-TS. E is the sum of the following terms:
     one-electron contribution =  -16938.08665838 Ry
     hartree contribution      =    8491.31046655 Ry
     xc contribution           =    -214.04293882 Ry
     ewald contribution        =    7112.36006103 Ry
     one-center paw contrib.   =    -123.78731378 Ry

     convergence has been achieved in  12 iterations

     negative rho (up, down):  1.082E-04 0.000E+00

     Forces acting on atoms (cartesian axes, Ry/au):

     atom    1 type  1   force =     0.00000003   -0.00060776    0.07083699
     atom    2 type  1   force =    -0.00000001   -0.00023483   -0.08970134
     atom    3 type  1   force =     0.00000003    0.00174107   -0.00133234
     atom    4 type  1   force =     0.00000023    0.00231440    0.00396508
     atom    5 type  1   force =     0.00000018   -0.00492128   -0.03166077
     atom    6 type  1   force =    -0.00000012   -0.00021634   -0.00443183
     atom    7 type  2   force =     0.00000001   -0.00060516    0.02073031
     atom    8 type  2   force =     0.00000001    0.00022272    0.06192376
     atom    9 type  2   force =     0.00000000    0.02432879   -0.02504860
     atom   10 type  2   force =     0.00000000   -0.02397913   -0.02441486
     atom   11 type  2   force =    -0.00000027   -0.00198762    0.00117046
     atom   12 type  2   force =    -0.00000009   -0.00062948   -0.01009480
     atom   13 type  2   force =     0.00000016    0.00067632   -0.00167844
     atom   14 type  2   force =    -0.00000022    0.00146529   -0.00007297
     atom   15 type  2   force =     0.00000020    0.00189168    0.00297749
     atom   16 type  2   force =     0.00000010    0.00070023   -0.00118611
     atom   17 type  2   force =    -0.00000016    0.00974642    0.01889456
     atom   18 type  2   force =    -0.00000013    0.00635397   -0.01965574
     atom   19 type  2   force =     0.00000004   -0.01625931    0.02877917

     Total force =     0.055395     Total SCF correction =     0.003103
     Energy error            =      3.2E-03 Ry
     Gradient error          =      3.2E-02 Ry/Bohr

     number of scf cycles    =   2
     number of bfgs steps    =   1

     energy             old  =   -1672.2449375411 Ry
     energy             new  =   -1672.2481763839 Ry

     CASE: energy            _new < energy            _old

     new trust radius        =       0.0264029787 bohr
     new conv_thr            =       0.0000001583 Ry


ATOMIC_POSITIONS (angstrom)
Ru               0.0000000000        1.5881618300        9.5289709800    0   0   0
Ru               1.5535000000        4.7644854900        9.5289709800    0   0   0
Ru               0.0000000086        4.7652789713       12.7260768033
Ru               1.5534997881        1.5944978791       12.7110957837
Ru              -0.0000000661        1.6080870279       16.0736441871
Ru               1.5535000476        4.7560396262       15.9550604738
O                0.0000000000        4.7644854900       10.7677372100    0   0   0
O                0.0000000000        4.7644854900        8.2902047600    0   0   0
O                1.5535000000        0.3493956000        9.5289709800    0   0   0
O                1.5535000000        2.8269280600        9.5289709800    0   0   0
O                0.0000004384        1.5841812799       13.9821772346
O                0.0000000000        1.5881618300       11.4665284200    0   0   0
O                1.5534997042        3.5309111217       12.7118467251
O                1.5535002644        5.9995104160       12.7141875315
O               -0.0000003227        4.7672654206       17.0618734280
O               -0.0000003254        4.7653909665       14.6559755616
O                1.5535001674        0.3751150708       15.8859656569
O                1.5535000989        2.8141540813       15.8393499152
O                0.0000001489        1.9076929988       17.7395968844



     Writing config-only to output data dir ./tmp_s0_O__1x1_off/s0_O__1x1_off.save/ :
     XML data file
     NEW-OLD atomic charge density approx. for the potential

     negative rho (up, down):  1.075E-04 0.000E+00

     total cpu time spent up to now is     3735.3 secs

     per-process dynamical memory:  1113.7 Mb

     Self-consistent Calculation

     iteration #  1     ecut=    80.00 Ry     beta= 0.30
     Davidson diagonalization with overlap
     ethr =  1.00E-06,  avg # of iterations =  4.5

     negative rho (up, down):  1.800E-04 0.000E+00

     total cpu time spent up to now is     3912.7 secs

     total energy              =   -1672.24984855 Ry
     estimated scf accuracy    <       0.00391680 Ry

     iteration #  2     ecut=    80.00 Ry     beta= 0.30
     Davidson diagonalization with overlap
     ethr =  2.25E-06,  avg # of iterations =  1.0

     negative rho (up, down):  2.071E-04 0.000E+00

     total cpu time spent up to now is     4013.3 secs

     total energy              =   -1672.25001019 Ry
     estimated scf accuracy    <       0.00186436 Ry

     iteration #  3     ecut=    80.00 Ry     beta= 0.30
     Davidson diagonalization with overlap
     ethr =  1.07E-06,  avg # of iterations =  1.0

     negative rho (up, down):  2.521E-04 0.000E+00

     total cpu time spent up to now is     4111.1 secs

     total energy              =   -1672.25006404 Ry
     estimated scf accuracy    <       0.00026489 Ry

     iteration #  4     ecut=    80.00 Ry     beta= 0.30
     Davidson diagonalization with overlap
     ethr =  1.52E-07,  avg # of iterations =  1.0

     negative rho (up, down):  3.603E-04 0.000E+00

     total cpu time spent up to now is     4209.2 secs

     total energy              =   -1672.25005217 Ry
     estimated scf accuracy    <       0.00015526 Ry

     iteration #  5     ecut=    80.00 Ry     beta= 0.30
     Davidson diagonalization with overlap
     ethr =  8.92E-08,  avg # of iterations =  1.0

     negative rho (up, down):  4.660E-04 0.000E+00

     total cpu time spent up to now is     4308.7 secs

     total energy              =   -1672.25004859 Ry
     estimated scf accuracy    <       0.00006040 Ry

     iteration #  6     ecut=    80.00 Ry     beta= 0.30
     Davidson diagonalization with overlap
     ethr =  3.47E-08,  avg # of iterations =  1.3

     negative rho (up, down):  5.103E-04 0.000E+00

     total cpu time spent up to now is     4411.8 secs

     total energy              =   -1672.25004948 Ry
     estimated scf accuracy    <       0.00002298 Ry

     iteration #  7     ecut=    80.00 Ry     beta= 0.30
     Davidson diagonalization with overlap
     ethr =  1.32E-08,  avg # of iterations =  1.0

     negative rho (up, down):  5.272E-04 0.000E+00

     total cpu time spent up to now is     4511.4 secs

     total energy              =   -1672.25004911 Ry
     estimated scf accuracy    <       0.00000929 Ry

     iteration #  8     ecut=    80.00 Ry     beta= 0.30
     Davidson diagonalization with overlap
     ethr =  5.34E-09,  avg # of iterations =  1.2

     negative rho (up, down):  5.156E-04 0.000E+00

     total cpu time spent up to now is     4614.1 secs

     total energy              =   -1672.25004881 Ry
     estimated scf accuracy    <       0.00000514 Ry

     iteration #  9     ecut=    80.00 Ry     beta= 0.30
     Davidson diagonalization with overlap
     ethr =  2.95E-09,  avg # of iterations =  1.6

     negative rho (up, down):  4.499E-04 0.000E+00

     total cpu time spent up to now is     4718.5 secs

     total energy              =   -1672.25004827 Ry
     estimated scf accuracy    <       0.00000125 Ry

     iteration # 10     ecut=    80.00 Ry     beta= 0.30
     Davidson diagonalization with overlap
     ethr =  7.21E-10,  avg # of iterations =  3.7

     negative rho (up, down):  3.650E-04 0.000E+00

     total cpu time spent up to now is     4829.0 secs

     total energy              =   -1672.25004757 Ry
     estimated scf accuracy    <       0.00000040 Ry

     iteration # 11     ecut=    80.00 Ry     beta= 0.30
     Davidson diagonalization with overlap
     ethr =  2.32E-10,  avg # of iterations =  2.1

     negative rho (up, down):  2.848E-04 0.000E+00

     total cpu time spent up to now is     4936.3 secs

     total energy              =   -1672.25004696 Ry
     estimated scf accuracy    <       0.00000020 Ry

     iteration # 12     ecut=    80.00 Ry     beta= 0.30
     Davidson diagonalization with overlap
     ethr =  1.14E-10,  avg # of iterations =  2.0

     negative rho (up, down):  1.084E-04 0.000E+00

     total cpu time spent up to now is     5038.1 secs

     End of self-consistent calculation

          k = 0.0000 0.0000 0.0000 ( 40831 PWs)   bands (ev):

   -73.4913 -72.7393 -72.5072 -72.3565 -72.3154 -72.0390 -44.0602 -43.2885
   -43.1012 -42.8225 -42.7077 -42.6746 -42.6129 -42.6011 -42.5770 -42.3773
   -42.3669 -42.2693 -42.2191 -42.1851 -42.1703 -42.1334 -41.9316 -41.8942
   -18.9020 -18.6876 -18.4663 -18.1967 -17.9489 -17.8034 -17.4221 -17.1934
   -17.1420 -17.0484 -16.8997 -16.7425 -16.0963  -7.4311  -7.2135  -7.2031
    -6.5918  -6.4034  -6.0163  -5.7302  -5.7246  -5.6693  -5.6005  -5.5069
    -5.4549  -5.2744  -5.1765  -4.6004  -4.1701  -3.5799  -3.3854  -3.1832
    -3.0600  -2.9483  -2.9022  -2.7805  -2.6802  -2.6436  -2.6200  -2.4780
    -2.3476  -2.2525  -2.1633  -1.9722  -1.9691  -1.6496  -1.4333  -1.4121
    -1.2471  -1.1252  -0.7177  -0.7123  -0.5147  -0.4648  -0.2019  -0.1792
    -0.1259  -0.1138   0.2955   0.3527   0.4925   0.5521   1.0169   1.1342
     1.2706   1.4416   1.7767   2.0456   2.2518   2.3087   2.7268   3.5370
     4.2240   4.7373   5.0080   5.2294   5.4153   5.5384   5.7491   5.8001

          k = 0.0000 0.1223 0.0000 ( 40974 PWs)   bands (ev):

   -73.4913 -72.7393 -72.5072 -72.3564 -72.3154 -72.0390 -44.0602 -43.2885
   -43.0988 -42.8251 -42.7077 -42.6736 -42.6129 -42.5994 -42.5770 -42.3772
   -42.3669 -42.2693 -42.2191 -42.1837 -42.1717 -42.1353 -41.9317 -41.8954
   -18.7801 -18.5563 -18.3438 -18.2447 -17.9674 -17.8360 -17.4326 -17.3115
   -17.2797 -17.2309 -16.8794 -16.7514 -16.0934  -7.0169  -6.7672  -6.7402
    -6.5850  -6.3931  -5.9467  -5.7228  -5.6113  -5.5887  -5.5194  -5.4518
    -5.4287  -5.2735  -4.9903  -4.6457  -4.2212  -4.0100  -3.7420  -3.6276
    -3.5168  -3.3767  -3.2475  -2.8930  -2.8574  -2.8513  -2.7276  -2.6485
    -2.5898  -2.3501  -2.1935  -2.1401  -2.0545  -1.7111  -1.6104  -1.6027
    -1.3363  -1.1092  -0.8825  -0.6999  -0.0610  -0.0342   0.1530   0.2788
     0.3669   0.4102   0.4395   0.5359   0.5607   0.6441   1.0058   1.0973
     1.3264   1.4932   1.7752   1.8484   2.0464   2.3818   2.6061   3.9308
     4.6437   4.7690   4.9165   5.2295   5.4277   5.4924   5.5295   5.5695

          k = 0.0000-0.2445 0.0000 ( 41014 PWs)   bands (ev):

   -73.4913 -72.7393 -72.5072 -72.3564 -72.3154 -72.0390 -44.0602 -43.2885
   -43.0963 -42.8277 -42.7077 -42.6726 -42.6129 -42.5977 -42.5770 -42.3772
   -42.3668 -42.2693 -42.2191 -42.1820 -42.1735 -42.1371 -41.9317 -41.8966
   -18.5332 -18.4664 -18.3275 -18.0947 -18.0460 -17.9339 -17.4850 -17.4465
   -17.4299 -17.3812 -16.8577 -16.7679 -16.0912  -6.6404  -6.4309  -6.3586
    -5.9971  -5.9520  -5.8695  -5.7203  -5.5860  -5.5040  -5.4398  -5.4328
    -5.2677  -5.0692  -4.9018  -4.6170  -4.5943  -4.4777  -4.4611  -4.3583
    -4.2114  -3.6970  -3.4668  -3.3171  -3.1180  -3.0927  -2.9858  -2.6897
    -2.6021  -2.4347  -2.2096  -2.0952  -1.9453  -1.6754  -1.6235  -1.3791
    -1.1922  -1.0963  -0.9697  -0.9664   0.2052   0.2140   0.2865   0.4024
     0.5321   0.6976   0.8198   0.8401   0.9023   0.9429   1.0668   1.1400
     1.2353   1.5701   1.5812   1.6167   2.0190   2.1379   2.7367   4.3614
     4.5013   4.8256   5.2117   5.2150   5.2312   5.2773   5.5470   5.6372

          k = 0.0000-0.1223 0.0000 ( 40974 PWs)   bands (ev):

   -73.4913 -72.7393 -72.5072 -72.3564 -72.3154 -72.0390 -44.0602 -43.2885
   -43.0988 -42.8251 -42.7077 -42.6736 -42.6129 -42.5994 -42.5770 -42.3772
   -42.3669 -42.2693 -42.2191 -42.1837 -42.1717 -42.1353 -41.9317 -41.8954
   -18.7801 -18.5563 -18.3438 -18.2447 -17.9674 -17.8360 -17.4326 -17.3115
   -17.2797 -17.2309 -16.8794 -16.7514 -16.0934  -7.0169  -6.7672  -6.7402
    -6.5850  -6.3931  -5.9467  -5.7228  -5.6113  -5.5887  -5.5194  -5.4518
    -5.4287  -5.2735  -4.9903  -4.6457  -4.2212  -4.0100  -3.7420  -3.6276
    -3.5168  -3.3767  -3.2475  -2.8930  -2.8574  -2.8513  -2.7276  -2.6485
    -2.5898  -2.3501  -2.1935  -2.1401  -2.0545  -1.7111  -1.6104  -1.6027
    -1.3363  -1.1092  -0.8825  -0.6999  -0.0610  -0.0342   0.1530   0.2788
     0.3669   0.4102   0.4395   0.5359   0.5607   0.6441   1.0058   1.0973
     1.3264   1.4932   1.7752   1.8484   2.0464   2.3818   2.6061   3.9308
     4.6437   4.7690   4.9165   5.2295   5.4277   5.4924   5.5295   5.5695

          k = 0.1250 0.0000 0.0000 ( 40851 PWs)   bands (ev):

   -73.4899 -72.7377 -72.5057 -72.3550 -72.3139 -72.0375 -44.0584 -43.3139
   -43.0963 -42.8214 -42.7362 -42.6725 -42.6081 -42.5989 -42.5750 -42.3929
   -42.3731 -42.2662 -42.2167 -42.2113 -42.1964 -42.1293 -41.9590 -41.8898
   -18.7736 -18.5722 -18.3573 -18.1113 -17.8712 -17.7252 -17.4244 -17.2692
   -17.2185 -17.1287 -16.9381 -16.8039 -16.1378  -7.2480  -7.0370  -7.0244
    -6.4126  -6.3902  -6.0584  -5.7758  -5.7225  -5.6024  -5.5434  -5.4362
    -5.1776  -4.9988  -4.9671  -4.4380  -4.0956  -4.0068  -3.4076  -3.2654
    -3.2362  -3.1441  -3.0567  -3.0530  -2.8771  -2.7485  -2.6804  -2.6139
    -2.3801  -2.2855  -2.1606  -2.1224  -2.0597  -2.0063  -1.8420  -1.7459
    -1.5546  -1.0897  -1.0352  -0.6762  -0.4180  -0.2051   0.0446   0.0846
     0.1739   0.3579   0.4855   0.5442   0.7097   0.7197   1.1687   1.2473
     1.3536   1.4601   1.6641   1.8937   2.1637   2.3840   2.5841   3.7150
     4.3450   4.7346   4.7875   4.9159   5.0829   5.3839   5.4313   5.4862

          k = 0.1250 0.1223 0.0000 ( 40932 PWs)   bands (ev):

   -73.4899 -72.7377 -72.5057 -72.3549 -72.3139 -72.0375 -44.0584 -43.3140
   -43.0942 -42.8235 -42.7362 -42.6718 -42.6081 -42.5976 -42.5750 -42.3929
   -42.3731 -42.2662 -42.2167 -42.2101 -42.1977 -42.1306 -41.9589 -41.8908
   -18.6581 -18.4475 -18.2370 -18.1582 -17.8775 -17.7645 -17.4513 -17.3682
   -17.3363 -17.2975 -16.9177 -16.8152 -16.1355  -6.8470  -6.6186  -6.5839
    -6.4171  -6.3718  -5.9643  -5.7320  -5.6634  -5.6179  -5.5018  -5.2218
    -5.1790  -5.0000  -4.8468  -4.4816  -4.2034  -4.0057  -3.9674  -3.6765
    -3.4506  -3.4226  -3.3315  -3.3027  -3.1640  -3.1060  -3.0539  -2.7958
    -2.6097  -2.5051  -2.3056  -2.1741  -2.0605  -1.9682  -1.7223  -1.5814
    -1.4004  -1.0430  -0.9661  -0.7738  -0.0531   0.1839   0.2120   0.2919
     0.4034   0.4678   0.6938   0.7637   0.8282   0.9063   1.1728   1.2608
     1.3828   1.4835   1.6829   1.7475   1.9430   2.3324   2.6049   4.0305
     4.3857   4.7418   4.8573   4.8807   5.0283   5.2247   5.2837   5.3994

          k = 0.1250-0.2445 0.0000 ( 40974 PWs)   bands (ev):

   -73.4898 -72.7377 -72.5057 -72.3549 -72.3139 -72.0375 -44.0584 -43.3141
   -43.0921 -42.8256 -42.7362 -42.6710 -42.6081 -42.5963 -42.5750 -42.3928
   -42.3731 -42.2663 -42.2167 -42.2085 -42.1992 -42.1320 -41.9588 -41.8918
   -18.4242 -18.3580 -18.2235 -18.0058 -17.9503 -17.8567 -17.5432 -17.5153
   -17.4690 -17.3871 -16.8902 -16.8378 -16.1336  -6.4577  -6.4138  -6.1410
    -5.9451  -5.8049  -5.7358  -5.7182  -5.6570  -5.6258  -5.6078  -5.2150
    -5.0299  -4.9006  -4.7485  -4.6383  -4.4668  -4.2857  -4.1510  -4.1151
    -4.0947  -3.9821  -3.8452  -3.7722  -3.4553  -3.3411  -3.2410  -2.8280
    -2.7286  -2.5933  -2.3168  -2.1991  -1.9232  -1.7565  -1.5365  -1.3801
    -1.1717  -1.0742  -0.9772  -0.9595   0.1961   0.2183   0.3257   0.4279
     0.5557   0.5763   0.8079   1.1311   1.1445   1.1708   1.2402   1.2807
     1.4289   1.4598   1.5539   1.6751   1.9365   2.0221   2.7519   4.0543
     4.4493   4.5743   4.7453   4.8587   5.1004   5.1106   5.3264   5.4573

          k = 0.1250-0.1223 0.0000 ( 40932 PWs)   bands (ev):

   -73.4899 -72.7377 -72.5057 -72.3549 -72.3139 -72.0375 -44.0584 -43.3140
   -43.0942 -42.8235 -42.7362 -42.6718 -42.6081 -42.5976 -42.5750 -42.3929
   -42.3731 -42.2662 -42.2167 -42.2101 -42.1977 -42.1306 -41.9589 -41.8908
   -18.6581 -18.4475 -18.2370 -18.1582 -17.8775 -17.7645 -17.4513 -17.3682
   -17.3363 -17.2975 -16.9177 -16.8152 -16.1355  -6.8470  -6.6186  -6.5839
    -6.4171  -6.3718  -5.9643  -5.7320  -5.6634  -5.6179  -5.5018  -5.2218
    -5.1790  -5.0000  -4.8468  -4.4816  -4.2034  -4.0057  -3.9674  -3.6765
    -3.4506  -3.4226  -3.3315  -3.3027  -3.1640  -3.1060  -3.0539  -2.7958
    -2.6097  -2.5051  -2.3056  -2.1741  -2.0605  -1.9682  -1.7223  -1.5814
    -1.4004  -1.0430  -0.9661  -0.7738  -0.0531   0.1840   0.2120   0.2919
     0.4034   0.4678   0.6938   0.7637   0.8282   0.9063   1.1728   1.2608
     1.3828   1.4835   1.6829   1.7475   1.9430   2.3324   2.6049   4.0305
     4.3857   4.7418   4.8573   4.8807   5.0283   5.2247   5.2837   5.3994

          k = 0.2500 0.0000 0.0000 ( 40947 PWs)   bands (ev):

   -73.4863 -72.7339 -72.5021 -72.3513 -72.3102 -72.0337 -44.0541 -43.3749
   -43.0844 -42.8188 -42.8043 -42.6676 -42.5963 -42.5934 -42.5712 -42.4548
   -42.3633 -42.2759 -42.2687 -42.2481 -42.2098 -42.1193 -42.0245 -41.8791
   -18.4465 -18.2869 -18.0886 -17.9419 -17.7440 -17.5285 -17.4685 -17.4143
   -17.3965 -17.3169 -17.0412 -16.8724 -16.1911  -6.7795  -6.5890  -6.5547
    -6.2081  -6.0050  -5.9507  -5.8316  -5.7777  -5.4442  -5.4064  -5.0320
    -4.9603  -4.6017  -4.5399  -4.4842  -4.3100  -4.1167  -4.0151  -3.9611
    -3.7373  -3.6531  -3.3983  -3.1878  -3.0811  -2.9830  -2.8309  -2.7635
    -2.6516  -2.4526  -2.3873  -2.2377  -2.1682  -2.0530  -2.0043  -1.6019
    -1.4705  -1.2233  -1.1615  -0.9395  -0.2277  -0.1137   0.2213   0.4783
     0.5348   0.6143   0.8256   0.9993   1.0907   1.1871   1.2257   1.3330
     1.3902   1.4906   1.5587   1.6282   1.8752   2.2021   2.5143   3.9688
     4.1466   4.2418   4.4264   4.6930   4.7538   4.8373   4.9080   4.9877

          k = 0.2500 0.1223 0.0000 ( 40905 PWs)   bands (ev):

   -73.4863 -72.7339 -72.5021 -72.3513 -72.3102 -72.0337 -44.0541 -43.3752
   -43.0833 -42.8198 -42.8042 -42.6675 -42.5963 -42.5933 -42.5712 -42.4549
   -42.3632 -42.2744 -42.2695 -42.2484 -42.2098 -42.1198 -42.0241 -41.8796
   -18.3578 -18.1925 -17.9919 -17.9805 -17.7421 -17.6275 -17.5213 -17.4723
   -17.4357 -17.3877 -17.0288 -16.8809 -16.1906  -6.4646  -6.2988  -6.2362
    -6.1806  -5.9635  -5.8710  -5.8109  -5.6130  -5.5312  -5.3377  -5.0947
    -4.7791  -4.7259  -4.6230  -4.4827  -4.4219  -4.3289  -4.2316  -4.1148
    -3.9662  -3.5820  -3.4871  -3.3306  -3.2130  -3.1566  -2.9904  -2.8962
    -2.7606  -2.6367  -2.4128  -2.2280  -2.1409  -2.0904  -1.9090  -1.5935
    -1.4323  -1.2211  -1.1340  -0.9924  -0.2009   0.0849   0.4473   0.4963
     0.5967   0.8647   0.9240   0.9961   1.0839   1.1666   1.2313   1.2924
     1.3859   1.5432   1.6207   1.6834   1.8135   2.0836   2.6317   3.6982
     4.0536   4.1661   4.2673   4.3917   4.6913   4.7863   5.2122   5.3633

          k = 0.2500-0.2445 0.0000 ( 40892 PWs)   bands (ev):

   -73.4863 -72.7339 -72.5021 -72.3513 -72.3102 -72.0337 -44.0541 -43.3755
   -43.0821 -42.8207 -42.8040 -42.6673 -42.5963 -42.5932 -42.5712 -42.4549
   -42.3632 -42.2719 -42.2714 -42.2487 -42.2098 -42.1204 -42.0237 -41.8801
   -18.1816 -18.1218 -17.9711 -17.9058 -17.7510 -17.7252 -17.6686 -17.5868
   -17.4813 -17.3905 -17.0156 -16.8913 -16.1901  -6.2265  -6.0079  -5.9646
    -5.8307  -5.7673  -5.7609  -5.6239  -5.5665  -5.2881  -5.2858  -5.1974
    -4.9786  -4.9650  -4.9321  -4.7614  -4.5726  -4.4625  -4.2261  -4.0224
    -3.8151  -3.7320  -3.6459  -3.5904  -3.4902  -3.4639  -3.2703  -3.2418
    -2.9104  -2.7637  -2.3655  -2.2104  -1.9700  -1.8424  -1.6573  -1.5869
    -1.3317  -1.2766  -1.1253  -1.0671  -0.0078   0.0655   0.2696   0.5993
     0.6189   0.8828   1.0459   1.1135   1.1480   1.1708   1.3131   1.4101
     1.4211   1.6138   1.6816   1.7919   1.8446   1.9435   2.7242   3.2966
     3.7813   3.8644   4.1116   4.3801   4.7089   5.0874   5.2764   5.6090

          k = 0.2500-0.1223 0.0000 ( 40905 PWs)   bands (ev):

   -73.4863 -72.7339 -72.5021 -72.3513 -72.3102 -72.0337 -44.0541 -43.3752
   -43.0833 -42.8198 -42.8042 -42.6675 -42.5963 -42.5933 -42.5712 -42.4549
   -42.3632 -42.2744 -42.2695 -42.2484 -42.2098 -42.1198 -42.0241 -41.8796
   -18.3578 -18.1925 -17.9919 -17.9805 -17.7421 -17.6275 -17.5213 -17.4723
   -17.4357 -17.3877 -17.0288 -16.8809 -16.1906  -6.4646  -6.2988  -6.2362
    -6.1806  -5.9635  -5.8710  -5.8109  -5.6130  -5.5312  -5.3377  -5.0947
    -4.7791  -4.7259  -4.6230  -4.4827  -4.4219  -4.3289  -4.2316  -4.1148
    -3.9662  -3.5820  -3.4871  -3.3306  -3.2130  -3.1566  -2.9904  -2.8962
    -2.7606  -2.6367  -2.4128  -2.2280  -2.1409  -2.0904  -1.9090  -1.5935
    -1.4323  -1.2211  -1.1340  -0.9924  -0.2009   0.0849   0.4473   0.4963
     0.5967   0.8647   0.9241   0.9961   1.0839   1.1666   1.2313   1.2924
     1.3859   1.5432   1.6207   1.6834   1.8135   2.0836   2.6317   3.6982
     4.0536   4.1661   4.2673   4.3917   4.6913   4.7863   5.2122   5.3633

          k = 0.3750 0.0000 0.0000 ( 40852 PWs)   bands (ev):

   -73.4827 -72.7300 -72.4984 -72.3477 -72.3065 -72.0300 -44.0498 -43.4352
   -43.0723 -42.8715 -42.8163 -42.6627 -42.5880 -42.5847 -42.5686 -42.5148
   -42.3550 -42.3359 -42.3261 -42.2465 -42.2030 -42.1092 -42.0891 -41.8683
   -18.0904 -17.9959 -17.8429 -17.8157 -17.7078 -17.6336 -17.5734 -17.4994
   -17.4264 -17.4002 -17.0447 -16.8480 -16.1637  -6.3481  -6.1425  -6.0190
    -6.0002  -5.8697  -5.8448  -5.6264  -5.5918  -5.4736  -5.3625  -5.1822
    -5.0429  -4.8005  -4.7714  -4.5652  -4.3932  -4.3579  -4.1691  -3.9551
    -3.6981  -3.4739  -3.3842  -3.3678  -3.3037  -3.1615  -3.0531  -2.7891
    -2.6577  -2.5534  -2.4026  -2.2531  -2.1916  -2.0052  -1.9228  -1.4881
    -1.3568  -1.3527  -1.2209  -0.9388  -0.1881   0.0582   0.2923   0.5029
     0.6124   0.6908   0.7911   0.8071   0.8930   1.0652   1.1809   1.2471
     1.3845   1.5428   1.6675   1.8248   1.9854   2.1790   2.3900   3.4474
     3.7807   4.0728   4.3041   4.4155   4.5115   4.5660   4.8054   4.9663

          k = 0.3750 0.1223 0.0000 ( 40842 PWs)   bands (ev):

   -73.4827 -72.7300 -72.4984 -72.3477 -72.3065 -72.0300 -44.0498 -43.4357
   -43.0723 -42.8711 -42.8161 -42.6632 -42.5893 -42.5846 -42.5686 -42.5149
   -42.3548 -42.3343 -42.3266 -42.2465 -42.2030 -42.1091 -42.0883 -41.8683
   -18.0710 -17.9948 -17.9053 -17.8499 -17.7741 -17.6359 -17.5049 -17.4474
   -17.4158 -17.3911 -17.0436 -16.8522 -16.1639  -6.2164  -6.1272  -6.0633
    -6.0149  -5.9198  -5.7340  -5.6229  -5.5683  -5.5060  -5.4345  -5.3268
    -5.0430  -4.7542  -4.6763  -4.5040  -4.4283  -4.2558  -4.0533  -3.8501
    -3.6403  -3.5465  -3.3557  -3.2853  -3.2040  -3.1068  -3.0166  -2.8435
    -2.7087  -2.5850  -2.4926  -2.2470  -2.1480  -2.0286  -1.9152  -1.6125
    -1.5151  -1.3874  -1.2378  -1.0904  -0.1419  -0.0682   0.2240   0.2740
     0.5646   0.6311   0.6600   0.7879   0.8393   0.9538   0.9980   1.2470
     1.6969   1.7487   1.8525   1.9005   2.0600   2.0842   2.5007   3.1724
     3.5062   3.6803   3.7792   4.1134   4.3213   5.1336   5.4763   5.5389

          k = 0.3750-0.2445 0.0000 ( 40856 PWs)   bands (ev):

   -73.4827 -72.7300 -72.4984 -72.3477 -72.3065 -72.0300 -44.0498 -43.4362
   -43.0723 -42.8707 -42.8159 -42.6637 -42.5907 -42.5846 -42.5686 -42.5150
   -42.3547 -42.3325 -42.3273 -42.2465 -42.2030 -42.1089 -42.0876 -41.8684
   -18.0231 -18.0099 -17.9765 -17.8749 -17.8104 -17.6461 -17.4548 -17.4255
   -17.3938 -17.3799 -17.0423 -16.8566 -16.1642  -6.2664  -6.0363  -5.8994
    -5.8915  -5.8303  -5.7899  -5.7339  -5.6647  -5.6462  -5.5272  -5.3843
    -4.9303  -4.7544  -4.5406  -4.4659  -4.2601  -4.2191  -4.0430  -3.7133
    -3.5249  -3.4560  -3.4002  -3.2648  -3.2162  -3.1282  -3.1021  -2.9456
    -2.7461  -2.7048  -2.3520  -2.1901  -2.1524  -2.0017  -1.8837  -1.8128
    -1.5691  -1.3994  -1.2506  -1.2192  -0.3005  -0.2410  -0.1212   0.3487
     0.4761   0.6318   0.6914   0.7939   0.8495   0.9094   1.0379   1.2561
     1.5984   1.8167   1.9711   2.0005   2.1423   2.2394   2.5986   2.7621
     3.2444   3.3472   3.5418   4.1390   4.3237   5.5212   5.5297   5.8265

          k = 0.3750-0.1223 0.0000 ( 40842 PWs)   bands (ev):

   -73.4827 -72.7300 -72.4984 -72.3477 -72.3065 -72.0300 -44.0498 -43.4357
   -43.0723 -42.8711 -42.8161 -42.6632 -42.5893 -42.5846 -42.5686 -42.5149
   -42.3548 -42.3343 -42.3266 -42.2465 -42.2030 -42.1091 -42.0883 -41.8683
   -18.0710 -17.9948 -17.9053 -17.8499 -17.7741 -17.6359 -17.5049 -17.4474
   -17.4158 -17.3911 -17.0436 -16.8522 -16.1639  -6.2164  -6.1272  -6.0633
    -6.0149  -5.9198  -5.7340  -5.6229  -5.5683  -5.5060  -5.4345  -5.3268
    -5.0430  -4.7542  -4.6763  -4.5040  -4.4283  -4.2558  -4.0533  -3.8501
    -3.6403  -3.5465  -3.3557  -3.2853  -3.2040  -3.1068  -3.0166  -2.8435
    -2.7087  -2.5850  -2.4926  -2.2470  -2.1480  -2.0286  -1.9152  -1.6125
    -1.5151  -1.3874  -1.2378  -1.0904  -0.1419  -0.0682   0.2240   0.2740
     0.5646   0.6311   0.6600   0.7879   0.8393   0.9538   0.9980   1.2470
     1.6969   1.7487   1.8525   1.9005   2.0600   2.0842   2.5007   3.1724
     3.5062   3.6803   3.7792   4.1134   4.3213   5.1336   5.4763   5.5389

          k =-0.5000 0.0000 0.0000 ( 40876 PWs)   bands (ev):

   -73.4813 -72.7284 -72.4969 -72.3462 -72.3050 -72.0284 -44.0480 -43.4601
   -43.0673 -42.8991 -42.8153 -42.6607 -42.5858 -42.5815 -42.5677 -42.5378
   -42.3664 -42.3516 -42.3461 -42.2436 -42.2002 -42.1155 -42.1050 -41.8638
   -17.9754 -17.8298 -17.8065 -17.7559 -17.7051 -17.6745 -17.6427 -17.5703
   -17.4389 -17.4026 -16.9724 -16.8215 -16.1270  -6.3334  -6.1089  -5.9616
    -5.7715  -5.7524  -5.6625  -5.5832  -5.5203  -5.4843  -5.3875  -5.3028
    -5.1315  -4.9993  -4.8879  -4.6992  -4.4926  -4.1125  -3.8771  -3.7602
    -3.6557  -3.6474  -3.6391  -3.5355  -3.3834  -2.9344  -2.8406  -2.6855
    -2.5807  -2.4555  -2.4523  -2.3340  -2.1221  -1.9633  -1.8021  -1.6922
    -1.5728  -1.2169  -1.1082  -0.8717  -0.2290   0.1099   0.1164   0.4918
     0.5698   0.6036   0.6506   0.6943   0.7509   0.8160   1.0562   1.2011
     1.3253   1.5135   1.8656   1.9598   2.1708   2.2777   2.3550   3.2266
     3.6335   4.0238   4.2436   4.2841   4.3938   4.5792   4.7885   4.9364

          k =-0.5000 0.1223 0.0000 ( 40858 PWs)   bands (ev):

   -73.4813 -72.7284 -72.4969 -72.3462 -72.3050 -72.0284 -44.0480 -43.4606
   -43.0678 -42.8985 -42.8146 -42.6615 -42.5878 -42.5815 -42.5676 -42.5379
   -42.3645 -42.3520 -42.3459 -42.2437 -42.2002 -42.1146 -42.1046 -41.8637
   -17.9692 -17.9640 -17.9275 -17.8806 -17.8096 -17.5496 -17.4400 -17.4385
   -17.4020 -17.3964 -16.9752 -16.8234 -16.1265  -6.2854  -6.2285  -6.0710
    -6.0705  -5.9681  -5.7405  -5.6342  -5.6054  -5.5688  -5.3959  -5.1535
    -5.0616  -4.8020  -4.5823  -4.3794  -4.1285  -3.8700  -3.8460  -3.7712
    -3.7551  -3.6238  -3.6069  -3.5804  -2.9860  -2.9199  -2.7932  -2.5895
    -2.5705  -2.5023  -2.4782  -2.2390  -2.1662  -2.0981  -1.8104  -1.6340
    -1.6060  -1.4688  -1.2928  -1.0564  -0.2245  -0.0095   0.0670   0.1189
     0.2320   0.4744   0.5177   0.5931   0.6221   0.6495   0.7728   1.2261
     1.8172   1.8843   2.0235   2.0427   2.2097   2.2276   2.4298   3.0014
     3.2750   3.4816   3.6068   4.0539   4.2463   5.3455   5.5541   5.6233

          k =-0.5000-0.2445 0.0000 ( 40872 PWs)   bands (ev):

   -73.4813 -72.7284 -72.4969 -72.3462 -72.3050 -72.0284 -44.0480 -43.4612
   -43.0683 -42.8980 -42.8140 -42.6623 -42.5899 -42.5815 -42.5676 -42.5380
   -42.3627 -42.3524 -42.3456 -42.2437 -42.2002 -42.1137 -42.1042 -41.8635
   -18.0392 -18.0180 -17.9713 -17.9625 -17.8132 -17.4704 -17.4379 -17.4014
   -17.3403 -17.2987 -16.9781 -16.8253 -16.1260  -6.4933  -6.2431  -6.1702
    -6.0654  -6.0388  -5.7624  -5.6567  -5.6333  -5.6247  -5.4725  -5.1523
    -5.0185  -4.9228  -4.1733  -4.1397  -3.8848  -3.8487  -3.8260  -3.5850
    -3.5628  -3.4907  -3.4048  -3.2237  -3.1907  -2.8984  -2.8217  -2.7752
    -2.6267  -2.3957  -2.3089  -2.1548  -2.1309  -1.9232  -1.9003  -1.7671
    -1.7178  -1.6935  -1.5572  -1.2354  -0.4832  -0.2267  -0.2111   0.0506
     0.1419   0.2082   0.4774   0.4990   0.6330   0.6488   0.7871   1.2733
     1.7766   1.9409   2.0749   2.1449   2.3851   2.3957   2.4834   2.6044
     3.0967   3.2189   3.3118   4.0818   4.2484   5.6271   5.7955   5.8382

          k =-0.5000-0.1223 0.0000 ( 40858 PWs)   bands (ev):

   -73.4813 -72.7284 -72.4969 -72.3462 -72.3050 -72.0284 -44.0480 -43.4606
   -43.0678 -42.8985 -42.8146 -42.6615 -42.5878 -42.5815 -42.5676 -42.5379
   -42.3645 -42.3520 -42.3459 -42.2437 -42.2002 -42.1146 -42.1046 -41.8637
   -17.9692 -17.9640 -17.9275 -17.8806 -17.8096 -17.5496 -17.4400 -17.4385
   -17.4020 -17.3964 -16.9752 -16.8234 -16.1265  -6.2854  -6.2285  -6.0710
    -6.0705  -5.9681  -5.7405  -5.6342  -5.6054  -5.5688  -5.3959  -5.1535
    -5.0616  -4.8020  -4.5823  -4.3794  -4.1285  -3.8700  -3.8460  -3.7712
    -3.7551  -3.6238  -3.6069  -3.5804  -2.9860  -2.9199  -2.7932  -2.5895
    -2.5705  -2.5023  -2.4782  -2.2390  -2.1662  -2.0981  -1.8104  -1.6340
    -1.6060  -1.4688  -1.2928  -1.0564  -0.2245  -0.0095   0.0670   0.1189
     0.2320   0.4744   0.5177   0.5931   0.6221   0.6495   0.7728   1.2261
     1.8172   1.8843   2.0235   2.0427   2.2097   2.2276   2.4298   3.0014
     3.2750   3.4816   3.6068   4.0539   4.2463   5.3455   5.5541   5.6233

          k =-0.3750 0.0000 0.0000 ( 40852 PWs)   bands (ev):

   -73.4827 -72.7300 -72.4984 -72.3477 -72.3065 -72.0300 -44.0498 -43.4352
   -43.0723 -42.8715 -42.8163 -42.6627 -42.5880 -42.5847 -42.5686 -42.5148
   -42.3550 -42.3359 -42.3261 -42.2465 -42.2030 -42.1092 -42.0891 -41.8683
   -18.0904 -17.9959 -17.8429 -17.8157 -17.7078 -17.6336 -17.5734 -17.4994
   -17.4264 -17.4002 -17.0447 -16.8480 -16.1637  -6.3481  -6.1425  -6.0190
    -6.0002  -5.8697  -5.8448  -5.6264  -5.5918  -5.4736  -5.3625  -5.1822
    -5.0429  -4.8005  -4.7714  -4.5652  -4.3932  -4.3579  -4.1691  -3.9551
    -3.6981  -3.4739  -3.3842  -3.3678  -3.3037  -3.1615  -3.0531  -2.7891
    -2.6577  -2.5534  -2.4026  -2.2531  -2.1916  -2.0052  -1.9228  -1.4881
    -1.3568  -1.3527  -1.2209  -0.9388  -0.1881   0.0582   0.2923   0.5029
     0.6124   0.6908   0.7911   0.8071   0.8930   1.0652   1.1809   1.2471
     1.3845   1.5428   1.6675   1.8248   1.9854   2.1790   2.3900   3.4474
     3.7807   4.0728   4.3041   4.4155   4.5115   4.5660   4.8054   4.9663

          k =-0.3750 0.1223 0.0000 ( 40842 PWs)   bands (ev):

   -73.4827 -72.7300 -72.4984 -72.3477 -72.3065 -72.0300 -44.0498 -43.4357
   -43.0723 -42.8711 -42.8161 -42.6632 -42.5893 -42.5846 -42.5686 -42.5149
   -42.3548 -42.3343 -42.3266 -42.2465 -42.2030 -42.1091 -42.0883 -41.8683
   -18.0710 -17.9948 -17.9053 -17.8499 -17.7741 -17.6359 -17.5049 -17.4474
   -17.4158 -17.3911 -17.0436 -16.8522 -16.1639  -6.2164  -6.1272  -6.0633
    -6.0149  -5.9198  -5.7340  -5.6229  -5.5683  -5.5060  -5.4345  -5.3268
    -5.0430  -4.7542  -4.6763  -4.5040  -4.4283  -4.2558  -4.0533  -3.8501
    -3.6403  -3.5465  -3.3557  -3.2853  -3.2040  -3.1068  -3.0166  -2.8435
    -2.7087  -2.5850  -2.4926  -2.2470  -2.1480  -2.0286  -1.9152  -1.6125
    -1.5151  -1.3874  -1.2378  -1.0904  -0.1419  -0.0682   0.2240   0.2740
     0.5646   0.6311   0.6600   0.7879   0.8393   0.9538   0.9980   1.2470
     1.6969   1.7487   1.8525   1.9005   2.0600   2.0842   2.5007   3.1724
     3.5062   3.6803   3.7792   4.1134   4.3213   5.1336   5.4763   5.5389

          k =-0.3750-0.2445 0.0000 ( 40856 PWs)   bands (ev):

   -73.4827 -72.7300 -72.4984 -72.3477 -72.3065 -72.0300 -44.0498 -43.4362
   -43.0723 -42.8707 -42.8159 -42.6637 -42.5907 -42.5846 -42.5686 -42.5150
   -42.3547 -42.3325 -42.3273 -42.2465 -42.2030 -42.1089 -42.0876 -41.8684
   -18.0231 -18.0099 -17.9765 -17.8749 -17.8104 -17.6461 -17.4548 -17.4255
   -17.3938 -17.3799 -17.0423 -16.8566 -16.1642  -6.2664  -6.0363  -5.8994
    -5.8915  -5.8303  -5.7899  -5.7339  -5.6647  -5.6462  -5.5272  -5.3843
    -4.9303  -4.7544  -4.5406  -4.4659  -4.2601  -4.2191  -4.0430  -3.7133
    -3.5249  -3.4560  -3.4002  -3.2648  -3.2162  -3.1282  -3.1021  -2.9456
    -2.7461  -2.7048  -2.3520  -2.1901  -2.1524  -2.0017  -1.8837  -1.8128
    -1.5691  -1.3994  -1.2506  -1.2192  -0.3005  -0.2410  -0.1212   0.3487
     0.4761   0.6318   0.6914   0.7939   0.8495   0.9094   1.0379   1.2561
     1.5984   1.8167   1.9711   2.0005   2.1423   2.2394   2.5986   2.7621
     3.2444   3.3472   3.5418   4.1390   4.3237   5.5212   5.5297   5.8265

          k =-0.3750-0.1223 0.0000 ( 40842 PWs)   bands (ev):

   -73.4827 -72.7300 -72.4984 -72.3477 -72.3065 -72.0300 -44.0498 -43.4357
   -43.0723 -42.8711 -42.8161 -42.6632 -42.5893 -42.5846 -42.5686 -42.5149
   -42.3548 -42.3343 -42.3266 -42.2465 -42.2030 -42.1091 -42.0883 -41.8683
   -18.0710 -17.9948 -17.9053 -17.8499 -17.7741 -17.6359 -17.5049 -17.4474
   -17.4158 -17.3911 -17.0436 -16.8522 -16.1639  -6.2164  -6.1272  -6.0633
    -6.0149  -5.9198  -5.7340  -5.6229  -5.5683  -5.5060  -5.4345  -5.3268
    -5.0430  -4.7542  -4.6763  -4.5040  -4.4283  -4.2558  -4.0533  -3.8501
    -3.6403  -3.5465  -3.3557  -3.2853  -3.2040  -3.1068  -3.0166  -2.8435
    -2.7087  -2.5850  -2.4926  -2.2470  -2.1480  -2.0286  -1.9152  -1.6125
    -1.5151  -1.3874  -1.2378  -1.0904  -0.1419  -0.0682   0.2240   0.2740
     0.5646   0.6311   0.6600   0.7879   0.8393   0.9538   0.9980   1.2470
     1.6969   1.7487   1.8525   1.9005   2.0600   2.0842   2.5007   3.1724
     3.5062   3.6803   3.7792   4.1134   4.3213   5.1336   5.4763   5.5389

          k =-0.2500 0.0000 0.0000 ( 40947 PWs)   bands (ev):

   -73.4863 -72.7339 -72.5021 -72.3513 -72.3102 -72.0337 -44.0541 -43.3749
   -43.0844 -42.8188 -42.8043 -42.6676 -42.5963 -42.5934 -42.5712 -42.4548
   -42.3633 -42.2759 -42.2687 -42.2481 -42.2098 -42.1193 -42.0245 -41.8791
   -18.4465 -18.2869 -18.0886 -17.9419 -17.7440 -17.5285 -17.4685 -17.4143
   -17.3965 -17.3169 -17.0412 -16.8724 -16.1911  -6.7795  -6.5890  -6.5547
    -6.2081  -6.0050  -5.9507  -5.8316  -5.7777  -5.4442  -5.4064  -5.0320
    -4.9603  -4.6017  -4.5399  -4.4842  -4.3100  -4.1167  -4.0151  -3.9611
    -3.7373  -3.6531  -3.3983  -3.1878  -3.0811  -2.9830  -2.8309  -2.7635
    -2.6516  -2.4526  -2.3873  -2.2377  -2.1682  -2.0530  -2.0043  -1.6019
    -1.4705  -1.2233  -1.1615  -0.9395  -0.2277  -0.1137   0.2213   0.4783
     0.5348   0.6143   0.8256   0.9993   1.0907   1.1871   1.2257   1.3330
     1.3902   1.4906   1.5587   1.6282   1.8752   2.2021   2.5143   3.9688
     4.1466   4.2418   4.4264   4.6930   4.7538   4.8373   4.9080   4.9877

          k =-0.2500 0.1223 0.0000 ( 40905 PWs)   bands (ev):

   -73.4863 -72.7339 -72.5021 -72.3513 -72.3102 -72.0337 -44.0541 -43.3752
   -43.0833 -42.8198 -42.8042 -42.6675 -42.5963 -42.5933 -42.5712 -42.4549
   -42.3632 -42.2744 -42.2695 -42.2484 -42.2098 -42.1198 -42.0241 -41.8796
   -18.3578 -18.1925 -17.9919 -17.9805 -17.7421 -17.6275 -17.5213 -17.4723
   -17.4357 -17.3877 -17.0288 -16.8809 -16.1906  -6.4646  -6.2988  -6.2362
    -6.1806  -5.9635  -5.8710  -5.8109  -5.6130  -5.5312  -5.3377  -5.0947
    -4.7791  -4.7259  -4.6230  -4.4827  -4.4219  -4.3289  -4.2316  -4.1148
    -3.9662  -3.5820  -3.4871  -3.3306  -3.2130  -3.1566  -2.9904  -2.8962
    -2.7606  -2.6367  -2.4128  -2.2280  -2.1409  -2.0904  -1.9090  -1.5935
    -1.4323  -1.2211  -1.1340  -0.9924  -0.2009   0.0849   0.4473   0.4963
     0.5967   0.8647   0.9241   0.9961   1.0839   1.1666   1.2313   1.2924
     1.3859   1.5432   1.6207   1.6834   1.8135   2.0836   2.6317   3.6982
     4.0536   4.1661   4.2673   4.3917   4.6913   4.7863   5.2122   5.3633

          k =-0.2500-0.2445 0.0000 ( 40892 PWs)   bands (ev):

   -73.4863 -72.7339 -72.5021 -72.3513 -72.3102 -72.0337 -44.0541 -43.3755
   -43.0821 -42.8207 -42.8040 -42.6673 -42.5963 -42.5932 -42.5712 -42.4549
   -42.3632 -42.2719 -42.2714 -42.2487 -42.2098 -42.1204 -42.0237 -41.8801
   -18.1816 -18.1218 -17.9711 -17.9058 -17.7510 -17.7252 -17.6686 -17.5868
   -17.4813 -17.3905 -17.0156 -16.8913 -16.1901  -6.2265  -6.0079  -5.9646
    -5.8307  -5.7673  -5.7609  -5.6239  -5.5665  -5.2881  -5.2858  -5.1974
    -4.9786  -4.9650  -4.9321  -4.7614  -4.5726  -4.4625  -4.2261  -4.0224
    -3.8151  -3.7320  -3.6459  -3.5904  -3.4902  -3.4639  -3.2703  -3.2418
    -2.9104  -2.7637  -2.3655  -2.2104  -1.9700  -1.8424  -1.6573  -1.5869
    -1.3317  -1.2766  -1.1253  -1.0671  -0.0078   0.0655   0.2696   0.5993
     0.6189   0.8828   1.0459   1.1135   1.1480   1.1708   1.3131   1.4101
     1.4211   1.6138   1.6816   1.7919   1.8446   1.9435   2.7242   3.2966
     3.7813   3.8644   4.1116   4.3801   4.7089   5.0874   5.2764   5.6090

          k =-0.2500-0.1223 0.0000 ( 40905 PWs)   bands (ev):

   -73.4863 -72.7339 -72.5021 -72.3513 -72.3102 -72.0337 -44.0541 -43.3752
   -43.0833 -42.8198 -42.8042 -42.6675 -42.5963 -42.5933 -42.5712 -42.4549
   -42.3632 -42.2744 -42.2695 -42.2484 -42.2098 -42.1198 -42.0241 -41.8796
   -18.3578 -18.1925 -17.9919 -17.9805 -17.7421 -17.6275 -17.5213 -17.4723
   -17.4357 -17.3877 -17.0288 -16.8809 -16.1906  -6.4646  -6.2988  -6.2362
    -6.1806  -5.9635  -5.8710  -5.8109  -5.6130  -5.5312  -5.3377  -5.0947
    -4.7791  -4.7259  -4.6230  -4.4827  -4.4219  -4.3289  -4.2316  -4.1148
    -3.9662  -3.5820  -3.4871  -3.3306  -3.2130  -3.1566  -2.9904  -2.8962
    -2.7606  -2.6367  -2.4128  -2.2280  -2.1409  -2.0904  -1.9090  -1.5935
    -1.4323  -1.2211  -1.1340  -0.9924  -0.2009   0.0849   0.4473   0.4963
     0.5967   0.8647   0.9240   0.9961   1.0839   1.1666   1.2313   1.2924
     1.3859   1.5432   1.6207   1.6834   1.8135   2.0836   2.6317   3.6982
     4.0536   4.1661   4.2673   4.3917   4.6913   4.7863   5.2122   5.3633

          k =-0.1250 0.0000 0.0000 ( 40851 PWs)   bands (ev):

   -73.4899 -72.7377 -72.5057 -72.3550 -72.3139 -72.0375 -44.0584 -43.3139
   -43.0963 -42.8214 -42.7362 -42.6725 -42.6081 -42.5989 -42.5750 -42.3929
   -42.3731 -42.2662 -42.2167 -42.2113 -42.1964 -42.1293 -41.9590 -41.8898
   -18.7736 -18.5722 -18.3573 -18.1113 -17.8712 -17.7252 -17.4244 -17.2692
   -17.2185 -17.1287 -16.9381 -16.8039 -16.1378  -7.2480  -7.0370  -7.0244
    -6.4126  -6.3902  -6.0584  -5.7758  -5.7225  -5.6024  -5.5434  -5.4362
    -5.1776  -4.9988  -4.9671  -4.4380  -4.0956  -4.0068  -3.4076  -3.2654
    -3.2362  -3.1441  -3.0567  -3.0530  -2.8771  -2.7485  -2.6804  -2.6139
    -2.3801  -2.2855  -2.1606  -2.1224  -2.0597  -2.0063  -1.8420  -1.7459
    -1.5546  -1.0897  -1.0352  -0.6762  -0.4180  -0.2051   0.0446   0.0846
     0.1739   0.3579   0.4855   0.5442   0.7097   0.7197   1.1687   1.2473
     1.3536   1.4601   1.6641   1.8937   2.1637   2.3840   2.5841   3.7150
     4.3450   4.7346   4.7875   4.9159   5.0829   5.3839   5.4313   5.4862

          k =-0.1250 0.1223 0.0000 ( 40932 PWs)   bands (ev):

   -73.4899 -72.7377 -72.5057 -72.3549 -72.3139 -72.0375 -44.0584 -43.3140
   -43.0942 -42.8235 -42.7362 -42.6718 -42.6081 -42.5976 -42.5750 -42.3929
   -42.3731 -42.2662 -42.2167 -42.2101 -42.1977 -42.1306 -41.9589 -41.8908
   -18.6581 -18.4475 -18.2370 -18.1582 -17.8775 -17.7645 -17.4513 -17.3682
   -17.3363 -17.2975 -16.9177 -16.8152 -16.1355  -6.8470  -6.6186  -6.5839
    -6.4171  -6.3718  -5.9643  -5.7320  -5.6634  -5.6179  -5.5018  -5.2218
    -5.1790  -5.0000  -4.8468  -4.4816  -4.2034  -4.0057  -3.9674  -3.6765
    -3.4506  -3.4226  -3.3315  -3.3027  -3.1640  -3.1060  -3.0539  -2.7958
    -2.6097  -2.5051  -2.3056  -2.1741  -2.0605  -1.9682  -1.7223  -1.5814
    -1.4004  -1.0430  -0.9661  -0.7738  -0.0531   0.1840   0.2120   0.2919
     0.4034   0.4678   0.6938   0.7637   0.8282   0.9063   1.1728   1.2608
     1.3828   1.4835   1.6829   1.7475   1.9430   2.3324   2.6049   4.0305
     4.3857   4.7418   4.8573   4.8807   5.0283   5.2247   5.2837   5.3994

          k =-0.1250-0.2445 0.0000 ( 40974 PWs)   bands (ev):

   -73.4898 -72.7377 -72.5057 -72.3549 -72.3139 -72.0375 -44.0584 -43.3141
   -43.0921 -42.8256 -42.7362 -42.6710 -42.6081 -42.5963 -42.5750 -42.3928
   -42.3731 -42.2663 -42.2167 -42.2085 -42.1992 -42.1320 -41.9588 -41.8918
   -18.4242 -18.3580 -18.2235 -18.0058 -17.9503 -17.8567 -17.5432 -17.5153
   -17.4690 -17.3871 -16.8902 -16.8378 -16.1336  -6.4577  -6.4138  -6.1410
    -5.9451  -5.8049  -5.7358  -5.7182  -5.6570  -5.6258  -5.6078  -5.2150
    -5.0299  -4.9006  -4.7485  -4.6383  -4.4668  -4.2857  -4.1510  -4.1151
    -4.0947  -3.9821  -3.8452  -3.7722  -3.4553  -3.3411  -3.2410  -2.8280
    -2.7286  -2.5933  -2.3168  -2.1991  -1.9232  -1.7565  -1.5365  -1.3801
    -1.1717  -1.0742  -0.9772  -0.9595   0.1961   0.2183   0.3257   0.4279
     0.5557   0.5763   0.8079   1.1311   1.1445   1.1708   1.2402   1.2807
     1.4289   1.4598   1.5539   1.6751   1.9365   2.0221   2.7519   4.0543
     4.4493   4.5743   4.7453   4.8587   5.1004   5.1106   5.3264   5.4573

          k =-0.1250-0.1223 0.0000 ( 40932 PWs)   bands (ev):

   -73.4899 -72.7377 -72.5057 -72.3549 -72.3139 -72.0375 -44.0584 -43.3140
   -43.0942 -42.8235 -42.7362 -42.6718 -42.6081 -42.5976 -42.5750 -42.3929
   -42.3731 -42.2662 -42.2167 -42.2101 -42.1977 -42.1306 -41.9589 -41.8908
   -18.6581 -18.4475 -18.2370 -18.1582 -17.8775 -17.7645 -17.4513 -17.3682
   -17.3363 -17.2975 -16.9177 -16.8152 -16.1355  -6.8470  -6.6186  -6.5839
    -6.4171  -6.3718  -5.9643  -5.7320  -5.6634  -5.6179  -5.5018  -5.2218
    -5.1790  -5.0000  -4.8468  -4.4816  -4.2034  -4.0057  -3.9674  -3.6765
    -3.4506  -3.4226  -3.3315  -3.3027  -3.1640  -3.1060  -3.0539  -2.7958
    -2.6097  -2.5051  -2.3056  -2.1741  -2.0605  -1.9682  -1.7223  -1.5814
    -1.4004  -1.0430  -0.9661  -0.7738  -0.0531   0.1839   0.2120   0.2919
     0.4034   0.4678   0.6938   0.7637   0.8282   0.9063   1.1728   1.2608
     1.3828   1.4835   1.6829   1.7475   1.9430   2.3324   2.6049   4.0305
     4.3857   4.7418   4.8573   4.8807   5.0283   5.2247   5.2837   5.3994

     the Fermi energy is     1.2256 ev

!    total energy              =   -1672.25004612 Ry
     estimated scf accuracy    <       0.00000011 Ry
     smearing contrib. (-TS)   =      -0.00180259 Ry
     internal energy E=F+TS    =   -1672.24824353 Ry

     The total energy is F=E-TS. E is the sum of the following terms:
     one-electron contribution =  -16941.70768909 Ry
     hartree contribution      =    8492.99840853 Ry
     xc contribution           =    -214.03138966 Ry
     ewald contribution        =    7114.27991612 Ry
     one-center paw contrib.   =    -123.78748942 Ry

     convergence has been achieved in  12 iterations

     negative rho (up, down):  1.084E-04 0.000E+00

     Forces acting on atoms (cartesian axes, Ry/au):

     atom    1 type  1   force =     0.00000001   -0.00061355    0.07115208
     atom    2 type  1   force =    -0.00000000   -0.00024307   -0.08973361
     atom    3 type  1   force =    -0.00000006    0.00204553   -0.00142660
     atom    4 type  1   force =     0.00000028   -0.00020980    0.00103470
     atom    5 type  1   force =     0.00000010   -0.00244232   -0.01223468
     atom    6 type  1   force =    -0.00000023    0.00342451   -0.00088309
     atom    7 type  2   force =     0.00000000   -0.00045309    0.02048490
     atom    8 type  2   force =     0.00000001    0.00027574    0.06184373
     atom    9 type  2   force =     0.00000000    0.02430975   -0.02506229
     atom   10 type  2   force =     0.00000000   -0.02406065   -0.02440104
     atom   11 type  2   force =    -0.00000024   -0.00154920    0.00141507
     atom   12 type  2   force =    -0.00000009   -0.00013971   -0.00920301
     atom   13 type  2   force =     0.00000016    0.00129781   -0.00115884
     atom   14 type  2   force =    -0.00000016    0.00148210   -0.00008016
     atom   15 type  2   force =     0.00000021    0.00155551   -0.00012483
     atom   16 type  2   force =     0.00000016    0.00186365   -0.00115553
     atom   17 type  2   force =    -0.00000012    0.00653197    0.01562768
     atom   18 type  2   force =    -0.00000007    0.00383951   -0.01610340
     atom   19 type  2   force =     0.00000004   -0.01691467    0.01000892

     Total force =     0.033758     Total SCF correction =     0.001026
     Energy error            =      1.9E-03 Ry
     Gradient error          =      1.7E-02 Ry/Bohr

     number of scf cycles    =   3
     number of bfgs steps    =   2

     energy             old  =   -1672.2481763839 Ry
     energy             new  =   -1672.2500461225 Ry

     CASE: energy            _new < energy            _old

     new trust radius        =       0.0290432766 bohr
     new conv_thr            =       0.0000000846 Ry


ATOMIC_POSITIONS (angstrom)
Ru               0.0000000000        1.5881618300        9.5289709800    0   0   0
Ru               1.5535000000        4.7644854900        9.5289709800    0   0   0
Ru              -0.0000000164        4.7665016280       12.7249800474
Ru               1.5534998890        1.5958078931       12.7125312903
Ru              -0.0000000246        1.6107995136       16.0696919778
Ru               1.5534999426        4.7559304528       15.9540579022
O                0.0000000000        4.7644854900       10.7677372100    0   0   0
O                0.0000000000        4.7644854900        8.2902047600    0   0   0
O                1.5535000000        0.3493956000        9.5289709800    0   0   0
O                1.5535000000        2.8269280600        9.5289709800    0   0   0
O                0.0000003994        1.5825285443       13.9831766650
O                0.0000000000        1.5881618300       11.4665284200    0   0   0
O                1.5534997281        3.5315855163       12.7108309927
O                1.5535002310        6.0005641541       12.7142438384
O               -0.0000002794        4.7686694265       17.0622348317
O               -0.0000003106        4.7665023667       14.6549409019
O                1.5535001373        0.3797800993       15.8987158172
O                1.5535000781        2.8178565258       15.8255410622
O                0.0000001989        1.8925718022       17.7423458488



     Writing config-only to output data dir ./tmp_s0_O__1x1_off/s0_O__1x1_off.save/ :
     XML data file
     NEW-OLD atomic charge density approx. for the potential

     negative rho (up, down):  1.080E-04 0.000E+00

     total cpu time spent up to now is     5058.0 secs

     per-process dynamical memory:  1113.7 Mb

     Self-consistent Calculation

     iteration #  1     ecut=    80.00 Ry     beta= 0.30
     Davidson diagonalization with overlap
     ethr =  1.00E-06,  avg # of iterations =  4.0

     negative rho (up, down):  1.316E-04 0.000E+00

     total cpu time spent up to now is     5231.4 secs

     total energy              =   -1672.25133151 Ry
     estimated scf accuracy    <       0.00363340 Ry

     iteration #  2     ecut=    80.00 Ry     beta= 0.30
     Davidson diagonalization with overlap
     ethr =  2.09E-06,  avg # of iterations =  1.0

     negative rho (up, down):  1.391E-04 0.000E+00

     total cpu time spent up to now is     5329.7 secs

     total energy              =   -1672.25138257 Ry
     estimated scf accuracy    <       0.00088682 Ry

     iteration #  3     ecut=    80.00 Ry     beta= 0.30
     Davidson diagonalization with overlap
     ethr =  5.10E-07,  avg # of iterations =  1.0

     negative rho (up, down):  1.539E-04 0.000E+00

     total cpu time spent up to now is     5428.1 secs

     total energy              =   -1672.25139426 Ry
     estimated scf accuracy    <       0.00025659 Ry

     iteration #  4     ecut=    80.00 Ry     beta= 0.30
     Davidson diagonalization with overlap
     ethr =  1.47E-07,  avg # of iterations =  1.0

     negative rho (up, down):  1.902E-04 0.000E+00

     total cpu time spent up to now is     5527.0 secs

     total energy              =   -1672.25138526 Ry
     estimated scf accuracy    <       0.00007279 Ry

     iteration #  5     ecut=    80.00 Ry     beta= 0.30
     Davidson diagonalization with overlap
     ethr =  4.18E-08,  avg # of iterations =  1.6

     negative rho (up, down):  2.099E-04 0.000E+00

     total cpu time spent up to now is     5630.6 secs

     total energy              =   -1672.25138581 Ry
     estimated scf accuracy    <       0.00002469 Ry

     iteration #  6     ecut=    80.00 Ry     beta= 0.30
     Davidson diagonalization with overlap
     ethr =  1.42E-08,  avg # of iterations =  1.6

     negative rho (up, down):  2.216E-04 0.000E+00

     total cpu time spent up to now is     5734.6 secs

     total energy              =   -1672.25138595 Ry
     estimated scf accuracy    <       0.00000657 Ry

     iteration #  7     ecut=    80.00 Ry     beta= 0.30
     Davidson diagonalization with overlap
     ethr =  3.78E-09,  avg # of iterations =  3.0

     negative rho (up, down):  2.251E-04 0.000E+00

     total cpu time spent up to now is     5843.2 secs

     total energy              =   -1672.25138590 Ry
     estimated scf accuracy    <       0.00000528 Ry

     iteration #  8     ecut=    80.00 Ry     beta= 0.30
     Davidson diagonalization with overlap
     ethr =  3.03E-09,  avg # of iterations =  1.2

     negative rho (up, down):  2.189E-04 0.000E+00

     total cpu time spent up to now is     5943.9 secs

     total energy              =   -1672.25138587 Ry
     estimated scf accuracy    <       0.00000229 Ry

     iteration #  9     ecut=    80.00 Ry     beta= 0.30
     Davidson diagonalization with overlap
     ethr =  1.31E-09,  avg # of iterations =  1.8

     negative rho (up, down):  2.038E-04 0.000E+00

     total cpu time spent up to now is     6046.9 secs

     total energy              =   -1672.25138578 Ry
     estimated scf accuracy    <       0.00000052 Ry

     iteration # 10     ecut=    80.00 Ry     beta= 0.30
     Davidson diagonalization with overlap
     ethr =  2.98E-10,  avg # of iterations =  2.8

     negative rho (up, down):  1.877E-04 0.000E+00

     total cpu time spent up to now is     6158.3 secs

     total energy              =   -1672.25138569 Ry
     estimated scf accuracy    <       0.00000014 Ry

     iteration # 11     ecut=    80.00 Ry     beta= 0.30
     Davidson diagonalization with overlap
     ethr =  8.15E-11,  avg # of iterations =  1.6

     negative rho (up, down):  1.087E-04 0.000E+00

     total cpu time spent up to now is     6256.4 secs

     End of self-consistent calculation

          k = 0.0000 0.0000 0.0000 ( 40831 PWs)   bands (ev):

   -73.4860 -72.7480 -72.5180 -72.3642 -72.3275 -72.0511 -44.0460 -43.2864
   -43.0973 -42.8305 -42.7151 -42.6854 -42.6232 -42.6096 -42.5881 -42.3881
   -42.3779 -42.2804 -42.2283 -42.1961 -42.1778 -42.1453 -41.9437 -41.9060
   -18.9102 -18.6937 -18.4767 -18.2039 -17.9553 -17.8156 -17.4086 -17.1982
   -17.1526 -17.0595 -16.9066 -16.7482 -16.1079  -7.4330  -7.2248  -7.2145
    -6.6008  -6.4149  -6.0163  -5.7402  -5.7268  -5.6802  -5.6119  -5.5162
    -5.4610  -5.2870  -5.1775  -4.5914  -4.1715  -3.5710  -3.3879  -3.1853
    -3.0631  -2.9547  -2.9123  -2.7775  -2.6870  -2.6534  -2.6290  -2.4863
    -2.3567  -2.2577  -2.1676  -1.9839  -1.9710  -1.6628  -1.4455  -1.4180
    -1.2604  -1.1368  -0.7328  -0.7168  -0.5198  -0.4665  -0.2131  -0.1903
    -0.1341  -0.1251   0.2844   0.3430   0.4788   0.5413   1.0054   1.1203
     1.2605   1.4343   1.7714   2.0389   2.2408   2.2996   2.7169   3.5269
     4.2178   4.7263   5.0170   5.2153   5.4089   5.5257   5.7362   5.7884

          k = 0.0000 0.1223 0.0000 ( 40974 PWs)   bands (ev):

   -73.4860 -72.7480 -72.5180 -72.3642 -72.3275 -72.0511 -44.0460 -43.2863
   -43.0947 -42.8332 -42.7152 -42.6844 -42.6232 -42.6079 -42.5881 -42.3880
   -42.3779 -42.2805 -42.2283 -42.1950 -42.1788 -42.1472 -41.9438 -41.9072
   -18.7882 -18.5620 -18.3538 -18.2529 -17.9729 -17.8487 -17.4217 -17.3176
   -17.2869 -17.2411 -16.8867 -16.7575 -16.1050  -7.0188  -6.7782  -6.7517
    -6.5940  -6.4044  -5.9466  -5.7252  -5.6213  -5.5995  -5.5309  -5.4579
    -5.4368  -5.2862  -4.9902  -4.6363  -4.2234  -4.0181  -3.7515  -3.6193
    -3.5258  -3.3793  -3.2553  -2.8946  -2.8620  -2.8597  -2.7362  -2.6557
    -2.5911  -2.3570  -2.1992  -2.1502  -2.0662  -1.7172  -1.6226  -1.6058
    -1.3463  -1.1195  -0.8919  -0.7069  -0.0647  -0.0376   0.1433   0.2675
     0.3561   0.3982   0.4315   0.5242   0.5498   0.6313   0.9943   1.0847
     1.3163   1.4843   1.7696   1.8394   2.0381   2.3717   2.5951   3.9206
     4.6379   4.7785   4.9050   5.2154   5.4209   5.4792   5.5172   5.5575

          k = 0.0000-0.2445 0.0000 ( 41014 PWs)   bands (ev):

   -73.4860 -72.7480 -72.5180 -72.3641 -72.3276 -72.0511 -44.0460 -43.2863
   -43.0921 -42.8360 -42.7152 -42.6834 -42.6232 -42.6062 -42.5881 -42.3880
   -42.3778 -42.2805 -42.2284 -42.1938 -42.1801 -42.1491 -41.9438 -41.9084
   -18.5399 -18.4767 -18.3316 -18.1016 -18.0556 -17.9462 -17.4904 -17.4569
   -17.4346 -17.3734 -16.8650 -16.7742 -16.1028  -6.6485  -6.4422  -6.3607
    -6.0078  -5.9635  -5.8689  -5.7230  -5.5955  -5.5139  -5.4467  -5.4445
    -5.2804  -5.0687  -4.9080  -4.6145  -4.5992  -4.4858  -4.4713  -4.3601
    -4.2207  -3.6894  -3.4739  -3.3274  -3.1293  -3.1040  -2.9777  -2.6935
    -2.6022  -2.4432  -2.2183  -2.1051  -1.9510  -1.6876  -1.6310  -1.3896
    -1.1938  -1.0971  -0.9811  -0.9784   0.1978   0.2046   0.2831   0.3964
     0.5220   0.6853   0.8082   0.8289   0.8945   0.9317   1.0552   1.1286
     1.2240   1.5609   1.5699   1.6083   2.0127   2.1274   2.7251   4.3506
     4.5120   4.8191   5.1983   5.2008   5.2176   5.2656   5.5344   5.6375

          k = 0.0000-0.1223 0.0000 ( 40974 PWs)   bands (ev):

   -73.4860 -72.7480 -72.5180 -72.3642 -72.3275 -72.0511 -44.0460 -43.2863
   -43.0947 -42.8332 -42.7152 -42.6844 -42.6232 -42.6079 -42.5881 -42.3880
   -42.3779 -42.2805 -42.2283 -42.1950 -42.1788 -42.1472 -41.9438 -41.9072
   -18.7882 -18.5620 -18.3538 -18.2529 -17.9729 -17.8487 -17.4217 -17.3176
   -17.2869 -17.2411 -16.8867 -16.7575 -16.1050  -7.0188  -6.7782  -6.7517
    -6.5940  -6.4044  -5.9466  -5.7252  -5.6213  -5.5995  -5.5309  -5.4579
    -5.4368  -5.2862  -4.9902  -4.6363  -4.2234  -4.0181  -3.7515  -3.6193
    -3.5258  -3.3793  -3.2553  -2.8946  -2.8620  -2.8597  -2.7362  -2.6557
    -2.5911  -2.3570  -2.1992  -2.1502  -2.0662  -1.7172  -1.6226  -1.6058
    -1.3463  -1.1195  -0.8919  -0.7069  -0.0647  -0.0376   0.1433   0.2675
     0.3561   0.3982   0.4315   0.5242   0.5498   0.6313   0.9943   1.0847
     1.3163   1.4843   1.7696   1.8394   2.0381   2.3717   2.5951   3.9206
     4.6379   4.7785   4.9050   5.2154   5.4209   5.4792   5.5172   5.5575

          k = 0.1250 0.0000 0.0000 ( 40851 PWs)   bands (ev):

   -73.4846 -72.7464 -72.5165 -72.3627 -72.3260 -72.0495 -44.0442 -43.3118
   -43.0924 -42.8294 -42.7437 -42.6834 -42.6186 -42.6073 -42.5861 -42.4039
   -42.3839 -42.2775 -42.2258 -42.2225 -42.2037 -42.1412 -41.9711 -41.9016
   -18.7818 -18.5779 -18.3677 -18.1183 -17.8789 -17.7366 -17.4137 -17.2743
   -17.2292 -17.1398 -16.9433 -16.8086 -16.1493  -7.2499  -7.0482  -7.0358
    -6.4218  -6.4003  -6.0584  -5.7866  -5.7307  -5.6128  -5.5503  -5.4446
    -5.1837  -5.0110  -4.9668  -4.4269  -4.0899  -4.0139  -3.4142  -3.2680
    -3.2397  -3.1509  -3.0647  -3.0558  -2.8872  -2.7464  -2.6913  -2.6036
    -2.3942  -2.2993  -2.1679  -2.1344  -2.0733  -2.0141  -1.8507  -1.7434
    -1.5669  -1.0992  -1.0462  -0.6909  -0.4205  -0.2076   0.0330   0.0750
     0.1624   0.3462   0.4747   0.5336   0.6998   0.7088   1.1570   1.2350
     1.3455   1.4494   1.6569   1.8864   2.1559   2.3729   2.5743   3.7060
     4.3394   4.7416   4.7758   4.9035   5.0707   5.3717   5.4186   5.4746

          k = 0.1250 0.1223 0.0000 ( 40932 PWs)   bands (ev):

   -73.4846 -72.7464 -72.5165 -72.3627 -72.3260 -72.0495 -44.0442 -43.3119
   -43.0902 -42.8316 -42.7437 -42.6826 -42.6185 -42.6061 -42.5860 -42.4039
   -42.3839 -42.2775 -42.2258 -42.2215 -42.2048 -42.1426 -41.9710 -41.9025
   -18.6663 -18.4530 -18.2470 -18.1664 -17.8836 -17.7767 -17.4461 -17.3761
   -17.3400 -17.3071 -16.9230 -16.8204 -16.1470  -6.8490  -6.6296  -6.5953
    -6.4263  -6.3815  -5.9636  -5.7409  -5.6731  -5.6254  -5.5127  -5.2292
    -5.1840  -5.0123  -4.8460  -4.4691  -4.2020  -4.0122  -3.9753  -3.6864
    -3.4559  -3.4303  -3.3385  -3.3125  -3.1702  -3.1142  -3.0467  -2.8042
    -2.6156  -2.5115  -2.3152  -2.1833  -2.0664  -1.9769  -1.7317  -1.5776
    -1.4124  -1.0541  -0.9757  -0.7831  -0.0582   0.1782   0.2038   0.2826
     0.3933   0.4568   0.6831   0.7536   0.8158   0.8955   1.1607   1.2498
     1.3728   1.4738   1.6766   1.7369   1.9353   2.3228   2.5939   4.0223
     4.3894   4.7364   4.8465   4.8683   5.0166   5.2134   5.2722   5.3869

          k = 0.1250-0.2445 0.0000 ( 40974 PWs)   bands (ev):

   -73.4846 -72.7464 -72.5165 -72.3626 -72.3260 -72.0496 -44.0442 -43.3120
   -43.0879 -42.8339 -42.7436 -42.6819 -42.6185 -42.6048 -42.5860 -42.4038
   -42.3839 -42.2775 -42.2258 -42.2203 -42.2060 -42.1439 -41.9709 -41.9035
   -18.4308 -18.3685 -18.2270 -18.0128 -17.9602 -17.8685 -17.5510 -17.5255
   -17.4755 -17.3790 -16.8953 -16.8434 -16.1451  -6.4657  -6.4243  -6.1434
    -5.9434  -5.8147  -5.7471  -5.7284  -5.6645  -5.6351  -5.6192  -5.2199
    -5.0401  -4.8999  -4.7571  -4.6347  -4.4682  -4.2919  -4.1581  -4.1241
    -4.1022  -3.9869  -3.8561  -3.7784  -3.4504  -3.3508  -3.2478  -2.8367
    -2.7277  -2.6025  -2.3229  -2.2080  -1.9294  -1.7606  -1.5427  -1.3894
    -1.1688  -1.0827  -0.9899  -0.9710   0.1895   0.2096   0.3138   0.4164
     0.5464   0.5746   0.7980   1.1216   1.1370   1.1576   1.2272   1.2694
     1.4187   1.4486   1.5441   1.6651   1.9296   2.0115   2.7408   4.0622
     4.4390   4.5619   4.7337   4.8468   5.0916   5.1002   5.3152   5.4438

          k = 0.1250-0.1223 0.0000 ( 40932 PWs)   bands (ev):

   -73.4846 -72.7464 -72.5165 -72.3627 -72.3260 -72.0495 -44.0442 -43.3119
   -43.0902 -42.8316 -42.7437 -42.6826 -42.6185 -42.6061 -42.5860 -42.4039
   -42.3839 -42.2775 -42.2258 -42.2215 -42.2048 -42.1426 -41.9710 -41.9025
   -18.6663 -18.4530 -18.2470 -18.1664 -17.8836 -17.7767 -17.4461 -17.3761
   -17.3400 -17.3071 -16.9230 -16.8204 -16.1470  -6.8490  -6.6296  -6.5953
    -6.4263  -6.3815  -5.9636  -5.7409  -5.6731  -5.6254  -5.5127  -5.2292
    -5.1840  -5.0123  -4.8460  -4.4691  -4.2020  -4.0122  -3.9753  -3.6864
    -3.4559  -3.4303  -3.3385  -3.3125  -3.1702  -3.1142  -3.0467  -2.8042
    -2.6156  -2.5115  -2.3152  -2.1833  -2.0664  -1.9769  -1.7317  -1.5776
    -1.4124  -1.0541  -0.9757  -0.7831  -0.0582   0.1782   0.2038   0.2826
     0.3933   0.4568   0.6831   0.7536   0.8158   0.8955   1.1607   1.2498
     1.3728   1.4738   1.6766   1.7369   1.9353   2.3228   2.5939   4.0223
     4.3894   4.7364   4.8465   4.8683   5.0166   5.2134   5.2722   5.3869

          k = 0.2500 0.0000 0.0000 ( 40947 PWs)   bands (ev):

   -73.4810 -72.7425 -72.5129 -72.3591 -72.3223 -72.0458 -44.0400 -43.3728
   -43.0803 -42.8269 -42.8117 -42.6785 -42.6073 -42.6019 -42.5817 -42.4658
   -42.3740 -42.2868 -42.2785 -42.2574 -42.2187 -42.1312 -42.0365 -41.8908
   -18.4548 -18.2918 -18.0991 -17.9479 -17.7553 -17.5384 -17.4688 -17.4180
   -17.4042 -17.3278 -17.0448 -16.8722 -16.2023  -6.7812  -6.6001  -6.5661
    -6.2186  -6.0046  -5.9584  -5.8390  -5.7877  -5.4544  -5.4163  -5.0342
    -4.9637  -4.6123  -4.5366  -4.4858  -4.3128  -4.1218  -4.0221  -3.9712
    -3.7455  -3.6605  -3.3789  -3.1951  -3.0913  -2.9891  -2.8395  -2.7744
    -2.6618  -2.4638  -2.3940  -2.2372  -2.1718  -2.0651  -2.0179  -1.6086
    -1.4701  -1.2350  -1.1760  -0.9513  -0.2344  -0.1143   0.2128   0.4666
     0.5239   0.6025   0.8152   0.9886   1.0806   1.1749   1.2146   1.3276
     1.3803   1.4785   1.5467   1.6215   1.8675   2.1924   2.5035   3.9590
     4.1489   4.2370   4.4152   4.6824   4.7445   4.8249   4.8964   4.9768

          k = 0.2500 0.1223 0.0000 ( 40905 PWs)   bands (ev):

   -73.4810 -72.7425 -72.5129 -72.3590 -72.3223 -72.0458 -44.0400 -43.3731
   -43.0791 -42.8280 -42.8115 -42.6783 -42.6073 -42.6018 -42.5817 -42.4659
   -42.3740 -42.2854 -42.2791 -42.2578 -42.2187 -42.1318 -42.0361 -41.8913
   -18.3662 -18.1968 -18.0023 -17.9882 -17.7510 -17.6338 -17.5295 -17.4819
   -17.4464 -17.3862 -17.0326 -16.8807 -16.2018  -6.4663  -6.3095  -6.2476
    -6.1911  -5.9705  -5.8717  -5.8160  -5.6232  -5.5414  -5.3473  -5.0968
    -4.7806  -4.7275  -4.6329  -4.4892  -4.4320  -4.3379  -4.2306  -4.1203
    -3.9731  -3.5768  -3.4950  -3.3383  -3.2132  -3.1663  -3.0005  -2.9075
    -2.7590  -2.6419  -2.4210  -2.2355  -2.1480  -2.0982  -1.9198  -1.5992
    -1.4336  -1.2326  -1.1457  -1.0048  -0.2087   0.0857   0.4406   0.4836
     0.5869   0.8532   0.9122   0.9845   1.0727   1.1557   1.2212   1.2824
     1.3758   1.5334   1.6103   1.6756   1.8058   2.0739   2.6209   3.7014
     4.0432   4.1546   4.2559   4.3799   4.6816   4.7782   5.2046   5.3547

          k = 0.2500-0.2445 0.0000 ( 40892 PWs)   bands (ev):

   -73.4810 -72.7425 -72.5129 -72.3590 -72.3223 -72.0458 -44.0400 -43.3735
   -43.0779 -42.8290 -42.8114 -42.6782 -42.6073 -42.6017 -42.5817 -42.4659
   -42.3740 -42.2836 -42.2801 -42.2581 -42.2187 -42.1323 -42.0358 -41.8918
   -18.1875 -18.1328 -17.9748 -17.9111 -17.7604 -17.7361 -17.6781 -17.5982
   -17.4904 -17.3873 -17.0197 -16.8910 -16.2014  -6.2373  -6.0133  -5.9621
    -5.8358  -5.7780  -5.7723  -5.6355  -5.5662  -5.2988  -5.2891  -5.2080
    -4.9887  -4.9741  -4.9411  -4.7634  -4.5758  -4.4707  -4.2299  -4.0271
    -3.8149  -3.7376  -3.6491  -3.5997  -3.4975  -3.4655  -3.2787  -3.2527
    -2.9100  -2.7742  -2.3724  -2.2162  -1.9689  -1.8490  -1.6637  -1.5976
    -1.3371  -1.2871  -1.1310  -1.0827  -0.0109   0.0537   0.2647   0.5909
     0.6059   0.8749   1.0350   1.1031   1.1375   1.1610   1.3003   1.3993
     1.4104   1.6043   1.6709   1.7854   1.8343   1.9335   2.7134   3.3007
     3.7692   3.8528   4.1013   4.3675   4.6980   5.0776   5.2759   5.5977

          k = 0.2500-0.1223 0.0000 ( 40905 PWs)   bands (ev):

   -73.4810 -72.7425 -72.5129 -72.3590 -72.3223 -72.0458 -44.0400 -43.3731
   -43.0791 -42.8280 -42.8115 -42.6783 -42.6073 -42.6018 -42.5817 -42.4659
   -42.3740 -42.2854 -42.2791 -42.2578 -42.2187 -42.1318 -42.0361 -41.8913
   -18.3662 -18.1968 -18.0023 -17.9882 -17.7510 -17.6338 -17.5295 -17.4819
   -17.4464 -17.3862 -17.0326 -16.8807 -16.2018  -6.4663  -6.3095  -6.2476
    -6.1911  -5.9705  -5.8717  -5.8160  -5.6232  -5.5414  -5.3473  -5.0968
    -4.7806  -4.7275  -4.6329  -4.4892  -4.4320  -4.3379  -4.2306  -4.1203
    -3.9731  -3.5768  -3.4950  -3.3383  -3.2132  -3.1663  -3.0005  -2.9075
    -2.7590  -2.6419  -2.4210  -2.2355  -2.1480  -2.0982  -1.9198  -1.5992
    -1.4336  -1.2326  -1.1457  -1.0048  -0.2087   0.0857   0.4406   0.4836
     0.5869   0.8532   0.9122   0.9845   1.0727   1.1557   1.2212   1.2824
     1.3758   1.5334   1.6103   1.6756   1.8058   2.0739   2.6209   3.7014
     4.0432   4.1547   4.2559   4.3799   4.6816   4.7782   5.2046   5.3547

          k = 0.3750 0.0000 0.0000 ( 40852 PWs)   bands (ev):

   -73.4775 -72.7387 -72.5092 -72.3554 -72.3186 -72.0420 -44.0357 -43.4332
   -43.0681 -42.8787 -42.8245 -42.6735 -42.5967 -42.5965 -42.5780 -42.5259
   -42.3659 -42.3474 -42.3329 -42.2582 -42.2116 -42.1212 -42.1011 -41.8801
   -18.0981 -17.9990 -17.8502 -17.8266 -17.7207 -17.6375 -17.5846 -17.5105
   -17.4346 -17.4005 -17.0480 -16.8452 -16.1749  -6.3498  -6.1527  -6.0287
    -6.0095  -5.8790  -5.8477  -5.6338  -5.5982  -5.4811  -5.3715  -5.1904
    -5.0409  -4.8099  -4.7761  -4.5695  -4.3976  -4.3609  -4.1802  -3.9609
    -3.6867  -3.4826  -3.3937  -3.3745  -3.3123  -3.1662  -3.0603  -2.7995
    -2.6617  -2.5652  -2.4117  -2.2604  -2.1976  -2.0106  -1.9289  -1.4948
    -1.3680  -1.3653  -1.2273  -0.9506  -0.1835   0.0473   0.2836   0.4926
     0.6041   0.6801   0.7794   0.7983   0.8816   1.0533   1.1695   1.2370
     1.3797   1.5340   1.6582   1.8137   1.9753   2.1679   2.3785   3.4384
     3.7871   4.0629   4.2938   4.4032   4.4998   4.5552   4.7951   4.9556

          k = 0.3750 0.1223 0.0000 ( 40842 PWs)   bands (ev):

   -73.4775 -72.7387 -72.5092 -72.3554 -72.3186 -72.0420 -44.0357 -43.4337
   -43.0680 -42.8783 -42.8244 -42.6741 -42.5978 -42.5967 -42.5780 -42.5260
   -42.3657 -42.3458 -42.3335 -42.2582 -42.2116 -42.1210 -42.1004 -41.8801
   -18.0788 -17.9982 -17.9150 -17.8588 -17.7867 -17.6383 -17.5163 -17.4589
   -17.4265 -17.3897 -17.0466 -16.8495 -16.1751  -6.2155  -6.1291  -6.0736
    -6.0259  -5.9311  -5.7435  -5.6326  -5.5788  -5.5080  -5.4433  -5.3342
    -5.0399  -4.7628  -4.6850  -4.5142  -4.4365  -4.2641  -4.0448  -3.8515
    -3.6425  -3.5545  -3.3541  -3.2952  -3.2128  -3.1140  -3.0253  -2.8549
    -2.7179  -2.5912  -2.4879  -2.2579  -2.1562  -2.0360  -1.9231  -1.6175
    -1.5286  -1.3960  -1.2479  -1.1019  -0.1391  -0.0760   0.2130   0.2654
     0.5546   0.6222   0.6517   0.7774   0.8279   0.9427   0.9839   1.2355
     1.6844   1.7447   1.8432   1.8913   2.0485   2.0743   2.4893   3.1731
     3.4983   3.6690   3.7677   4.1041   4.3108   5.1273   5.4657   5.5380

          k = 0.3750-0.2445 0.0000 ( 40856 PWs)   bands (ev):

   -73.4775 -72.7387 -72.5092 -72.3554 -72.3186 -72.0420 -44.0357 -43.4342
   -43.0680 -42.8779 -42.8242 -42.6746 -42.5992 -42.5967 -42.5780 -42.5261
   -42.3655 -42.3442 -42.3340 -42.2582 -42.2116 -42.1209 -42.0996 -41.8801
   -18.0293 -18.0166 -17.9852 -17.8835 -17.8231 -17.6475 -17.4661 -17.4373
   -17.4049 -17.3785 -17.0450 -16.8540 -16.1753  -6.2630  -6.0476  -5.9061
    -5.8975  -5.8335  -5.8014  -5.7407  -5.6768  -5.6583  -5.5362  -5.3913
    -4.9307  -4.7655  -4.5463  -4.4728  -4.2712  -4.2128  -4.0508  -3.7190
    -3.5306  -3.4508  -3.4049  -3.2676  -3.2278  -3.1385  -3.1027  -2.9556
    -2.7554  -2.7096  -2.3515  -2.1989  -2.1555  -2.0107  -1.8878  -1.8261
    -1.5774  -1.4118  -1.2623  -1.2315  -0.3100  -0.2500  -0.1174   0.3365
     0.4676   0.6229   0.6835   0.7840   0.8386   0.8977   1.0265   1.2393
     1.5872   1.8069   1.9653   1.9931   2.1309   2.2280   2.5875   2.7649
     3.2328   3.3358   3.5330   4.1296   4.3131   5.5143   5.5339   5.8167

          k = 0.3750-0.1223 0.0000 ( 40842 PWs)   bands (ev):

   -73.4775 -72.7387 -72.5092 -72.3554 -72.3186 -72.0420 -44.0357 -43.4337
   -43.0680 -42.8783 -42.8244 -42.6741 -42.5978 -42.5967 -42.5780 -42.5260
   -42.3657 -42.3458 -42.3335 -42.2582 -42.2116 -42.1210 -42.1004 -41.8801
   -18.0788 -17.9982 -17.9150 -17.8588 -17.7867 -17.6383 -17.5163 -17.4589
   -17.4265 -17.3897 -17.0466 -16.8495 -16.1751  -6.2155  -6.1291  -6.0736
    -6.0259  -5.9311  -5.7435  -5.6326  -5.5788  -5.5080  -5.4433  -5.3342
    -5.0399  -4.7628  -4.6850  -4.5142  -4.4365  -4.2641  -4.0448  -3.8515
    -3.6425  -3.5545  -3.3541  -3.2952  -3.2128  -3.1140  -3.0253  -2.8549
    -2.7179  -2.5912  -2.4879  -2.2579  -2.1562  -2.0360  -1.9231  -1.6175
    -1.5286  -1.3960  -1.2479  -1.1019  -0.1391  -0.0760   0.2130   0.2654
     0.5546   0.6222   0.6517   0.7774   0.8279   0.9427   0.9839   1.2355
     1.6844   1.7447   1.8432   1.8913   2.0485   2.0743   2.4893   3.1731
     3.4983   3.6690   3.7677   4.1041   4.3108   5.1273   5.4657   5.5380

          k =-0.5000 0.0000 0.0000 ( 40876 PWs)   bands (ev):

   -73.4760 -72.7371 -72.5077 -72.3539 -72.3171 -72.0405 -44.0339 -43.4581
   -43.0630 -42.9062 -42.8236 -42.6715 -42.5942 -42.5942 -42.5763 -42.5490
   -42.3781 -42.3582 -42.3570 -42.2555 -42.2087 -42.1276 -42.1170 -41.8756
   -17.9789 -17.8337 -17.8196 -17.7670 -17.7089 -17.6861 -17.6538 -17.5811
   -17.4497 -17.3989 -16.9765 -16.8187 -16.1382  -6.3361  -6.1200  -5.9697
    -5.7798  -5.7569  -5.6739  -5.5864  -5.5235  -5.4893  -5.3988  -5.3021
    -5.1413  -5.0091  -4.8960  -4.7088  -4.4952  -4.1068  -3.8564  -3.7696
    -3.6672  -3.6597  -3.6511  -3.5451  -3.3943  -2.9437  -2.8482  -2.6918
    -2.5922  -2.4596  -2.4551  -2.3418  -2.1297  -1.9702  -1.8131  -1.7014
    -1.5785  -1.2307  -1.1143  -0.8831  -0.2224   0.0992   0.1100   0.4807
     0.5596   0.5922   0.6440   0.6837   0.7393   0.8061   1.0462   1.1852
     1.3209   1.5070   1.8567   1.9485   2.1599   2.2657   2.3429   3.2187
     3.6390   4.0166   4.2332   4.2717   4.3821   4.5674   4.7762   4.9258

          k =-0.5000 0.1223 0.0000 ( 40858 PWs)   bands (ev):

   -73.4760 -72.7371 -72.5077 -72.3539 -72.3171 -72.0405 -44.0339 -43.4587
   -43.0635 -42.9057 -42.8229 -42.6723 -42.5963 -42.5943 -42.5762 -42.5491
   -42.3761 -42.3586 -42.3568 -42.2556 -42.2087 -42.1266 -42.1166 -41.8754
   -17.9723 -17.9675 -17.9390 -17.8924 -17.8230 -17.5522 -17.4515 -17.4490
   -17.4078 -17.3989 -16.9789 -16.8208 -16.1377  -6.2833  -6.2314  -6.0819
    -6.0817  -5.9799  -5.7455  -5.6460  -5.6100  -5.5805  -5.3987  -5.1606
    -5.0660  -4.8121  -4.5857  -4.3895  -4.1276  -3.8548  -3.8520  -3.7792
    -3.7590  -3.6330  -3.6162  -3.5905  -2.9942  -2.9264  -2.8025  -2.5963
    -2.5803  -2.5025  -2.4871  -2.2468  -2.1712  -2.1059  -1.8203  -1.6415
    -1.6149  -1.4816  -1.3011  -1.0683  -0.2176  -0.0199   0.0554   0.1115
     0.2235   0.4644   0.5080   0.5819   0.6109   0.6426   0.7612   1.2083
     1.8154   1.8719   2.0146   2.0314   2.1979   2.2168   2.4179   3.0040
     3.2670   3.4702   3.5953   4.0467   4.2358   5.3358   5.5629   5.6125

          k =-0.5000-0.2445 0.0000 ( 40872 PWs)   bands (ev):

   -73.4760 -72.7371 -72.5077 -72.3539 -72.3171 -72.0405 -44.0339 -43.4592
   -43.0641 -42.9051 -42.8222 -42.6731 -42.5984 -42.5943 -42.5762 -42.5492
   -42.3743 -42.3590 -42.3565 -42.2556 -42.2087 -42.1257 -42.1161 -41.8753
   -18.0427 -18.0295 -17.9832 -17.9653 -17.8269 -17.4728 -17.4480 -17.3990
   -17.3517 -17.3102 -16.9812 -16.8230 -16.1372  -6.4904  -6.2539  -6.1818
    -6.0712  -6.0484  -5.7593  -5.6624  -5.6460  -5.6389  -5.4813  -5.1592
    -5.0239  -4.9331  -4.1772  -4.1362  -3.8934  -3.8555  -3.8240  -3.5921
    -3.5721  -3.4997  -3.4068  -3.2162  -3.2015  -2.8966  -2.8331  -2.7822
    -2.6349  -2.4055  -2.3123  -2.1657  -2.1230  -1.9279  -1.9191  -1.7788
    -1.7307  -1.7052  -1.5689  -1.2468  -0.4939  -0.2205  -0.2190   0.0375
     0.1338   0.2018   0.4663   0.4878   0.6217   0.6419   0.7754   1.2531
     1.7652   1.9321   2.0682   2.1340   2.3743   2.3846   2.4715   2.6105
     3.0852   3.2074   3.3039   4.0746   4.2378   5.6369   5.7862   5.8290

          k =-0.5000-0.1223 0.0000 ( 40858 PWs)   bands (ev):

   -73.4760 -72.7371 -72.5077 -72.3539 -72.3171 -72.0405 -44.0339 -43.4587
   -43.0635 -42.9057 -42.8229 -42.6723 -42.5963 -42.5943 -42.5762 -42.5491
   -42.3761 -42.3586 -42.3568 -42.2556 -42.2087 -42.1266 -42.1166 -41.8754
   -17.9723 -17.9675 -17.9390 -17.8924 -17.8230 -17.5522 -17.4515 -17.4490
   -17.4078 -17.3989 -16.9789 -16.8208 -16.1377  -6.2833  -6.2314  -6.0819
    -6.0817  -5.9799  -5.7455  -5.6460  -5.6100  -5.5805  -5.3987  -5.1606
    -5.0660  -4.8121  -4.5857  -4.3895  -4.1276  -3.8548  -3.8520  -3.7792
    -3.7590  -3.6330  -3.6162  -3.5905  -2.9942  -2.9264  -2.8025  -2.5963
    -2.5803  -2.5025  -2.4871  -2.2468  -2.1712  -2.1059  -1.8203  -1.6415
    -1.6149  -1.4816  -1.3011  -1.0683  -0.2176  -0.0199   0.0554   0.1115
     0.2235   0.4644   0.5080   0.5819   0.6109   0.6426   0.7612   1.2083
     1.8154   1.8719   2.0146   2.0314   2.1979   2.2168   2.4179   3.0040
     3.2670   3.4702   3.5953   4.0467   4.2358   5.3358   5.5629   5.6125

          k =-0.3750 0.0000 0.0000 ( 40852 PWs)   bands (ev):

   -73.4775 -72.7387 -72.5092 -72.3554 -72.3186 -72.0420 -44.0357 -43.4332
   -43.0681 -42.8787 -42.8245 -42.6735 -42.5967 -42.5965 -42.5780 -42.5259
   -42.3659 -42.3474 -42.3329 -42.2582 -42.2116 -42.1212 -42.1011 -41.8801
   -18.0981 -17.9990 -17.8502 -17.8266 -17.7207 -17.6375 -17.5846 -17.5105
   -17.4346 -17.4005 -17.0480 -16.8452 -16.1749  -6.3498  -6.1527  -6.0287
    -6.0095  -5.8790  -5.8477  -5.6338  -5.5982  -5.4811  -5.3715  -5.1904
    -5.0409  -4.8099  -4.7761  -4.5695  -4.3976  -4.3609  -4.1802  -3.9609
    -3.6867  -3.4826  -3.3937  -3.3745  -3.3123  -3.1662  -3.0603  -2.7995
    -2.6617  -2.5652  -2.4117  -2.2604  -2.1976  -2.0106  -1.9289  -1.4948
    -1.3680  -1.3653  -1.2273  -0.9506  -0.1835   0.0473   0.2836   0.4926
     0.6041   0.6801   0.7794   0.7983   0.8816   1.0533   1.1695   1.2370
     1.3797   1.5340   1.6582   1.8137   1.9753   2.1679   2.3785   3.4384
     3.7871   4.0629   4.2938   4.4032   4.4998   4.5552   4.7951   4.9556

          k =-0.3750 0.1223 0.0000 ( 40842 PWs)   bands (ev):

   -73.4775 -72.7387 -72.5092 -72.3554 -72.3186 -72.0420 -44.0357 -43.4337
   -43.0680 -42.8783 -42.8244 -42.6741 -42.5978 -42.5967 -42.5780 -42.5260
   -42.3657 -42.3458 -42.3335 -42.2582 -42.2116 -42.1210 -42.1004 -41.8801
   -18.0788 -17.9982 -17.9150 -17.8588 -17.7867 -17.6383 -17.5163 -17.4589
   -17.4265 -17.3897 -17.0466 -16.8495 -16.1751  -6.2155  -6.1291  -6.0736
    -6.0259  -5.9311  -5.7435  -5.6326  -5.5788  -5.5080  -5.4433  -5.3342
    -5.0399  -4.7628  -4.6850  -4.5142  -4.4365  -4.2641  -4.0448  -3.8515
    -3.6425  -3.5545  -3.3541  -3.2952  -3.2128  -3.1140  -3.0253  -2.8549
    -2.7179  -2.5912  -2.4879  -2.2579  -2.1562  -2.0360  -1.9231  -1.6175
    -1.5286  -1.3960  -1.2479  -1.1019  -0.1391  -0.0760   0.2130   0.2654
     0.5546   0.6222   0.6517   0.7774   0.8279   0.9427   0.9839   1.2355
     1.6844   1.7447   1.8432   1.8913   2.0485   2.0743   2.4893   3.1731
     3.4983   3.6690   3.7677   4.1041   4.3108   5.1273   5.4657   5.5380

          k =-0.3750-0.2445 0.0000 ( 40856 PWs)   bands (ev):

   -73.4775 -72.7387 -72.5092 -72.3554 -72.3186 -72.0420 -44.0357 -43.4342
   -43.0680 -42.8779 -42.8242 -42.6746 -42.5992 -42.5967 -42.5780 -42.5261
   -42.3655 -42.3442 -42.3340 -42.2582 -42.2116 -42.1209 -42.0996 -41.8801
   -18.0293 -18.0166 -17.9852 -17.8835 -17.8231 -17.6475 -17.4661 -17.4373
   -17.4049 -17.3785 -17.0450 -16.8540 -16.1753  -6.2630  -6.0476  -5.9061
    -5.8975  -5.8335  -5.8014  -5.7407  -5.6768  -5.6583  -5.5362  -5.3913
    -4.9307  -4.7655  -4.5463  -4.4728  -4.2712  -4.2128  -4.0508  -3.7190
    -3.5306  -3.4508  -3.4049  -3.2676  -3.2278  -3.1385  -3.1027  -2.9556
    -2.7554  -2.7096  -2.3515  -2.1989  -2.1555  -2.0107  -1.8878  -1.8261
    -1.5774  -1.4118  -1.2623  -1.2315  -0.3100  -0.2500  -0.1174   0.3365
     0.4676   0.6229   0.6835   0.7840   0.8386   0.8977   1.0265   1.2393
     1.5872   1.8069   1.9653   1.9931   2.1309   2.2280   2.5875   2.7649
     3.2328   3.3358   3.5330   4.1296   4.3131   5.5143   5.5339   5.8167

          k =-0.3750-0.1223 0.0000 ( 40842 PWs)   bands (ev):

   -73.4775 -72.7387 -72.5092 -72.3554 -72.3186 -72.0420 -44.0357 -43.4337
   -43.0680 -42.8783 -42.8244 -42.6741 -42.5978 -42.5967 -42.5780 -42.5260
   -42.3657 -42.3458 -42.3335 -42.2582 -42.2116 -42.1210 -42.1004 -41.8801
   -18.0788 -17.9982 -17.9150 -17.8588 -17.7867 -17.6383 -17.5163 -17.4589
   -17.4265 -17.3897 -17.0466 -16.8495 -16.1751  -6.2155  -6.1291  -6.0736
    -6.0259  -5.9311  -5.7435  -5.6326  -5.5788  -5.5080  -5.4433  -5.3342
    -5.0399  -4.7628  -4.6850  -4.5142  -4.4365  -4.2641  -4.0448  -3.8515
    -3.6425  -3.5545  -3.3541  -3.2952  -3.2128  -3.1140  -3.0253  -2.8549
    -2.7179  -2.5912  -2.4879  -2.2579  -2.1562  -2.0360  -1.9231  -1.6175
    -1.5286  -1.3960  -1.2479  -1.1019  -0.1391  -0.0760   0.2130   0.2654
     0.5546   0.6222   0.6517   0.7774   0.8279   0.9427   0.9839   1.2355
     1.6844   1.7447   1.8432   1.8913   2.0485   2.0743   2.4893   3.1731
     3.4983   3.6690   3.7677   4.1041   4.3108   5.1273   5.4657   5.5380

          k =-0.2500 0.0000 0.0000 ( 40947 PWs)   bands (ev):

   -73.4810 -72.7425 -72.5129 -72.3591 -72.3223 -72.0458 -44.0400 -43.3728
   -43.0803 -42.8269 -42.8117 -42.6785 -42.6073 -42.6019 -42.5817 -42.4658
   -42.3740 -42.2868 -42.2785 -42.2574 -42.2187 -42.1312 -42.0365 -41.8908
   -18.4548 -18.2918 -18.0991 -17.9479 -17.7553 -17.5384 -17.4688 -17.4180
   -17.4042 -17.3278 -17.0448 -16.8722 -16.2023  -6.7812  -6.6001  -6.5661
    -6.2186  -6.0046  -5.9584  -5.8390  -5.7877  -5.4544  -5.4163  -5.0342
    -4.9637  -4.6123  -4.5366  -4.4858  -4.3128  -4.1218  -4.0221  -3.9712
    -3.7455  -3.6605  -3.3789  -3.1951  -3.0913  -2.9891  -2.8395  -2.7744
    -2.6618  -2.4638  -2.3940  -2.2372  -2.1718  -2.0651  -2.0179  -1.6086
    -1.4701  -1.2350  -1.1760  -0.9513  -0.2344  -0.1143   0.2128   0.4666
     0.5239   0.6025   0.8152   0.9886   1.0806   1.1749   1.2146   1.3276
     1.3803   1.4785   1.5467   1.6215   1.8675   2.1924   2.5035   3.9590
     4.1489   4.2370   4.4152   4.6824   4.7445   4.8249   4.8964   4.9768

          k =-0.2500 0.1223 0.0000 ( 40905 PWs)   bands (ev):

   -73.4810 -72.7425 -72.5129 -72.3590 -72.3223 -72.0458 -44.0400 -43.3731
   -43.0791 -42.8280 -42.8115 -42.6783 -42.6073 -42.6018 -42.5817 -42.4659
   -42.3740 -42.2854 -42.2791 -42.2578 -42.2187 -42.1318 -42.0361 -41.8913
   -18.3662 -18.1968 -18.0023 -17.9882 -17.7510 -17.6338 -17.5295 -17.4819
   -17.4464 -17.3862 -17.0326 -16.8807 -16.2018  -6.4663  -6.3095  -6.2476
    -6.1911  -5.9705  -5.8717  -5.8160  -5.6232  -5.5414  -5.3473  -5.0968
    -4.7806  -4.7275  -4.6329  -4.4892  -4.4320  -4.3379  -4.2306  -4.1203
    -3.9731  -3.5768  -3.4950  -3.3383  -3.2132  -3.1663  -3.0005  -2.9075
    -2.7590  -2.6419  -2.4210  -2.2355  -2.1480  -2.0982  -1.9198  -1.5992
    -1.4336  -1.2326  -1.1457  -1.0048  -0.2087   0.0857   0.4406   0.4836
     0.5869   0.8532   0.9122   0.9845   1.0727   1.1557   1.2212   1.2824
     1.3758   1.5334   1.6103   1.6756   1.8058   2.0739   2.6209   3.7014
     4.0432   4.1547   4.2559   4.3799   4.6816   4.7782   5.2046   5.3547

          k =-0.2500-0.2445 0.0000 ( 40892 PWs)   bands (ev):

   -73.4810 -72.7425 -72.5129 -72.3590 -72.3223 -72.0458 -44.0400 -43.3735
   -43.0779 -42.8290 -42.8114 -42.6782 -42.6073 -42.6017 -42.5817 -42.4659
   -42.3740 -42.2836 -42.2801 -42.2581 -42.2187 -42.1323 -42.0358 -41.8918
   -18.1875 -18.1328 -17.9748 -17.9111 -17.7604 -17.7361 -17.6781 -17.5982
   -17.4904 -17.3873 -17.0197 -16.8910 -16.2014  -6.2373  -6.0133  -5.9621
    -5.8358  -5.7780  -5.7723  -5.6355  -5.5662  -5.2988  -5.2891  -5.2080
    -4.9887  -4.9741  -4.9411  -4.7634  -4.5758  -4.4707  -4.2299  -4.0271
    -3.8149  -3.7376  -3.6491  -3.5997  -3.4975  -3.4655  -3.2787  -3.2527
    -2.9100  -2.7742  -2.3724  -2.2162  -1.9689  -1.8490  -1.6637  -1.5976
    -1.3371  -1.2871  -1.1310  -1.0827  -0.0109   0.0537   0.2647   0.5909
     0.6059   0.8749   1.0350   1.1031   1.1375   1.1610   1.3003   1.3993
     1.4104   1.6043   1.6709   1.7854   1.8343   1.9335   2.7134   3.3007
     3.7692   3.8528   4.1013   4.3675   4.6980   5.0776   5.2759   5.5977

          k =-0.2500-0.1223 0.0000 ( 40905 PWs)   bands (ev):

   -73.4810 -72.7425 -72.5129 -72.3590 -72.3223 -72.0458 -44.0400 -43.3731
   -43.0791 -42.8280 -42.8115 -42.6783 -42.6073 -42.6018 -42.5817 -42.4659
   -42.3740 -42.2854 -42.2791 -42.2578 -42.2187 -42.1318 -42.0361 -41.8913
   -18.3662 -18.1968 -18.0023 -17.9882 -17.7510 -17.6338 -17.5295 -17.4819
   -17.4464 -17.3862 -17.0326 -16.8807 -16.2018  -6.4663  -6.3095  -6.2476
    -6.1911  -5.9705  -5.8717  -5.8160  -5.6232  -5.5414  -5.3473  -5.0968
    -4.7806  -4.7275  -4.6329  -4.4892  -4.4320  -4.3379  -4.2306  -4.1203
    -3.9731  -3.5768  -3.4950  -3.3383  -3.2132  -3.1663  -3.0005  -2.9075
    -2.7590  -2.6419  -2.4210  -2.2355  -2.1480  -2.0982  -1.9198  -1.5992
    -1.4336  -1.2326  -1.1457  -1.0048  -0.2087   0.0857   0.4406   0.4836
     0.5869   0.8532   0.9122   0.9845   1.0727   1.1557   1.2212   1.2824
     1.3758   1.5334   1.6103   1.6756   1.8058   2.0739   2.6209   3.7014
     4.0432   4.1546   4.2559   4.3799   4.6816   4.7782   5.2046   5.3547

          k =-0.1250 0.0000 0.0000 ( 40851 PWs)   bands (ev):

   -73.4846 -72.7464 -72.5165 -72.3627 -72.3260 -72.0495 -44.0442 -43.3118
   -43.0924 -42.8294 -42.7437 -42.6834 -42.6186 -42.6073 -42.5861 -42.4039
   -42.3839 -42.2775 -42.2258 -42.2225 -42.2037 -42.1412 -41.9711 -41.9016
   -18.7818 -18.5779 -18.3677 -18.1183 -17.8789 -17.7366 -17.4137 -17.2743
   -17.2292 -17.1398 -16.9433 -16.8086 -16.1493  -7.2499  -7.0482  -7.0358
    -6.4218  -6.4003  -6.0584  -5.7866  -5.7307  -5.6128  -5.5503  -5.4446
    -5.1837  -5.0110  -4.9668  -4.4269  -4.0899  -4.0139  -3.4142  -3.2680
    -3.2397  -3.1509  -3.0647  -3.0558  -2.8872  -2.7464  -2.6913  -2.6036
    -2.3942  -2.2993  -2.1679  -2.1344  -2.0733  -2.0141  -1.8507  -1.7434
    -1.5669  -1.0992  -1.0462  -0.6909  -0.4205  -0.2076   0.0330   0.0750
     0.1624   0.3462   0.4747   0.5336   0.6998   0.7088   1.1570   1.2350
     1.3455   1.4494   1.6569   1.8864   2.1559   2.3729   2.5743   3.7060
     4.3394   4.7416   4.7758   4.9035   5.0707   5.3717   5.4186   5.4746

          k =-0.1250 0.1223 0.0000 ( 40932 PWs)   bands (ev):

   -73.4846 -72.7464 -72.5165 -72.3627 -72.3260 -72.0495 -44.0442 -43.3119
   -43.0902 -42.8316 -42.7437 -42.6826 -42.6185 -42.6061 -42.5860 -42.4039
   -42.3839 -42.2775 -42.2258 -42.2215 -42.2048 -42.1426 -41.9710 -41.9025
   -18.6663 -18.4530 -18.2470 -18.1664 -17.8836 -17.7767 -17.4461 -17.3761
   -17.3400 -17.3071 -16.9230 -16.8204 -16.1470  -6.8490  -6.6296  -6.5953
    -6.4263  -6.3815  -5.9636  -5.7409  -5.6731  -5.6254  -5.5127  -5.2292
    -5.1840  -5.0123  -4.8460  -4.4691  -4.2020  -4.0122  -3.9753  -3.6864
    -3.4559  -3.4303  -3.3385  -3.3125  -3.1702  -3.1142  -3.0467  -2.8042
    -2.6156  -2.5115  -2.3152  -2.1833  -2.0664  -1.9769  -1.7317  -1.5776
    -1.4124  -1.0541  -0.9757  -0.7831  -0.0582   0.1782   0.2038   0.2826
     0.3933   0.4568   0.6831   0.7536   0.8158   0.8955   1.1607   1.2498
     1.3728   1.4738   1.6766   1.7369   1.9353   2.3228   2.5939   4.0223
     4.3894   4.7364   4.8465   4.8683   5.0166   5.2134   5.2722   5.3869

          k =-0.1250-0.2445 0.0000 ( 40974 PWs)   bands (ev):

   -73.4846 -72.7464 -72.5165 -72.3626 -72.3260 -72.0496 -44.0442 -43.3120
   -43.0879 -42.8339 -42.7436 -42.6819 -42.6185 -42.6048 -42.5860 -42.4038
   -42.3839 -42.2775 -42.2258 -42.2203 -42.2060 -42.1439 -41.9709 -41.9035
   -18.4308 -18.3685 -18.2270 -18.0128 -17.9602 -17.8685 -17.5510 -17.5255
   -17.4755 -17.3790 -16.8953 -16.8434 -16.1451  -6.4657  -6.4243  -6.1434
    -5.9434  -5.8147  -5.7471  -5.7284  -5.6645  -5.6351  -5.6192  -5.2199
    -5.0401  -4.8999  -4.7571  -4.6347  -4.4682  -4.2919  -4.1581  -4.1241
    -4.1022  -3.9869  -3.8561  -3.7784  -3.4504  -3.3508  -3.2478  -2.8367
    -2.7277  -2.6025  -2.3229  -2.2080  -1.9294  -1.7606  -1.5427  -1.3894
    -1.1688  -1.0827  -0.9899  -0.9710   0.1895   0.2096   0.3138   0.4164
     0.5464   0.5746   0.7980   1.1216   1.1370   1.1576   1.2272   1.2694
     1.4187   1.4486   1.5441   1.6651   1.9296   2.0115   2.7408   4.0622
     4.4390   4.5619   4.7337   4.8468   5.0916   5.1002   5.3152   5.4438

          k =-0.1250-0.1223 0.0000 ( 40932 PWs)   bands (ev):

   -73.4846 -72.7464 -72.5165 -72.3627 -72.3260 -72.0495 -44.0442 -43.3119
   -43.0902 -42.8316 -42.7437 -42.6826 -42.6185 -42.6061 -42.5860 -42.4039
   -42.3839 -42.2775 -42.2258 -42.2215 -42.2048 -42.1426 -41.9710 -41.9025
   -18.6663 -18.4530 -18.2470 -18.1664 -17.8836 -17.7767 -17.4461 -17.3761
   -17.3400 -17.3071 -16.9230 -16.8204 -16.1470  -6.8490  -6.6296  -6.5953
    -6.4263  -6.3815  -5.9636  -5.7409  -5.6731  -5.6254  -5.5127  -5.2292
    -5.1840  -5.0123  -4.8460  -4.4691  -4.2020  -4.0122  -3.9753  -3.6864
    -3.4559  -3.4303  -3.3385  -3.3125  -3.1702  -3.1142  -3.0467  -2.8042
    -2.6156  -2.5115  -2.3152  -2.1833  -2.0664  -1.9769  -1.7317  -1.5776
    -1.4124  -1.0541  -0.9757  -0.7831  -0.0582   0.1782   0.2038   0.2826
     0.3933   0.4568   0.6831   0.7536   0.8158   0.8955   1.1607   1.2498
     1.3728   1.4738   1.6766   1.7369   1.9353   2.3228   2.5939   4.0223
     4.3894   4.7364   4.8465   4.8683   5.0166   5.2134   5.2722   5.3869

     the Fermi energy is     1.2141 ev

!    total energy              =   -1672.25138552 Ry
     estimated scf accuracy    <       0.00000005 Ry
     smearing contrib. (-TS)   =      -0.00179841 Ry
     internal energy E=F+TS    =   -1672.24958711 Ry

     The total energy is F=E-TS. E is the sum of the following terms:
     one-electron contribution =  -16944.09487723 Ry
     hartree contribution      =    8494.14556235 Ry
     xc contribution           =    -214.02815144 Ry
     ewald contribution        =    7115.51538798 Ry
     one-center paw contrib.   =    -123.78750876 Ry

     convergence has been achieved in  11 iterations

     negative rho (up, down):  1.087E-04 0.000E+00

     Forces acting on atoms (cartesian axes, Ry/au):

     atom    1 type  1   force =     0.00000001   -0.00058843    0.07133751
     atom    2 type  1   force =    -0.00000001   -0.00026593   -0.08993183
     atom    3 type  1   force =    -0.00000003    0.00179976   -0.00110522
     atom    4 type  1   force =     0.00000021   -0.00163497   -0.00060879
     atom    5 type  1   force =     0.00000003   -0.00211994   -0.00574683
     atom    6 type  1   force =    -0.00000010    0.00599260    0.00048827
     atom    7 type  2   force =     0.00000000   -0.00024534    0.02016522
     atom    8 type  2   force =     0.00000001    0.00030094    0.06191039
     atom    9 type  2   force =    -0.00000000    0.02428615   -0.02509994
     atom   10 type  2   force =     0.00000000   -0.02413428   -0.02445327
     atom   11 type  2   force =    -0.00000020   -0.00126770    0.00108908
     atom   12 type  2   force =    -0.00000005    0.00023437   -0.00862765
     atom   13 type  2   force =     0.00000014    0.00153799   -0.00083764
     atom   14 type  2   force =    -0.00000015    0.00134857   -0.00033162
     atom   15 type  2   force =     0.00000014    0.00101999   -0.00145276
     atom   16 type  2   force =     0.00000011    0.00306480   -0.00086213
     atom   17 type  2   force =    -0.00000009    0.00386775    0.01206831
     atom   18 type  2   force =    -0.00000004    0.00159223   -0.01200692
     atom   19 type  2   force =     0.00000002   -0.01478855    0.00400584

     Total force =     0.025383     Total SCF correction =     0.000868
     Energy error            =      1.3E-03 Ry
     Gradient error          =      1.5E-02 Ry/Bohr

     number of scf cycles    =   4
     number of bfgs steps    =   3

     energy             old  =   -1672.2500461225 Ry
     energy             new  =   -1672.2513855207 Ry

     CASE: energy            _new < energy            _old

     new trust radius        =       0.0435649148 bohr
     new conv_thr            =       0.0000000739 Ry


ATOMIC_POSITIONS (angstrom)
Ru               0.0000000000        1.5881618300        9.5289709800    0   0   0
Ru               1.5535000000        4.7644854900        9.5289709800    0   0   0
Ru              -0.0000000283        4.7684277446       12.7234247150
Ru               1.5535000277        1.5965163358       12.7135551459
Ru               0.0000000049        1.6139955349       16.0652983862
Ru               1.5534998661        4.7585715483       15.9533633061
O                0.0000000000        4.7644854900       10.7677372100    0   0   0
O                0.0000000000        4.7644854900        8.2902047600    0   0   0
O                1.5535000000        0.3493956000        9.5289709800    0   0   0
O                1.5535000000        2.8269280600        9.5289709800    0   0   0
O                0.0000003276        1.5800930046       13.9845770553
O                0.0000000000        1.5881618300       11.4665284200    0   0   0
O                1.5534997811        3.5329836788       12.7093937695
O                1.5535001534        6.0022497785       12.7140766902
O               -0.0000002333        4.7705266134       17.0618011286
O               -0.0000003032        4.7694503720       14.6534995613
O                1.5535000864        0.3856831440       15.9171357310
O                1.5535000535        2.8220939011       15.8060059112
O                0.0000002585        1.8696624826       17.7449206713



     Writing config-only to output data dir ./tmp_s0_O__1x1_off/s0_O__1x1_off.save/ :
     XML data file
     NEW-OLD atomic charge density approx. for the potential

     negative rho (up, down):  1.084E-04 0.000E+00

     total cpu time spent up to now is     6276.6 secs

     per-process dynamical memory:  1113.7 Mb

     Self-consistent Calculation

     iteration #  1     ecut=    80.00 Ry     beta= 0.30
     Davidson diagonalization with overlap
     ethr =  1.00E-06,  avg # of iterations =  4.1

     negative rho (up, down):  1.279E-04 0.000E+00

     total cpu time spent up to now is     6456.9 secs

     total energy              =   -1672.25272332 Ry
     estimated scf accuracy    <       0.00193130 Ry

     iteration #  2     ecut=    80.00 Ry     beta= 0.30
     Davidson diagonalization with overlap
     ethr =  1.11E-06,  avg # of iterations =  1.0

     negative rho (up, down):  1.326E-04 0.000E+00

     total cpu time spent up to now is     6556.1 secs

     total energy              =   -1672.25275834 Ry
     estimated scf accuracy    <       0.00055173 Ry

     iteration #  3     ecut=    80.00 Ry     beta= 0.30
     Davidson diagonalization with overlap
     ethr =  3.17E-07,  avg # of iterations =  1.0

     negative rho (up, down):  1.479E-04 0.000E+00

     total cpu time spent up to now is     6654.6 secs

     total energy              =   -1672.25275226 Ry
     estimated scf accuracy    <       0.00015378 Ry

     iteration #  4     ecut=    80.00 Ry     beta= 0.30
     Davidson diagonalization with overlap
     ethr =  8.84E-08,  avg # of iterations =  1.0

     negative rho (up, down):  1.745E-04 0.000E+00

     total cpu time spent up to now is     6753.7 secs

     total energy              =   -1672.25273979 Ry
     estimated scf accuracy    <       0.00006177 Ry

     iteration #  5     ecut=    80.00 Ry     beta= 0.30
     Davidson diagonalization with overlap
     ethr =  3.55E-08,  avg # of iterations =  2.0

     negative rho (up, down):  1.838E-04 0.000E+00

     total cpu time spent up to now is     6862.9 secs

     total energy              =   -1672.25274259 Ry
     estimated scf accuracy    <       0.00001335 Ry

     iteration #  6     ecut=    80.00 Ry     beta= 0.30
     Davidson diagonalization with overlap
     ethr =  7.68E-09,  avg # of iterations =  1.8

     negative rho (up, down):  1.897E-04 0.000E+00

     total cpu time spent up to now is     6968.9 secs

     total energy              =   -1672.25274254 Ry
     estimated scf accuracy    <       0.00000408 Ry

     iteration #  7     ecut=    80.00 Ry     beta= 0.30
     Davidson diagonalization with overlap
     ethr =  2.35E-09,  avg # of iterations =  3.4

     negative rho (up, down):  1.914E-04 0.000E+00

     total cpu time spent up to now is     7078.1 secs

     total energy              =   -1672.25274258 Ry
     estimated scf accuracy    <       0.00000247 Ry

     iteration #  8     ecut=    80.00 Ry     beta= 0.30
     Davidson diagonalization with overlap
     ethr =  1.42E-09,  avg # of iterations =  1.3

     negative rho (up, down):  1.883E-04 0.000E+00

     total cpu time spent up to now is     7179.2 secs

     total energy              =   -1672.25274253 Ry
     estimated scf accuracy    <       0.00000202 Ry

     iteration #  9     ecut=    80.00 Ry     beta= 0.30
     Davidson diagonalization with overlap
     ethr =  1.16E-09,  avg # of iterations =  1.0

     negative rho (up, down):  1.809E-04 0.000E+00

     total cpu time spent up to now is     7278.4 secs

     total energy              =   -1672.25274252 Ry
     estimated scf accuracy    <       0.00000030 Ry

     iteration # 10     ecut=    80.00 Ry     beta= 0.30
     Davidson diagonalization with overlap
     ethr =  1.70E-10,  avg # of iterations =  3.6

     negative rho (up, down):  1.681E-04 0.000E+00

     total cpu time spent up to now is     7391.1 secs

     total energy              =   -1672.25274246 Ry
     estimated scf accuracy    <       0.00000016 Ry

     iteration # 11     ecut=    80.00 Ry     beta= 0.30
     Davidson diagonalization with overlap
     ethr =  9.26E-11,  avg # of iterations =  1.2

     negative rho (up, down):  1.096E-04 0.000E+00

     total cpu time spent up to now is     7486.6 secs

     End of self-consistent calculation

          k = 0.0000 0.0000 0.0000 ( 40831 PWs)   bands (ev):

   -73.4805 -72.7563 -72.5270 -72.3694 -72.3387 -72.0613 -44.0337 -43.2839
   -43.0925 -42.8358 -42.7239 -42.6945 -42.6335 -42.6155 -42.5987 -42.3970
   -42.3871 -42.2897 -42.2351 -42.2063 -42.1822 -42.1562 -41.9540 -41.9160
   -18.9164 -18.6970 -18.4849 -18.2105 -17.9609 -17.8275 -17.4000 -17.2004
   -17.1608 -17.0688 -16.9094 -16.7556 -16.1182  -7.4292  -7.2343  -7.2242
    -6.6085  -6.4256  -6.0135  -5.7489  -5.7310  -5.6895  -5.6217  -5.5253
    -5.4649  -5.2988  -5.1786  -4.5844  -4.1716  -3.5649  -3.3895  -3.1878
    -3.0652  -2.9602  -2.9190  -2.7764  -2.6965  -2.6611  -2.6391  -2.4941
    -2.3636  -2.2611  -2.1719  -1.9925  -1.9676  -1.6738  -1.4562  -1.4215
    -1.2715  -1.1477  -0.7471  -0.7200  -0.5237  -0.4655  -0.2226  -0.1997
    -0.1399  -0.1348   0.2747   0.3346   0.4661   0.5322   0.9956   1.1085
     1.2520   1.4301   1.7684   2.0320   2.2318   2.2916   2.7088   3.5202
     4.2144   4.7167   5.0277   5.2018   5.4056   5.5146   5.7251   5.7784

          k = 0.0000 0.1223 0.0000 ( 40974 PWs)   bands (ev):

   -73.4804 -72.7563 -72.5270 -72.3693 -72.3387 -72.0613 -44.0337 -43.2839
   -43.0898 -42.8387 -42.7239 -42.6935 -42.6335 -42.6138 -42.5987 -42.3970
   -42.3871 -42.2897 -42.2351 -42.2055 -42.1830 -42.1581 -41.9541 -41.9172
   -18.7946 -18.5652 -18.3617 -18.2603 -17.9777 -17.8607 -17.4148 -17.3233
   -17.2901 -17.2493 -16.8898 -16.7654 -16.1152  -7.0161  -6.7875  -6.7615
    -6.6014  -6.4148  -5.9436  -5.7297  -5.6303  -5.6089  -5.5408  -5.4618
    -5.4446  -5.2980  -4.9902  -4.6283  -4.2246  -4.0246  -3.7592  -3.6126
    -3.5332  -3.3841  -3.2615  -2.8986  -2.8665  -2.8643  -2.7427  -2.6650
    -2.5896  -2.3643  -2.2034  -2.1568  -2.0773  -1.7196  -1.6337  -1.6068
    -1.3551  -1.1292  -0.8997  -0.7100  -0.0675  -0.0400   0.1348   0.2577
     0.3470   0.3878   0.4255   0.5141   0.5406   0.6197   0.9844   1.0739
     1.3077   1.4782   1.7646   1.8328   2.0312   2.3635   2.5858   3.9130
     4.6348   4.7905   4.8944   5.2019   5.4176   5.4678   5.5065   5.5471

          k = 0.0000-0.2445 0.0000 ( 41014 PWs)   bands (ev):

   -73.4804 -72.7563 -72.5270 -72.3693 -72.3388 -72.0613 -44.0337 -43.2839
   -43.0870 -42.8416 -42.7239 -42.6924 -42.6335 -42.6121 -42.5987 -42.3969
   -42.3870 -42.2898 -42.2351 -42.2046 -42.1839 -42.1600 -41.9541 -41.9183
   -18.5445 -18.4861 -18.3330 -18.1082 -18.0635 -17.9571 -17.4959 -17.4664
   -17.4365 -17.3668 -16.8674 -16.7832 -16.1130  -6.6554  -6.4527  -6.3592
    -6.0171  -5.9735  -5.8653  -5.7283  -5.6044  -5.5226  -5.4547  -5.4510
    -5.2922  -5.0662  -4.9157  -4.6145  -4.5996  -4.4912  -4.4799  -4.3583
    -4.2324  -3.6813  -3.4797  -3.3379  -3.1387  -3.1134  -2.9722  -2.6991
    -2.5994  -2.4523  -2.2235  -2.1137  -1.9561  -1.6989  -1.6377  -1.3983
    -1.1940  -1.0948  -0.9902  -0.9878   0.1912   0.1962   0.2810   0.3918
     0.5134   0.6746   0.7986   0.8193   0.8888   0.9221   1.0453   1.1183
     1.2144   1.5517   1.5607   1.6030   2.0091   2.1189   2.7151   4.3408
     4.5259   4.8168   5.1842   5.1886   5.2046   5.2555   5.5234   5.6431

          k = 0.0000-0.1223 0.0000 ( 40974 PWs)   bands (ev):

   -73.4804 -72.7563 -72.5270 -72.3693 -72.3387 -72.0613 -44.0337 -43.2839
   -43.0898 -42.8387 -42.7239 -42.6935 -42.6335 -42.6138 -42.5987 -42.3970
   -42.3871 -42.2897 -42.2351 -42.2055 -42.1830 -42.1581 -41.9541 -41.9172
   -18.7946 -18.5652 -18.3617 -18.2603 -17.9777 -17.8607 -17.4148 -17.3233
   -17.2901 -17.2493 -16.8898 -16.7654 -16.1152  -7.0161  -6.7875  -6.7615
    -6.6014  -6.4148  -5.9436  -5.7297  -5.6303  -5.6089  -5.5408  -5.4618
    -5.4446  -5.2980  -4.9902  -4.6283  -4.2246  -4.0246  -3.7592  -3.6126
    -3.5332  -3.3841  -3.2615  -2.8986  -2.8665  -2.8643  -2.7427  -2.6650
    -2.5896  -2.3643  -2.2034  -2.1568  -2.0773  -1.7196  -1.6337  -1.6068
    -1.3551  -1.1292  -0.8997  -0.7100  -0.0675  -0.0400   0.1348   0.2577
     0.3470   0.3878   0.4255   0.5141   0.5406   0.6197   0.9844   1.0739
     1.3077   1.4782   1.7646   1.8328   2.0312   2.3635   2.5858   3.9130
     4.6348   4.7905   4.8944   5.2019   5.4176   5.4678   5.5065   5.5471

          k = 0.1250 0.0000 0.0000 ( 40851 PWs)   bands (ev):

   -73.4790 -72.7547 -72.5255 -72.3679 -72.3372 -72.0598 -44.0320 -43.3094
   -43.0874 -42.8348 -42.7524 -42.6924 -42.6289 -42.6133 -42.5965 -42.4131
   -42.3929 -42.2868 -42.2330 -42.2321 -42.2080 -42.1521 -41.9814 -41.9115
   -18.7880 -18.5810 -18.3759 -18.1246 -17.8856 -17.7475 -17.4079 -17.2764
   -17.2376 -17.1490 -16.9455 -16.8141 -16.1594  -7.2460  -7.0577  -7.0455
    -6.4302  -6.4098  -6.0549  -5.7961  -5.7385  -5.6214  -5.5567  -5.4517
    -5.1901  -5.0225  -4.9664  -4.4173  -4.0851  -4.0220  -3.4217  -3.2711
    -3.2399  -3.1557  -3.0730  -3.0552  -2.8960  -2.7447  -2.7023  -2.5860
    -2.4168  -2.3134  -2.1731  -2.1443  -2.0829  -2.0221  -1.8561  -1.7373
    -1.5769  -1.1073  -1.0564  -0.7053  -0.4206  -0.2087   0.0234   0.0670
     0.1525   0.3358   0.4655   0.5248   0.6915   0.6996   1.1479   1.2237
     1.3391   1.4416   1.6514   1.8795   2.1494   2.3637   2.5662   3.7002
     4.3362   4.7507   4.7652   4.8923   5.0601   5.3611   5.4078   5.4646

          k = 0.1250 0.1223 0.0000 ( 40932 PWs)   bands (ev):

   -73.4790 -72.7547 -72.5255 -72.3678 -72.3372 -72.0598 -44.0320 -43.3095
   -43.0851 -42.8371 -42.7524 -42.6917 -42.6289 -42.6120 -42.5965 -42.4131
   -42.3929 -42.2868 -42.2325 -42.2319 -42.2090 -42.1534 -41.9813 -41.9125
   -18.6727 -18.4557 -18.2549 -18.1737 -17.8886 -17.7882 -17.4433 -17.3839
   -17.3409 -17.3145 -16.9256 -16.8263 -16.1570  -6.8463  -6.6390  -6.6051
    -6.4347  -6.3904  -5.9596  -5.7497  -5.6816  -5.6314  -5.5219  -5.2366
    -5.1893  -5.0241  -4.8448  -4.4576  -4.2028  -4.0158  -3.9835  -3.6941
    -3.4611  -3.4356  -3.3451  -3.3207  -3.1751  -3.1214  -3.0411  -2.8117
    -2.6220  -2.5166  -2.3227  -2.1924  -2.0703  -1.9846  -1.7389  -1.5710
    -1.4228  -1.0645  -0.9839  -0.7898  -0.0627   0.1726   0.1982   0.2752
     0.3848   0.4478   0.6739   0.7451   0.8048   0.8865   1.1503   1.2398
     1.3646   1.4669   1.6717   1.7277   1.9292   2.3151   2.5846   4.0164
     4.3947   4.7338   4.8365   4.8581   5.0064   5.2039   5.2625   5.3761

          k = 0.1250-0.2445 0.0000 ( 40974 PWs)   bands (ev):

   -73.4790 -72.7547 -72.5255 -72.3678 -72.3373 -72.0598 -44.0320 -43.3096
   -43.0828 -42.8395 -42.7524 -42.6909 -42.6289 -42.6107 -42.5965 -42.4131
   -42.3928 -42.2869 -42.2323 -42.2312 -42.2099 -42.1548 -41.9812 -41.9135
   -18.4355 -18.3781 -18.2277 -18.0192 -17.9684 -17.8787 -17.5575 -17.5346
   -17.4792 -17.3738 -16.8967 -16.8508 -16.1552  -6.4727  -6.4346  -6.1418
    -5.9390  -5.8232  -5.7570  -5.7381  -5.6713  -5.6421  -5.6291  -5.2254
    -5.0503  -4.8974  -4.7666  -4.6294  -4.4684  -4.2998  -4.1628  -4.1319
    -4.1046  -3.9918  -3.8648  -3.7836  -3.4475  -3.3603  -3.2558  -2.8451
    -2.7251  -2.6130  -2.3248  -2.2177  -1.9342  -1.7638  -1.5479  -1.3973
    -1.1636  -1.0885  -1.0007  -0.9802   0.1835   0.2023   0.3033   0.4060
     0.5387   0.5749   0.7900   1.1130   1.1309   1.1464   1.2157   1.2598
     1.4101   1.4388   1.5364   1.6570   1.9250   2.0030   2.7314   4.0722
     4.4302   4.5519   4.7235   4.8371   5.0820   5.0949   5.3044   5.4317

          k = 0.1250-0.1223 0.0000 ( 40932 PWs)   bands (ev):

   -73.4790 -72.7547 -72.5255 -72.3678 -72.3372 -72.0598 -44.0320 -43.3095
   -43.0851 -42.8371 -42.7524 -42.6917 -42.6289 -42.6120 -42.5965 -42.4131
   -42.3929 -42.2868 -42.2325 -42.2319 -42.2090 -42.1534 -41.9813 -41.9125
   -18.6727 -18.4557 -18.2549 -18.1737 -17.8886 -17.7882 -17.4433 -17.3839
   -17.3409 -17.3145 -16.9256 -16.8263 -16.1570  -6.8463  -6.6390  -6.6051
    -6.4347  -6.3904  -5.9596  -5.7497  -5.6816  -5.6314  -5.5219  -5.2366
    -5.1893  -5.0241  -4.8448  -4.4576  -4.2028  -4.0158  -3.9835  -3.6941
    -3.4611  -3.4356  -3.3451  -3.3207  -3.1751  -3.1214  -3.0411  -2.8117
    -2.6220  -2.5166  -2.3227  -2.1924  -2.0703  -1.9846  -1.7389  -1.5710
    -1.4228  -1.0645  -0.9839  -0.7898  -0.0627   0.1726   0.1982   0.2752
     0.3848   0.4478   0.6739   0.7451   0.8048   0.8865   1.1503   1.2398
     1.3646   1.4669   1.6717   1.7277   1.9292   2.3151   2.5846   4.0164
     4.3947   4.7338   4.8365   4.8581   5.0064   5.2039   5.2625   5.3761

          k = 0.2500 0.0000 0.0000 ( 40947 PWs)   bands (ev):

   -73.4754 -72.7508 -72.5218 -72.3642 -72.3335 -72.0560 -44.0278 -43.3704
   -43.0752 -42.8324 -42.8204 -42.6875 -42.6182 -42.6078 -42.5916 -42.4750
   -42.3830 -42.2970 -42.2862 -42.2637 -42.2250 -42.1421 -42.0468 -41.9008
   -18.4613 -18.2935 -18.1074 -17.9534 -17.7652 -17.5469 -17.4693 -17.4247
   -17.4077 -17.3369 -17.0506 -16.8695 -16.2120  -6.7771  -6.6096  -6.5757
    -6.2291  -6.0008  -5.9649  -5.8457  -5.7961  -5.4626  -5.4260  -5.0360
    -4.9678  -4.6238  -4.5327  -4.4890  -4.3163  -4.1279  -4.0274  -3.9795
    -3.7513  -3.6669  -3.3576  -3.1982  -3.1033  -2.9941  -2.8465  -2.7843
    -2.6690  -2.4733  -2.3992  -2.2347  -2.1765  -2.0783  -2.0318  -1.6139
    -1.4670  -1.2460  -1.1891  -0.9619  -0.2416  -0.1099   0.2041   0.4564
     0.5149   0.5923   0.8064   0.9796   1.0719   1.1649   1.2052   1.3246
     1.3726   1.4692   1.5337   1.6168   1.8616   2.1845   2.4947   3.9506
     4.1547   4.2323   4.4038   4.6728   4.7376   4.8142   4.8864   4.9675

          k = 0.2500 0.1223 0.0000 ( 40905 PWs)   bands (ev):

   -73.4754 -72.7508 -72.5218 -72.3642 -72.3335 -72.0560 -44.0278 -43.3708
   -43.0740 -42.8335 -42.8202 -42.6873 -42.6182 -42.6077 -42.5916 -42.4751
   -42.3830 -42.2957 -42.2867 -42.2641 -42.2250 -42.1426 -42.0465 -41.9013
   -18.3729 -18.1981 -18.0106 -17.9951 -17.7586 -17.6390 -17.5359 -17.4903
   -17.4554 -17.3865 -17.0392 -16.8775 -16.2115  -6.4634  -6.3188  -6.2573
    -6.2010  -5.9768  -5.8699  -5.8185  -5.6320  -5.5509  -5.3553  -5.0980
    -4.7843  -4.7276  -4.6434  -4.4950  -4.4405  -4.3452  -4.2294  -4.1267
    -3.9814  -3.5703  -3.5012  -3.3448  -3.2106  -3.1744  -3.0090  -2.9173
    -2.7571  -2.6452  -2.4277  -2.2442  -2.1563  -2.1055  -1.9279  -1.6035
    -1.4321  -1.2432  -1.1559  -1.0155  -0.2152   0.0893   0.4342   0.4725
     0.5790   0.8430   0.9016   0.9745   1.0631   1.1468   1.2124   1.2743
     1.3672   1.5252   1.6013   1.6696   1.8000   2.0660   2.6121   3.7051
     4.0346   4.1449   4.2460   4.3702   4.6724   4.7718   5.1994   5.3481

          k = 0.2500-0.2445 0.0000 ( 40892 PWs)   bands (ev):

   -73.4754 -72.7508 -72.5218 -72.3642 -72.3335 -72.0560 -44.0278 -43.3711
   -43.0727 -42.8346 -42.8200 -42.6872 -42.6182 -42.6076 -42.5916 -42.4752
   -42.3830 -42.2944 -42.2872 -42.2645 -42.2250 -42.1432 -42.0461 -41.9018
   -18.1921 -18.1423 -17.9736 -17.9163 -17.7657 -17.7466 -17.6859 -17.6094
   -17.4973 -17.3870 -17.0273 -16.8870 -16.2111  -6.2483  -6.0189  -5.9555
    -5.8390  -5.7865  -5.7821  -5.6466  -5.5626  -5.3086  -5.2904  -5.2161
    -4.9963  -4.9816  -4.9491  -4.7671  -4.5788  -4.4789  -4.2336  -4.0326
    -3.8146  -3.7434  -3.6503  -3.6066  -3.5049  -3.4681  -3.2837  -3.2617
    -2.9110  -2.7825  -2.3776  -2.2251  -1.9650  -1.8546  -1.6690  -1.6064
    -1.3393  -1.2958  -1.1349  -1.0971  -0.0118   0.0426   0.2624   0.5830
     0.5955   0.8676   1.0256   1.0951   1.1285   1.1527   1.2886   1.3897
     1.4016   1.5965   1.6617   1.7810   1.8255   1.9255   2.7044   3.3063
     3.7589   3.8430   4.0922   4.3571   4.6880   5.0675   5.2815   5.5863

          k = 0.2500-0.1223 0.0000 ( 40905 PWs)   bands (ev):

   -73.4754 -72.7508 -72.5218 -72.3642 -72.3335 -72.0560 -44.0278 -43.3708
   -43.0740 -42.8335 -42.8202 -42.6873 -42.6182 -42.6077 -42.5916 -42.4751
   -42.3830 -42.2957 -42.2867 -42.2641 -42.2250 -42.1426 -42.0465 -41.9013
   -18.3729 -18.1981 -18.0106 -17.9951 -17.7586 -17.6390 -17.5359 -17.4903
   -17.4554 -17.3865 -17.0392 -16.8775 -16.2115  -6.4634  -6.3188  -6.2573
    -6.2010  -5.9768  -5.8699  -5.8185  -5.6320  -5.5509  -5.3553  -5.0980
    -4.7843  -4.7276  -4.6434  -4.4950  -4.4405  -4.3452  -4.2294  -4.1267
    -3.9814  -3.5703  -3.5012  -3.3448  -3.2106  -3.1744  -3.0090  -2.9173
    -2.7571  -2.6452  -2.4277  -2.2442  -2.1563  -2.1055  -1.9279  -1.6035
    -1.4321  -1.2432  -1.1559  -1.0155  -0.2152   0.0893   0.4342   0.4725
     0.5790   0.8430   0.9016   0.9745   1.0631   1.1468   1.2124   1.2743
     1.3672   1.5252   1.6013   1.6696   1.8000   2.0660   2.6121   3.7051
     4.0346   4.1449   4.2460   4.3702   4.6724   4.7718   5.1994   5.3481

          k = 0.3750 0.0000 0.0000 ( 40852 PWs)   bands (ev):

   -73.4719 -72.7470 -72.5182 -72.3606 -72.3298 -72.0523 -44.0235 -43.4309
   -43.0629 -42.8874 -42.8301 -42.6826 -42.6085 -42.6024 -42.5870 -42.5352
   -42.3752 -42.3578 -42.3370 -42.2679 -42.2177 -42.1321 -42.1114 -41.8900
   -18.1049 -17.9984 -17.8561 -17.8351 -17.7316 -17.6391 -17.5941 -17.5204
   -17.4422 -17.4017 -17.0560 -16.8392 -16.1845  -6.3467  -6.1612  -6.0377
    -6.0169  -5.8875  -5.8473  -5.6387  -5.6045  -5.4872  -5.3807  -5.1961
    -5.0405  -4.8180  -4.7803  -4.5734  -4.4041  -4.3620  -4.1912  -3.9652
    -3.6749  -3.4891  -3.4024  -3.3775  -3.3211  -3.1677  -3.0674  -2.8079
    -2.6626  -2.5770  -2.4205  -2.2660  -2.2033  -2.0169  -1.9365  -1.5029
    -1.3784  -1.3743  -1.2308  -0.9610  -0.1767   0.0368   0.2762   0.4838
     0.5965   0.6708   0.7686   0.7904   0.8720   1.0427   1.1592   1.2287
     1.3781   1.5270   1.6517   1.8037   1.9671   2.1584   2.3691   3.4286
     3.7949   4.0556   4.2838   4.3924   4.4898   4.5441   4.7856   4.9466

          k = 0.3750 0.1223 0.0000 ( 40842 PWs)   bands (ev):

   -73.4719 -72.7470 -72.5182 -72.3606 -72.3298 -72.0523 -44.0235 -43.4314
   -43.0628 -42.8869 -42.8299 -42.6831 -42.6085 -42.6038 -42.5870 -42.5353
   -42.3749 -42.3563 -42.3375 -42.2679 -42.2177 -42.1319 -42.1107 -41.8901
   -18.0854 -17.9976 -17.9234 -17.8653 -17.7978 -17.6384 -17.5261 -17.4695
   -17.4346 -17.3903 -17.0546 -16.8434 -16.1847  -6.2117  -6.1283  -6.0819
    -6.0353  -5.9416  -5.7512  -5.6408  -5.5877  -5.5073  -5.4519  -5.3399
    -5.0366  -4.7706  -4.6935  -4.5238  -4.4446  -4.2721  -4.0382  -3.8514
    -3.6439  -3.5603  -3.3509  -3.3022  -3.2205  -3.1207  -3.0326  -2.8644
    -2.7256  -2.5958  -2.4820  -2.2696  -2.1647  -2.0443  -1.9306  -1.6221
    -1.5386  -1.4020  -1.2559  -1.1121  -0.1349  -0.0817   0.2032   0.2575
     0.5457   0.6147   0.6447   0.7684   0.8179   0.9333   0.9705   1.2261
     1.6731   1.7421   1.8357   1.8842   2.0388   2.0662   2.4800   3.1745
     3.4908   3.6592   3.7579   4.0971   4.3009   5.1212   5.4559   5.5448

          k = 0.3750-0.2445 0.0000 ( 40856 PWs)   bands (ev):

   -73.4719 -72.7470 -72.5182 -72.3606 -72.3298 -72.0523 -44.0235 -43.4320
   -43.0628 -42.8865 -42.8298 -42.6836 -42.6085 -42.6051 -42.5870 -42.5354
   -42.3747 -42.3547 -42.3380 -42.2680 -42.2177 -42.1318 -42.1099 -41.8901
   -18.0345 -18.0218 -17.9894 -17.8904 -17.8340 -17.6470 -17.4758 -17.4472
   -17.4140 -17.3790 -17.0530 -16.8478 -16.1849  -6.2573  -6.0579  -5.9158
    -5.9021  -5.8393  -5.8064  -5.7434  -5.6829  -5.6689  -5.5442  -5.3974
    -4.9312  -4.7760  -4.5513  -4.4802  -4.2811  -4.2072  -4.0575  -3.7236
    -3.5358  -3.4446  -3.4077  -3.2697  -3.2400  -3.1466  -3.1024  -2.9646
    -2.7632  -2.7156  -2.3506  -2.2077  -2.1567  -2.0180  -1.8905  -1.8375
    -1.5833  -1.4215  -1.2722  -1.2421  -0.3184  -0.2571  -0.1113   0.3252
     0.4591   0.6150   0.6783   0.7756   0.8290   0.8874   1.0167   1.2236
     1.5776   1.7983   1.9587   1.9885   2.1212   2.2184   2.5783   2.7705
     3.2227   3.3261   3.5240   4.1224   4.3032   5.5047   5.5498   5.8069

          k = 0.3750-0.1223 0.0000 ( 40842 PWs)   bands (ev):

   -73.4719 -72.7470 -72.5182 -72.3606 -72.3298 -72.0523 -44.0235 -43.4314
   -43.0628 -42.8869 -42.8299 -42.6831 -42.6085 -42.6038 -42.5870 -42.5353
   -42.3749 -42.3563 -42.3375 -42.2679 -42.2177 -42.1319 -42.1107 -41.8901
   -18.0854 -17.9976 -17.9234 -17.8653 -17.7978 -17.6384 -17.5261 -17.4695
   -17.4346 -17.3903 -17.0546 -16.8434 -16.1847  -6.2117  -6.1283  -6.0819
    -6.0353  -5.9416  -5.7512  -5.6408  -5.5877  -5.5073  -5.4519  -5.3399
    -5.0366  -4.7706  -4.6935  -4.5238  -4.4446  -4.2721  -4.0382  -3.8514
    -3.6439  -3.5603  -3.3509  -3.3022  -3.2205  -3.1207  -3.0326  -2.8644
    -2.7256  -2.5958  -2.4820  -2.2696  -2.1647  -2.0443  -1.9306  -1.6221
    -1.5386  -1.4020  -1.2559  -1.1121  -0.1349  -0.0817   0.2032   0.2575
     0.5457   0.6147   0.6447   0.7684   0.8179   0.9333   0.9705   1.2261
     1.6731   1.7421   1.8357   1.8842   2.0388   2.0662   2.4800   3.1745
     3.4908   3.6592   3.7579   4.0971   4.3009   5.1212   5.4559   5.5448

          k =-0.5000 0.0000 0.0000 ( 40876 PWs)   bands (ev):

   -73.4704 -72.7454 -72.5167 -72.3591 -72.3283 -72.0507 -44.0218 -43.4558
   -43.0577 -42.9149 -42.8292 -42.6805 -42.6063 -42.6001 -42.5847 -42.5585
   -42.3887 -42.3661 -42.3620 -42.2655 -42.2147 -42.1379 -42.1279 -41.8856
   -17.9824 -17.8315 -17.8314 -17.7759 -17.7121 -17.6924 -17.6640 -17.5918
   -17.4590 -17.3980 -16.9850 -16.8126 -16.1478  -6.3357  -6.1301  -5.9759
    -5.7861  -5.7588  -5.6837  -5.5862  -5.5245  -5.4969  -5.4095  -5.3011
    -5.1490  -5.0178  -4.9034  -4.7186  -4.4967  -4.0976  -3.8372  -3.7781
    -3.6772  -3.6703  -3.6624  -3.5559  -3.4030  -2.9498  -2.8539  -2.6987
    -2.5997  -2.4652  -2.4549  -2.3487  -2.1400  -1.9758  -1.8226  -1.7093
    -1.5875  -1.2418  -1.1172  -0.8930  -0.2139   0.0899   0.1023   0.4713
     0.5473   0.5819   0.6406   0.6746   0.7293   0.7974   1.0379   1.1709
     1.3189   1.5034   1.8501   1.9385   2.1505   2.2561   2.3320   3.2096
     3.6460   4.0121   4.2232   4.2608   4.3720   4.5551   4.7639   4.9168

          k =-0.5000 0.1223 0.0000 ( 40858 PWs)   bands (ev):

   -73.4704 -72.7454 -72.5167 -72.3591 -72.3283 -72.0507 -44.0218 -43.4564
   -43.0583 -42.9142 -42.8285 -42.6814 -42.6063 -42.6023 -42.5847 -42.5586
   -42.3867 -42.3659 -42.3624 -42.2655 -42.2147 -42.1369 -42.1275 -41.8854
   -17.9755 -17.9661 -17.9487 -17.9018 -17.8351 -17.5515 -17.4614 -17.4579
   -17.4180 -17.3986 -16.9869 -16.8150 -16.1473  -6.2780  -6.2331  -6.0924
    -6.0909  -5.9903  -5.7494  -5.6560  -5.6101  -5.5911  -5.4004  -5.1666
    -5.0732  -4.8220  -4.5870  -4.3983  -4.1247  -3.8624  -3.8356  -3.7876
    -3.7620  -3.6400  -3.6240  -3.5990  -3.0014  -2.9321  -2.8104  -2.6025
    -2.5886  -2.5027  -2.4924  -2.2531  -2.1770  -2.1157  -1.8292  -1.6494
    -1.6217  -1.4910  -1.3058  -1.0785  -0.2086  -0.0291   0.0446   0.1032
     0.2158   0.4557   0.4997   0.5722   0.6009   0.6388   0.7512   1.1917
     1.8144   1.8607   2.0075   2.0217   2.1878   2.2077   2.4080   3.0093
     3.2578   3.4603   3.5855   4.0419   4.2258   5.3237   5.5824   5.6028

          k =-0.5000-0.2445 0.0000 ( 40872 PWs)   bands (ev):

   -73.4704 -72.7454 -72.5167 -72.3591 -72.3283 -72.0507 -44.0218 -43.4570
   -43.0589 -42.9136 -42.8278 -42.6822 -42.6064 -42.6044 -42.5847 -42.5588
   -42.3847 -42.3657 -42.3628 -42.2655 -42.2146 -42.1360 -42.1270 -41.8852
   -18.0418 -18.0389 -17.9928 -17.9679 -17.8395 -17.4717 -17.4565 -17.3993
   -17.3617 -17.3202 -16.9888 -16.8174 -16.1468  -6.4842  -6.2629  -6.1920
    -6.0828  -6.0544  -5.7529  -5.6624  -5.6579  -5.6498  -5.4880  -5.1648
    -5.0323  -4.9432  -4.1802  -4.1318  -3.9012  -3.8626  -3.8218  -3.5965
    -3.5798  -3.5090  -3.4088  -3.2263  -3.1906  -2.8933  -2.8446  -2.7880
    -2.6452  -2.4133  -2.3150  -2.1791  -2.1171  -1.9317  -1.9288  -1.7876
    -1.7429  -1.7141  -1.5781  -1.2569  -0.5030  -0.2278  -0.2086   0.0243
     0.1245   0.1961   0.4570   0.4784   0.6114   0.6381   0.7655   1.2337
     1.7552   1.9250   2.0579   2.1249   2.3653   2.3751   2.4616   2.6225
     3.0753   3.1976   3.2945   4.0695   4.2278   5.6575   5.7737   5.8227

          k =-0.5000-0.1223 0.0000 ( 40858 PWs)   bands (ev):

   -73.4704 -72.7454 -72.5167 -72.3591 -72.3283 -72.0507 -44.0218 -43.4564
   -43.0583 -42.9142 -42.8285 -42.6814 -42.6063 -42.6023 -42.5847 -42.5586
   -42.3867 -42.3659 -42.3624 -42.2655 -42.2147 -42.1369 -42.1275 -41.8854
   -17.9755 -17.9661 -17.9487 -17.9018 -17.8351 -17.5515 -17.4614 -17.4579
   -17.4180 -17.3986 -16.9869 -16.8150 -16.1473  -6.2780  -6.2331  -6.0924
    -6.0909  -5.9903  -5.7494  -5.6560  -5.6101  -5.5911  -5.4004  -5.1666
    -5.0732  -4.8220  -4.5870  -4.3983  -4.1247  -3.8624  -3.8356  -3.7876
    -3.7620  -3.6400  -3.6240  -3.5990  -3.0014  -2.9321  -2.8104  -2.6025
    -2.5886  -2.5027  -2.4924  -2.2531  -2.1770  -2.1157  -1.8292  -1.6494
    -1.6217  -1.4910  -1.3058  -1.0785  -0.2086  -0.0291   0.0446   0.1032
     0.2158   0.4557   0.4997   0.5722   0.6009   0.6388   0.7512   1.1917
     1.8144   1.8607   2.0075   2.0217   2.1878   2.2077   2.4080   3.0093
     3.2578   3.4603   3.5855   4.0419   4.2258   5.3237   5.5824   5.6028

          k =-0.3750 0.0000 0.0000 ( 40852 PWs)   bands (ev):

   -73.4719 -72.7470 -72.5182 -72.3606 -72.3298 -72.0523 -44.0235 -43.4309
   -43.0629 -42.8874 -42.8301 -42.6826 -42.6085 -42.6024 -42.5870 -42.5352
   -42.3752 -42.3578 -42.3370 -42.2679 -42.2177 -42.1321 -42.1114 -41.8900
   -18.1049 -17.9984 -17.8561 -17.8351 -17.7316 -17.6391 -17.5941 -17.5204
   -17.4422 -17.4017 -17.0560 -16.8392 -16.1845  -6.3467  -6.1612  -6.0377
    -6.0169  -5.8875  -5.8473  -5.6387  -5.6045  -5.4872  -5.3807  -5.1961
    -5.0405  -4.8180  -4.7803  -4.5734  -4.4041  -4.3620  -4.1912  -3.9652
    -3.6749  -3.4891  -3.4024  -3.3775  -3.3211  -3.1677  -3.0674  -2.8079
    -2.6626  -2.5770  -2.4205  -2.2660  -2.2033  -2.0169  -1.9365  -1.5029
    -1.3784  -1.3743  -1.2308  -0.9610  -0.1767   0.0368   0.2762   0.4838
     0.5965   0.6708   0.7686   0.7904   0.8720   1.0427   1.1592   1.2287
     1.3781   1.5270   1.6517   1.8037   1.9671   2.1584   2.3691   3.4286
     3.7949   4.0556   4.2838   4.3924   4.4898   4.5441   4.7856   4.9466

          k =-0.3750 0.1223 0.0000 ( 40842 PWs)   bands (ev):

   -73.4719 -72.7470 -72.5182 -72.3606 -72.3298 -72.0523 -44.0235 -43.4314
   -43.0628 -42.8869 -42.8299 -42.6831 -42.6085 -42.6038 -42.5870 -42.5353
   -42.3749 -42.3563 -42.3375 -42.2679 -42.2177 -42.1319 -42.1107 -41.8901
   -18.0854 -17.9976 -17.9234 -17.8653 -17.7978 -17.6384 -17.5261 -17.4695
   -17.4346 -17.3903 -17.0546 -16.8434 -16.1847  -6.2117  -6.1283  -6.0819
    -6.0353  -5.9416  -5.7512  -5.6408  -5.5877  -5.5073  -5.4519  -5.3399
    -5.0366  -4.7706  -4.6935  -4.5238  -4.4446  -4.2721  -4.0382  -3.8514
    -3.6439  -3.5603  -3.3509  -3.3022  -3.2205  -3.1207  -3.0326  -2.8644
    -2.7256  -2.5958  -2.4820  -2.2696  -2.1647  -2.0443  -1.9306  -1.6221
    -1.5386  -1.4020  -1.2559  -1.1121  -0.1349  -0.0817   0.2032   0.2575
     0.5457   0.6147   0.6447   0.7684   0.8179   0.9333   0.9705   1.2261
     1.6731   1.7421   1.8357   1.8842   2.0388   2.0662   2.4800   3.1745
     3.4908   3.6592   3.7579   4.0971   4.3009   5.1212   5.4559   5.5448

          k =-0.3750-0.2445 0.0000 ( 40856 PWs)   bands (ev):

   -73.4719 -72.7470 -72.5182 -72.3606 -72.3298 -72.0523 -44.0235 -43.4320
   -43.0628 -42.8865 -42.8298 -42.6836 -42.6085 -42.6051 -42.5870 -42.5354
   -42.3747 -42.3547 -42.3380 -42.2680 -42.2177 -42.1318 -42.1099 -41.8901
   -18.0345 -18.0218 -17.9894 -17.8904 -17.8340 -17.6470 -17.4758 -17.4472
   -17.4140 -17.3790 -17.0530 -16.8478 -16.1849  -6.2573  -6.0579  -5.9158
    -5.9021  -5.8393  -5.8064  -5.7434  -5.6829  -5.6689  -5.5442  -5.3974
    -4.9312  -4.7760  -4.5513  -4.4802  -4.2811  -4.2072  -4.0575  -3.7236
    -3.5358  -3.4446  -3.4077  -3.2697  -3.2400  -3.1466  -3.1024  -2.9646
    -2.7632  -2.7156  -2.3506  -2.2077  -2.1567  -2.0180  -1.8905  -1.8375
    -1.5833  -1.4215  -1.2722  -1.2421  -0.3184  -0.2571  -0.1113   0.3252
     0.4591   0.6150   0.6783   0.7756   0.8290   0.8874   1.0167   1.2236
     1.5776   1.7983   1.9587   1.9885   2.1212   2.2184   2.5783   2.7705
     3.2227   3.3261   3.5240   4.1224   4.3032   5.5047   5.5498   5.8069

          k =-0.3750-0.1223 0.0000 ( 40842 PWs)   bands (ev):

   -73.4719 -72.7470 -72.5182 -72.3606 -72.3298 -72.0523 -44.0235 -43.4314
   -43.0628 -42.8869 -42.8299 -42.6831 -42.6085 -42.6038 -42.5870 -42.5353
   -42.3749 -42.3563 -42.3375 -42.2679 -42.2177 -42.1319 -42.1107 -41.8901
   -18.0854 -17.9976 -17.9234 -17.8653 -17.7978 -17.6384 -17.5261 -17.4695
   -17.4346 -17.3903 -17.0546 -16.8434 -16.1847  -6.2117  -6.1283  -6.0819
    -6.0353  -5.9416  -5.7512  -5.6408  -5.5877  -5.5073  -5.4519  -5.3399
    -5.0366  -4.7706  -4.6935  -4.5238  -4.4446  -4.2721  -4.0382  -3.8514
    -3.6439  -3.5603  -3.3509  -3.3022  -3.2205  -3.1207  -3.0326  -2.8644
    -2.7256  -2.5958  -2.4820  -2.2696  -2.1647  -2.0443  -1.9306  -1.6221
    -1.5386  -1.4020  -1.2559  -1.1121  -0.1349  -0.0817   0.2032   0.2575
     0.5457   0.6147   0.6447   0.7684   0.8179   0.9333   0.9705   1.2261
     1.6731   1.7421   1.8357   1.8842   2.0388   2.0662   2.4800   3.1745
     3.4908   3.6592   3.7579   4.0971   4.3009   5.1212   5.4559   5.5448

          k =-0.2500 0.0000 0.0000 ( 40947 PWs)   bands (ev):

   -73.4754 -72.7508 -72.5218 -72.3642 -72.3335 -72.0560 -44.0278 -43.3704
   -43.0752 -42.8324 -42.8204 -42.6875 -42.6182 -42.6078 -42.5916 -42.4750
   -42.3830 -42.2970 -42.2862 -42.2637 -42.2250 -42.1421 -42.0468 -41.9008
   -18.4613 -18.2935 -18.1074 -17.9534 -17.7652 -17.5469 -17.4693 -17.4247
   -17.4077 -17.3369 -17.0506 -16.8695 -16.2120  -6.7771  -6.6096  -6.5757
    -6.2291  -6.0008  -5.9649  -5.8457  -5.7961  -5.4626  -5.4260  -5.0360
    -4.9678  -4.6238  -4.5327  -4.4890  -4.3163  -4.1279  -4.0274  -3.9795
    -3.7513  -3.6669  -3.3576  -3.1982  -3.1033  -2.9941  -2.8465  -2.7843
    -2.6690  -2.4733  -2.3992  -2.2347  -2.1765  -2.0783  -2.0318  -1.6139
    -1.4670  -1.2460  -1.1891  -0.9619  -0.2416  -0.1099   0.2041   0.4564
     0.5149   0.5923   0.8064   0.9796   1.0719   1.1649   1.2052   1.3246
     1.3726   1.4692   1.5337   1.6168   1.8616   2.1845   2.4947   3.9506
     4.1547   4.2323   4.4038   4.6728   4.7376   4.8142   4.8864   4.9675

          k =-0.2500 0.1223 0.0000 ( 40905 PWs)   bands (ev):

   -73.4754 -72.7508 -72.5218 -72.3642 -72.3335 -72.0560 -44.0278 -43.3708
   -43.0740 -42.8335 -42.8202 -42.6873 -42.6182 -42.6077 -42.5916 -42.4751
   -42.3830 -42.2957 -42.2867 -42.2641 -42.2250 -42.1426 -42.0465 -41.9013
   -18.3729 -18.1981 -18.0106 -17.9951 -17.7586 -17.6390 -17.5359 -17.4903
   -17.4554 -17.3865 -17.0392 -16.8775 -16.2115  -6.4634  -6.3188  -6.2573
    -6.2010  -5.9768  -5.8699  -5.8185  -5.6320  -5.5509  -5.3553  -5.0980
    -4.7843  -4.7276  -4.6434  -4.4950  -4.4405  -4.3452  -4.2294  -4.1267
    -3.9814  -3.5703  -3.5012  -3.3448  -3.2106  -3.1744  -3.0090  -2.9173
    -2.7571  -2.6452  -2.4277  -2.2442  -2.1563  -2.1055  -1.9279  -1.6035
    -1.4321  -1.2432  -1.1559  -1.0155  -0.2152   0.0893   0.4342   0.4725
     0.5790   0.8430   0.9016   0.9745   1.0631   1.1468   1.2124   1.2743
     1.3672   1.5252   1.6013   1.6696   1.8000   2.0660   2.6121   3.7051
     4.0346   4.1449   4.2460   4.3702   4.6724   4.7718   5.1994   5.3481

          k =-0.2500-0.2445 0.0000 ( 40892 PWs)   bands (ev):

   -73.4754 -72.7508 -72.5218 -72.3642 -72.3335 -72.0560 -44.0278 -43.3711
   -43.0727 -42.8346 -42.8200 -42.6872 -42.6182 -42.6076 -42.5916 -42.4752
   -42.3830 -42.2944 -42.2872 -42.2645 -42.2250 -42.1432 -42.0461 -41.9018
   -18.1921 -18.1423 -17.9736 -17.9163 -17.7657 -17.7466 -17.6859 -17.6094
   -17.4973 -17.3870 -17.0273 -16.8870 -16.2111  -6.2483  -6.0189  -5.9555
    -5.8390  -5.7865  -5.7821  -5.6466  -5.5626  -5.3086  -5.2904  -5.2161
    -4.9963  -4.9816  -4.9491  -4.7671  -4.5788  -4.4789  -4.2336  -4.0326
    -3.8146  -3.7434  -3.6503  -3.6066  -3.5049  -3.4681  -3.2837  -3.2617
    -2.9110  -2.7825  -2.3776  -2.2251  -1.9650  -1.8546  -1.6690  -1.6064
    -1.3393  -1.2958  -1.1349  -1.0971  -0.0118   0.0426   0.2624   0.5830
     0.5955   0.8676   1.0256   1.0951   1.1285   1.1527   1.2886   1.3897
     1.4016   1.5965   1.6617   1.7810   1.8255   1.9255   2.7044   3.3063
     3.7589   3.8430   4.0922   4.3571   4.6880   5.0675   5.2815   5.5863

          k =-0.2500-0.1223 0.0000 ( 40905 PWs)   bands (ev):

   -73.4754 -72.7508 -72.5218 -72.3642 -72.3335 -72.0560 -44.0278 -43.3708
   -43.0740 -42.8335 -42.8202 -42.6873 -42.6182 -42.6077 -42.5916 -42.4751
   -42.3830 -42.2957 -42.2867 -42.2641 -42.2250 -42.1426 -42.0465 -41.9013
   -18.3729 -18.1981 -18.0106 -17.9951 -17.7586 -17.6390 -17.5359 -17.4903
   -17.4554 -17.3865 -17.0392 -16.8775 -16.2115  -6.4634  -6.3188  -6.2573
    -6.2010  -5.9768  -5.8699  -5.8185  -5.6320  -5.5509  -5.3553  -5.0980
    -4.7843  -4.7276  -4.6434  -4.4950  -4.4405  -4.3452  -4.2294  -4.1267
    -3.9814  -3.5703  -3.5012  -3.3448  -3.2106  -3.1744  -3.0090  -2.9173
    -2.7571  -2.6452  -2.4277  -2.2442  -2.1563  -2.1055  -1.9279  -1.6035
    -1.4321  -1.2432  -1.1559  -1.0155  -0.2152   0.0893   0.4342   0.4725
     0.5790   0.8430   0.9016   0.9745   1.0631   1.1468   1.2124   1.2743
     1.3672   1.5252   1.6013   1.6696   1.8000   2.0660   2.6121   3.7051
     4.0346   4.1449   4.2460   4.3702   4.6724   4.7718   5.1994   5.3481

          k =-0.1250 0.0000 0.0000 ( 40851 PWs)   bands (ev):

   -73.4790 -72.7547 -72.5255 -72.3679 -72.3372 -72.0598 -44.0320 -43.3094
   -43.0874 -42.8348 -42.7524 -42.6924 -42.6289 -42.6133 -42.5965 -42.4131
   -42.3929 -42.2868 -42.2330 -42.2321 -42.2080 -42.1521 -41.9814 -41.9115
   -18.7880 -18.5810 -18.3759 -18.1246 -17.8856 -17.7475 -17.4079 -17.2764
   -17.2376 -17.1490 -16.9455 -16.8141 -16.1594  -7.2460  -7.0577  -7.0455
    -6.4302  -6.4098  -6.0549  -5.7961  -5.7385  -5.6214  -5.5567  -5.4517
    -5.1901  -5.0225  -4.9664  -4.4173  -4.0851  -4.0220  -3.4217  -3.2711
    -3.2399  -3.1557  -3.0730  -3.0552  -2.8960  -2.7447  -2.7023  -2.5860
    -2.4168  -2.3134  -2.1731  -2.1443  -2.0829  -2.0221  -1.8561  -1.7373
    -1.5769  -1.1073  -1.0564  -0.7053  -0.4206  -0.2087   0.0234   0.0670
     0.1525   0.3358   0.4655   0.5248   0.6915   0.6996   1.1479   1.2237
     1.3391   1.4416   1.6514   1.8795   2.1494   2.3637   2.5662   3.7002
     4.3362   4.7507   4.7652   4.8923   5.0601   5.3611   5.4078   5.4646

          k =-0.1250 0.1223 0.0000 ( 40932 PWs)   bands (ev):

   -73.4790 -72.7547 -72.5255 -72.3678 -72.3372 -72.0598 -44.0320 -43.3095
   -43.0851 -42.8371 -42.7524 -42.6917 -42.6289 -42.6120 -42.5965 -42.4131
   -42.3929 -42.2868 -42.2325 -42.2319 -42.2090 -42.1534 -41.9813 -41.9125
   -18.6727 -18.4557 -18.2549 -18.1737 -17.8886 -17.7882 -17.4433 -17.3839
   -17.3409 -17.3145 -16.9256 -16.8263 -16.1570  -6.8463  -6.6390  -6.6051
    -6.4347  -6.3904  -5.9596  -5.7497  -5.6816  -5.6314  -5.5219  -5.2366
    -5.1893  -5.0241  -4.8448  -4.4576  -4.2028  -4.0158  -3.9835  -3.6941
    -3.4611  -3.4356  -3.3451  -3.3207  -3.1751  -3.1214  -3.0411  -2.8117
    -2.6220  -2.5166  -2.3227  -2.1924  -2.0703  -1.9846  -1.7389  -1.5710
    -1.4228  -1.0645  -0.9839  -0.7898  -0.0627   0.1726   0.1982   0.2752
     0.3848   0.4478   0.6739   0.7451   0.8048   0.8865   1.1503   1.2398
     1.3646   1.4669   1.6717   1.7277   1.9292   2.3151   2.5846   4.0164
     4.3947   4.7338   4.8365   4.8581   5.0064   5.2039   5.2625   5.3761

          k =-0.1250-0.2445 0.0000 ( 40974 PWs)   bands (ev):

   -73.4790 -72.7547 -72.5255 -72.3678 -72.3373 -72.0598 -44.0320 -43.3096
   -43.0828 -42.8395 -42.7524 -42.6909 -42.6289 -42.6107 -42.5965 -42.4131
   -42.3928 -42.2869 -42.2323 -42.2312 -42.2099 -42.1548 -41.9812 -41.9135
   -18.4355 -18.3781 -18.2277 -18.0192 -17.9684 -17.8787 -17.5575 -17.5346
   -17.4792 -17.3738 -16.8967 -16.8508 -16.1552  -6.4727  -6.4346  -6.1418
    -5.9390  -5.8232  -5.7570  -5.7381  -5.6713  -5.6421  -5.6291  -5.2254
    -5.0503  -4.8974  -4.7666  -4.6294  -4.4684  -4.2998  -4.1628  -4.1319
    -4.1046  -3.9918  -3.8648  -3.7836  -3.4475  -3.3603  -3.2558  -2.8451
    -2.7251  -2.6130  -2.3248  -2.2177  -1.9342  -1.7638  -1.5479  -1.3973
    -1.1636  -1.0885  -1.0007  -0.9802   0.1835   0.2023   0.3033   0.4060
     0.5387   0.5749   0.7900   1.1130   1.1309   1.1464   1.2157   1.2598
     1.4101   1.4388   1.5364   1.6570   1.9250   2.0030   2.7314   4.0722
     4.4302   4.5519   4.7235   4.8371   5.0820   5.0949   5.3044   5.4317

          k =-0.1250-0.1223 0.0000 ( 40932 PWs)   bands (ev):

   -73.4790 -72.7547 -72.5255 -72.3678 -72.3372 -72.0598 -44.0320 -43.3095
   -43.0851 -42.8371 -42.7524 -42.6917 -42.6289 -42.6120 -42.5965 -42.4131
   -42.3929 -42.2868 -42.2325 -42.2319 -42.2090 -42.1534 -41.9813 -41.9125
   -18.6727 -18.4557 -18.2549 -18.1737 -17.8886 -17.7882 -17.4433 -17.3839
   -17.3409 -17.3145 -16.9256 -16.8263 -16.1570  -6.8463  -6.6390  -6.6051
    -6.4347  -6.3904  -5.9596  -5.7497  -5.6816  -5.6314  -5.5219  -5.2366
    -5.1893  -5.0241  -4.8448  -4.4576  -4.2028  -4.0158  -3.9835  -3.6941
    -3.4611  -3.4356  -3.3451  -3.3207  -3.1751  -3.1214  -3.0411  -2.8117
    -2.6220  -2.5166  -2.3227  -2.1924  -2.0703  -1.9846  -1.7389  -1.5710
    -1.4228  -1.0645  -0.9839  -0.7898  -0.0627   0.1726   0.1982   0.2752
     0.3848   0.4478   0.6739   0.7451   0.8048   0.8865   1.1503   1.2398
     1.3646   1.4669   1.6717   1.7277   1.9292   2.3151   2.5846   4.0164
     4.3947   4.7338   4.8365   4.8581   5.0064   5.2039   5.2625   5.3761

     the Fermi energy is     1.2042 ev

!    total energy              =   -1672.25274236 Ry
     estimated scf accuracy    <       0.00000006 Ry
     smearing contrib. (-TS)   =      -0.00179890 Ry
     internal energy E=F+TS    =   -1672.25094346 Ry

     The total energy is F=E-TS. E is the sum of the following terms:
     one-electron contribution =  -16946.84934127 Ry
     hartree contribution      =    8495.48402342 Ry
     xc contribution           =    -214.02593429 Ry
     ewald contribution        =    7116.92780746 Ry
     one-center paw contrib.   =    -123.78749878 Ry

     convergence has been achieved in  11 iterations

     negative rho (up, down):  1.096E-04 0.000E+00

     Forces acting on atoms (cartesian axes, Ry/au):

     atom    1 type  1   force =     0.00000000   -0.00051163    0.07144066
     atom    2 type  1   force =    -0.00000000   -0.00026943   -0.09021417
     atom    3 type  1   force =    -0.00000003    0.00113276   -0.00044197
     atom    4 type  1   force =     0.00000008   -0.00235213   -0.00179701
     atom    5 type  1   force =     0.00000001   -0.00140857   -0.00018672
     atom    6 type  1   force =    -0.00000005    0.00724017    0.00108921
     atom    7 type  2   force =     0.00000000    0.00005650    0.01971970
     atom    8 type  2   force =     0.00000000    0.00030375    0.06196787
     atom    9 type  2   force =    -0.00000000    0.02423287   -0.02510604
     atom   10 type  2   force =     0.00000000   -0.02421860   -0.02452532
     atom   11 type  2   force =    -0.00000012   -0.00110336    0.00021986
     atom   12 type  2   force =     0.00000001    0.00064297   -0.00812713
     atom   13 type  2   force =     0.00000012    0.00134130   -0.00040269
     atom   14 type  2   force =    -0.00000010    0.00090324   -0.00074272
     atom   15 type  2   force =     0.00000007    0.00008414   -0.00230494
     atom   16 type  2   force =     0.00000009    0.00452904   -0.00035237
     atom   17 type  2   force =    -0.00000005    0.00076499    0.00682770
     atom   18 type  2   force =    -0.00000002   -0.00027766   -0.00619367
     atom   19 type  2   force =    -0.00000001   -0.01109034   -0.00087025

     Total force =     0.017487     Total SCF correction =     0.001387
     Energy error            =      1.4E-03 Ry
     Gradient error          =      1.1E-02 Ry/Bohr

     number of scf cycles    =   5
     number of bfgs steps    =   4

     energy             old  =   -1672.2513855207 Ry
     energy             new  =   -1672.2527423630 Ry

     CASE: energy            _new < energy            _old

     new trust radius        =       0.0653473723 bohr
     new conv_thr            =       0.0000000555 Ry


ATOMIC_POSITIONS (angstrom)
Ru               0.0000000000        1.5881618300        9.5289709800    0   0   0
Ru               1.5535000000        4.7644854900        9.5289709800    0   0   0
Ru              -0.0000000497        4.7711723281       12.7215018889
Ru               1.5535001675        1.5962207957       12.7137197252
Ru               0.0000000521        1.6178244003       16.0602451266
Ru               1.5534997743        4.7660253027       15.9528607184
O                0.0000000000        4.7644854900       10.7677372100    0   0   0
O                0.0000000000        4.7644854900        8.2902047600    0   0   0
O                1.5535000000        0.3493956000        9.5289709800    0   0   0
O                1.5535000000        2.8269280600        9.5289709800    0   0   0
O                0.0000002111        1.5762525434       13.9860244418
O                0.0000000000        1.5881618300       11.4665284200    0   0   0
O                1.5534998966        3.5353472809       12.7074350209
O                1.5535000231        6.0047182651       12.7132256276
O               -0.0000001747        4.7725653258       17.0599345692
O               -0.0000002652        4.7764898447       14.6516647170
O                1.5535000088        0.3926447065       15.9428890337
O                1.5535000140        2.8269647050       15.7793515253
O                0.0000003254        1.8351641829       17.7473012683



     Writing config-only to output data dir ./tmp_s0_O__1x1_off/s0_O__1x1_off.save/ :
     XML data file
     NEW-OLD atomic charge density approx. for the potential

     negative rho (up, down):  1.086E-04 0.000E+00

     total cpu time spent up to now is     7507.1 secs

     per-process dynamical memory:  1113.7 Mb

     Self-consistent Calculation

     iteration #  1     ecut=    80.00 Ry     beta= 0.30
     Davidson diagonalization with overlap
     ethr =  1.00E-06,  avg # of iterations =  5.1

     negative rho (up, down):  1.292E-04 0.000E+00

     total cpu time spent up to now is     7701.1 secs

     total energy              =   -1672.25365382 Ry
     estimated scf accuracy    <       0.00223879 Ry

     iteration #  2     ecut=    80.00 Ry     beta= 0.30
     Davidson diagonalization with overlap
     ethr =  1.29E-06,  avg # of iterations =  1.0

     negative rho (up, down):  1.301E-04 0.000E+00

     total cpu time spent up to now is     7801.4 secs

     total energy              =   -1672.25371353 Ry
     estimated scf accuracy    <       0.00110226 Ry

     iteration #  3     ecut=    80.00 Ry     beta= 0.30
     Davidson diagonalization with overlap
     ethr =  6.33E-07,  avg # of iterations =  1.0

     negative rho (up, down):  1.382E-04 0.000E+00

     total cpu time spent up to now is     7899.9 secs

     total energy              =   -1672.25370506 Ry
     estimated scf accuracy    <       0.00025010 Ry

     iteration #  4     ecut=    80.00 Ry     beta= 0.30
     Davidson diagonalization with overlap
     ethr =  1.44E-07,  avg # of iterations =  1.5

     negative rho (up, down):  1.604E-04 0.000E+00

     total cpu time spent up to now is     8002.3 secs

     total energy              =   -1672.25365879 Ry
     estimated scf accuracy    <       0.00012428 Ry

     iteration #  5     ecut=    80.00 Ry     beta= 0.30
     Davidson diagonalization with overlap
     ethr =  7.14E-08,  avg # of iterations =  2.0

     negative rho (up, down):  1.650E-04 0.000E+00

     total cpu time spent up to now is     8114.9 secs

     total energy              =   -1672.25366846 Ry
     estimated scf accuracy    <       0.00002365 Ry

     iteration #  6     ecut=    80.00 Ry     beta= 0.30
     Davidson diagonalization with overlap
     ethr =  1.36E-08,  avg # of iterations =  3.7

     negative rho (up, down):  1.668E-04 0.000E+00

     total cpu time spent up to now is     8226.4 secs

     total energy              =   -1672.25366898 Ry
     estimated scf accuracy    <       0.00000739 Ry

     iteration #  7     ecut=    80.00 Ry     beta= 0.30
     Davidson diagonalization with overlap
     ethr =  4.25E-09,  avg # of iterations =  2.0

     negative rho (up, down):  1.670E-04 0.000E+00

     total cpu time spent up to now is     8331.7 secs

     total energy              =   -1672.25366901 Ry
     estimated scf accuracy    <       0.00000152 Ry

     iteration #  8     ecut=    80.00 Ry     beta= 0.30
     Davidson diagonalization with overlap
     ethr =  8.75E-10,  avg # of iterations =  2.5

     negative rho (up, down):  1.641E-04 0.000E+00

     total cpu time spent up to now is     8441.2 secs

     total energy              =   -1672.25366896 Ry
     estimated scf accuracy    <       0.00000134 Ry

     iteration #  9     ecut=    80.00 Ry     beta= 0.30
     Davidson diagonalization with overlap
     ethr =  7.67E-10,  avg # of iterations =  1.2

     negative rho (up, down):  1.605E-04 0.000E+00

     total cpu time spent up to now is     8540.7 secs

     total energy              =   -1672.25366899 Ry
     estimated scf accuracy    <       0.00000013 Ry

     iteration # 10     ecut=    80.00 Ry     beta= 0.30
     Davidson diagonalization with overlap
     ethr =  7.58E-11,  avg # of iterations =  3.1

     negative rho (up, down):  1.524E-04 0.000E+00

     total cpu time spent up to now is     8653.6 secs

     total energy              =   -1672.25366897 Ry
     estimated scf accuracy    <       0.00000009 Ry

     iteration # 11     ecut=    80.00 Ry     beta= 0.30
     Davidson diagonalization with overlap
     ethr =  5.38E-11,  avg # of iterations =  1.4

     negative rho (up, down):  1.106E-04 0.000E+00

     total cpu time spent up to now is     8751.8 secs

     End of self-consistent calculation

          k = 0.0000 0.0000 0.0000 ( 40831 PWs)   bands (ev):

   -73.4746 -72.7652 -72.5344 -72.3724 -72.3491 -72.0696 -44.0234 -43.2806
   -43.0866 -42.8389 -42.7356 -42.7020 -42.6442 -42.6193 -42.6096 -42.4045
   -42.3949 -42.2970 -42.2393 -42.2158 -42.1845 -42.1661 -41.9626 -41.9242
   -18.9208 -18.6971 -18.4908 -18.2179 -17.9671 -17.8393 -17.3956 -17.2005
   -17.1663 -17.0763 -16.9068 -16.7659 -16.1272  -7.4168  -7.2423  -7.2324
    -6.6158  -6.4363  -6.0065  -5.7563  -5.7405  -5.6975  -5.6301  -5.5353
    -5.4687  -5.3097  -5.1798  -4.5794  -4.1709  -3.5585  -3.3911  -3.1913
    -3.0676  -2.9655  -2.9225  -2.7779  -2.7099  -2.6670  -2.6495  -2.5017
    -2.3676  -2.2628  -2.1762  -1.9978  -1.9571  -1.6805  -1.4651  -1.4230
    -1.2779  -1.1587  -0.7589  -0.7245  -0.5282  -0.4637  -0.2306  -0.2077
    -0.1440  -0.1430   0.2659   0.3273   0.4546   0.5246   0.9876   1.0991
     1.2441   1.4282   1.7663   2.0221   2.2250   2.2836   2.7020   3.5173
     4.2135   4.7084   5.0373   5.1900   5.4052   5.5055   5.7160   5.7699

          k = 0.0000 0.1223 0.0000 ( 40974 PWs)   bands (ev):

   -73.4746 -72.7652 -72.5344 -72.3723 -72.3492 -72.0696 -44.0234 -43.2805
   -43.0838 -42.8418 -42.7356 -42.7010 -42.6442 -42.6175 -42.6096 -42.4044
   -42.3949 -42.2970 -42.2393 -42.2152 -42.1851 -42.1681 -41.9626 -41.9254
   -18.7994 -18.5652 -18.3675 -18.2683 -17.9835 -17.8721 -17.4114 -17.3287
   -17.2891 -17.2545 -16.8885 -16.7766 -16.1242  -7.0062  -6.7954  -6.7700
    -6.6082  -6.4253  -5.9365  -5.7396  -5.6388  -5.6174  -5.5492  -5.4652
    -5.4525  -5.3090  -4.9904  -4.6218  -4.2246  -4.0301  -3.7653  -3.6039
    -3.5391  -3.3941  -3.2647  -2.9032  -2.8714  -2.8661  -2.7467  -2.6777
    -2.5839  -2.3729  -2.2068  -2.1598  -2.0881  -1.7172  -1.6439  -1.6051
    -1.3621  -1.1385  -0.9063  -0.7087  -0.0704  -0.0425   0.1273   0.2492
     0.3392   0.3791   0.4208   0.5054   0.5328   0.6091   0.9763   1.0652
     1.3002   1.4740   1.7577   1.8288   2.0248   2.3571   2.5779   3.9074
     4.6325   4.8021   4.8849   5.1902   5.4176   5.4585   5.4977   5.5385

          k = 0.0000-0.2445 0.0000 ( 41014 PWs)   bands (ev):

   -73.4746 -72.7652 -72.5344 -72.3723 -72.3492 -72.0696 -44.0234 -43.2805
   -43.0809 -42.8448 -42.7356 -42.7000 -42.6442 -42.6158 -42.6095 -42.4044
   -42.3948 -42.2971 -42.2393 -42.2146 -42.1857 -42.1700 -41.9626 -41.9266
   -18.5474 -18.4957 -18.3310 -18.1163 -18.0701 -17.9667 -17.5011 -17.4754
   -17.4345 -17.3606 -16.8644 -16.7969 -16.1220  -6.6619  -6.4634  -6.3520
    -6.0254  -5.9819  -5.8571  -5.7401  -5.6137  -5.5308  -5.4635  -5.4545
    -5.3031  -5.0613  -4.9250  -4.6161  -4.5974  -4.4982  -4.4820  -4.3512
    -4.2488  -3.6692  -3.4850  -3.3474  -3.1465  -3.1213  -2.9680  -2.7087
    -2.5924  -2.4634  -2.2252  -2.1214  -1.9611  -1.7097  -1.6441  -1.4059
    -1.1905  -1.0913  -0.9971  -0.9930   0.1851   0.1887   0.2795   0.3881
     0.5056   0.6654   0.7909   0.8111   0.8844   0.9138   1.0368   1.1094
     1.2059   1.5413   1.5525   1.6003   2.0071   2.1127   2.7067   4.3311
     4.5405   4.8167   5.1692   5.1787   5.1931   5.2470   5.5145   5.6523

          k = 0.0000-0.1223 0.0000 ( 40974 PWs)   bands (ev):

   -73.4746 -72.7652 -72.5344 -72.3723 -72.3492 -72.0696 -44.0234 -43.2805
   -43.0838 -42.8418 -42.7356 -42.7010 -42.6442 -42.6175 -42.6096 -42.4044
   -42.3949 -42.2970 -42.2393 -42.2152 -42.1851 -42.1681 -41.9626 -41.9254
   -18.7994 -18.5652 -18.3675 -18.2683 -17.9835 -17.8721 -17.4114 -17.3287
   -17.2891 -17.2545 -16.8885 -16.7766 -16.1242  -7.0062  -6.7954  -6.7700
    -6.6082  -6.4253  -5.9365  -5.7396  -5.6388  -5.6174  -5.5492  -5.4652
    -5.4525  -5.3090  -4.9904  -4.6218  -4.2246  -4.0301  -3.7653  -3.6039
    -3.5391  -3.3941  -3.2647  -2.9032  -2.8714  -2.8661  -2.7467  -2.6777
    -2.5839  -2.3729  -2.2068  -2.1598  -2.0881  -1.7172  -1.6439  -1.6051
    -1.3621  -1.1385  -0.9063  -0.7087  -0.0704  -0.0425   0.1273   0.2492
     0.3392   0.3791   0.4208   0.5054   0.5328   0.6091   0.9763   1.0652
     1.3002   1.4740   1.7577   1.8288   2.0248   2.3571   2.5779   3.9074
     4.6325   4.8021   4.8849   5.1902   5.4176   5.4585   5.4977   5.5385

          k = 0.1250 0.0000 0.0000 ( 40851 PWs)   bands (ev):

   -73.4731 -72.7636 -72.5329 -72.3709 -72.3476 -72.0681 -44.0216 -43.3060
   -43.0815 -42.8378 -42.7641 -42.7000 -42.6398 -42.6170 -42.6072 -42.4209
   -42.4004 -42.2942 -42.2425 -42.2364 -42.2102 -42.1620 -41.9899 -41.9198
   -18.7926 -18.5805 -18.3818 -18.1318 -17.8925 -17.7586 -17.4064 -17.2757
   -17.2428 -17.1562 -16.9454 -16.8209 -16.1681  -7.2335  -7.0657  -7.0537
    -6.4391  -6.4197  -6.0467  -5.8050  -5.7472  -5.6286  -5.5639  -5.4578
    -5.1989  -5.0337  -4.9664  -4.4095  -4.0816  -4.0288  -3.4317  -3.2757
    -3.2365  -3.1578  -3.0798  -3.0509  -2.9036  -2.7444  -2.7156  -2.5632
    -2.4484  -2.3263  -2.1766  -2.1517  -2.0859  -2.0323  -1.8590  -1.7259
    -1.5838  -1.1141  -1.0660  -0.7196  -0.4168  -0.2105   0.0163   0.0596
     0.1441   0.3267   0.4578   0.5175   0.6841   0.6923   1.1419   1.2126
     1.3333   1.4366   1.6467   1.8710   2.1429   2.3567   2.5595   3.6973
     4.3341   4.7553   4.7602   4.8825   5.0516   5.3529   5.3989   5.4561

          k = 0.1250 0.1223 0.0000 ( 40932 PWs)   bands (ev):

   -73.4731 -72.7636 -72.5329 -72.3708 -72.3476 -72.0681 -44.0216 -43.3061
   -43.0791 -42.8403 -42.7641 -42.6992 -42.6398 -42.6157 -42.6072 -42.4209
   -42.4003 -42.2942 -42.2419 -42.2364 -42.2110 -42.1634 -41.9898 -41.9207
   -18.6776 -18.4552 -18.2607 -18.1816 -17.8943 -17.7993 -17.4425 -17.3912
   -17.3395 -17.3186 -16.9267 -16.8333 -16.1658  -6.8363  -6.6470  -6.6134
    -6.4433  -6.3994  -5.9513  -5.7595  -5.6894  -5.6367  -5.5297  -5.2455
    -5.1958  -5.0353  -4.8435  -4.4475  -4.2051  -4.0158  -3.9920  -3.6994
    -3.4657  -3.4383  -3.3519  -3.3268  -3.1781  -3.1278  -3.0391  -2.8188
    -2.6298  -2.5198  -2.3278  -2.2019  -2.0721  -1.9921  -1.7444  -1.5596
    -1.4306  -1.0741  -0.9906  -0.7935  -0.0664   0.1672   0.1948   0.2688
     0.3780   0.4403   0.6663   0.7377   0.7951   0.8791   1.1418   1.2303
     1.3576   1.4619   1.6666   1.7200   1.9239   2.3092   2.5771   4.0113
     4.3991   4.7326   4.8272   4.8508   4.9977   5.1962   5.2545   5.3678

          k = 0.1250-0.2445 0.0000 ( 40974 PWs)   bands (ev):

   -73.4731 -72.7636 -72.5329 -72.3708 -72.3477 -72.0681 -44.0216 -43.3062
   -43.0767 -42.8427 -42.7641 -42.6984 -42.6398 -42.6144 -42.6072 -42.4209
   -42.4003 -42.2943 -42.2412 -42.2364 -42.2119 -42.1647 -41.9898 -41.9217
   -18.4388 -18.3876 -18.2247 -18.0264 -17.9753 -17.8874 -17.5629 -17.5432
   -17.4793 -17.3698 -16.8965 -16.8599 -16.1639  -6.4794  -6.4460  -6.1344
    -5.9313  -5.8316  -5.7654  -5.7480  -5.6780  -5.6467  -5.6376  -5.2336
    -5.0604  -4.8934  -4.7762  -4.6229  -4.4683  -4.3083  -4.1669  -4.1391
    -4.0988  -3.9955  -3.8719  -3.7876  -3.4461  -3.3707  -3.2641  -2.8541
    -2.7210  -2.6254  -2.3218  -2.2290  -1.9377  -1.7665  -1.5528  -1.4038
    -1.1560  -1.0903  -1.0088  -0.9868   0.1786   0.1957   0.2940   0.3966
     0.5325   0.5765   0.7836   1.1049   1.1255   1.1373   1.2053   1.2518
     1.4029   1.4295   1.5300   1.6500   1.9217   1.9968   2.7238   4.0807
     4.4225   4.5445   4.7145   4.8295   5.0708   5.0942   5.2935   5.4217

          k = 0.1250-0.1223 0.0000 ( 40932 PWs)   bands (ev):

   -73.4731 -72.7636 -72.5329 -72.3708 -72.3476 -72.0681 -44.0216 -43.3061
   -43.0791 -42.8403 -42.7641 -42.6992 -42.6398 -42.6157 -42.6072 -42.4209
   -42.4003 -42.2942 -42.2419 -42.2364 -42.2110 -42.1634 -41.9898 -41.9207
   -18.6776 -18.4552 -18.2607 -18.1816 -17.8943 -17.7993 -17.4425 -17.3912
   -17.3395 -17.3186 -16.9267 -16.8333 -16.1658  -6.8363  -6.6470  -6.6134
    -6.4433  -6.3994  -5.9513  -5.7595  -5.6894  -5.6367  -5.5297  -5.2455
    -5.1958  -5.0353  -4.8435  -4.4475  -4.2051  -4.0158  -3.9920  -3.6994
    -3.4657  -3.4383  -3.3519  -3.3268  -3.1781  -3.1278  -3.0391  -2.8188
    -2.6298  -2.5198  -2.3278  -2.2019  -2.0721  -1.9921  -1.7444  -1.5596
    -1.4306  -1.0741  -0.9906  -0.7935  -0.0664   0.1672   0.1948   0.2688
     0.3780   0.4403   0.6663   0.7377   0.7951   0.8791   1.1418   1.2303
     1.3576   1.4619   1.6666   1.7200   1.9239   2.3092   2.5771   4.0113
     4.3991   4.7326   4.8272   4.8508   4.9977   5.1962   5.2545   5.3678

          k = 0.2500 0.0000 0.0000 ( 40947 PWs)   bands (ev):

   -73.4696 -72.7598 -72.5293 -72.3672 -72.3439 -72.0643 -44.0175 -43.3671
   -43.0692 -42.8355 -42.8321 -42.6950 -42.6293 -42.6115 -42.6020 -42.4828
   -42.3905 -42.3066 -42.2924 -42.2672 -42.2289 -42.1521 -42.0553 -41.9090
   -18.4662 -18.2914 -18.1133 -17.9600 -17.7744 -17.5556 -17.4691 -17.4323
   -17.4073 -17.3434 -17.0612 -16.8643 -16.2204  -6.7644  -6.6176  -6.5838
    -6.2407  -5.9958  -5.9682  -5.8515  -5.8034  -5.4695  -5.4363  -5.0377
    -4.9732  -4.6369  -4.5295  -4.4942  -4.3202  -4.1362  -4.0303  -3.9858
    -3.7546  -3.6716  -3.3380  -3.1970  -3.1136  -2.9991  -2.8521  -2.7935
    -2.6752  -2.4812  -2.4028  -2.2329  -2.1819  -2.0956  -2.0423  -1.6170
    -1.4588  -1.2563  -1.2011  -0.9709  -0.2484  -0.1001   0.1937   0.4475
     0.5080   0.5836   0.7989   0.9718   1.0643   1.1576   1.1972   1.3220
     1.3668   1.4632   1.5175   1.6135   1.8567   2.1782   2.4880   3.9430
     4.1615   4.2264   4.3919   4.6641   4.7335   4.8052   4.8780   4.9597

          k = 0.2500 0.1223 0.0000 ( 40905 PWs)   bands (ev):

   -73.4696 -72.7598 -72.5293 -72.3672 -72.3440 -72.0643 -44.0175 -43.3675
   -43.0679 -42.8368 -42.8318 -42.6949 -42.6293 -42.6115 -42.6020 -42.4829
   -42.3905 -42.3055 -42.2927 -42.2677 -42.2289 -42.1526 -42.0550 -41.9095
   -18.3783 -18.1957 -18.0169 -18.0021 -17.7655 -17.6428 -17.5408 -17.4978
   -17.4617 -17.3864 -17.0512 -16.8713 -16.2199  -6.4545  -6.3267  -6.2656
    -6.2109  -5.9829  -5.8661  -5.8170  -5.6402  -5.5601  -5.3620  -5.0992
    -4.7913  -4.7253  -4.6556  -4.4998  -4.4477  -4.3512  -4.2290  -4.1329
    -3.9915  -3.5648  -3.5041  -3.3503  -3.2058  -3.1793  -3.0159  -2.9261
    -2.7564  -2.6483  -2.4334  -2.2544  -2.1660  -2.1120  -1.9330  -1.6060
    -1.4254  -1.2530  -1.1643  -1.0245  -0.2204   0.0959   0.4269   0.4631
     0.5731   0.8339   0.8921   0.9661   1.0550   1.1396   1.2044   1.2677
     1.3597   1.5184   1.5932   1.6648   1.7954   2.0596   2.6052   3.7059
     4.0279   4.1370   4.2374   4.3629   4.6632   4.7664   5.1955   5.3436

          k = 0.2500-0.2445 0.0000 ( 40892 PWs)   bands (ev):

   -73.4696 -72.7598 -72.5293 -72.3672 -72.3440 -72.0643 -44.0175 -43.3678
   -43.0666 -42.8378 -42.8318 -42.6947 -42.6293 -42.6114 -42.6020 -42.4830
   -42.3904 -42.3043 -42.2930 -42.2682 -42.2289 -42.1531 -42.0546 -41.9100
   -18.1966 -18.1511 -17.9668 -17.9215 -17.7687 -17.7545 -17.6924 -17.6202
   -17.5026 -17.3871 -17.0409 -16.8795 -16.2194  -6.2606  -6.0253  -5.9458
    -5.8392  -5.7929  -5.7905  -5.6578  -5.5546  -5.3179  -5.2907  -5.2211
    -5.0003  -4.9875  -4.9548  -4.7733  -4.5818  -4.4871  -4.2377  -4.0403
    -3.8152  -3.7490  -3.6490  -3.6102  -3.5117  -3.4743  -3.2868  -3.2681
    -2.9135  -2.7885  -2.3808  -2.2381  -1.9581  -1.8603  -1.6726  -1.6133
    -1.3375  -1.3023  -1.1365  -1.1101  -0.0098   0.0315   0.2628   0.5733
     0.5892   0.8602   1.0173   1.0903   1.1206   1.1445   1.2781   1.3813
     1.3944   1.5902   1.6533   1.7778   1.8175   1.9190   2.6974   3.3104
     3.7503   3.8347   4.0840   4.3491   4.6790   5.0563   5.2916   5.5741

          k = 0.2500-0.1223 0.0000 ( 40905 PWs)   bands (ev):

   -73.4696 -72.7598 -72.5293 -72.3672 -72.3440 -72.0643 -44.0175 -43.3675
   -43.0679 -42.8368 -42.8318 -42.6949 -42.6293 -42.6115 -42.6020 -42.4829
   -42.3905 -42.3055 -42.2927 -42.2677 -42.2289 -42.1526 -42.0550 -41.9095
   -18.3783 -18.1957 -18.0169 -18.0021 -17.7655 -17.6428 -17.5408 -17.4978
   -17.4617 -17.3864 -17.0512 -16.8713 -16.2199  -6.4545  -6.3267  -6.2656
    -6.2109  -5.9829  -5.8661  -5.8170  -5.6402  -5.5601  -5.3620  -5.0992
    -4.7913  -4.7253  -4.6556  -4.4998  -4.4477  -4.3512  -4.2290  -4.1329
    -3.9915  -3.5648  -3.5041  -3.3503  -3.2058  -3.1793  -3.0159  -2.9261
    -2.7564  -2.6483  -2.4334  -2.2544  -2.1660  -2.1120  -1.9330  -1.6060
    -1.4254  -1.2530  -1.1643  -1.0245  -0.2204   0.0959   0.4269   0.4631
     0.5731   0.8339   0.8921   0.9661   1.0550   1.1396   1.2044   1.2677
     1.3597   1.5184   1.5932   1.6648   1.7954   2.0596   2.6052   3.7059
     4.0279   4.1370   4.2374   4.3629   4.6632   4.7664   5.1955   5.3436

          k = 0.3750 0.0000 0.0000 ( 40852 PWs)   bands (ev):

   -73.4660 -72.7559 -72.5256 -72.3636 -72.3403 -72.0606 -44.0133 -43.4276
   -43.0567 -42.8992 -42.8333 -42.6901 -42.6201 -42.6061 -42.5969 -42.5431
   -42.3831 -42.3673 -42.3391 -42.2756 -42.2213 -42.1421 -42.1199 -41.8983
   -18.1114 -17.9937 -17.8618 -17.8415 -17.7408 -17.6371 -17.6017 -17.5288
   -17.4476 -17.4039 -17.0716 -16.8305 -16.1927  -6.3356  -6.1678  -6.0459
    -6.0226  -5.8951  -5.8447  -5.6419  -5.6113  -5.4929  -5.3905  -5.2014
    -5.0414  -4.8252  -4.7856  -4.5775  -4.4145  -4.3588  -4.2021  -3.9657
    -3.6634  -3.4940  -3.4103  -3.3783  -3.3280  -3.1660  -3.0751  -2.8144
    -2.6606  -2.5888  -2.4291  -2.2703  -2.2092  -2.0252  -1.9463  -1.5132
    -1.3858  -1.3805  -1.2294  -0.9701  -0.1672   0.0260   0.2699   0.4760
     0.5885   0.6628   0.7581   0.7829   0.8639   1.0330   1.1505   1.2217
     1.3787   1.5218   1.6479   1.7939   1.9608   2.1501   2.3620   3.4175
     3.8008   4.0509   4.2737   4.3832   4.4814   4.5323   4.7767   4.9390

          k = 0.3750 0.1223 0.0000 ( 40842 PWs)   bands (ev):

   -73.4660 -72.7559 -72.5256 -72.3636 -72.3403 -72.0606 -44.0133 -43.4282
   -43.0567 -42.8987 -42.8332 -42.6906 -42.6201 -42.6075 -42.5968 -42.5432
   -42.3827 -42.3658 -42.3395 -42.2756 -42.2213 -42.1419 -42.1192 -41.8983
   -18.0918 -17.9925 -17.9312 -17.8703 -17.8075 -17.6342 -17.5347 -17.4788
   -17.4406 -17.3913 -17.0705 -16.8344 -16.1929  -6.2055  -6.1232  -6.0878
    -6.0437  -5.9520  -5.7575  -5.6482  -5.5957  -5.5057  -5.4596  -5.3445
    -5.0333  -4.7767  -4.7027  -4.5336  -4.4531  -4.2802  -4.0328  -3.8508
    -3.6444  -3.5629  -3.3467  -3.3055  -3.2273  -3.1278  -3.0386  -2.8722
    -2.7323  -2.5990  -2.4779  -2.2808  -2.1735  -2.0537  -1.9376  -1.6264
    -1.5445  -1.4039  -1.2615  -1.1212  -0.1309  -0.0838   0.1946   0.2497
     0.5373   0.6079   0.6385   0.7605   0.8092   0.9254   0.9577   1.2190
     1.6633   1.7389   1.8296   1.8788   2.0305   2.0595   2.4728   3.1747
     3.4829   3.6508   3.7496   4.0923   4.2913   5.1139   5.4465   5.5561

          k = 0.3750-0.2445 0.0000 ( 40856 PWs)   bands (ev):

   -73.4660 -72.7559 -72.5256 -72.3635 -72.3403 -72.0606 -44.0133 -43.4287
   -43.0567 -42.8982 -42.8330 -42.6912 -42.6201 -42.6089 -42.5968 -42.5433
   -42.3824 -42.3643 -42.3400 -42.2756 -42.2213 -42.1417 -42.1184 -41.8983
   -18.0397 -18.0274 -17.9873 -17.8969 -17.8436 -17.6423 -17.4842 -17.4557
   -17.4215 -17.3790 -17.0691 -16.8386 -16.1931  -6.2482  -6.0679  -5.9254
    -5.9095  -5.8543  -5.8079  -5.7459  -5.6804  -5.6669  -5.5519  -5.4034
    -4.9322  -4.7868  -4.5534  -4.4889  -4.2897  -4.2006  -4.0640  -3.7278
    -3.5406  -3.4397  -3.4068  -3.2740  -3.2518  -3.1523  -3.1019  -2.9730
    -2.7701  -2.7243  -2.3493  -2.2164  -2.1549  -2.0240  -1.8928  -1.8452
    -1.5850  -1.4290  -1.2804  -1.2513  -0.3257  -0.2625  -0.1027   0.3148
     0.4496   0.6072   0.6754   0.7685   0.8203   0.8783   1.0085   1.2096
     1.5696   1.7904   1.9508   1.9838   2.1128   2.2104   2.5711   2.7780
     3.2142   3.3179   3.5141   4.1170   4.2935   5.4931   5.5734   5.7968

          k = 0.3750-0.1223 0.0000 ( 40842 PWs)   bands (ev):

   -73.4660 -72.7559 -72.5256 -72.3636 -72.3403 -72.0606 -44.0133 -43.4282
   -43.0567 -42.8987 -42.8332 -42.6906 -42.6201 -42.6075 -42.5968 -42.5432
   -42.3827 -42.3658 -42.3395 -42.2756 -42.2213 -42.1419 -42.1192 -41.8983
   -18.0918 -17.9925 -17.9312 -17.8703 -17.8075 -17.6342 -17.5347 -17.4788
   -17.4406 -17.3913 -17.0705 -16.8344 -16.1929  -6.2055  -6.1232  -6.0878
    -6.0437  -5.9520  -5.7575  -5.6482  -5.5957  -5.5057  -5.4596  -5.3445
    -5.0333  -4.7767  -4.7027  -4.5336  -4.4531  -4.2802  -4.0328  -3.8508
    -3.6444  -3.5629  -3.3467  -3.3055  -3.2273  -3.1278  -3.0386  -2.8722
    -2.7323  -2.5990  -2.4779  -2.2808  -2.1735  -2.0537  -1.9376  -1.6264
    -1.5445  -1.4039  -1.2615  -1.1212  -0.1309  -0.0838   0.1946   0.2497
     0.5373   0.6079   0.6385   0.7605   0.8092   0.9254   0.9577   1.2190
     1.6633   1.7389   1.8296   1.8788   2.0305   2.0595   2.4728   3.1747
     3.4829   3.6508   3.7496   4.0923   4.2913   5.1139   5.4465   5.5561

          k =-0.5000 0.0000 0.0000 ( 40876 PWs)   bands (ev):

   -73.4645 -72.7543 -72.5241 -72.3620 -72.3387 -72.0590 -44.0116 -43.4525
   -43.0514 -42.9267 -42.8324 -42.6881 -42.6179 -42.6039 -42.5944 -42.5666
   -42.3984 -42.3738 -42.3639 -42.2734 -42.2182 -42.1463 -42.1379 -41.8938
   -17.9879 -17.8424 -17.8237 -17.7828 -17.7143 -17.6925 -17.6721 -17.6012
   -17.4670 -17.3993 -17.0004 -16.8038 -16.1561  -6.3291  -6.1399  -5.9798
    -5.7901  -5.7588  -5.6919  -5.5821  -5.5243  -5.5092  -5.4196  -5.3021
    -5.1556  -5.0255  -4.9098  -4.7292  -4.4986  -4.0837  -3.8167  -3.7855
    -3.6857  -3.6795  -3.6726  -3.5689  -3.4091  -2.9531  -2.8571  -2.7085
    -2.6015  -2.4686  -2.4552  -2.3557  -2.1539  -1.9803  -1.8308  -1.7152
    -1.6014  -1.2496  -1.1149  -0.9013  -0.2034   0.0815   0.0911   0.4633
     0.5323   0.5724   0.6395   0.6668   0.7210   0.7894   1.0309   1.1589
     1.3185   1.5022   1.8455   1.9292   2.1428   2.2489   2.3222   3.1984
     3.6519   4.0096   4.2132   4.2514   4.3636   4.5422   4.7518   4.9090

          k =-0.5000 0.1223 0.0000 ( 40858 PWs)   bands (ev):

   -73.4645 -72.7543 -72.5241 -72.3620 -72.3387 -72.0590 -44.0116 -43.4531
   -43.0521 -42.9260 -42.8317 -42.6889 -42.6180 -42.6061 -42.5944 -42.5668
   -42.3963 -42.3736 -42.3643 -42.2734 -42.2182 -42.1454 -42.1375 -41.8936
   -17.9806 -17.9604 -17.9552 -17.9092 -17.8465 -17.5447 -17.4698 -17.4656
   -17.4266 -17.4003 -17.0020 -16.8064 -16.1556  -6.2689  -6.2322  -6.1026
    -6.0994  -5.9997  -5.7533  -5.6645  -5.6048  -5.6014  -5.4006  -5.1724
    -5.0830  -4.8328  -4.5863  -4.4061  -4.1190  -3.8695  -3.8255  -3.7960
    -3.7590  -3.6447  -3.6292  -3.6063  -3.0080  -2.9374  -2.8167  -2.6092
    -2.5959  -2.5043  -2.4928  -2.2579  -2.1847  -2.1270  -1.8374  -1.6587
    -1.6255  -1.4965  -1.3054  -1.0870  -0.1972  -0.0374   0.0345   0.0920
     0.2084   0.4478   0.4920   0.5636   0.5921   0.6373   0.7429   1.1771
     1.8115   1.8503   2.0023   2.0131   2.1794   2.2000   2.4001   3.0165
     3.2463   3.4519   3.5773   4.0387   4.2158   5.3085   5.5941   5.6099

          k =-0.5000-0.2445 0.0000 ( 40872 PWs)   bands (ev):

   -73.4645 -72.7543 -72.5241 -72.3620 -72.3387 -72.0590 -44.0116 -43.4537
   -43.0528 -42.9253 -42.8311 -42.6897 -42.6180 -42.6083 -42.5943 -42.5669
   -42.3943 -42.3734 -42.3647 -42.2734 -42.2182 -42.1445 -42.1370 -41.8935
   -18.0481 -18.0337 -18.0003 -17.9727 -17.8513 -17.4645 -17.4639 -17.4015
   -17.3701 -17.3288 -17.0037 -16.8089 -16.1551  -6.4742  -6.2707  -6.2009
    -6.0978  -6.0615  -5.7503  -5.6696  -5.6677  -5.6378  -5.4917  -5.1702
    -5.0438  -4.9542  -4.1814  -4.1240  -3.9097  -3.8694  -3.8196  -3.5981
    -3.5860  -3.5184  -3.4119  -3.2434  -3.1713  -2.8927  -2.8529  -2.7939
    -2.6584  -2.4181  -2.3151  -2.1962  -2.1121  -1.9355  -1.9276  -1.7933
    -1.7541  -1.7198  -1.5844  -1.2659  -0.5109  -0.2331  -0.1950   0.0108
     0.1118   0.1898   0.4497   0.4703   0.6020   0.6366   0.7572   1.2157
     1.7465   1.9192   2.0391   2.1176   2.3580   2.3671   2.4539   2.6414
     3.0669   3.1895   3.2828   4.0659   4.2178   5.6872   5.7569   5.8192

          k =-0.5000-0.1223 0.0000 ( 40858 PWs)   bands (ev):

   -73.4645 -72.7543 -72.5241 -72.3620 -72.3387 -72.0590 -44.0116 -43.4531
   -43.0521 -42.9260 -42.8317 -42.6889 -42.6180 -42.6061 -42.5944 -42.5668
   -42.3963 -42.3736 -42.3643 -42.2734 -42.2182 -42.1454 -42.1375 -41.8936
   -17.9806 -17.9604 -17.9552 -17.9092 -17.8465 -17.5447 -17.4698 -17.4656
   -17.4266 -17.4003 -17.0020 -16.8064 -16.1556  -6.2689  -6.2322  -6.1026
    -6.0994  -5.9997  -5.7533  -5.6645  -5.6048  -5.6014  -5.4006  -5.1724
    -5.0830  -4.8328  -4.5863  -4.4061  -4.1190  -3.8695  -3.8255  -3.7960
    -3.7590  -3.6447  -3.6292  -3.6063  -3.0080  -2.9374  -2.8167  -2.6092
    -2.5959  -2.5043  -2.4928  -2.2579  -2.1847  -2.1270  -1.8374  -1.6587
    -1.6255  -1.4965  -1.3054  -1.0870  -0.1972  -0.0374   0.0345   0.0920
     0.2084   0.4478   0.4920   0.5636   0.5921   0.6373   0.7429   1.1771
     1.8115   1.8503   2.0023   2.0131   2.1794   2.2000   2.4001   3.0165
     3.2463   3.4519   3.5773   4.0387   4.2158   5.3085   5.5941   5.6099

          k =-0.3750 0.0000 0.0000 ( 40852 PWs)   bands (ev):

   -73.4660 -72.7559 -72.5256 -72.3636 -72.3403 -72.0606 -44.0133 -43.4276
   -43.0567 -42.8992 -42.8333 -42.6901 -42.6201 -42.6061 -42.5969 -42.5431
   -42.3831 -42.3673 -42.3391 -42.2756 -42.2213 -42.1421 -42.1199 -41.8983
   -18.1114 -17.9937 -17.8618 -17.8415 -17.7408 -17.6371 -17.6017 -17.5288
   -17.4476 -17.4039 -17.0716 -16.8305 -16.1927  -6.3356  -6.1678  -6.0459
    -6.0226  -5.8951  -5.8447  -5.6419  -5.6113  -5.4929  -5.3905  -5.2014
    -5.0414  -4.8252  -4.7856  -4.5775  -4.4145  -4.3588  -4.2021  -3.9657
    -3.6634  -3.4940  -3.4103  -3.3783  -3.3280  -3.1660  -3.0751  -2.8144
    -2.6606  -2.5888  -2.4291  -2.2703  -2.2092  -2.0252  -1.9463  -1.5132
    -1.3858  -1.3805  -1.2294  -0.9701  -0.1672   0.0260   0.2699   0.4760
     0.5885   0.6628   0.7581   0.7829   0.8639   1.0330   1.1505   1.2217
     1.3787   1.5218   1.6479   1.7939   1.9608   2.1501   2.3620   3.4175
     3.8008   4.0509   4.2737   4.3832   4.4814   4.5323   4.7767   4.9390

          k =-0.3750 0.1223 0.0000 ( 40842 PWs)   bands (ev):

   -73.4660 -72.7559 -72.5256 -72.3636 -72.3403 -72.0606 -44.0133 -43.4282
   -43.0567 -42.8987 -42.8332 -42.6906 -42.6201 -42.6075 -42.5968 -42.5432
   -42.3827 -42.3658 -42.3395 -42.2756 -42.2213 -42.1419 -42.1192 -41.8983
   -18.0918 -17.9925 -17.9312 -17.8703 -17.8075 -17.6342 -17.5347 -17.4788
   -17.4406 -17.3913 -17.0705 -16.8344 -16.1929  -6.2055  -6.1232  -6.0878
    -6.0437  -5.9520  -5.7575  -5.6482  -5.5957  -5.5057  -5.4596  -5.3445
    -5.0333  -4.7767  -4.7027  -4.5336  -4.4531  -4.2802  -4.0328  -3.8508
    -3.6444  -3.5629  -3.3467  -3.3055  -3.2273  -3.1278  -3.0386  -2.8722
    -2.7323  -2.5990  -2.4779  -2.2808  -2.1735  -2.0537  -1.9376  -1.6264
    -1.5445  -1.4039  -1.2615  -1.1212  -0.1309  -0.0838   0.1946   0.2497
     0.5373   0.6079   0.6385   0.7605   0.8092   0.9254   0.9577   1.2190
     1.6633   1.7389   1.8296   1.8788   2.0305   2.0595   2.4728   3.1747
     3.4829   3.6508   3.7496   4.0923   4.2913   5.1139   5.4465   5.5561

          k =-0.3750-0.2445 0.0000 ( 40856 PWs)   bands (ev):

   -73.4660 -72.7559 -72.5256 -72.3635 -72.3403 -72.0606 -44.0133 -43.4287
   -43.0567 -42.8982 -42.8330 -42.6912 -42.6201 -42.6089 -42.5968 -42.5433
   -42.3824 -42.3643 -42.3400 -42.2756 -42.2213 -42.1417 -42.1184 -41.8983
   -18.0397 -18.0274 -17.9873 -17.8969 -17.8436 -17.6423 -17.4842 -17.4557
   -17.4215 -17.3790 -17.0691 -16.8386 -16.1931  -6.2482  -6.0679  -5.9254
    -5.9095  -5.8543  -5.8079  -5.7459  -5.6804  -5.6669  -5.5519  -5.4034
    -4.9322  -4.7868  -4.5534  -4.4889  -4.2897  -4.2006  -4.0640  -3.7278
    -3.5406  -3.4397  -3.4068  -3.2740  -3.2518  -3.1523  -3.1019  -2.9730
    -2.7701  -2.7243  -2.3493  -2.2164  -2.1549  -2.0240  -1.8928  -1.8452
    -1.5850  -1.4290  -1.2804  -1.2513  -0.3257  -0.2625  -0.1027   0.3148
     0.4496   0.6072   0.6754   0.7685   0.8203   0.8783   1.0085   1.2096
     1.5696   1.7904   1.9508   1.9838   2.1128   2.2104   2.5711   2.7780
     3.2142   3.3179   3.5141   4.1170   4.2935   5.4931   5.5734   5.7968

          k =-0.3750-0.1223 0.0000 ( 40842 PWs)   bands (ev):

   -73.4660 -72.7559 -72.5256 -72.3636 -72.3403 -72.0606 -44.0133 -43.4282
   -43.0567 -42.8987 -42.8332 -42.6906 -42.6201 -42.6075 -42.5968 -42.5432
   -42.3827 -42.3658 -42.3395 -42.2756 -42.2213 -42.1419 -42.1192 -41.8983
   -18.0918 -17.9925 -17.9312 -17.8703 -17.8075 -17.6342 -17.5347 -17.4788
   -17.4406 -17.3913 -17.0705 -16.8344 -16.1929  -6.2055  -6.1232  -6.0878
    -6.0437  -5.9520  -5.7575  -5.6482  -5.5957  -5.5057  -5.4596  -5.3445
    -5.0333  -4.7767  -4.7027  -4.5336  -4.4531  -4.2802  -4.0328  -3.8508
    -3.6444  -3.5629  -3.3467  -3.3055  -3.2273  -3.1278  -3.0386  -2.8722
    -2.7323  -2.5990  -2.4779  -2.2808  -2.1735  -2.0537  -1.9376  -1.6264
    -1.5445  -1.4039  -1.2615  -1.1212  -0.1309  -0.0838   0.1946   0.2497
     0.5373   0.6079   0.6385   0.7605   0.8092   0.9254   0.9577   1.2190
     1.6633   1.7389   1.8296   1.8788   2.0305   2.0595   2.4728   3.1747
     3.4829   3.6508   3.7496   4.0923   4.2913   5.1139   5.4465   5.5561

          k =-0.2500 0.0000 0.0000 ( 40947 PWs)   bands (ev):

   -73.4696 -72.7598 -72.5293 -72.3672 -72.3439 -72.0643 -44.0175 -43.3671
   -43.0692 -42.8355 -42.8321 -42.6950 -42.6293 -42.6115 -42.6020 -42.4828
   -42.3905 -42.3066 -42.2924 -42.2672 -42.2289 -42.1521 -42.0553 -41.9090
   -18.4662 -18.2914 -18.1133 -17.9600 -17.7744 -17.5556 -17.4691 -17.4323
   -17.4073 -17.3434 -17.0612 -16.8643 -16.2204  -6.7644  -6.6176  -6.5838
    -6.2407  -5.9958  -5.9682  -5.8515  -5.8034  -5.4695  -5.4363  -5.0377
    -4.9732  -4.6369  -4.5295  -4.4942  -4.3202  -4.1362  -4.0303  -3.9858
    -3.7546  -3.6716  -3.3380  -3.1970  -3.1136  -2.9991  -2.8521  -2.7935
    -2.6752  -2.4812  -2.4028  -2.2329  -2.1819  -2.0956  -2.0423  -1.6170
    -1.4588  -1.2563  -1.2011  -0.9709  -0.2484  -0.1001   0.1937   0.4475
     0.5080   0.5836   0.7989   0.9718   1.0643   1.1576   1.1972   1.3220
     1.3668   1.4632   1.5175   1.6135   1.8567   2.1782   2.4880   3.9430
     4.1615   4.2264   4.3919   4.6641   4.7335   4.8052   4.8780   4.9597

          k =-0.2500 0.1223 0.0000 ( 40905 PWs)   bands (ev):

   -73.4696 -72.7598 -72.5293 -72.3672 -72.3440 -72.0643 -44.0175 -43.3675
   -43.0679 -42.8368 -42.8318 -42.6949 -42.6293 -42.6115 -42.6020 -42.4829
   -42.3905 -42.3055 -42.2927 -42.2677 -42.2289 -42.1526 -42.0550 -41.9095
   -18.3783 -18.1957 -18.0169 -18.0021 -17.7655 -17.6428 -17.5408 -17.4978
   -17.4617 -17.3864 -17.0512 -16.8713 -16.2199  -6.4545  -6.3267  -6.2656
    -6.2109  -5.9829  -5.8661  -5.8170  -5.6402  -5.5601  -5.3620  -5.0992
    -4.7913  -4.7253  -4.6556  -4.4998  -4.4477  -4.3512  -4.2290  -4.1329
    -3.9915  -3.5648  -3.5041  -3.3503  -3.2058  -3.1793  -3.0159  -2.9261
    -2.7564  -2.6483  -2.4334  -2.2544  -2.1660  -2.1120  -1.9330  -1.6060
    -1.4254  -1.2530  -1.1643  -1.0245  -0.2204   0.0959   0.4269   0.4631
     0.5731   0.8339   0.8921   0.9661   1.0550   1.1396   1.2044   1.2677
     1.3597   1.5184   1.5932   1.6648   1.7954   2.0596   2.6052   3.7059
     4.0279   4.1370   4.2374   4.3629   4.6632   4.7664   5.1955   5.3436

          k =-0.2500-0.2445 0.0000 ( 40892 PWs)   bands (ev):

   -73.4696 -72.7598 -72.5293 -72.3672 -72.3440 -72.0643 -44.0175 -43.3678
   -43.0666 -42.8378 -42.8318 -42.6947 -42.6293 -42.6114 -42.6020 -42.4830
   -42.3904 -42.3043 -42.2930 -42.2682 -42.2289 -42.1531 -42.0546 -41.9100
   -18.1966 -18.1511 -17.9668 -17.9215 -17.7687 -17.7545 -17.6924 -17.6202
   -17.5026 -17.3871 -17.0409 -16.8795 -16.2194  -6.2606  -6.0253  -5.9458
    -5.8392  -5.7929  -5.7905  -5.6578  -5.5546  -5.3179  -5.2907  -5.2211
    -5.0003  -4.9875  -4.9548  -4.7733  -4.5818  -4.4871  -4.2377  -4.0403
    -3.8152  -3.7490  -3.6490  -3.6102  -3.5117  -3.4743  -3.2868  -3.2681
    -2.9135  -2.7885  -2.3808  -2.2381  -1.9581  -1.8603  -1.6726  -1.6133
    -1.3375  -1.3023  -1.1365  -1.1101  -0.0098   0.0315   0.2628   0.5733
     0.5892   0.8602   1.0173   1.0903   1.1206   1.1445   1.2781   1.3813
     1.3944   1.5902   1.6533   1.7778   1.8175   1.9190   2.6974   3.3104
     3.7503   3.8347   4.0840   4.3491   4.6790   5.0563   5.2916   5.5741

          k =-0.2500-0.1223 0.0000 ( 40905 PWs)   bands (ev):

   -73.4696 -72.7598 -72.5293 -72.3672 -72.3440 -72.0643 -44.0175 -43.3675
   -43.0679 -42.8368 -42.8318 -42.6949 -42.6293 -42.6115 -42.6020 -42.4829
   -42.3905 -42.3055 -42.2927 -42.2677 -42.2289 -42.1526 -42.0550 -41.9095
   -18.3783 -18.1957 -18.0169 -18.0021 -17.7655 -17.6428 -17.5408 -17.4978
   -17.4617 -17.3864 -17.0512 -16.8713 -16.2199  -6.4545  -6.3267  -6.2656
    -6.2109  -5.9829  -5.8661  -5.8170  -5.6402  -5.5601  -5.3620  -5.0992
    -4.7913  -4.7253  -4.6556  -4.4998  -4.4477  -4.3512  -4.2290  -4.1329
    -3.9915  -3.5648  -3.5041  -3.3503  -3.2058  -3.1793  -3.0159  -2.9261
    -2.7564  -2.6483  -2.4334  -2.2544  -2.1660  -2.1120  -1.9330  -1.6060
    -1.4254  -1.2530  -1.1643  -1.0245  -0.2204   0.0959   0.4269   0.4631
     0.5731   0.8339   0.8921   0.9661   1.0550   1.1396   1.2044   1.2677
     1.3597   1.5184   1.5932   1.6648   1.7954   2.0596   2.6052   3.7059
     4.0279   4.1370   4.2374   4.3629   4.6632   4.7664   5.1955   5.3436

          k =-0.1250 0.0000 0.0000 ( 40851 PWs)   bands (ev):

   -73.4731 -72.7636 -72.5329 -72.3709 -72.3476 -72.0681 -44.0216 -43.3060
   -43.0815 -42.8378 -42.7641 -42.7000 -42.6398 -42.6170 -42.6072 -42.4209
   -42.4004 -42.2942 -42.2425 -42.2364 -42.2102 -42.1620 -41.9899 -41.9198
   -18.7926 -18.5805 -18.3818 -18.1318 -17.8925 -17.7586 -17.4064 -17.2757
   -17.2428 -17.1562 -16.9454 -16.8209 -16.1681  -7.2335  -7.0657  -7.0537
    -6.4391  -6.4197  -6.0467  -5.8050  -5.7472  -5.6286  -5.5639  -5.4578
    -5.1989  -5.0337  -4.9664  -4.4095  -4.0816  -4.0288  -3.4317  -3.2757
    -3.2365  -3.1578  -3.0798  -3.0509  -2.9036  -2.7444  -2.7156  -2.5632
    -2.4484  -2.3263  -2.1766  -2.1517  -2.0859  -2.0323  -1.8590  -1.7259
    -1.5838  -1.1141  -1.0660  -0.7196  -0.4168  -0.2105   0.0163   0.0596
     0.1441   0.3267   0.4578   0.5175   0.6841   0.6923   1.1419   1.2126
     1.3333   1.4366   1.6467   1.8710   2.1429   2.3567   2.5595   3.6973
     4.3341   4.7553   4.7602   4.8825   5.0516   5.3529   5.3989   5.4561

          k =-0.1250 0.1223 0.0000 ( 40932 PWs)   bands (ev):

   -73.4731 -72.7636 -72.5329 -72.3708 -72.3476 -72.0681 -44.0216 -43.3061
   -43.0791 -42.8403 -42.7641 -42.6992 -42.6398 -42.6157 -42.6072 -42.4209
   -42.4003 -42.2942 -42.2419 -42.2364 -42.2110 -42.1634 -41.9898 -41.9207
   -18.6776 -18.4552 -18.2607 -18.1816 -17.8943 -17.7993 -17.4425 -17.3912
   -17.3395 -17.3186 -16.9267 -16.8333 -16.1658  -6.8363  -6.6470  -6.6134
    -6.4433  -6.3994  -5.9513  -5.7595  -5.6894  -5.6367  -5.5297  -5.2455
    -5.1958  -5.0353  -4.8435  -4.4475  -4.2051  -4.0158  -3.9920  -3.6994
    -3.4657  -3.4383  -3.3519  -3.3268  -3.1781  -3.1278  -3.0391  -2.8188
    -2.6298  -2.5198  -2.3278  -2.2019  -2.0721  -1.9921  -1.7444  -1.5596
    -1.4306  -1.0741  -0.9906  -0.7935  -0.0664   0.1672   0.1948   0.2688
     0.3780   0.4403   0.6663   0.7377   0.7951   0.8791   1.1418   1.2303
     1.3576   1.4619   1.6666   1.7200   1.9239   2.3092   2.5771   4.0113
     4.3991   4.7326   4.8272   4.8508   4.9977   5.1962   5.2545   5.3678

          k =-0.1250-0.2445 0.0000 ( 40974 PWs)   bands (ev):

   -73.4731 -72.7636 -72.5329 -72.3708 -72.3477 -72.0681 -44.0216 -43.3062
   -43.0767 -42.8427 -42.7641 -42.6984 -42.6398 -42.6144 -42.6072 -42.4209
   -42.4003 -42.2943 -42.2412 -42.2364 -42.2119 -42.1647 -41.9898 -41.9217
   -18.4388 -18.3876 -18.2247 -18.0264 -17.9753 -17.8874 -17.5629 -17.5432
   -17.4793 -17.3698 -16.8965 -16.8599 -16.1639  -6.4794  -6.4460  -6.1344
    -5.9313  -5.8316  -5.7654  -5.7480  -5.6780  -5.6467  -5.6376  -5.2336
    -5.0604  -4.8934  -4.7762  -4.6229  -4.4683  -4.3083  -4.1669  -4.1391
    -4.0988  -3.9955  -3.8719  -3.7876  -3.4461  -3.3707  -3.2641  -2.8541
    -2.7210  -2.6254  -2.3218  -2.2290  -1.9377  -1.7665  -1.5528  -1.4038
    -1.1560  -1.0903  -1.0088  -0.9868   0.1786   0.1957   0.2940   0.3966
     0.5325   0.5765   0.7836   1.1049   1.1255   1.1373   1.2053   1.2518
     1.4029   1.4295   1.5300   1.6500   1.9217   1.9968   2.7238   4.0807
     4.4225   4.5445   4.7145   4.8295   5.0708   5.0942   5.2935   5.4217

          k =-0.1250-0.1223 0.0000 ( 40932 PWs)   bands (ev):

   -73.4731 -72.7636 -72.5329 -72.3708 -72.3476 -72.0681 -44.0216 -43.3061
   -43.0791 -42.8403 -42.7641 -42.6992 -42.6398 -42.6157 -42.6072 -42.4209
   -42.4003 -42.2942 -42.2419 -42.2364 -42.2110 -42.1634 -41.9898 -41.9207
   -18.6776 -18.4552 -18.2607 -18.1816 -17.8943 -17.7993 -17.4425 -17.3912
   -17.3395 -17.3186 -16.9267 -16.8333 -16.1658  -6.8363  -6.6470  -6.6134
    -6.4433  -6.3994  -5.9513  -5.7595  -5.6894  -5.6367  -5.5297  -5.2455
    -5.1958  -5.0353  -4.8435  -4.4475  -4.2051  -4.0158  -3.9920  -3.6994
    -3.4657  -3.4383  -3.3519  -3.3268  -3.1781  -3.1278  -3.0391  -2.8188
    -2.6298  -2.5198  -2.3278  -2.2019  -2.0721  -1.9921  -1.7444  -1.5596
    -1.4306  -1.0741  -0.9906  -0.7935  -0.0664   0.1672   0.1948   0.2688
     0.3780   0.4403   0.6663   0.7377   0.7951   0.8791   1.1418   1.2303
     1.3576   1.4619   1.6666   1.7200   1.9239   2.3092   2.5771   4.0113
     4.3991   4.7326   4.8272   4.8508   4.9977   5.1962   5.2545   5.3678

     the Fermi energy is     1.1957 ev

!    total energy              =   -1672.25366893 Ry
     estimated scf accuracy    <       0.00000003 Ry
     smearing contrib. (-TS)   =      -0.00181860 Ry
     internal energy E=F+TS    =   -1672.25185033 Ry

     The total energy is F=E-TS. E is the sum of the following terms:
     one-electron contribution =  -16950.29966574 Ry
     hartree contribution      =    8497.18013032 Ry
     xc contribution           =    -214.02480957 Ry
     ewald contribution        =    7118.67998623 Ry
     one-center paw contrib.   =    -123.78749157 Ry

     convergence has been achieved in  11 iterations

     negative rho (up, down):  1.106E-04 0.000E+00

     Forces acting on atoms (cartesian axes, Ry/au):

     atom    1 type  1   force =    -0.00000001   -0.00035757    0.07140295
     atom    2 type  1   force =    -0.00000000   -0.00020208   -0.09055795
     atom    3 type  1   force =    -0.00000001    0.00009449    0.00040398
     atom    4 type  1   force =    -0.00000008   -0.00212109   -0.00235097
     atom    5 type  1   force =    -0.00000003   -0.00010197    0.00466965
     atom    6 type  1   force =     0.00000004    0.00598175    0.00066627
     atom    7 type  2   force =    -0.00000000    0.00041555    0.01911576
     atom    8 type  2   force =    -0.00000000    0.00026558    0.06201431
     atom    9 type  2   force =     0.00000000    0.02411538   -0.02505971
     atom   10 type  2   force =     0.00000000   -0.02432277   -0.02461263
     atom   11 type  2   force =    -0.00000003   -0.00101317   -0.00113438
     atom   12 type  2   force =     0.00000006    0.00111170   -0.00784761
     atom   13 type  2   force =     0.00000005    0.00049112    0.00031735
     atom   14 type  2   force =    -0.00000002   -0.00003304   -0.00132082
     atom   15 type  2   force =     0.00000000   -0.00137068   -0.00234847
     atom   16 type  2   force =     0.00000004    0.00594861    0.00028851
     atom   17 type  2   force =     0.00000000   -0.00237800   -0.00078558
     atom   18 type  2   force =     0.00000001   -0.00118261    0.00176147
     atom   19 type  2   force =    -0.00000003   -0.00534118   -0.00462214

     Total force =     0.013273     Total SCF correction =     0.001042
     Energy error            =      9.3E-04 Ry
     Gradient error          =      6.0E-03 Ry/Bohr

     number of scf cycles    =   6
     number of bfgs steps    =   5

     energy             old  =   -1672.2527423630 Ry
     energy             new  =   -1672.2536689320 Ry

     CASE: energy            _new < energy            _old

     new trust radius        =       0.0205098340 bohr
     new conv_thr            =       0.0000000299 Ry


ATOMIC_POSITIONS (angstrom)
Ru               0.0000000000        1.5881618300        9.5289709800    0   0   0
Ru               1.5535000000        4.7644854900        9.5289709800    0   0   0
Ru              -0.0000000552        4.7718147271       12.7213092016
Ru               1.5535001542        1.5952395698       12.7127397174
Ru               0.0000000532        1.6184028170       16.0598030667
Ru               1.5534997804        4.7706566216       15.9527082249
O                0.0000000000        4.7644854900       10.7677372100    0   0   0
O                0.0000000000        4.7644854900        8.2902047600    0   0   0
O                1.5535000000        0.3493956000        9.5289709800    0   0   0
O                1.5535000000        2.8269280600        9.5289709800    0   0   0
O                0.0000001613        1.5747352621       13.9856484412
O                0.0000000000        1.5881618300       11.4665284200    0   0   0
O                1.5534999511        3.5360664926       12.7071381064
O                1.5534999754        6.0052314399       12.7122575985
O               -0.0000001569        4.7722394878       17.0585046982
O               -0.0000002321        4.7814249270       14.6514123974
O                1.5534999888        0.3932268647       15.9485492266
O                1.5535000024        2.8277551846       15.7740025825
O                0.0000003231        1.8243125681       17.7471079413



     Writing config-only to output data dir ./tmp_s0_O__1x1_off/s0_O__1x1_off.save/ :
     XML data file
     NEW-OLD atomic charge density approx. for the potential

     negative rho (up, down):  1.106E-04 0.000E+00

     total cpu time spent up to now is     8772.3 secs

     per-process dynamical memory:  1113.7 Mb

     Self-consistent Calculation

     iteration #  1     ecut=    80.00 Ry     beta= 0.30
     Davidson diagonalization with overlap
     ethr =  1.00E-06,  avg # of iterations =  3.7

     negative rho (up, down):  1.056E-04 0.000E+00

     total cpu time spent up to now is     8937.0 secs

     total energy              =   -1672.25382379 Ry
     estimated scf accuracy    <       0.00026589 Ry

     iteration #  2     ecut=    80.00 Ry     beta= 0.30
     Davidson diagonalization with overlap
     ethr =  1.53E-07,  avg # of iterations =  1.2

     negative rho (up, down):  1.036E-04 0.000E+00

     total cpu time spent up to now is     9039.9 secs

     total energy              =   -1672.25382785 Ry
     estimated scf accuracy    <       0.00011579 Ry

     iteration #  3     ecut=    80.00 Ry     beta= 0.30
     Davidson diagonalization with overlap
     ethr =  6.65E-08,  avg # of iterations =  1.2

     negative rho (up, down):  9.933E-05 0.000E+00

     total cpu time spent up to now is     9143.5 secs

     total energy              =   -1672.25382716 Ry
     estimated scf accuracy    <       0.00003320 Ry

     iteration #  4     ecut=    80.00 Ry     beta= 0.30
     Davidson diagonalization with overlap
     ethr =  1.91E-08,  avg # of iterations =  1.9

     negative rho (up, down):  9.308E-05 0.000E+00

     total cpu time spent up to now is     9249.6 secs

     total energy              =   -1672.25382613 Ry
     estimated scf accuracy    <       0.00000854 Ry

     iteration #  5     ecut=    80.00 Ry     beta= 0.30
     Davidson diagonalization with overlap
     ethr =  4.91E-09,  avg # of iterations =  3.1

     negative rho (up, down):  9.153E-05 0.000E+00

     total cpu time spent up to now is     9366.8 secs

     total energy              =   -1672.25382689 Ry
     estimated scf accuracy    <       0.00000199 Ry

     iteration #  6     ecut=    80.00 Ry     beta= 0.30
     Davidson diagonalization with overlap
     ethr =  1.15E-09,  avg # of iterations =  2.5

     negative rho (up, down):  8.963E-05 0.000E+00

     total cpu time spent up to now is     9476.7 secs

     total energy              =   -1672.25382689 Ry
     estimated scf accuracy    <       0.00000105 Ry

     iteration #  7     ecut=    80.00 Ry     beta= 0.30
     Davidson diagonalization with overlap
     ethr =  6.01E-10,  avg # of iterations =  1.3

     negative rho (up, down):  8.787E-05 0.000E+00

     total cpu time spent up to now is     9582.8 secs

     total energy              =   -1672.25382688 Ry
     estimated scf accuracy    <       0.00000048 Ry

     iteration #  8     ecut=    80.00 Ry     beta= 0.30
     Davidson diagonalization with overlap
     ethr =  2.74E-10,  avg # of iterations =  2.0

     negative rho (up, down):  8.749E-05 0.000E+00

     total cpu time spent up to now is     9693.0 secs

     total energy              =   -1672.25382689 Ry
     estimated scf accuracy    <       0.00000017 Ry

     iteration #  9     ecut=    80.00 Ry     beta= 0.30
     Davidson diagonalization with overlap
     ethr =  9.61E-11,  avg # of iterations =  1.9

     negative rho (up, down):  8.861E-05 0.000E+00

     total cpu time spent up to now is     9800.0 secs

     total energy              =   -1672.25382689 Ry
     estimated scf accuracy    <       0.00000006 Ry

     iteration # 10     ecut=    80.00 Ry     beta= 0.30
     Davidson diagonalization with overlap
     ethr =  3.72E-11,  avg # of iterations =  1.4

     negative rho (up, down):  1.106E-04 0.000E+00

     total cpu time spent up to now is     9899.8 secs

     End of self-consistent calculation

          k = 0.0000 0.0000 0.0000 ( 40831 PWs)   bands (ev):

   -73.4771 -72.7673 -72.5349 -72.3720 -72.3498 -72.0694 -44.0287 -43.2824
   -43.0883 -42.8391 -42.7394 -42.7024 -42.6460 -42.6191 -42.6114 -42.4049
   -42.3954 -42.2966 -42.2386 -42.2166 -42.1844 -42.1667 -41.9625 -41.9241
   -18.9211 -18.6964 -18.4908 -18.2206 -17.9700 -17.8407 -17.4021 -17.1997
   -17.1661 -17.0765 -16.9061 -16.7699 -16.1276  -7.4142  -7.2426  -7.2327
    -6.6172  -6.4383  -6.0034  -5.7575  -5.7479  -5.6981  -5.6304  -5.5379
    -5.4710  -5.3104  -5.1829  -4.5841  -4.1723  -3.5640  -3.3926  -3.1935
    -3.0679  -2.9660  -2.9216  -2.7830  -2.7130  -2.6676  -2.6569  -2.5029
    -2.3668  -2.2630  -2.1783  -1.9971  -1.9540  -1.6793  -1.4651  -1.4234
    -1.2753  -1.1604  -0.7586  -0.7280  -0.5312  -0.4675  -0.2305  -0.2081
    -0.1442  -0.1432   0.2653   0.3283   0.4538   0.5240   0.9875   1.1003
     1.2425   1.4290   1.7659   2.0204   2.2254   2.2828   2.7020   3.5192
     4.2147   4.7082   5.0342   5.1922   5.4074   5.5061   5.7163   5.7698

          k = 0.0000 0.1223 0.0000 ( 40974 PWs)   bands (ev):

   -73.4771 -72.7673 -72.5349 -72.3719 -72.3499 -72.0694 -44.0287 -43.2824
   -43.0855 -42.8421 -42.7394 -42.7014 -42.6460 -42.6173 -42.6114 -42.4049
   -42.3953 -42.2967 -42.2386 -42.2160 -42.1850 -42.1686 -41.9625 -41.9253
   -18.7998 -18.5647 -18.3676 -18.2707 -17.9866 -17.8729 -17.4169 -17.3288
   -17.2893 -17.2543 -16.8881 -16.7806 -16.1247  -7.0041  -6.7959  -6.7703
    -6.6093  -6.4272  -5.9333  -5.7469  -5.6403  -5.6182  -5.5496  -5.4674
    -5.4548  -5.3098  -4.9933  -4.6258  -4.2259  -4.0311  -3.7660  -3.6080
    -3.5395  -3.4004  -3.2642  -2.9054  -2.8713  -2.8689  -2.7473  -2.6815
    -2.5839  -2.3760  -2.2081  -2.1592  -2.0892  -1.7149  -1.6446  -1.6065
    -1.3625  -1.1396  -0.9070  -0.7070  -0.0719  -0.0466   0.1276   0.2489
     0.3387   0.3791   0.4200   0.5058   0.5323   0.6084   0.9762   1.0658
     1.2992   1.4745   1.7564   1.8291   2.0245   2.3574   2.5778   3.9086
     4.6332   4.7991   4.8851   5.1923   5.4197   5.4590   5.4980   5.5386

          k = 0.0000-0.2445 0.0000 ( 41014 PWs)   bands (ev):

   -73.4771 -72.7673 -72.5349 -72.3718 -72.3500 -72.0694 -44.0287 -43.2824
   -43.0826 -42.8451 -42.7395 -42.7004 -42.6460 -42.6156 -42.6113 -42.4048
   -42.3953 -42.2967 -42.2386 -42.2154 -42.1856 -42.1706 -41.9626 -41.9265
   -18.5478 -18.4976 -18.3301 -18.1194 -18.0707 -17.9671 -17.5015 -17.4767
   -17.4350 -17.3645 -16.8632 -16.8019 -16.1224  -6.6634  -6.4655  -6.3498
    -6.0265  -5.9823  -5.8537  -5.7476  -5.6158  -5.5321  -5.4638  -5.4562
    -5.3038  -5.0616  -4.9275  -4.6174  -4.5993  -4.5000  -4.4812  -4.3497
    -4.2569  -3.6715  -3.4868  -3.3489  -3.1467  -3.1213  -2.9745  -2.7116
    -2.5921  -2.4668  -2.2251  -2.1223  -1.9632  -1.7106  -1.6453  -1.4067
    -1.1900  -1.0922  -0.9976  -0.9910   0.1846   0.1892   0.2763   0.3879
     0.5044   0.6653   0.7914   0.8107   0.8839   0.9134   1.0376   1.1087
     1.2055   1.5390   1.5525   1.6015   2.0073   2.1132   2.7067   4.3309
     4.5376   4.8190   5.1687   5.1798   5.1947   5.2469   5.5151   5.6547

          k = 0.0000-0.1223 0.0000 ( 40974 PWs)   bands (ev):

   -73.4771 -72.7673 -72.5349 -72.3719 -72.3499 -72.0694 -44.0287 -43.2824
   -43.0855 -42.8421 -42.7394 -42.7014 -42.6460 -42.6173 -42.6114 -42.4049
   -42.3953 -42.2967 -42.2386 -42.2160 -42.1850 -42.1686 -41.9625 -41.9253
   -18.7998 -18.5647 -18.3676 -18.2707 -17.9866 -17.8729 -17.4169 -17.3288
   -17.2893 -17.2543 -16.8881 -16.7806 -16.1247  -7.0041  -6.7959  -6.7703
    -6.6093  -6.4272  -5.9333  -5.7469  -5.6403  -5.6182  -5.5496  -5.4674
    -5.4548  -5.3098  -4.9933  -4.6258  -4.2259  -4.0311  -3.7660  -3.6080
    -3.5395  -3.4004  -3.2642  -2.9054  -2.8713  -2.8689  -2.7473  -2.6815
    -2.5839  -2.3760  -2.2081  -2.1592  -2.0892  -1.7149  -1.6446  -1.6065
    -1.3625  -1.1396  -0.9070  -0.7070  -0.0719  -0.0466   0.1276   0.2489
     0.3387   0.3791   0.4200   0.5058   0.5323   0.6084   0.9762   1.0658
     1.2992   1.4745   1.7564   1.8291   2.0245   2.3574   2.5778   3.9086
     4.6332   4.7991   4.8851   5.1923   5.4197   5.4590   5.4980   5.5386

          k = 0.1250 0.0000 0.0000 ( 40851 PWs)   bands (ev):

   -73.4756 -72.7657 -72.5334 -72.3705 -72.3483 -72.0678 -44.0269 -43.3079
   -43.0832 -42.8381 -42.7680 -42.7004 -42.6415 -42.6168 -42.6091 -42.4213
   -42.4008 -42.2938 -42.2433 -42.2357 -42.2101 -42.1626 -41.9898 -41.9197
   -18.7928 -18.5798 -18.3818 -18.1345 -17.8949 -17.7605 -17.4124 -17.2746
   -17.2424 -17.1562 -16.9465 -16.8242 -16.1686  -7.2310  -7.0661  -7.0540
    -6.4412  -6.4218  -6.0441  -5.8062  -5.7497  -5.6291  -5.5665  -5.4591
    -5.2030  -5.0347  -4.9696  -4.4145  -4.0858  -4.0307  -3.4349  -3.2777
    -3.2367  -3.1571  -3.0801  -3.0502  -2.9045  -2.7433  -2.7192  -2.5642
    -2.4585  -2.3283  -2.1766  -2.1517  -2.0821  -2.0366  -1.8602  -1.7247
    -1.5835  -1.1146  -1.0668  -0.7207  -0.4155  -0.2150   0.0170   0.0587
     0.1437   0.3267   0.4575   0.5172   0.6835   0.6926   1.1431   1.2109
     1.3327   1.4375   1.6455   1.8700   2.1424   2.3572   2.5594   3.6990
     4.3348   4.7542   4.7595   4.8836   5.0521   5.3538   5.3991   5.4560

          k = 0.1250 0.1223 0.0000 ( 40932 PWs)   bands (ev):

   -73.4756 -72.7657 -72.5333 -72.3704 -72.3484 -72.0678 -44.0269 -43.3080
   -43.0808 -42.8405 -42.7680 -42.6996 -42.6415 -42.6155 -42.6091 -42.4213
   -42.4008 -42.2939 -42.2427 -42.2357 -42.2109 -42.1639 -41.9897 -41.9207
   -18.6780 -18.4546 -18.2608 -18.1840 -17.8970 -17.8003 -17.4462 -17.3915
   -17.3398 -17.3188 -16.9280 -16.8365 -16.1663  -6.8344  -6.6476  -6.6138
    -6.4452  -6.4013  -5.9488  -5.7624  -5.6903  -5.6383  -5.5301  -5.2486
    -5.1992  -5.0362  -4.8460  -4.4521  -4.2091  -4.0159  -3.9947  -3.6994
    -3.4666  -3.4383  -3.3540  -3.3267  -3.1783  -3.1290  -3.0463  -2.8204
    -2.6325  -2.5209  -2.3283  -2.2036  -2.0723  -1.9937  -1.7451  -1.5598
    -1.4309  -1.0749  -0.9911  -0.7932  -0.0677   0.1675   0.1940   0.2677
     0.3773   0.4400   0.6660   0.7379   0.7947   0.8790   1.1417   1.2289
     1.3571   1.4624   1.6658   1.7198   1.9236   2.3094   2.5773   4.0122
     4.3968   4.7328   4.8273   4.8526   4.9979   5.1965   5.2551   5.3690

          k = 0.1250-0.2445 0.0000 ( 40974 PWs)   bands (ev):

   -73.4756 -72.7657 -72.5333 -72.3703 -72.3484 -72.0678 -44.0269 -43.3081
   -43.0784 -42.8430 -42.7679 -42.6988 -42.6415 -42.6142 -42.6091 -42.4213
   -42.4007 -42.2939 -42.2420 -42.2357 -42.2117 -42.1652 -41.9897 -41.9216
   -18.4395 -18.3893 -18.2238 -18.0289 -17.9759 -17.8878 -17.5632 -17.5442
   -17.4797 -17.3738 -16.8974 -16.8636 -16.1644  -6.4810  -6.4487  -6.1324
    -5.9290  -5.8336  -5.7658  -5.7499  -5.6792  -5.6474  -5.6379  -5.2381
    -5.0616  -4.8945  -4.7773  -4.6260  -4.4703  -4.3128  -4.1682  -4.1396
    -4.0964  -3.9967  -3.8721  -3.7894  -3.4521  -3.3724  -3.2678  -2.8563
    -2.7233  -2.6281  -2.3201  -2.2314  -1.9383  -1.7680  -1.5541  -1.4046
    -1.1568  -1.0906  -1.0085  -0.9862   0.1781   0.1945   0.2935   0.3960
     0.5325   0.5767   0.7838   1.1037   1.1248   1.1374   1.2049   1.2516
     1.4028   1.4282   1.5298   1.6501   1.9216   1.9972   2.7241   4.0777
     4.4224   4.5456   4.7144   4.8314   5.0701   5.0970   5.2929   5.4231

          k = 0.1250-0.1223 0.0000 ( 40932 PWs)   bands (ev):

   -73.4756 -72.7657 -72.5333 -72.3704 -72.3484 -72.0678 -44.0269 -43.3080
   -43.0808 -42.8405 -42.7680 -42.6996 -42.6415 -42.6155 -42.6091 -42.4213
   -42.4008 -42.2939 -42.2427 -42.2357 -42.2109 -42.1639 -41.9897 -41.9207
   -18.6780 -18.4546 -18.2608 -18.1840 -17.8970 -17.8003 -17.4462 -17.3915
   -17.3398 -17.3188 -16.9280 -16.8365 -16.1663  -6.8344  -6.6476  -6.6138
    -6.4452  -6.4013  -5.9488  -5.7624  -5.6903  -5.6383  -5.5301  -5.2486
    -5.1992  -5.0362  -4.8460  -4.4521  -4.2091  -4.0159  -3.9947  -3.6994
    -3.4666  -3.4383  -3.3540  -3.3267  -3.1783  -3.1290  -3.0463  -2.8204
    -2.6325  -2.5209  -2.3283  -2.2036  -2.0723  -1.9937  -1.7451  -1.5598
    -1.4309  -1.0749  -0.9911  -0.7932  -0.0677   0.1675   0.1940   0.2677
     0.3773   0.4400   0.6660   0.7379   0.7947   0.8790   1.1417   1.2289
     1.3571   1.4624   1.6658   1.7198   1.9236   2.3094   2.5773   4.0122
     4.3968   4.7328   4.8273   4.8526   4.9979   5.1965   5.2551   5.3690

          k = 0.2500 0.0000 0.0000 ( 40947 PWs)   bands (ev):

   -73.4721 -72.7618 -72.5297 -72.3668 -72.3447 -72.0641 -44.0228 -43.3689
   -43.0709 -42.8363 -42.8355 -42.6954 -42.6308 -42.6113 -42.6041 -42.4833
   -42.3909 -42.3074 -42.2922 -42.2670 -42.2281 -42.1527 -42.0553 -41.9090
   -18.4667 -18.2906 -18.1134 -17.9628 -17.7755 -17.5582 -17.4701 -17.4334
   -17.4069 -17.3431 -17.0661 -16.8666 -16.2208  -6.7618  -6.6180  -6.5840
    -6.2432  -5.9956  -5.9680  -5.8528  -5.8044  -5.4700  -5.4384  -5.0404
    -4.9758  -4.6395  -4.5324  -4.4982  -4.3245  -4.1390  -4.0299  -3.9861
    -3.7541  -3.6727  -3.3381  -3.1965  -3.1179  -3.0013  -2.8530  -2.7947
    -2.6769  -2.4816  -2.4030  -2.2345  -2.1857  -2.0999  -2.0437  -1.6165
    -1.4607  -1.2572  -1.2017  -0.9711  -0.2481  -0.0991   0.1903   0.4472
     0.5088   0.5835   0.7985   0.9716   1.0641   1.1586   1.1970   1.3221
     1.3667   1.4642   1.5130   1.6138   1.8562   2.1781   2.4887   3.9434
     4.1646   4.2214   4.3918   4.6637   4.7349   4.8053   4.8778   4.9597

          k = 0.2500 0.1223 0.0000 ( 40905 PWs)   bands (ev):

   -73.4721 -72.7618 -72.5297 -72.3668 -72.3447 -72.0641 -44.0228 -43.3692
   -43.0696 -42.8373 -42.8355 -42.6953 -42.6308 -42.6112 -42.6041 -42.4834
   -42.3909 -42.3063 -42.2925 -42.2675 -42.2281 -42.1532 -42.0549 -41.9094
   -18.3790 -18.1951 -18.0174 -18.0041 -17.7668 -17.6431 -17.5415 -17.4994
   -17.4612 -17.3883 -17.0563 -16.8733 -16.2203  -6.4532  -6.3273  -6.2659
    -6.2127  -5.9845  -5.8658  -5.8161  -5.6414  -5.5618  -5.3627  -5.1013
    -4.7945  -4.7270  -4.6583  -4.5012  -4.4486  -4.3519  -4.2321  -4.1362
    -3.9949  -3.5666  -3.5049  -3.3513  -3.2067  -3.1794  -3.0163  -2.9266
    -2.7596  -2.6511  -2.4345  -2.2569  -2.1693  -2.1142  -1.9326  -1.6057
    -1.4266  -1.2538  -1.1655  -1.0246  -0.2205   0.0967   0.4245   0.4629
     0.5737   0.8335   0.8919   0.9658   1.0547   1.1395   1.2039   1.2671
     1.3593   1.5181   1.5925   1.6649   1.7949   2.0595   2.6057   3.7029
     4.0282   4.1373   4.2372   4.3642   4.6625   4.7670   5.1962   5.3446

          k = 0.2500-0.2445 0.0000 ( 40892 PWs)   bands (ev):

   -73.4721 -72.7618 -72.5297 -72.3667 -72.3447 -72.0641 -44.0228 -43.3696
   -43.0683 -42.8381 -42.8357 -42.6951 -42.6308 -42.6111 -42.6041 -42.4834
   -42.3909 -42.3052 -42.2928 -42.2680 -42.2281 -42.1537 -42.0545 -41.9099
   -18.1987 -18.1521 -17.9667 -17.9212 -17.7705 -17.7522 -17.6932 -17.6212
   -17.5039 -17.3897 -17.0464 -16.8812 -16.2198  -6.2634  -6.0276  -5.9445
    -5.8398  -5.7930  -5.7911  -5.6595  -5.5527  -5.3191  -5.2919  -5.2210
    -4.9995  -4.9885  -4.9560  -4.7766  -4.5839  -4.4894  -4.2408  -4.0438
    -3.8190  -3.7511  -3.6479  -3.6100  -3.5126  -3.4816  -3.2867  -3.2683
    -2.9189  -2.7885  -2.3815  -2.2421  -1.9573  -1.8624  -1.6728  -1.6142
    -1.3373  -1.3023  -1.1384  -1.1110  -0.0084   0.0300   0.2631   0.5722
     0.5900   0.8591   1.0166   1.0913   1.1201   1.1429   1.2774   1.3808
     1.3942   1.5901   1.6525   1.7781   1.8172   1.9186   2.6979   3.3072
     3.7505   3.8345   4.0837   4.3509   4.6787   5.0555   5.2957   5.5738

          k = 0.2500-0.1223 0.0000 ( 40905 PWs)   bands (ev):

   -73.4721 -72.7618 -72.5297 -72.3668 -72.3447 -72.0641 -44.0228 -43.3692
   -43.0696 -42.8373 -42.8355 -42.6953 -42.6308 -42.6112 -42.6041 -42.4834
   -42.3909 -42.3063 -42.2925 -42.2675 -42.2281 -42.1532 -42.0549 -41.9094
   -18.3790 -18.1951 -18.0174 -18.0041 -17.7668 -17.6431 -17.5415 -17.4994
   -17.4612 -17.3883 -17.0563 -16.8733 -16.2203  -6.4532  -6.3273  -6.2659
    -6.2127  -5.9845  -5.8658  -5.8161  -5.6414  -5.5618  -5.3627  -5.1013
    -4.7945  -4.7270  -4.6583  -4.5012  -4.4486  -4.3519  -4.2321  -4.1362
    -3.9949  -3.5666  -3.5049  -3.3513  -3.2067  -3.1794  -3.0163  -2.9266
    -2.7596  -2.6511  -2.4345  -2.2569  -2.1693  -2.1142  -1.9326  -1.6057
    -1.4266  -1.2538  -1.1655  -1.0246  -0.2205   0.0967   0.4245   0.4629
     0.5737   0.8335   0.8919   0.9658   1.0547   1.1395   1.2039   1.2671
     1.3593   1.5181   1.5925   1.6649   1.7949   2.0595   2.6057   3.7029
     4.0282   4.1373   4.2372   4.3642   4.6625   4.7670   5.1962   5.3446

          k = 0.3750 0.0000 0.0000 ( 40852 PWs)   bands (ev):

   -73.4685 -72.7580 -72.5261 -72.3631 -72.3410 -72.0603 -44.0186 -43.4294
   -43.0584 -42.9032 -42.8335 -42.6905 -42.6212 -42.6059 -42.5993 -42.5436
   -42.3836 -42.3680 -42.3390 -42.2752 -42.2206 -42.1427 -42.1198 -41.8982
   -18.1130 -17.9934 -17.8639 -17.8421 -17.7412 -17.6350 -17.6016 -17.5290
   -17.4479 -17.4067 -17.0781 -16.8329 -16.1931  -6.3327  -6.1683  -6.0467
    -6.0228  -5.8962  -5.8447  -5.6428  -5.6139  -5.4946  -5.3931  -5.2026
    -5.0446  -4.8258  -4.7873  -4.5782  -4.4168  -4.3616  -4.2041  -3.9657
    -3.6642  -3.4948  -3.4108  -3.3791  -3.3303  -3.1658  -3.0787  -2.8147
    -2.6620  -2.5921  -2.4316  -2.2710  -2.2111  -2.0283  -1.9498  -1.5164
    -1.3848  -1.3803  -1.2303  -0.9706  -0.1658   0.0242   0.2692   0.4754
     0.5866   0.6624   0.7572   0.7815   0.8637   1.0320   1.1505   1.2214
     1.3796   1.5221   1.6488   1.7922   1.9614   2.1495   2.3628   3.4158
     3.7979   4.0524   4.2725   4.3831   4.4812   4.5326   4.7770   4.9388

          k = 0.3750 0.1223 0.0000 ( 40842 PWs)   bands (ev):

   -73.4685 -72.7580 -72.5261 -72.3631 -72.3410 -72.0603 -44.0186 -43.4299
   -43.0584 -42.9027 -42.8334 -42.6910 -42.6212 -42.6073 -42.5993 -42.5437
   -42.3832 -42.3666 -42.3395 -42.2752 -42.2206 -42.1425 -42.1191 -41.8982
   -18.0934 -17.9922 -17.9324 -17.8716 -17.8082 -17.6316 -17.5351 -17.4791
   -17.4415 -17.3933 -17.0772 -16.8368 -16.1933  -6.2050  -6.1219  -6.0887
    -6.0444  -5.9535  -5.7581  -5.6493  -5.5966  -5.5074  -5.4616  -5.3458
    -5.0351  -4.7771  -4.7046  -4.5352  -4.4550  -4.2815  -4.0371  -3.8526
    -3.6451  -3.5629  -3.3475  -3.3049  -3.2288  -3.1311  -3.0399  -2.8728
    -2.7333  -2.6006  -2.4827  -2.2834  -2.1760  -2.0565  -1.9388  -1.6274
    -1.5430  -1.4044  -1.2619  -1.1220  -0.1300  -0.0841   0.1940   0.2480
     0.5362   0.6068   0.6376   0.7599   0.8087   0.9252   0.9563   1.2191
     1.6635   1.7384   1.8296   1.8788   2.0302   2.0592   2.4735   3.1723
     3.4813   3.6506   3.7494   4.0936   4.2903   5.1143   5.4464   5.5599

          k = 0.3750-0.2445 0.0000 ( 40856 PWs)   bands (ev):

   -73.4685 -72.7580 -72.5261 -72.3631 -72.3410 -72.0603 -44.0186 -43.4304
   -43.0584 -42.9022 -42.8333 -42.6915 -42.6212 -42.6087 -42.5992 -42.5438
   -42.3829 -42.3651 -42.3400 -42.2752 -42.2206 -42.1423 -42.1183 -41.8982
   -18.0418 -18.0279 -17.9868 -17.8984 -17.8446 -17.6397 -17.4846 -17.4565
   -17.4223 -17.3805 -17.0760 -16.8408 -16.1935  -6.2480  -6.0693  -5.9263
    -5.9113  -5.8572  -5.8094  -5.7474  -5.6807  -5.6631  -5.5533  -5.4050
    -4.9343  -4.7884  -4.5523  -4.4920  -4.2902  -4.2031  -4.0660  -3.7296
    -3.5416  -3.4406  -3.4072  -3.2768  -3.2549  -3.1527  -3.1053  -2.9741
    -2.7710  -2.7283  -2.3521  -2.2175  -2.1557  -2.0249  -1.8942  -1.8454
    -1.5838  -1.4309  -1.2805  -1.2514  -0.3261  -0.2627  -0.1019   0.3141
     0.4469   0.6054   0.6760   0.7677   0.8196   0.8778   1.0083   1.2087
     1.5695   1.7900   1.9505   1.9829   2.1125   2.2101   2.5717   2.7764
     3.2141   3.3177   3.5125   4.1181   4.2926   5.4926   5.5803   5.7969

          k = 0.3750-0.1223 0.0000 ( 40842 PWs)   bands (ev):

   -73.4685 -72.7580 -72.5261 -72.3631 -72.3410 -72.0603 -44.0186 -43.4299
   -43.0584 -42.9027 -42.8334 -42.6910 -42.6212 -42.6073 -42.5993 -42.5437
   -42.3832 -42.3666 -42.3395 -42.2752 -42.2206 -42.1425 -42.1191 -41.8982
   -18.0934 -17.9922 -17.9324 -17.8716 -17.8082 -17.6316 -17.5351 -17.4791
   -17.4415 -17.3933 -17.0772 -16.8368 -16.1933  -6.2050  -6.1219  -6.0887
    -6.0444  -5.9535  -5.7581  -5.6493  -5.5966  -5.5074  -5.4616  -5.3458
    -5.0351  -4.7771  -4.7046  -4.5352  -4.4550  -4.2815  -4.0371  -3.8526
    -3.6451  -3.5629  -3.3475  -3.3049  -3.2288  -3.1311  -3.0399  -2.8728
    -2.7333  -2.6006  -2.4827  -2.2834  -2.1760  -2.0565  -1.9388  -1.6274
    -1.5430  -1.4044  -1.2619  -1.1220  -0.1300  -0.0841   0.1940   0.2480
     0.5362   0.6068   0.6376   0.7599   0.8087   0.9252   0.9563   1.2191
     1.6635   1.7384   1.8296   1.8788   2.0302   2.0592   2.4735   3.1723
     3.4813   3.6506   3.7494   4.0936   4.2903   5.1143   5.4464   5.5599

          k =-0.5000 0.0000 0.0000 ( 40876 PWs)   bands (ev):

   -73.4670 -72.7564 -72.5246 -72.3616 -72.3395 -72.0588 -44.0169 -43.4542
   -43.0532 -42.9307 -42.8326 -42.6885 -42.6189 -42.6036 -42.5970 -42.5671
   -42.3993 -42.3742 -42.3638 -42.2730 -42.2175 -42.1462 -42.1385 -41.8937
   -17.9914 -17.8436 -17.8245 -17.7838 -17.7131 -17.6899 -17.6706 -17.6011
   -17.4682 -17.4027 -17.0065 -16.8063 -16.1565  -6.3270  -6.1414  -5.9794
    -5.7899  -5.7588  -5.6924  -5.5816  -5.5267  -5.5145  -5.4209  -5.3065
    -5.1563  -5.0267  -4.9095  -4.7312  -4.4993  -4.0817  -3.8227  -3.7877
    -3.6859  -3.6797  -3.6736  -3.5712  -3.4089  -2.9536  -2.8572  -2.7110
    -2.6024  -2.4698  -2.4597  -2.3577  -2.1581  -1.9812  -1.8312  -1.7162
    -1.6066  -1.2483  -1.1152  -0.9017  -0.2028   0.0810   0.0866   0.4628
     0.5298   0.5714   0.6395   0.6660   0.7209   0.7885   1.0306   1.1585
     1.3196   1.5030   1.8457   1.9285   2.1433   2.2499   2.3216   3.1961
     3.6492   4.0108   4.2120   4.2512   4.3635   4.5424   4.7520   4.9087

          k =-0.5000 0.1223 0.0000 ( 40858 PWs)   bands (ev):

   -73.4670 -72.7564 -72.5246 -72.3616 -72.3395 -72.0588 -44.0169 -43.4548
   -43.0539 -42.9300 -42.8320 -42.6893 -42.6189 -42.6059 -42.5969 -42.5673
   -42.3971 -42.3741 -42.3642 -42.2730 -42.2175 -42.1453 -42.1380 -41.8935
   -17.9843 -17.9601 -17.9549 -17.9095 -17.8476 -17.5411 -17.4702 -17.4668
   -17.4269 -17.4036 -17.0082 -16.8087 -16.1560  -6.2682  -6.2318  -6.1042
    -6.1006  -6.0002  -5.7539  -5.6648  -5.6058  -5.6028  -5.4035  -5.1737
    -5.0866  -4.8347  -4.5858  -4.4070  -4.1184  -3.8704  -3.8263  -3.7976
    -3.7643  -3.6448  -3.6305  -3.6069  -3.0091  -2.9395  -2.8172  -2.6118
    -2.5966  -2.5087  -2.4926  -2.2601  -2.1865  -2.1312  -1.8383  -1.6610
    -1.6260  -1.4951  -1.3050  -1.0871  -0.1964  -0.0381   0.0335   0.0883
     0.2069   0.4471   0.4911   0.5627   0.5915   0.6374   0.7428   1.1763
     1.8112   1.8495   2.0028   2.0127   2.1796   2.1998   2.4006   3.0153
     3.2439   3.4518   3.5771   4.0397   4.2146   5.3082   5.5940   5.6176

          k =-0.5000-0.2445 0.0000 ( 40872 PWs)   bands (ev):

   -73.4670 -72.7564 -72.5246 -72.3616 -72.3395 -72.0588 -44.0169 -43.4554
   -43.0546 -42.9293 -42.8313 -42.6901 -42.6189 -42.6081 -42.5969 -42.5674
   -42.3951 -42.3739 -42.3647 -42.2730 -42.2175 -42.1444 -42.1376 -41.8934
   -18.0484 -18.0324 -18.0006 -17.9765 -17.8523 -17.4651 -17.4611 -17.4046
   -17.3705 -17.3291 -17.0100 -16.8113 -16.1555  -6.4738  -6.2717  -6.2014
    -6.0998  -6.0638  -5.7526  -5.6711  -5.6695  -5.6340  -5.4925  -5.1716
    -5.0470  -4.9561  -4.1820  -4.1240  -3.9111  -3.8706  -3.8229  -3.5976
    -3.5867  -3.5200  -3.4139  -3.2458  -3.1734  -2.8939  -2.8548  -2.7959
    -2.6620  -2.4181  -2.3165  -2.2006  -2.1171  -1.9368  -1.9239  -1.7927
    -1.7551  -1.7190  -1.5839  -1.2665  -0.5114  -0.2330  -0.1937   0.0089
     0.1077   0.1873   0.4495   0.4699   0.6012   0.6366   0.7571   1.2144
     1.7462   1.9191   2.0354   2.1178   2.3579   2.3668   2.4546   2.6425
     3.0669   3.1893   3.2802   4.0667   4.2166   5.6955   5.7563   5.8197

          k =-0.5000-0.1223 0.0000 ( 40858 PWs)   bands (ev):

   -73.4670 -72.7564 -72.5246 -72.3616 -72.3395 -72.0588 -44.0169 -43.4548
   -43.0539 -42.9300 -42.8320 -42.6893 -42.6189 -42.6059 -42.5969 -42.5673
   -42.3971 -42.3741 -42.3642 -42.2730 -42.2175 -42.1453 -42.1380 -41.8935
   -17.9843 -17.9601 -17.9549 -17.9095 -17.8476 -17.5411 -17.4702 -17.4668
   -17.4269 -17.4036 -17.0082 -16.8087 -16.1560  -6.2682  -6.2318  -6.1042
    -6.1006  -6.0002  -5.7539  -5.6648  -5.6058  -5.6028  -5.4035  -5.1737
    -5.0866  -4.8347  -4.5858  -4.4070  -4.1184  -3.8704  -3.8263  -3.7976
    -3.7643  -3.6448  -3.6305  -3.6069  -3.0091  -2.9395  -2.8172  -2.6118
    -2.5966  -2.5087  -2.4926  -2.2601  -2.1865  -2.1312  -1.8383  -1.6610
    -1.6260  -1.4951  -1.3050  -1.0871  -0.1964  -0.0381   0.0335   0.0883
     0.2069   0.4471   0.4911   0.5627   0.5915   0.6374   0.7428   1.1763
     1.8112   1.8495   2.0028   2.0127   2.1796   2.1998   2.4006   3.0153
     3.2439   3.4518   3.5771   4.0397   4.2146   5.3082   5.5940   5.6176

          k =-0.3750 0.0000 0.0000 ( 40852 PWs)   bands (ev):

   -73.4685 -72.7580 -72.5261 -72.3631 -72.3410 -72.0603 -44.0186 -43.4294
   -43.0584 -42.9032 -42.8335 -42.6905 -42.6212 -42.6059 -42.5993 -42.5436
   -42.3836 -42.3680 -42.3390 -42.2752 -42.2206 -42.1427 -42.1198 -41.8982
   -18.1130 -17.9934 -17.8639 -17.8421 -17.7412 -17.6350 -17.6016 -17.5290
   -17.4479 -17.4067 -17.0781 -16.8329 -16.1931  -6.3327  -6.1683  -6.0467
    -6.0228  -5.8962  -5.8447  -5.6428  -5.6139  -5.4946  -5.3931  -5.2026
    -5.0446  -4.8258  -4.7873  -4.5782  -4.4168  -4.3616  -4.2041  -3.9657
    -3.6642  -3.4948  -3.4108  -3.3791  -3.3303  -3.1658  -3.0787  -2.8147
    -2.6620  -2.5921  -2.4316  -2.2710  -2.2111  -2.0283  -1.9498  -1.5164
    -1.3848  -1.3803  -1.2303  -0.9706  -0.1658   0.0242   0.2692   0.4754
     0.5866   0.6624   0.7572   0.7815   0.8637   1.0320   1.1505   1.2214
     1.3796   1.5221   1.6488   1.7922   1.9614   2.1495   2.3628   3.4158
     3.7979   4.0524   4.2725   4.3831   4.4812   4.5326   4.7770   4.9388

          k =-0.3750 0.1223 0.0000 ( 40842 PWs)   bands (ev):

   -73.4685 -72.7580 -72.5261 -72.3631 -72.3410 -72.0603 -44.0186 -43.4299
   -43.0584 -42.9027 -42.8334 -42.6910 -42.6212 -42.6073 -42.5993 -42.5437
   -42.3832 -42.3666 -42.3395 -42.2752 -42.2206 -42.1425 -42.1191 -41.8982
   -18.0934 -17.9922 -17.9324 -17.8716 -17.8082 -17.6316 -17.5351 -17.4791
   -17.4415 -17.3933 -17.0772 -16.8368 -16.1933  -6.2050  -6.1219  -6.0887
    -6.0444  -5.9535  -5.7581  -5.6493  -5.5966  -5.5074  -5.4616  -5.3458
    -5.0351  -4.7771  -4.7046  -4.5352  -4.4550  -4.2815  -4.0371  -3.8526
    -3.6451  -3.5629  -3.3475  -3.3049  -3.2288  -3.1311  -3.0399  -2.8728
    -2.7333  -2.6006  -2.4827  -2.2834  -2.1760  -2.0565  -1.9388  -1.6274
    -1.5430  -1.4044  -1.2619  -1.1220  -0.1300  -0.0841   0.1940   0.2480
     0.5362   0.6068   0.6376   0.7599   0.8087   0.9252   0.9563   1.2191
     1.6635   1.7384   1.8296   1.8788   2.0302   2.0592   2.4735   3.1723
     3.4813   3.6506   3.7494   4.0936   4.2903   5.1143   5.4464   5.5599

          k =-0.3750-0.2445 0.0000 ( 40856 PWs)   bands (ev):

   -73.4685 -72.7580 -72.5261 -72.3631 -72.3410 -72.0603 -44.0186 -43.4304
   -43.0584 -42.9022 -42.8333 -42.6915 -42.6212 -42.6087 -42.5992 -42.5438
   -42.3829 -42.3651 -42.3400 -42.2752 -42.2206 -42.1423 -42.1183 -41.8982
   -18.0418 -18.0279 -17.9868 -17.8984 -17.8446 -17.6397 -17.4846 -17.4565
   -17.4223 -17.3805 -17.0760 -16.8408 -16.1935  -6.2480  -6.0693  -5.9263
    -5.9113  -5.8572  -5.8094  -5.7474  -5.6807  -5.6631  -5.5533  -5.4050
    -4.9343  -4.7884  -4.5523  -4.4920  -4.2902  -4.2031  -4.0660  -3.7296
    -3.5416  -3.4406  -3.4072  -3.2768  -3.2549  -3.1527  -3.1053  -2.9741
    -2.7710  -2.7283  -2.3521  -2.2175  -2.1557  -2.0249  -1.8942  -1.8454
    -1.5838  -1.4309  -1.2805  -1.2514  -0.3261  -0.2627  -0.1019   0.3141
     0.4469   0.6054   0.6760   0.7677   0.8196   0.8778   1.0083   1.2087
     1.5695   1.7900   1.9505   1.9829   2.1125   2.2101   2.5717   2.7764
     3.2141   3.3177   3.5125   4.1181   4.2926   5.4926   5.5803   5.7969

          k =-0.3750-0.1223 0.0000 ( 40842 PWs)   bands (ev):

   -73.4685 -72.7580 -72.5261 -72.3631 -72.3410 -72.0603 -44.0186 -43.4299
   -43.0584 -42.9027 -42.8334 -42.6910 -42.6212 -42.6073 -42.5993 -42.5437
   -42.3832 -42.3666 -42.3395 -42.2752 -42.2206 -42.1425 -42.1191 -41.8982
   -18.0934 -17.9922 -17.9324 -17.8716 -17.8082 -17.6316 -17.5351 -17.4791
   -17.4415 -17.3933 -17.0772 -16.8368 -16.1933  -6.2050  -6.1219  -6.0887
    -6.0444  -5.9535  -5.7581  -5.6493  -5.5966  -5.5074  -5.4616  -5.3458
    -5.0351  -4.7771  -4.7046  -4.5352  -4.4550  -4.2815  -4.0371  -3.8526
    -3.6451  -3.5629  -3.3475  -3.3049  -3.2288  -3.1311  -3.0399  -2.8728
    -2.7333  -2.6006  -2.4827  -2.2834  -2.1760  -2.0565  -1.9388  -1.6274
    -1.5430  -1.4044  -1.2619  -1.1220  -0.1300  -0.0841   0.1940   0.2480
     0.5362   0.6068   0.6376   0.7599   0.8087   0.9252   0.9563   1.2191
     1.6635   1.7384   1.8296   1.8788   2.0302   2.0592   2.4735   3.1723
     3.4813   3.6506   3.7494   4.0936   4.2903   5.1143   5.4464   5.5599

          k =-0.2500 0.0000 0.0000 ( 40947 PWs)   bands (ev):

   -73.4721 -72.7618 -72.5297 -72.3668 -72.3447 -72.0641 -44.0228 -43.3689
   -43.0709 -42.8363 -42.8355 -42.6954 -42.6308 -42.6113 -42.6041 -42.4833
   -42.3909 -42.3074 -42.2922 -42.2670 -42.2281 -42.1527 -42.0553 -41.9090
   -18.4667 -18.2906 -18.1134 -17.9628 -17.7755 -17.5582 -17.4701 -17.4334
   -17.4069 -17.3431 -17.0661 -16.8666 -16.2208  -6.7618  -6.6180  -6.5840
    -6.2432  -5.9956  -5.9680  -5.8528  -5.8044  -5.4700  -5.4384  -5.0404
    -4.9758  -4.6395  -4.5324  -4.4982  -4.3245  -4.1390  -4.0299  -3.9861
    -3.7541  -3.6727  -3.3381  -3.1965  -3.1179  -3.0013  -2.8530  -2.7947
    -2.6769  -2.4816  -2.4030  -2.2345  -2.1857  -2.0999  -2.0437  -1.6165
    -1.4607  -1.2572  -1.2017  -0.9711  -0.2481  -0.0991   0.1903   0.4472
     0.5088   0.5835   0.7985   0.9716   1.0641   1.1586   1.1970   1.3221
     1.3667   1.4642   1.5130   1.6138   1.8562   2.1781   2.4887   3.9434
     4.1646   4.2214   4.3918   4.6637   4.7349   4.8053   4.8778   4.9597

          k =-0.2500 0.1223 0.0000 ( 40905 PWs)   bands (ev):

   -73.4721 -72.7618 -72.5297 -72.3668 -72.3447 -72.0641 -44.0228 -43.3692
   -43.0696 -42.8373 -42.8355 -42.6953 -42.6308 -42.6112 -42.6041 -42.4834
   -42.3909 -42.3063 -42.2925 -42.2675 -42.2281 -42.1532 -42.0549 -41.9094
   -18.3790 -18.1951 -18.0174 -18.0041 -17.7668 -17.6431 -17.5415 -17.4994
   -17.4612 -17.3883 -17.0563 -16.8733 -16.2203  -6.4532  -6.3273  -6.2659
    -6.2127  -5.9845  -5.8658  -5.8161  -5.6414  -5.5618  -5.3627  -5.1013
    -4.7945  -4.7270  -4.6583  -4.5012  -4.4486  -4.3519  -4.2321  -4.1362
    -3.9949  -3.5666  -3.5049  -3.3513  -3.2067  -3.1794  -3.0163  -2.9266
    -2.7596  -2.6511  -2.4345  -2.2569  -2.1693  -2.1142  -1.9326  -1.6057
    -1.4266  -1.2538  -1.1655  -1.0246  -0.2205   0.0967   0.4245   0.4629
     0.5737   0.8335   0.8919   0.9658   1.0547   1.1395   1.2039   1.2671
     1.3593   1.5181   1.5925   1.6649   1.7949   2.0595   2.6057   3.7029
     4.0282   4.1373   4.2372   4.3642   4.6625   4.7670   5.1962   5.3446

          k =-0.2500-0.2445 0.0000 ( 40892 PWs)   bands (ev):

   -73.4721 -72.7618 -72.5297 -72.3667 -72.3447 -72.0641 -44.0228 -43.3696
   -43.0683 -42.8381 -42.8357 -42.6951 -42.6308 -42.6111 -42.6041 -42.4834
   -42.3909 -42.3052 -42.2928 -42.2680 -42.2281 -42.1537 -42.0545 -41.9099
   -18.1987 -18.1521 -17.9667 -17.9212 -17.7705 -17.7522 -17.6932 -17.6212
   -17.5039 -17.3897 -17.0464 -16.8812 -16.2198  -6.2634  -6.0276  -5.9445
    -5.8398  -5.7930  -5.7911  -5.6595  -5.5527  -5.3191  -5.2919  -5.2210
    -4.9995  -4.9885  -4.9560  -4.7766  -4.5839  -4.4894  -4.2408  -4.0438
    -3.8190  -3.7511  -3.6479  -3.6100  -3.5126  -3.4816  -3.2867  -3.2683
    -2.9189  -2.7885  -2.3815  -2.2421  -1.9573  -1.8624  -1.6728  -1.6142
    -1.3373  -1.3023  -1.1384  -1.1110  -0.0084   0.0300   0.2631   0.5722
     0.5900   0.8591   1.0166   1.0913   1.1201   1.1429   1.2774   1.3808
     1.3942   1.5901   1.6525   1.7781   1.8172   1.9186   2.6979   3.3072
     3.7505   3.8345   4.0837   4.3509   4.6787   5.0555   5.2957   5.5738

          k =-0.2500-0.1223 0.0000 ( 40905 PWs)   bands (ev):

   -73.4721 -72.7618 -72.5297 -72.3668 -72.3447 -72.0641 -44.0228 -43.3692
   -43.0696 -42.8373 -42.8355 -42.6953 -42.6308 -42.6112 -42.6041 -42.4834
   -42.3909 -42.3063 -42.2925 -42.2675 -42.2281 -42.1532 -42.0549 -41.9094
   -18.3790 -18.1951 -18.0174 -18.0041 -17.7668 -17.6431 -17.5415 -17.4994
   -17.4612 -17.3883 -17.0563 -16.8733 -16.2203  -6.4532  -6.3273  -6.2659
    -6.2127  -5.9845  -5.8658  -5.8161  -5.6414  -5.5618  -5.3627  -5.1013
    -4.7945  -4.7270  -4.6583  -4.5012  -4.4486  -4.3519  -4.2321  -4.1362
    -3.9949  -3.5666  -3.5049  -3.3513  -3.2067  -3.1794  -3.0163  -2.9266
    -2.7596  -2.6511  -2.4345  -2.2569  -2.1693  -2.1142  -1.9326  -1.6057
    -1.4266  -1.2538  -1.1655  -1.0246  -0.2205   0.0967   0.4245   0.4629
     0.5737   0.8335   0.8919   0.9658   1.0547   1.1395   1.2039   1.2671
     1.3593   1.5181   1.5925   1.6649   1.7949   2.0595   2.6057   3.7029
     4.0282   4.1373   4.2372   4.3642   4.6625   4.7670   5.1962   5.3446

          k =-0.1250 0.0000 0.0000 ( 40851 PWs)   bands (ev):

   -73.4756 -72.7657 -72.5334 -72.3705 -72.3483 -72.0678 -44.0269 -43.3079
   -43.0832 -42.8381 -42.7680 -42.7004 -42.6415 -42.6168 -42.6091 -42.4213
   -42.4008 -42.2938 -42.2433 -42.2357 -42.2101 -42.1626 -41.9898 -41.9197
   -18.7928 -18.5798 -18.3818 -18.1345 -17.8949 -17.7605 -17.4124 -17.2746
   -17.2424 -17.1562 -16.9465 -16.8242 -16.1686  -7.2310  -7.0661  -7.0540
    -6.4412  -6.4218  -6.0441  -5.8062  -5.7497  -5.6291  -5.5665  -5.4591
    -5.2030  -5.0347  -4.9696  -4.4145  -4.0858  -4.0307  -3.4349  -3.2777
    -3.2367  -3.1571  -3.0801  -3.0502  -2.9045  -2.7433  -2.7192  -2.5642
    -2.4585  -2.3283  -2.1766  -2.1517  -2.0821  -2.0366  -1.8602  -1.7247
    -1.5835  -1.1146  -1.0668  -0.7207  -0.4155  -0.2150   0.0170   0.0587
     0.1437   0.3267   0.4575   0.5172   0.6835   0.6926   1.1431   1.2109
     1.3327   1.4375   1.6455   1.8700   2.1424   2.3572   2.5594   3.6990
     4.3348   4.7542   4.7595   4.8836   5.0521   5.3538   5.3991   5.4560

          k =-0.1250 0.1223 0.0000 ( 40932 PWs)   bands (ev):

   -73.4756 -72.7657 -72.5333 -72.3704 -72.3484 -72.0678 -44.0269 -43.3080
   -43.0808 -42.8405 -42.7680 -42.6996 -42.6415 -42.6155 -42.6091 -42.4213
   -42.4008 -42.2939 -42.2427 -42.2357 -42.2109 -42.1639 -41.9897 -41.9207
   -18.6780 -18.4546 -18.2608 -18.1840 -17.8970 -17.8003 -17.4462 -17.3915
   -17.3398 -17.3188 -16.9280 -16.8365 -16.1663  -6.8344  -6.6476  -6.6138
    -6.4452  -6.4013  -5.9488  -5.7624  -5.6903  -5.6383  -5.5301  -5.2486
    -5.1992  -5.0362  -4.8460  -4.4521  -4.2091  -4.0159  -3.9947  -3.6994
    -3.4666  -3.4383  -3.3540  -3.3267  -3.1783  -3.1290  -3.0463  -2.8204
    -2.6325  -2.5209  -2.3283  -2.2036  -2.0723  -1.9937  -1.7451  -1.5598
    -1.4309  -1.0749  -0.9911  -0.7932  -0.0677   0.1675   0.1940   0.2677
     0.3773   0.4400   0.6660   0.7379   0.7947   0.8790   1.1417   1.2289
     1.3571   1.4624   1.6658   1.7198   1.9236   2.3094   2.5773   4.0122
     4.3968   4.7328   4.8273   4.8526   4.9979   5.1965   5.2551   5.3690

          k =-0.1250-0.2445 0.0000 ( 40974 PWs)   bands (ev):

   -73.4756 -72.7657 -72.5333 -72.3703 -72.3484 -72.0678 -44.0269 -43.3081
   -43.0784 -42.8430 -42.7679 -42.6988 -42.6415 -42.6142 -42.6091 -42.4213
   -42.4007 -42.2939 -42.2420 -42.2357 -42.2117 -42.1652 -41.9897 -41.9216
   -18.4395 -18.3893 -18.2238 -18.0289 -17.9759 -17.8878 -17.5632 -17.5442
   -17.4797 -17.3738 -16.8974 -16.8636 -16.1644  -6.4810  -6.4487  -6.1324
    -5.9290  -5.8336  -5.7658  -5.7499  -5.6792  -5.6474  -5.6379  -5.2381
    -5.0616  -4.8945  -4.7773  -4.6260  -4.4703  -4.3128  -4.1682  -4.1396
    -4.0964  -3.9967  -3.8721  -3.7894  -3.4521  -3.3724  -3.2678  -2.8563
    -2.7233  -2.6281  -2.3201  -2.2314  -1.9383  -1.7680  -1.5541  -1.4046
    -1.1568  -1.0906  -1.0085  -0.9862   0.1781   0.1945   0.2935   0.3960
     0.5325   0.5767   0.7838   1.1037   1.1248   1.1374   1.2049   1.2516
     1.4028   1.4282   1.5298   1.6501   1.9216   1.9972   2.7241   4.0777
     4.4224   4.5456   4.7144   4.8314   5.0701   5.0970   5.2929   5.4231

          k =-0.1250-0.1223 0.0000 ( 40932 PWs)   bands (ev):

   -73.4756 -72.7657 -72.5333 -72.3704 -72.3484 -72.0678 -44.0269 -43.3080
   -43.0808 -42.8405 -42.7680 -42.6996 -42.6415 -42.6155 -42.6091 -42.4213
   -42.4008 -42.2939 -42.2427 -42.2357 -42.2109 -42.1639 -41.9897 -41.9207
   -18.6780 -18.4546 -18.2608 -18.1840 -17.8970 -17.8003 -17.4462 -17.3915
   -17.3398 -17.3188 -16.9280 -16.8365 -16.1663  -6.8344  -6.6476  -6.6138
    -6.4452  -6.4013  -5.9488  -5.7624  -5.6903  -5.6383  -5.5301  -5.2486
    -5.1992  -5.0362  -4.8460  -4.4521  -4.2091  -4.0159  -3.9947  -3.6994
    -3.4666  -3.4383  -3.3540  -3.3267  -3.1783  -3.1290  -3.0463  -2.8204
    -2.6325  -2.5209  -2.3283  -2.2036  -2.0723  -1.9937  -1.7451  -1.5598
    -1.4309  -1.0749  -0.9911  -0.7932  -0.0677   0.1675   0.1940   0.2677
     0.3773   0.4400   0.6660   0.7379   0.7947   0.8790   1.1417   1.2289
     1.3571   1.4624   1.6658   1.7198   1.9236   2.3094   2.5773   4.0122
     4.3968   4.7328   4.8273   4.8526   4.9979   5.1965   5.2551   5.3690

     the Fermi energy is     1.1954 ev

!    total energy              =   -1672.25382688 Ry
     estimated scf accuracy    <       0.00000003 Ry
     smearing contrib. (-TS)   =      -0.00183942 Ry
     internal energy E=F+TS    =   -1672.25198747 Ry

     The total energy is F=E-TS. E is the sum of the following terms:
     one-electron contribution =  -16951.20596713 Ry
     hartree contribution      =    8497.65030255 Ry
     xc contribution           =    -214.02686182 Ry
     ewald contribution        =    7119.11794479 Ry
     one-center paw contrib.   =    -123.78740584 Ry

     convergence has been achieved in  10 iterations

     negative rho (up, down):  1.106E-04 0.000E+00

     Forces acting on atoms (cartesian axes, Ry/au):

     atom    1 type  1   force =    -0.00000001   -0.00029535    0.07122731
     atom    2 type  1   force =    -0.00000000   -0.00011420   -0.09057972
     atom    3 type  1   force =     0.00000000   -0.00015886    0.00040949
     atom    4 type  1   force =    -0.00000008   -0.00132665   -0.00177077
     atom    5 type  1   force =    -0.00000004    0.00040101    0.00302903
     atom    6 type  1   force =     0.00000005    0.00365963   -0.00000850
     atom    7 type  2   force =    -0.00000000    0.00039676    0.01896991
     atom    8 type  2   force =    -0.00000000    0.00022769    0.06197445
     atom    9 type  2   force =     0.00000000    0.02405324   -0.02502145
     atom   10 type  2   force =     0.00000000   -0.02433602   -0.02462110
     atom   11 type  2   force =    -0.00000001   -0.00098568   -0.00124992
     atom   12 type  2   force =     0.00000006    0.00117589   -0.00813687
     atom   13 type  2   force =     0.00000001   -0.00002643    0.00062652
     atom   14 type  2   force =     0.00000000   -0.00041664   -0.00143078
     atom   15 type  2   force =    -0.00000001   -0.00175445   -0.00161698
     atom   16 type  2   force =     0.00000003    0.00556172    0.00024276
     atom   17 type  2   force =     0.00000002   -0.00174246   -0.00249485
     atom   18 type  2   force =     0.00000001   -0.00062881    0.00351096
     atom   19 type  2   force =    -0.00000004   -0.00369040   -0.00305951

     Total force =     0.010706     Total SCF correction =     0.000970
     Energy error            =      1.6E-04 Ry
     Gradient error          =      5.6E-03 Ry/Bohr

     number of scf cycles    =   7
     number of bfgs steps    =   6

     energy             old  =   -1672.2536689320 Ry
     energy             new  =   -1672.2538268849 Ry

     CASE: energy            _new < energy            _old

     new trust radius        =       0.0225608174 bohr
     new conv_thr            =       0.0000000158 Ry


ATOMIC_POSITIONS (angstrom)
Ru               0.0000000000        1.5881618300        9.5289709800    0   0   0
Ru               1.5535000000        4.7644854900        9.5289709800    0   0   0
Ru              -0.0000000545        4.7722200422       12.7214677815
Ru               1.5535000908        1.5935296621       12.7107387342
Ru               0.0000000295        1.6187629579       16.0597779769
Ru               1.5534998195        4.7771382523       15.9522280195
O                0.0000000000        4.7644854900       10.7677372100    0   0   0
O                0.0000000000        4.7644854900        8.2902047600    0   0   0
O                1.5535000000        0.3493956000        9.5289709800    0   0   0
O                1.5535000000        2.8269280600        9.5289709800    0   0   0
O                0.0000000933        1.5726393863       13.9843006518
O                0.0000000000        1.5881618300       11.4665284200    0   0   0
O                1.5535000123        3.5365599520       12.7074093558
O                1.5534999273        6.0052834922       12.7102491443
O               -0.0000001372        4.7704982983       17.0562779570
O               -0.0000001725        4.7900208829       14.6513830382
O                1.5534999784        0.3927451593       15.9513838121
O                1.5534999962        2.8281926104       15.7722845250
O                0.0000002912        1.8123920713       17.7464494529



     Writing config-only to output data dir ./tmp_s0_O__1x1_off/s0_O__1x1_off.save/ :
     XML data file
     NEW-OLD atomic charge density approx. for the potential

     negative rho (up, down):  1.107E-04 0.000E+00

     total cpu time spent up to now is     9920.2 secs

     per-process dynamical memory:  1113.7 Mb

     Self-consistent Calculation

     iteration #  1     ecut=    80.00 Ry     beta= 0.30
     Davidson diagonalization with overlap
     ethr =  1.00E-06,  avg # of iterations =  4.2

     Threshold (ethr) on eigenvalues was too large:
     Diagonalizing with lowered threshold

     Davidson diagonalization with overlap
     ethr =  4.57E-08,  avg # of iterations =  2.6

     negative rho (up, down):  1.070E-04 0.000E+00

     total cpu time spent up to now is    10195.3 secs

     total energy              =   -1672.25400413 Ry
     estimated scf accuracy    <       0.00008192 Ry

     iteration #  2     ecut=    80.00 Ry     beta= 0.30
     Davidson diagonalization with overlap
     ethr =  4.71E-08,  avg # of iterations =  1.0

     negative rho (up, down):  1.054E-04 0.000E+00

     total cpu time spent up to now is    10295.2 secs

     total energy              =   -1672.25400351 Ry
     estimated scf accuracy    <       0.00005952 Ry

     iteration #  3     ecut=    80.00 Ry     beta= 0.30
     Davidson diagonalization with overlap
     ethr =  3.42E-08,  avg # of iterations =  1.0

     negative rho (up, down):  9.791E-05 0.000E+00

     total cpu time spent up to now is    10394.7 secs

     total energy              =   -1672.25399899 Ry
     estimated scf accuracy    <       0.00002365 Ry

     iteration #  4     ecut=    80.00 Ry     beta= 0.30
     Davidson diagonalization with overlap
     ethr =  1.36E-08,  avg # of iterations =  2.0

     negative rho (up, down):  9.450E-05 0.000E+00

     total cpu time spent up to now is    10504.9 secs

     total energy              =   -1672.25400051 Ry
     estimated scf accuracy    <       0.00000210 Ry

     iteration #  5     ecut=    80.00 Ry     beta= 0.30
     Davidson diagonalization with overlap
     ethr =  1.21E-09,  avg # of iterations =  4.8

     negative rho (up, down):  9.240E-05 0.000E+00

     total cpu time spent up to now is    10625.9 secs

     total energy              =   -1672.25400068 Ry
     estimated scf accuracy    <       0.00000103 Ry

     iteration #  6     ecut=    80.00 Ry     beta= 0.30
     Davidson diagonalization with overlap
     ethr =  5.92E-10,  avg # of iterations =  1.1

     negative rho (up, down):  9.104E-05 0.000E+00

     total cpu time spent up to now is    10726.6 secs

     total energy              =   -1672.25400069 Ry
     estimated scf accuracy    <       0.00000037 Ry

     iteration #  7     ecut=    80.00 Ry     beta= 0.30
     Davidson diagonalization with overlap
     ethr =  2.15E-10,  avg # of iterations =  1.3

     negative rho (up, down):  9.021E-05 0.000E+00

     total cpu time spent up to now is    10829.6 secs

     total energy              =   -1672.25400069 Ry
     estimated scf accuracy    <       0.00000014 Ry

     iteration #  8     ecut=    80.00 Ry     beta= 0.30
     Davidson diagonalization with overlap
     ethr =  8.10E-11,  avg # of iterations =  1.2

     negative rho (up, down):  9.014E-05 0.000E+00

     total cpu time spent up to now is    10933.8 secs

     total energy              =   -1672.25400069 Ry
     estimated scf accuracy    <       0.00000007 Ry

     iteration #  9     ecut=    80.00 Ry     beta= 0.30
     Davidson diagonalization with overlap
     ethr =  4.08E-11,  avg # of iterations =  1.1

     negative rho (up, down):  9.116E-05 0.000E+00

     total cpu time spent up to now is    11036.0 secs

     total energy              =   -1672.25400069 Ry
     estimated scf accuracy    <       0.00000004 Ry

     iteration # 10     ecut=    80.00 Ry     beta= 0.30
     Davidson diagonalization with overlap
     ethr =  2.16E-11,  avg # of iterations =  1.5

     negative rho (up, down):  9.315E-05 0.000E+00

     total cpu time spent up to now is    11140.9 secs

     total energy              =   -1672.25400069 Ry
     estimated scf accuracy    <       0.00000002 Ry

     iteration # 11     ecut=    80.00 Ry     beta= 0.30
     Davidson diagonalization with overlap
     ethr =  9.35E-12,  avg # of iterations =  1.3

     negative rho (up, down):  1.106E-04 0.000E+00

     total cpu time spent up to now is    11240.6 secs

     End of self-consistent calculation

          k = 0.0000 0.0000 0.0000 ( 40831 PWs)   bands (ev):

   -73.4786 -72.7663 -72.5315 -72.3680 -72.3461 -72.0644 -44.0349 -43.2825
   -43.0887 -42.8369 -42.7405 -42.6990 -42.6442 -42.6153 -42.6094 -42.4016
   -42.3920 -42.2916 -42.2337 -42.2133 -42.1814 -42.1628 -41.9578 -41.9195
   -18.9183 -18.6934 -18.4873 -18.2217 -17.9717 -17.8377 -17.4093 -17.1954
   -17.1620 -17.0725 -16.9025 -16.7707 -16.1239  -7.4118  -7.2391  -7.2290
    -6.6161  -6.4371  -5.9974  -5.7564  -5.7558  -5.6951  -5.6265  -5.5373
    -5.4730  -5.3067  -5.1852  -4.5887  -4.1717  -3.5699  -3.3922  -3.1935
    -3.0650  -2.9623  -2.9167  -2.7877  -2.7119  -2.6650  -2.6649  -2.5005
    -2.3624  -2.2600  -2.1781  -1.9926  -1.9478  -1.6735  -1.4609  -1.4212
    -1.2659  -1.1588  -0.7523  -0.7301  -0.5324  -0.4728  -0.2257  -0.2045
    -0.1413  -0.1391   0.2687   0.3346   0.4573   0.5271   0.9918   1.1073
     1.2432   1.4331   1.7682   2.0237   2.2304   2.2863   2.7062   3.5256
     4.2198   4.7124   5.0326   5.2026   5.4145   5.5119   5.7215   5.7739

          k = 0.0000 0.1223 0.0000 ( 40974 PWs)   bands (ev):

   -73.4786 -72.7663 -72.5315 -72.3679 -72.3462 -72.0644 -44.0349 -43.2825
   -43.0859 -42.8398 -42.7405 -42.6980 -42.6442 -42.6136 -42.6093 -42.4015
   -42.3920 -42.2917 -42.2338 -42.2127 -42.1820 -42.1647 -41.9578 -41.9207
   -18.7973 -18.5618 -18.3643 -18.2710 -17.9886 -17.8690 -17.4227 -17.3251
   -17.2870 -17.2503 -16.8843 -16.7813 -16.1210  -7.0015  -6.7928  -6.7665
    -6.6079  -6.4260  -5.9273  -5.7551  -5.6388  -5.6155  -5.5457  -5.4693
    -5.4543  -5.3059  -4.9953  -4.6297  -4.2251  -4.0290  -3.7637  -3.6125
    -3.5365  -3.4059  -3.2599  -2.9058  -2.8700  -2.8668  -2.7448  -2.6819
    -2.5818  -2.3769  -2.2069  -2.1551  -2.0860  -1.7095  -1.6411  -1.6062
    -1.3587  -1.1367  -0.9043  -0.7021  -0.0705  -0.0498   0.1327   0.2526
     0.3420   0.3838   0.4220   0.5111   0.5358   0.6121   0.9805   1.0713
     1.3014   1.4785   1.7591   1.8331   2.0285   2.3620   2.5820   3.9146
     4.6380   4.7970   4.8905   5.2027   5.4263   5.4645   5.5030   5.5434

          k = 0.0000-0.2445 0.0000 ( 41014 PWs)   bands (ev):

   -73.4786 -72.7663 -72.5315 -72.3679 -72.3463 -72.0644 -44.0349 -43.2824
   -43.0831 -42.8428 -42.7405 -42.6970 -42.6442 -42.6118 -42.6093 -42.4015
   -42.3919 -42.2917 -42.2338 -42.2121 -42.1826 -42.1667 -41.9579 -41.9219
   -18.5462 -18.4963 -18.3272 -18.1203 -18.0682 -17.9631 -17.4986 -17.4744
   -17.4339 -17.3680 -16.8581 -16.8038 -16.1187  -6.6624  -6.4645  -6.3459
    -6.0243  -5.9784  -5.8480  -5.7551  -5.6150  -5.5305  -5.4598  -5.4573
    -5.2999  -5.0604  -4.9268  -4.6165  -4.5999  -4.4980  -4.4774  -4.3464
    -4.2652  -3.6742  -3.4859  -3.3463  -3.1429  -3.1173  -2.9834  -2.7107
    -2.5896  -2.4675  -2.2217  -2.1195  -1.9629  -1.7072  -1.6434  -1.4042
    -1.1877  -1.0911  -0.9944  -0.9841   0.1881   0.1947   0.2745   0.3913
     0.5067   0.6698   0.7967   0.8143   0.8863   0.9170   1.0435   1.1122
     1.2094   1.5406   1.5564   1.6066   2.0111   2.1178   2.7111   4.3360
     4.5346   4.8260   5.1749   5.1865   5.2043   5.2511   5.5207   5.6598

          k = 0.0000-0.1223 0.0000 ( 40974 PWs)   bands (ev):

   -73.4786 -72.7663 -72.5315 -72.3679 -72.3462 -72.0644 -44.0349 -43.2825
   -43.0859 -42.8398 -42.7405 -42.6980 -42.6442 -42.6136 -42.6093 -42.4015
   -42.3920 -42.2917 -42.2338 -42.2127 -42.1820 -42.1647 -41.9578 -41.9207
   -18.7973 -18.5618 -18.3643 -18.2710 -17.9886 -17.8690 -17.4227 -17.3251
   -17.2870 -17.2503 -16.8843 -16.7813 -16.1210  -7.0015  -6.7928  -6.7665
    -6.6079  -6.4260  -5.9273  -5.7551  -5.6388  -5.6155  -5.5457  -5.4693
    -5.4543  -5.3059  -4.9953  -4.6297  -4.2251  -4.0290  -3.7637  -3.6125
    -3.5365  -3.4059  -3.2599  -2.9058  -2.8700  -2.8668  -2.7448  -2.6819
    -2.5818  -2.3769  -2.2069  -2.1551  -2.0860  -1.7095  -1.6411  -1.6062
    -1.3587  -1.1367  -0.9043  -0.7021  -0.0705  -0.0498   0.1327   0.2526
     0.3420   0.3838   0.4220   0.5111   0.5358   0.6121   0.9805   1.0713
     1.3014   1.4785   1.7591   1.8331   2.0285   2.3620   2.5820   3.9146
     4.6380   4.7970   4.8905   5.2027   5.4263   5.4645   5.5030   5.5434

          k = 0.1250 0.0000 0.0000 ( 40851 PWs)   bands (ev):

   -73.4771 -72.7647 -72.5300 -72.3665 -72.3446 -72.0628 -44.0332 -43.3079
   -43.0836 -42.8359 -42.7691 -42.6969 -42.6395 -42.6130 -42.6072 -42.4180
   -42.3974 -42.2889 -42.2400 -42.2309 -42.2071 -42.1587 -41.9851 -41.9150
   -18.7901 -18.5768 -18.3783 -18.1357 -17.8955 -17.7585 -17.4183 -17.2699
   -17.2382 -17.1521 -16.9451 -16.8247 -16.1649  -7.2286  -7.0625  -7.0502
    -6.4405  -6.4212  -6.0394  -5.8040  -5.7497  -5.6261  -5.5673  -5.4576
    -5.2058  -5.0313  -4.9720  -4.4213  -4.0891  -4.0298  -3.4354  -3.2772
    -3.2352  -3.1527  -3.0765  -3.0479  -2.9017  -2.7380  -2.7200  -2.5672
    -2.4657  -2.3266  -2.1733  -2.1477  -2.0727  -2.0395  -1.8596  -1.7214
    -1.5787  -1.1109  -1.0635  -0.7159  -0.4117  -0.2200   0.0220   0.0619
     0.1475   0.3318   0.4612   0.5208   0.6865   0.6974   1.1490   1.2126
     1.3356   1.4425   1.6469   1.8735   2.1459   2.3623   2.5635   3.7052
     4.3396   4.7554   4.7635   4.8912   5.0576   5.3602   5.4043   5.4601

          k = 0.1250 0.1223 0.0000 ( 40932 PWs)   bands (ev):

   -73.4771 -72.7647 -72.5300 -72.3664 -72.3447 -72.0629 -44.0332 -43.3080
   -43.0813 -42.8383 -42.7691 -42.6962 -42.6395 -42.6117 -42.6072 -42.4180
   -42.3974 -42.2889 -42.2394 -42.2309 -42.2079 -42.1600 -41.9850 -41.9160
   -18.6756 -18.4518 -18.2576 -18.1842 -17.8985 -17.7968 -17.4492 -17.3879
   -17.3376 -17.3157 -16.9266 -16.8366 -16.1626  -6.8321  -6.6444  -6.6100
    -6.4446  -6.4003  -5.9442  -5.7627  -5.6880  -5.6378  -5.5267  -5.2499
    -5.2009  -5.0328  -4.8476  -4.4584  -4.2119  -4.0136  -3.9944  -3.6957
    -3.4648  -3.4352  -3.3532  -3.3225  -3.1761  -3.1267  -3.0548  -2.8187
    -2.6320  -2.5192  -2.3252  -2.2014  -2.0698  -1.9925  -1.7427  -1.5592
    -1.4269  -1.0715  -0.9880  -0.7894  -0.0659   0.1721   0.1962   0.2705
     0.3803   0.4436   0.6695   0.7427   0.7987   0.8830   1.1459   1.2311
     1.3604   1.4668   1.6686   1.7237   1.9272   2.3138   2.5820   4.0177
     4.3966   4.7369   4.8327   4.8609   5.0030   5.2014   5.2608   5.3760

          k = 0.1250-0.2445 0.0000 ( 40974 PWs)   bands (ev):

   -73.4771 -72.7647 -72.5300 -72.3664 -72.3447 -72.0629 -44.0332 -43.3081
   -43.0789 -42.8407 -42.7691 -42.6954 -42.6395 -42.6104 -42.6072 -42.4180
   -42.3974 -42.2889 -42.2387 -42.2309 -42.2087 -42.1614 -41.9850 -41.9170
   -18.4386 -18.3875 -18.2212 -18.0287 -17.9732 -17.8841 -17.5600 -17.5415
   -17.4780 -17.3772 -16.8954 -16.8641 -16.1607  -6.4802  -6.4487  -6.1296
    -5.9238  -5.8330  -5.7621  -5.7487  -5.6773  -5.6454  -5.6340  -5.2415
    -5.0588  -4.8941  -4.7743  -4.6306  -4.4712  -4.3160  -4.1669  -4.1361
    -4.0927  -3.9940  -3.8683  -3.7886  -3.4604  -3.3696  -3.2693  -2.8552
    -2.7242  -2.6269  -2.3148  -2.2301  -1.9359  -1.7669  -1.5528  -1.4017
    -1.1567  -1.0881  -1.0041  -0.9813   0.1808   0.1976   0.2971   0.3996
     0.5363   0.5805   0.7884   1.1063   1.1274   1.1419   1.2091   1.2555
     1.4068   1.4305   1.5336   1.6545   1.9251   2.0016   2.7288   4.0753
     4.4269   4.5519   4.7190   4.8396   5.0748   5.1050   5.2974   5.4310

          k = 0.1250-0.1223 0.0000 ( 40932 PWs)   bands (ev):

   -73.4771 -72.7647 -72.5300 -72.3664 -72.3447 -72.0629 -44.0332 -43.3080
   -43.0813 -42.8383 -42.7691 -42.6962 -42.6395 -42.6117 -42.6072 -42.4180
   -42.3974 -42.2889 -42.2394 -42.2309 -42.2079 -42.1600 -41.9850 -41.9160
   -18.6756 -18.4518 -18.2576 -18.1842 -17.8985 -17.7968 -17.4492 -17.3879
   -17.3376 -17.3157 -16.9266 -16.8366 -16.1626  -6.8321  -6.6444  -6.6100
    -6.4446  -6.4003  -5.9442  -5.7627  -5.6880  -5.6378  -5.5267  -5.2499
    -5.2009  -5.0328  -4.8476  -4.4584  -4.2119  -4.0136  -3.9944  -3.6957
    -3.4648  -3.4352  -3.3532  -3.3225  -3.1761  -3.1267  -3.0548  -2.8187
    -2.6320  -2.5192  -2.3252  -2.2014  -2.0698  -1.9925  -1.7427  -1.5592
    -1.4269  -1.0715  -0.9880  -0.7894  -0.0659   0.1721   0.1962   0.2705
     0.3803   0.4436   0.6695   0.7427   0.7987   0.8830   1.1459   1.2311
     1.3604   1.4668   1.6686   1.7237   1.9272   2.3138   2.5820   4.0177
     4.3966   4.7369   4.8327   4.8609   5.0030   5.2014   5.2608   5.3760

          k = 0.2500 0.0000 0.0000 ( 40947 PWs)   bands (ev):

   -73.4735 -72.7609 -72.5264 -72.3628 -72.3410 -72.0591 -44.0290 -43.3689
   -43.0713 -42.8373 -42.8335 -42.6920 -42.6284 -42.6075 -42.6027 -42.4800
   -42.3876 -42.3042 -42.2878 -42.2634 -42.2234 -42.1488 -42.0506 -41.9043
   -18.4642 -18.2880 -18.1101 -17.9643 -17.7732 -17.5586 -17.4688 -17.4306
   -17.4031 -17.3388 -17.0683 -16.8672 -16.2172  -6.7596  -6.6144  -6.5803
    -6.2424  -5.9933  -5.9657  -5.8512  -5.8022  -5.4670  -5.4371  -5.0421
    -4.9763  -4.6382  -4.5342  -4.5014  -4.3281  -4.1385  -4.0258  -3.9828
    -3.7502  -3.6708  -3.3386  -3.1934  -3.1199  -3.0021  -2.8510  -2.7920
    -2.6771  -2.4778  -2.3993  -2.2337  -2.1889  -2.1003  -2.0419  -1.6123
    -1.4621  -1.2538  -1.1972  -0.9669  -0.2418  -0.0976   0.1893   0.4513
     0.5145   0.5877   0.8022   0.9755   1.0678   1.1644   1.2012   1.3257
     1.3704   1.4692   1.5115   1.6176   1.8592   2.1820   2.4940   3.9488
     4.1720   4.2184   4.3982   4.6676   4.7407   4.8102   4.8820   4.9640

          k = 0.2500 0.1223 0.0000 ( 40905 PWs)   bands (ev):

   -73.4735 -72.7609 -72.5264 -72.3628 -72.3410 -72.0591 -44.0290 -43.3692
   -43.0700 -42.8373 -42.8345 -42.6919 -42.6284 -42.6075 -42.6027 -42.4800
   -42.3875 -42.3030 -42.2881 -42.2639 -42.2234 -42.1493 -42.0502 -41.9048
   -18.3770 -18.1931 -18.0147 -18.0038 -17.7652 -17.6400 -17.5392 -17.4977
   -17.4566 -17.3880 -17.0587 -16.8737 -16.2167  -6.4520  -6.3243  -6.2622
    -6.2111  -5.9834  -5.8634  -5.8128  -5.6394  -5.5603  -5.3601  -5.1019
    -4.7954  -4.7281  -4.6571  -4.5000  -4.4462  -4.3496  -4.2339  -4.1376
    -3.9957  -3.5674  -3.5033  -3.3496  -3.2050  -3.1766  -3.0130  -2.9231
    -2.7633  -2.6515  -2.4327  -2.2561  -2.1699  -2.1135  -1.9283  -1.6018
    -1.4268  -1.2504  -1.1629  -1.0204  -0.2165   0.1002   0.4248   0.4675
     0.5788   0.8372   0.8964   0.9699   1.0585   1.1432   1.2072   1.2698
     1.3629   1.5220   1.5958   1.6685   1.7976   2.0634   2.6109   3.7020
     4.0329   4.1423   4.2413   4.3709   4.6665   4.7729   5.2016   5.3506

          k = 0.2500-0.2445 0.0000 ( 40892 PWs)   bands (ev):

   -73.4735 -72.7609 -72.5264 -72.3627 -72.3410 -72.0591 -44.0290 -43.3696
   -43.0688 -42.8370 -42.8357 -42.6917 -42.6284 -42.6074 -42.6026 -42.4801
   -42.3875 -42.3019 -42.2884 -42.2643 -42.2234 -42.1498 -42.0498 -41.9053
   -18.1997 -18.1495 -17.9691 -17.9139 -17.7703 -17.7443 -17.6906 -17.6179
   -17.5030 -17.3903 -17.0489 -16.8813 -16.2162  -6.2631  -6.0278  -5.9435
    -5.8386  -5.7891  -5.7878  -5.6576  -5.5478  -5.3167  -5.2918  -5.2178
    -4.9953  -4.9869  -4.9544  -4.7770  -4.5839  -4.4883  -4.2423  -4.0449
    -3.8226  -3.7507  -3.6431  -3.6062  -3.5112  -3.4895  -3.2831  -3.2651
    -2.9239  -2.7846  -2.3792  -2.2424  -1.9545  -1.8626  -1.6692  -1.6114
    -1.3346  -1.2984  -1.1382  -1.1072  -0.0033   0.0327   0.2667   0.5753
     0.5952   0.8622   1.0197   1.0960   1.1233   1.1448   1.2811   1.3845
     1.3983   1.5943   1.6555   1.7819   1.8210   1.9219   2.7030   3.3047
     3.7554   3.8385   4.0880   4.3587   4.6830   5.0605   5.3037   5.5800

          k = 0.2500-0.1223 0.0000 ( 40905 PWs)   bands (ev):

   -73.4735 -72.7609 -72.5264 -72.3628 -72.3410 -72.0591 -44.0290 -43.3692
   -43.0700 -42.8373 -42.8345 -42.6919 -42.6284 -42.6075 -42.6027 -42.4800
   -42.3875 -42.3030 -42.2881 -42.2639 -42.2234 -42.1493 -42.0502 -41.9048
   -18.3770 -18.1931 -18.0147 -18.0038 -17.7652 -17.6400 -17.5392 -17.4977
   -17.4566 -17.3880 -17.0587 -16.8737 -16.2167  -6.4520  -6.3243  -6.2622
    -6.2111  -5.9834  -5.8634  -5.8128  -5.6394  -5.5603  -5.3601  -5.1019
    -4.7954  -4.7281  -4.6571  -4.5000  -4.4462  -4.3496  -4.2339  -4.1376
    -3.9957  -3.5674  -3.5033  -3.3496  -3.2050  -3.1766  -3.0130  -2.9231
    -2.7633  -2.6515  -2.4327  -2.2561  -2.1699  -2.1135  -1.9283  -1.6018
    -1.4268  -1.2504  -1.1629  -1.0204  -0.2165   0.1002   0.4248   0.4675
     0.5788   0.8372   0.8964   0.9699   1.0585   1.1432   1.2072   1.2698
     1.3629   1.5220   1.5958   1.6685   1.7976   2.0634   2.6109   3.7020
     4.0329   4.1423   4.2413   4.3709   4.6665   4.7729   5.2016   5.3506

          k = 0.3750 0.0000 0.0000 ( 40852 PWs)   bands (ev):

   -73.4700 -72.7570 -72.5227 -72.3591 -72.3373 -72.0554 -44.0248 -43.4293
   -43.0588 -42.9046 -42.8312 -42.6871 -42.6180 -42.6021 -42.5987 -42.5402
   -42.3803 -42.3648 -42.3361 -42.2701 -42.2159 -42.1388 -42.1151 -41.8935
   -18.1124 -17.9927 -17.8643 -17.8395 -17.7375 -17.6289 -17.5972 -17.5249
   -17.4455 -17.4074 -17.0817 -16.8343 -16.1895  -6.3287  -6.1653  -6.0438
    -6.0197  -5.8940  -5.8428  -5.6417  -5.6138  -5.4937  -5.3933  -5.2012
    -5.0470  -4.8225  -4.7856  -4.5752  -4.4152  -4.3643  -4.2027  -3.9626
    -3.6635  -3.4925  -3.4072  -3.3772  -3.3306  -3.1633  -3.0805  -2.8114
    -2.6638  -2.5925  -2.4320  -2.2689  -2.2102  -2.0286  -1.9500  -1.5164
    -1.3800  -1.3754  -1.2293  -0.9669  -0.1614   0.0258   0.2724   0.4785
     0.5878   0.6661   0.7610   0.7833   0.8678   1.0348   1.1556   1.2249
     1.3838   1.5263   1.6539   1.7940   1.9666   2.1531   2.3684   3.4187
     3.7959   4.0586   4.2755   4.3876   4.4855   4.5390   4.7824   4.9427

          k = 0.3750 0.1223 0.0000 ( 40842 PWs)   bands (ev):

   -73.4700 -72.7570 -72.5227 -72.3591 -72.3373 -72.0554 -44.0248 -43.4298
   -43.0589 -42.9041 -42.8311 -42.6876 -42.6180 -42.6036 -42.5986 -42.5403
   -42.3799 -42.3633 -42.3366 -42.2702 -42.2158 -42.1386 -42.1144 -41.8936
   -18.0928 -17.9920 -17.9303 -17.8708 -17.8048 -17.6247 -17.5314 -17.4751
   -17.4400 -17.3928 -17.0810 -16.8381 -16.1897  -6.2040  -6.1184  -6.0865
    -6.0414  -5.9513  -5.7554  -5.6473  -5.5940  -5.5088  -5.4614  -5.3451
    -5.0352  -4.7734  -4.7027  -4.5331  -4.4536  -4.2794  -4.0418  -3.8524
    -3.6428  -3.5598  -3.3469  -3.3006  -3.2272  -3.1328  -3.0380  -2.8699
    -2.7312  -2.6006  -2.4889  -2.2829  -2.1757  -2.0560  -1.9364  -1.6250
    -1.5369  -1.4020  -1.2588  -1.1188  -0.1262  -0.0810   0.1974   0.2495
     0.5391   0.6089   0.6399   0.7630   0.8124   0.9291   0.9588   1.2236
     1.6692   1.7414   1.8337   1.8825   2.0342   2.0627   2.4789   3.1719
     3.4834   3.6549   3.7534   4.0995   4.2935   5.1210   5.4516   5.5671

          k = 0.3750-0.2445 0.0000 ( 40856 PWs)   bands (ev):

   -73.4700 -72.7570 -72.5227 -72.3591 -72.3373 -72.0554 -44.0248 -43.4303
   -43.0589 -42.9036 -42.8310 -42.6881 -42.6180 -42.6050 -42.5986 -42.5405
   -42.3796 -42.3618 -42.3371 -42.2702 -42.2158 -42.1384 -42.1136 -41.8936
   -18.0428 -18.0249 -17.9857 -17.8970 -17.8420 -17.6325 -17.4810 -17.4539
   -17.4198 -17.3794 -17.0801 -16.8419 -16.1900  -6.2471  -6.0669  -5.9232
    -5.9104  -5.8552  -5.8093  -5.7468  -5.6775  -5.6599  -5.5517  -5.4041
    -4.9342  -4.7861  -4.5465  -4.4924  -4.2865  -4.2047  -4.0651  -3.7289
    -3.5398  -3.4396  -3.4056  -3.2767  -3.2565  -3.1505  -3.1075  -2.9714
    -2.7688  -2.7300  -2.3550  -2.2146  -2.1548  -2.0230  -1.8931  -1.8415
    -1.5788  -1.4296  -1.2763  -1.2472  -0.3224  -0.2594  -0.0986   0.3175
     0.4469   0.6062   0.6799   0.7705   0.8228   0.8814   1.0124   1.2126
     1.5738   1.7943   1.9553   1.9855   2.1163   2.2139   2.5771   2.7748
     3.2186   3.3216   3.5150   4.1239   4.2959   5.4985   5.5901   5.8030

          k = 0.3750-0.1223 0.0000 ( 40842 PWs)   bands (ev):

   -73.4700 -72.7570 -72.5227 -72.3591 -72.3373 -72.0554 -44.0248 -43.4298
   -43.0589 -42.9041 -42.8311 -42.6876 -42.6180 -42.6036 -42.5986 -42.5403
   -42.3799 -42.3633 -42.3366 -42.2702 -42.2158 -42.1386 -42.1144 -41.8936
   -18.0928 -17.9920 -17.9303 -17.8708 -17.8048 -17.6247 -17.5314 -17.4751
   -17.4400 -17.3928 -17.0810 -16.8381 -16.1897  -6.2040  -6.1184  -6.0865
    -6.0414  -5.9513  -5.7554  -5.6473  -5.5940  -5.5088  -5.4614  -5.3451
    -5.0352  -4.7734  -4.7027  -4.5331  -4.4536  -4.2794  -4.0418  -3.8524
    -3.6428  -3.5598  -3.3469  -3.3006  -3.2272  -3.1328  -3.0380  -2.8699
    -2.7312  -2.6006  -2.4889  -2.2829  -2.1757  -2.0560  -1.9364  -1.6250
    -1.5369  -1.4020  -1.2588  -1.1188  -0.1262  -0.0810   0.1974   0.2495
     0.5391   0.6089   0.6399   0.7630   0.8124   0.9291   0.9588   1.2236
     1.6692   1.7414   1.8337   1.8825   2.0342   2.0627   2.4789   3.1719
     3.4834   3.6549   3.7534   4.0995   4.2935   5.1210   5.4516   5.5671

          k =-0.5000 0.0000 0.0000 ( 40876 PWs)   bands (ev):

   -73.4685 -72.7554 -72.5212 -72.3576 -72.3358 -72.0538 -44.0231 -43.4541
   -43.0536 -42.9322 -42.8303 -42.6850 -42.6152 -42.5998 -42.5968 -42.5638
   -42.3960 -42.3709 -42.3610 -42.2679 -42.2128 -42.1415 -42.1346 -41.8891
   -17.9946 -17.8409 -17.8285 -17.7817 -17.7071 -17.6841 -17.6624 -17.5957
   -17.4664 -17.4042 -17.0097 -16.8077 -16.1529  -6.3224  -6.1396  -5.9759
    -5.7860  -5.7567  -5.6891  -5.5803  -5.5299  -5.5167  -5.4187  -5.3108
    -5.1535  -5.0248  -4.9042  -4.7293  -4.4971  -4.0771  -3.8316  -3.7874
    -3.6819  -3.6755  -3.6710  -3.5689  -3.4053  -2.9524  -2.8536  -2.7096
    -2.6029  -2.4696  -2.4641  -2.3575  -2.1588  -1.9789  -1.8277  -1.7137
    -1.6086  -1.2420  -1.1137  -0.8980  -0.2005   0.0841   0.0843   0.4663
     0.5331   0.5744   0.6419   0.6686   0.7253   0.7912   1.0341   1.1627
     1.3245   1.5074   1.8499   1.9319   2.1489   2.2560   2.3254   3.1982
     3.6474   4.0160   4.2149   4.2556   4.3678   4.5489   4.7582   4.9124

          k =-0.5000 0.1223 0.0000 ( 40858 PWs)   bands (ev):

   -73.4685 -72.7554 -72.5212 -72.3576 -72.3358 -72.0538 -44.0231 -43.4547
   -43.0543 -42.9315 -42.8297 -42.6859 -42.6153 -42.6022 -42.5967 -42.5639
   -42.3939 -42.3707 -42.3614 -42.2679 -42.2128 -42.1406 -42.1341 -41.8889
   -17.9877 -17.9580 -17.9526 -17.9058 -17.8446 -17.5332 -17.4664 -17.4652
   -17.4229 -17.4047 -17.0116 -16.8101 -16.1524  -6.2673  -6.2284  -6.1024
    -6.0985  -5.9965  -5.7512  -5.6610  -5.6082  -5.6006  -5.4061  -5.1722
    -5.0870  -4.8327  -4.5816  -4.4043  -4.1148  -3.8674  -3.8259  -3.7955
    -3.7701  -3.6415  -3.6290  -3.6038  -3.0069  -2.9396  -2.8139  -2.6126
    -2.5948  -2.5125  -2.4906  -2.2610  -2.1846  -2.1328  -1.8355  -1.6595
    -1.6231  -1.4894  -1.3015  -1.0831  -0.1940  -0.0351   0.0366   0.0872
     0.2086   0.4502   0.4938   0.5655   0.5948   0.6399   0.7472   1.1803
     1.8159   1.8528   2.0077   2.0166   2.1844   2.2038   2.4058   3.0146
     3.2458   3.4561   3.5812   4.0447   4.2176   5.3158   5.5984   5.6282

          k =-0.5000-0.2445 0.0000 ( 40872 PWs)   bands (ev):

   -73.4685 -72.7554 -72.5212 -72.3576 -72.3358 -72.0538 -44.0231 -43.4553
   -43.0551 -42.9307 -42.8290 -42.6867 -42.6153 -42.6044 -42.5966 -42.5640
   -42.3918 -42.3705 -42.3618 -42.2679 -42.2128 -42.1397 -42.1337 -41.8887
   -18.0447 -18.0311 -17.9969 -17.9803 -17.8490 -17.4637 -17.4537 -17.4054
   -17.3667 -17.3253 -17.0136 -16.8125 -16.1519  -6.4735  -6.2693  -6.1975
    -6.0965  -6.0637  -5.7544  -5.6688  -5.6680  -5.6313  -5.4909  -5.1706
    -5.0459  -4.9541  -4.1793  -4.1214  -3.9082  -3.8685  -3.8250  -3.5937
    -3.5842  -3.5178  -3.4138  -3.2423  -3.1793  -2.8925  -2.8543  -2.7959
    -2.6618  -2.4149  -2.3164  -2.2012  -2.1270  -1.9351  -1.9141  -1.7879
    -1.7519  -1.7140  -1.5790  -1.2629  -0.5081  -0.2293  -0.1907   0.0111
     0.1065   0.1864   0.4534   0.4733   0.6043   0.6391   0.7614   1.2182
     1.7500   1.9229   2.0394   2.1223   2.3620   2.3705   2.4602   2.6418
     3.0713   3.1934   3.2821   4.0716   4.2196   5.7066   5.7646   5.8236

          k =-0.5000-0.1223 0.0000 ( 40858 PWs)   bands (ev):

   -73.4685 -72.7554 -72.5212 -72.3576 -72.3358 -72.0538 -44.0231 -43.4547
   -43.0543 -42.9315 -42.8297 -42.6859 -42.6153 -42.6022 -42.5967 -42.5639
   -42.3939 -42.3707 -42.3614 -42.2679 -42.2128 -42.1406 -42.1341 -41.8889
   -17.9877 -17.9580 -17.9526 -17.9058 -17.8446 -17.5332 -17.4664 -17.4652
   -17.4229 -17.4047 -17.0116 -16.8101 -16.1524  -6.2673  -6.2284  -6.1024
    -6.0985  -5.9965  -5.7512  -5.6610  -5.6082  -5.6006  -5.4061  -5.1722
    -5.0870  -4.8327  -4.5816  -4.4043  -4.1148  -3.8674  -3.8259  -3.7955
    -3.7701  -3.6415  -3.6290  -3.6038  -3.0069  -2.9396  -2.8139  -2.6126
    -2.5948  -2.5125  -2.4906  -2.2610  -2.1846  -2.1328  -1.8355  -1.6595
    -1.6231  -1.4894  -1.3015  -1.0831  -0.1940  -0.0351   0.0366   0.0872
     0.2086   0.4502   0.4938   0.5655   0.5948   0.6399   0.7472   1.1803
     1.8159   1.8528   2.0077   2.0166   2.1844   2.2038   2.4058   3.0146
     3.2458   3.4561   3.5812   4.0447   4.2176   5.3158   5.5984   5.6282

          k =-0.3750 0.0000 0.0000 ( 40852 PWs)   bands (ev):

   -73.4700 -72.7570 -72.5227 -72.3591 -72.3373 -72.0554 -44.0248 -43.4293
   -43.0588 -42.9046 -42.8312 -42.6871 -42.6180 -42.6021 -42.5987 -42.5402
   -42.3803 -42.3648 -42.3361 -42.2701 -42.2159 -42.1388 -42.1151 -41.8935
   -18.1124 -17.9927 -17.8643 -17.8395 -17.7375 -17.6289 -17.5972 -17.5249
   -17.4455 -17.4074 -17.0817 -16.8343 -16.1895  -6.3287  -6.1653  -6.0438
    -6.0197  -5.8940  -5.8428  -5.6417  -5.6138  -5.4937  -5.3933  -5.2012
    -5.0470  -4.8225  -4.7856  -4.5752  -4.4152  -4.3643  -4.2027  -3.9626
    -3.6635  -3.4925  -3.4072  -3.3772  -3.3306  -3.1633  -3.0805  -2.8114
    -2.6638  -2.5925  -2.4320  -2.2689  -2.2102  -2.0286  -1.9500  -1.5164
    -1.3800  -1.3754  -1.2293  -0.9669  -0.1614   0.0258   0.2724   0.4785
     0.5878   0.6661   0.7610   0.7833   0.8678   1.0348   1.1556   1.2249
     1.3838   1.5263   1.6539   1.7940   1.9666   2.1531   2.3684   3.4187
     3.7959   4.0586   4.2755   4.3876   4.4855   4.5390   4.7824   4.9427

          k =-0.3750 0.1223 0.0000 ( 40842 PWs)   bands (ev):

   -73.4700 -72.7570 -72.5227 -72.3591 -72.3373 -72.0554 -44.0248 -43.4298
   -43.0589 -42.9041 -42.8311 -42.6876 -42.6180 -42.6036 -42.5986 -42.5403
   -42.3799 -42.3633 -42.3366 -42.2702 -42.2158 -42.1386 -42.1144 -41.8936
   -18.0928 -17.9920 -17.9303 -17.8708 -17.8048 -17.6247 -17.5314 -17.4751
   -17.4400 -17.3928 -17.0810 -16.8381 -16.1897  -6.2040  -6.1184  -6.0865
    -6.0414  -5.9513  -5.7554  -5.6473  -5.5940  -5.5088  -5.4614  -5.3451
    -5.0352  -4.7734  -4.7027  -4.5331  -4.4536  -4.2794  -4.0418  -3.8524
    -3.6428  -3.5598  -3.3469  -3.3006  -3.2272  -3.1328  -3.0380  -2.8699
    -2.7312  -2.6006  -2.4889  -2.2829  -2.1757  -2.0560  -1.9364  -1.6250
    -1.5369  -1.4020  -1.2588  -1.1188  -0.1262  -0.0810   0.1974   0.2495
     0.5391   0.6089   0.6399   0.7630   0.8124   0.9291   0.9588   1.2236
     1.6692   1.7414   1.8337   1.8825   2.0342   2.0627   2.4789   3.1719
     3.4834   3.6549   3.7534   4.0995   4.2935   5.1210   5.4516   5.5671

          k =-0.3750-0.2445 0.0000 ( 40856 PWs)   bands (ev):

   -73.4700 -72.7570 -72.5227 -72.3591 -72.3373 -72.0554 -44.0248 -43.4303
   -43.0589 -42.9036 -42.8310 -42.6881 -42.6180 -42.6050 -42.5986 -42.5405
   -42.3796 -42.3618 -42.3371 -42.2702 -42.2158 -42.1384 -42.1136 -41.8936
   -18.0428 -18.0249 -17.9857 -17.8970 -17.8420 -17.6325 -17.4810 -17.4539
   -17.4198 -17.3794 -17.0801 -16.8419 -16.1900  -6.2471  -6.0669  -5.9232
    -5.9104  -5.8552  -5.8093  -5.7468  -5.6775  -5.6599  -5.5517  -5.4041
    -4.9342  -4.7861  -4.5465  -4.4924  -4.2865  -4.2047  -4.0651  -3.7289
    -3.5398  -3.4396  -3.4056  -3.2767  -3.2565  -3.1505  -3.1075  -2.9714
    -2.7688  -2.7300  -2.3550  -2.2146  -2.1548  -2.0230  -1.8931  -1.8415
    -1.5788  -1.4296  -1.2763  -1.2472  -0.3224  -0.2594  -0.0986   0.3175
     0.4469   0.6062   0.6799   0.7705   0.8228   0.8814   1.0124   1.2126
     1.5738   1.7943   1.9553   1.9855   2.1163   2.2139   2.5771   2.7748
     3.2186   3.3216   3.5150   4.1239   4.2959   5.4985   5.5901   5.8030

          k =-0.3750-0.1223 0.0000 ( 40842 PWs)   bands (ev):

   -73.4700 -72.7570 -72.5227 -72.3591 -72.3373 -72.0554 -44.0248 -43.4298
   -43.0589 -42.9041 -42.8311 -42.6876 -42.6180 -42.6036 -42.5986 -42.5403
   -42.3799 -42.3633 -42.3366 -42.2702 -42.2158 -42.1386 -42.1144 -41.8936
   -18.0928 -17.9920 -17.9303 -17.8708 -17.8048 -17.6247 -17.5314 -17.4751
   -17.4400 -17.3928 -17.0810 -16.8381 -16.1897  -6.2040  -6.1184  -6.0865
    -6.0414  -5.9513  -5.7554  -5.6473  -5.5940  -5.5088  -5.4614  -5.3451
    -5.0352  -4.7734  -4.7027  -4.5331  -4.4536  -4.2794  -4.0418  -3.8524
    -3.6428  -3.5598  -3.3469  -3.3006  -3.2272  -3.1328  -3.0380  -2.8699
    -2.7312  -2.6006  -2.4889  -2.2829  -2.1757  -2.0560  -1.9364  -1.6250
    -1.5369  -1.4020  -1.2588  -1.1188  -0.1262  -0.0810   0.1974   0.2495
     0.5391   0.6089   0.6399   0.7630   0.8124   0.9291   0.9588   1.2236
     1.6692   1.7414   1.8337   1.8825   2.0342   2.0627   2.4789   3.1719
     3.4834   3.6549   3.7534   4.0995   4.2935   5.1210   5.4516   5.5671

          k =-0.2500 0.0000 0.0000 ( 40947 PWs)   bands (ev):

   -73.4735 -72.7609 -72.5264 -72.3628 -72.3410 -72.0591 -44.0290 -43.3689
   -43.0713 -42.8373 -42.8335 -42.6920 -42.6284 -42.6075 -42.6027 -42.4800
   -42.3876 -42.3042 -42.2878 -42.2634 -42.2234 -42.1488 -42.0506 -41.9043
   -18.4642 -18.2880 -18.1101 -17.9643 -17.7732 -17.5586 -17.4688 -17.4306
   -17.4031 -17.3388 -17.0683 -16.8672 -16.2172  -6.7596  -6.6144  -6.5803
    -6.2424  -5.9933  -5.9657  -5.8512  -5.8022  -5.4670  -5.4371  -5.0421
    -4.9763  -4.6382  -4.5342  -4.5014  -4.3281  -4.1385  -4.0258  -3.9828
    -3.7502  -3.6708  -3.3386  -3.1934  -3.1199  -3.0021  -2.8510  -2.7920
    -2.6771  -2.4778  -2.3993  -2.2337  -2.1889  -2.1003  -2.0419  -1.6123
    -1.4621  -1.2538  -1.1972  -0.9669  -0.2418  -0.0976   0.1893   0.4513
     0.5145   0.5877   0.8022   0.9755   1.0678   1.1644   1.2012   1.3257
     1.3704   1.4692   1.5115   1.6176   1.8592   2.1820   2.4940   3.9488
     4.1720   4.2184   4.3982   4.6676   4.7407   4.8102   4.8820   4.9640

          k =-0.2500 0.1223 0.0000 ( 40905 PWs)   bands (ev):

   -73.4735 -72.7609 -72.5264 -72.3628 -72.3410 -72.0591 -44.0290 -43.3692
   -43.0700 -42.8373 -42.8345 -42.6919 -42.6284 -42.6075 -42.6027 -42.4800
   -42.3875 -42.3030 -42.2881 -42.2639 -42.2234 -42.1493 -42.0502 -41.9048
   -18.3770 -18.1931 -18.0147 -18.0038 -17.7652 -17.6400 -17.5392 -17.4977
   -17.4566 -17.3880 -17.0587 -16.8737 -16.2167  -6.4520  -6.3243  -6.2622
    -6.2111  -5.9834  -5.8634  -5.8128  -5.6394  -5.5603  -5.3601  -5.1019
    -4.7954  -4.7281  -4.6571  -4.5000  -4.4462  -4.3496  -4.2339  -4.1376
    -3.9957  -3.5674  -3.5033  -3.3496  -3.2050  -3.1766  -3.0130  -2.9231
    -2.7633  -2.6515  -2.4327  -2.2561  -2.1699  -2.1135  -1.9283  -1.6018
    -1.4268  -1.2504  -1.1629  -1.0204  -0.2165   0.1002   0.4248   0.4675
     0.5788   0.8372   0.8964   0.9699   1.0585   1.1432   1.2072   1.2698
     1.3629   1.5220   1.5958   1.6685   1.7976   2.0634   2.6109   3.7020
     4.0329   4.1423   4.2413   4.3709   4.6665   4.7729   5.2016   5.3506

          k =-0.2500-0.2445 0.0000 ( 40892 PWs)   bands (ev):

   -73.4735 -72.7609 -72.5264 -72.3627 -72.3410 -72.0591 -44.0290 -43.3696
   -43.0688 -42.8370 -42.8357 -42.6917 -42.6284 -42.6074 -42.6026 -42.4801
   -42.3875 -42.3019 -42.2884 -42.2643 -42.2234 -42.1498 -42.0498 -41.9053
   -18.1997 -18.1495 -17.9691 -17.9139 -17.7703 -17.7443 -17.6906 -17.6179
   -17.5030 -17.3903 -17.0489 -16.8813 -16.2162  -6.2631  -6.0278  -5.9435
    -5.8386  -5.7891  -5.7878  -5.6576  -5.5478  -5.3167  -5.2918  -5.2178
    -4.9953  -4.9869  -4.9544  -4.7770  -4.5839  -4.4883  -4.2423  -4.0449
    -3.8226  -3.7507  -3.6431  -3.6062  -3.5112  -3.4895  -3.2831  -3.2651
    -2.9239  -2.7846  -2.3792  -2.2424  -1.9545  -1.8626  -1.6692  -1.6114
    -1.3346  -1.2984  -1.1382  -1.1072  -0.0033   0.0327   0.2667   0.5753
     0.5952   0.8622   1.0197   1.0960   1.1233   1.1448   1.2811   1.3845
     1.3983   1.5943   1.6555   1.7819   1.8210   1.9219   2.7030   3.3047
     3.7554   3.8385   4.0880   4.3587   4.6830   5.0605   5.3037   5.5800

          k =-0.2500-0.1223 0.0000 ( 40905 PWs)   bands (ev):

   -73.4735 -72.7609 -72.5264 -72.3628 -72.3410 -72.0591 -44.0290 -43.3692
   -43.0700 -42.8373 -42.8345 -42.6919 -42.6284 -42.6075 -42.6027 -42.4800
   -42.3875 -42.3030 -42.2881 -42.2639 -42.2234 -42.1493 -42.0502 -41.9048
   -18.3770 -18.1931 -18.0147 -18.0038 -17.7652 -17.6400 -17.5392 -17.4977
   -17.4566 -17.3880 -17.0587 -16.8737 -16.2167  -6.4520  -6.3243  -6.2622
    -6.2111  -5.9834  -5.8634  -5.8128  -5.6394  -5.5603  -5.3601  -5.1019
    -4.7954  -4.7281  -4.6571  -4.5000  -4.4462  -4.3496  -4.2339  -4.1376
    -3.9957  -3.5674  -3.5033  -3.3496  -3.2050  -3.1766  -3.0130  -2.9231
    -2.7633  -2.6515  -2.4327  -2.2561  -2.1699  -2.1135  -1.9283  -1.6018
    -1.4268  -1.2504  -1.1629  -1.0204  -0.2165   0.1002   0.4248   0.4675
     0.5788   0.8372   0.8964   0.9699   1.0585   1.1432   1.2072   1.2698
     1.3629   1.5220   1.5958   1.6685   1.7976   2.0634   2.6109   3.7020
     4.0329   4.1423   4.2413   4.3709   4.6665   4.7729   5.2016   5.3506

          k =-0.1250 0.0000 0.0000 ( 40851 PWs)   bands (ev):

   -73.4771 -72.7647 -72.5300 -72.3665 -72.3446 -72.0628 -44.0332 -43.3079
   -43.0836 -42.8359 -42.7691 -42.6969 -42.6395 -42.6130 -42.6072 -42.4180
   -42.3974 -42.2889 -42.2400 -42.2309 -42.2071 -42.1587 -41.9851 -41.9150
   -18.7901 -18.5768 -18.3783 -18.1357 -17.8955 -17.7585 -17.4183 -17.2699
   -17.2382 -17.1521 -16.9451 -16.8247 -16.1649  -7.2286  -7.0625  -7.0502
    -6.4405  -6.4212  -6.0394  -5.8040  -5.7497  -5.6261  -5.5673  -5.4576
    -5.2058  -5.0313  -4.9720  -4.4213  -4.0891  -4.0298  -3.4354  -3.2772
    -3.2352  -3.1527  -3.0765  -3.0479  -2.9017  -2.7380  -2.7200  -2.5672
    -2.4657  -2.3266  -2.1733  -2.1477  -2.0727  -2.0395  -1.8596  -1.7214
    -1.5787  -1.1109  -1.0635  -0.7159  -0.4117  -0.2200   0.0220   0.0619
     0.1475   0.3318   0.4612   0.5208   0.6865   0.6974   1.1490   1.2126
     1.3356   1.4425   1.6469   1.8735   2.1459   2.3623   2.5635   3.7052
     4.3396   4.7554   4.7635   4.8912   5.0576   5.3602   5.4043   5.4601

          k =-0.1250 0.1223 0.0000 ( 40932 PWs)   bands (ev):

   -73.4771 -72.7647 -72.5300 -72.3664 -72.3447 -72.0629 -44.0332 -43.3080
   -43.0813 -42.8383 -42.7691 -42.6962 -42.6395 -42.6117 -42.6072 -42.4180
   -42.3974 -42.2889 -42.2394 -42.2309 -42.2079 -42.1600 -41.9850 -41.9160
   -18.6756 -18.4518 -18.2576 -18.1842 -17.8985 -17.7968 -17.4492 -17.3879
   -17.3376 -17.3157 -16.9266 -16.8366 -16.1626  -6.8321  -6.6444  -6.6100
    -6.4446  -6.4003  -5.9442  -5.7627  -5.6880  -5.6378  -5.5267  -5.2499
    -5.2009  -5.0328  -4.8476  -4.4584  -4.2119  -4.0136  -3.9944  -3.6957
    -3.4648  -3.4352  -3.3532  -3.3225  -3.1761  -3.1267  -3.0548  -2.8187
    -2.6320  -2.5192  -2.3252  -2.2014  -2.0698  -1.9925  -1.7427  -1.5592
    -1.4269  -1.0715  -0.9880  -0.7894  -0.0659   0.1721   0.1962   0.2705
     0.3803   0.4436   0.6695   0.7427   0.7987   0.8830   1.1459   1.2311
     1.3604   1.4668   1.6686   1.7237   1.9272   2.3138   2.5820   4.0177
     4.3966   4.7369   4.8327   4.8609   5.0030   5.2014   5.2608   5.3760

          k =-0.1250-0.2445 0.0000 ( 40974 PWs)   bands (ev):

   -73.4771 -72.7647 -72.5300 -72.3664 -72.3447 -72.0629 -44.0332 -43.3081
   -43.0789 -42.8407 -42.7691 -42.6954 -42.6395 -42.6104 -42.6072 -42.4180
   -42.3974 -42.2889 -42.2387 -42.2309 -42.2087 -42.1614 -41.9850 -41.9170
   -18.4386 -18.3875 -18.2212 -18.0287 -17.9732 -17.8841 -17.5600 -17.5415
   -17.4780 -17.3772 -16.8954 -16.8641 -16.1607  -6.4802  -6.4487  -6.1296
    -5.9238  -5.8330  -5.7621  -5.7487  -5.6773  -5.6454  -5.6340  -5.2415
    -5.0588  -4.8941  -4.7743  -4.6306  -4.4712  -4.3160  -4.1669  -4.1361
    -4.0927  -3.9940  -3.8683  -3.7886  -3.4604  -3.3696  -3.2693  -2.8552
    -2.7242  -2.6269  -2.3148  -2.2301  -1.9359  -1.7669  -1.5528  -1.4017
    -1.1567  -1.0881  -1.0041  -0.9813   0.1808   0.1976   0.2971   0.3996
     0.5363   0.5805   0.7884   1.1063   1.1274   1.1419   1.2091   1.2555
     1.4068   1.4305   1.5336   1.6545   1.9251   2.0016   2.7288   4.0753
     4.4269   4.5519   4.7190   4.8396   5.0748   5.1050   5.2974   5.4310

          k =-0.1250-0.1223 0.0000 ( 40932 PWs)   bands (ev):

   -73.4771 -72.7647 -72.5300 -72.3664 -72.3447 -72.0629 -44.0332 -43.3080
   -43.0813 -42.8383 -42.7691 -42.6962 -42.6395 -42.6117 -42.6072 -42.4180
   -42.3974 -42.2889 -42.2394 -42.2309 -42.2079 -42.1600 -41.9850 -41.9160
   -18.6756 -18.4518 -18.2576 -18.1842 -17.8985 -17.7968 -17.4492 -17.3879
   -17.3376 -17.3157 -16.9266 -16.8366 -16.1626  -6.8321  -6.6444  -6.6100
    -6.4446  -6.4003  -5.9442  -5.7627  -5.6880  -5.6378  -5.5267  -5.2499
    -5.2009  -5.0328  -4.8476  -4.4584  -4.2119  -4.0136  -3.9944  -3.6957
    -3.4648  -3.4352  -3.3532  -3.3225  -3.1761  -3.1267  -3.0548  -2.8187
    -2.6320  -2.5192  -2.3252  -2.2014  -2.0698  -1.9925  -1.7427  -1.5592
    -1.4269  -1.0715  -0.9880  -0.7894  -0.0659   0.1721   0.1962   0.2705
     0.3803   0.4436   0.6695   0.7427   0.7987   0.8830   1.1459   1.2311
     1.3604   1.4668   1.6686   1.7237   1.9272   2.3138   2.5820   4.0177
     4.3966   4.7369   4.8327   4.8609   5.0030   5.2014   5.2608   5.3760

     the Fermi energy is     1.1991 ev

!    total energy              =   -1672.25400069 Ry
     estimated scf accuracy    <          6.1E-09 Ry
     smearing contrib. (-TS)   =      -0.00186979 Ry
     internal energy E=F+TS    =   -1672.25213090 Ry

     The total energy is F=E-TS. E is the sum of the following terms:
     one-electron contribution =  -16952.43257653 Ry
     hartree contribution      =    8498.27439629 Ry
     xc contribution           =    -214.03070931 Ry
     ewald contribution        =    7119.72395633 Ry
     one-center paw contrib.   =    -123.78719767 Ry

     convergence has been achieved in  11 iterations

     negative rho (up, down):  1.106E-04 0.000E+00

     Forces acting on atoms (cartesian axes, Ry/au):

     atom    1 type  1   force =    -0.00000000   -0.00022066    0.07088473
     atom    2 type  1   force =     0.00000000    0.00005407   -0.09052256
     atom    3 type  1   force =     0.00000001   -0.00031138    0.00011444
     atom    4 type  1   force =    -0.00000005   -0.00016615   -0.00059792
     atom    5 type  1   force =    -0.00000003    0.00081166   -0.00031326
     atom    6 type  1   force =     0.00000004    0.00017602   -0.00082186
     atom    7 type  2   force =    -0.00000000    0.00018994    0.01882827
     atom    8 type  2   force =    -0.00000000    0.00017140    0.06201156
     atom    9 type  2   force =     0.00000000    0.02397138   -0.02496994
     atom   10 type  2   force =     0.00000000   -0.02434238   -0.02460319
     atom   11 type  2   force =    -0.00000000   -0.00078745   -0.00103629
     atom   12 type  2   force =     0.00000003    0.00120140   -0.00883719
     atom   13 type  2   force =    -0.00000003   -0.00060702    0.00100787
     atom   14 type  2   force =     0.00000002   -0.00074470   -0.00149187
     atom   15 type  2   force =    -0.00000000   -0.00193090   -0.00038167
     atom   16 type  2   force =     0.00000002    0.00412301   -0.00010656
     atom   17 type  2   force =     0.00000002    0.00025084   -0.00350291
     atom   18 type  2   force =     0.00000001    0.00052290    0.00429696
     atom   19 type  2   force =    -0.00000003   -0.00236200    0.00004139

     Total force =     0.008084     Total SCF correction =     0.000359
     Energy error            =      1.7E-04 Ry
     Gradient error          =      4.3E-03 Ry/Bohr

     number of scf cycles    =   8
     number of bfgs steps    =   7

     energy             old  =   -1672.2538268849 Ry
     energy             new  =   -1672.2540006903 Ry

     CASE: energy            _new < energy            _old

     new trust radius        =       0.0232809620 bohr
     new conv_thr            =       0.0000000174 Ry


ATOMIC_POSITIONS (angstrom)
Ru               0.0000000000        1.5881618300        9.5289709800    0   0   0
Ru               1.5535000000        4.7644854900        9.5289709800    0   0   0
Ru              -0.0000000469        4.7722929118       12.7217686243
Ru               1.5534999901        1.5915535745       12.7081945488
Ru              -0.0000000199        1.6192790499       16.0594420208
Ru               1.5534998927        4.7836691609       15.9511782039
O                0.0000000000        4.7644854900       10.7677372100    0   0   0
O                0.0000000000        4.7644854900        8.2902047600    0   0   0
O                1.5535000000        0.3493956000        9.5289709800    0   0   0
O                1.5535000000        2.8269280600        9.5289709800    0   0   0
O                0.0000000158        1.5701265935       13.9820779683
O                0.0000000000        1.5881618300       11.4665284200    0   0   0
O                1.5535000555        3.5364953241       12.7086201167
O                1.5534998978        6.0046408475       12.7070325385
O               -0.0000001137        4.7670834009       17.0537704551
O               -0.0000000905        4.8016531556       14.6513189202
O                1.5534999786        0.3922787661       15.9502065381
O                1.5534999937        2.8287960674       15.7752937031
O                0.0000002278        1.8000820600       17.7459595815



     Writing config-only to output data dir ./tmp_s0_O__1x1_off/s0_O__1x1_off.save/ :
     XML data file
     NEW-OLD atomic charge density approx. for the potential

     negative rho (up, down):  1.107E-04 0.000E+00

     total cpu time spent up to now is    11261.6 secs

     per-process dynamical memory:  1113.7 Mb

     Self-consistent Calculation

     iteration #  1     ecut=    80.00 Ry     beta= 0.30
     Davidson diagonalization with overlap
     ethr =  1.00E-06,  avg # of iterations =  4.2

     Threshold (ethr) on eigenvalues was too large:
     Diagonalizing with lowered threshold

     Davidson diagonalization with overlap
     ethr =  5.49E-08,  avg # of iterations =  2.7

     negative rho (up, down):  1.080E-04 0.000E+00

     total cpu time spent up to now is    11542.2 secs

     total energy              =   -1672.25416394 Ry
     estimated scf accuracy    <       0.00009991 Ry

     iteration #  2     ecut=    80.00 Ry     beta= 0.30
     Davidson diagonalization with overlap
     ethr =  5.74E-08,  avg # of iterations =  1.0

     negative rho (up, down):  1.043E-04 0.000E+00

     total cpu time spent up to now is    11645.8 secs

     total energy              =   -1672.25415650 Ry
     estimated scf accuracy    <       0.00004858 Ry

     iteration #  3     ecut=    80.00 Ry     beta= 0.30
     Davidson diagonalization with overlap
     ethr =  2.79E-08,  avg # of iterations =  1.8

     negative rho (up, down):  1.014E-04 0.000E+00

     total cpu time spent up to now is    11753.2 secs

     total energy              =   -1672.25415650 Ry
     estimated scf accuracy    <       0.00002372 Ry

     iteration #  4     ecut=    80.00 Ry     beta= 0.30
     Davidson diagonalization with overlap
     ethr =  1.36E-08,  avg # of iterations =  1.1

     negative rho (up, down):  9.892E-05 0.000E+00

     total cpu time spent up to now is    11856.3 secs

     total energy              =   -1672.25415663 Ry
     estimated scf accuracy    <       0.00000592 Ry

     iteration #  5     ecut=    80.00 Ry     beta= 0.30
     Davidson diagonalization with overlap
     ethr =  3.40E-09,  avg # of iterations =  3.8

     negative rho (up, down):  9.681E-05 0.000E+00

     total cpu time spent up to now is    11968.7 secs

     total energy              =   -1672.25415680 Ry
     estimated scf accuracy    <       0.00000144 Ry

     iteration #  6     ecut=    80.00 Ry     beta= 0.30
     Davidson diagonalization with overlap
     ethr =  8.29E-10,  avg # of iterations =  3.0

     negative rho (up, down):  9.569E-05 0.000E+00

     total cpu time spent up to now is    12082.5 secs

     total energy              =   -1672.25415685 Ry
     estimated scf accuracy    <       0.00000060 Ry

     iteration #  7     ecut=    80.00 Ry     beta= 0.30
     Davidson diagonalization with overlap
     ethr =  3.46E-10,  avg # of iterations =  1.1

     negative rho (up, down):  9.512E-05 0.000E+00

     total cpu time spent up to now is    12184.5 secs

     total energy              =   -1672.25415685 Ry
     estimated scf accuracy    <       0.00000018 Ry

     iteration #  8     ecut=    80.00 Ry     beta= 0.30
     Davidson diagonalization with overlap
     ethr =  1.06E-10,  avg # of iterations =  1.5

     negative rho (up, down):  9.505E-05 0.000E+00

     total cpu time spent up to now is    12291.2 secs

     total energy              =   -1672.25415685 Ry
     estimated scf accuracy    <       0.00000008 Ry

     iteration #  9     ecut=    80.00 Ry     beta= 0.30
     Davidson diagonalization with overlap
     ethr =  4.57E-11,  avg # of iterations =  1.4

     negative rho (up, down):  9.554E-05 0.000E+00

     total cpu time spent up to now is    12397.7 secs

     total energy              =   -1672.25415686 Ry
     estimated scf accuracy    <       0.00000006 Ry

     iteration # 10     ecut=    80.00 Ry     beta= 0.30
     Davidson diagonalization with overlap
     ethr =  3.26E-11,  avg # of iterations =  1.1

     negative rho (up, down):  1.105E-04 0.000E+00

     total cpu time spent up to now is    12495.4 secs

     End of self-consistent calculation

          k = 0.0000 0.0000 0.0000 ( 40831 PWs)   bands (ev):

   -73.4800 -72.7666 -72.5297 -72.3657 -72.3436 -72.0604 -44.0397 -43.2829
   -43.0895 -42.8370 -42.7421 -42.6971 -42.6438 -42.6132 -42.6083 -42.3997
   -42.3901 -42.2878 -42.2304 -42.2113 -42.1806 -42.1601 -41.9541 -41.9159
   -18.9179 -18.6929 -18.4856 -18.2257 -17.9760 -17.8354 -17.4141 -17.1926
   -17.1594 -17.0698 -16.9004 -16.7710 -16.1214  -7.4142  -7.2371  -7.2266
    -6.6177  -6.4377  -5.9950  -5.7665  -5.7563  -5.6938  -5.6240  -5.5376
    -5.4796  -5.3040  -5.1886  -4.5920  -4.1718  -3.5733  -3.3934  -3.1942
    -3.0641  -2.9590  -2.9136  -2.7923  -2.7112  -2.6729  -2.6639  -2.4989
    -2.3602  -2.2580  -2.1793  -1.9903  -1.9433  -1.6690  -1.4581  -1.4200
    -1.2559  -1.1594  -0.7448  -0.7328  -0.5343  -0.4825  -0.2219  -0.2024
    -0.1405  -0.1363   0.2708   0.3406   0.4597   0.5288   0.9948   1.1140
     1.2413   1.4354   1.7684   2.0273   2.2342   2.2890   2.7092   3.5304
     4.2233   4.7157   5.0340   5.2150   5.4213   5.5165   5.7258   5.7769

          k = 0.0000 0.1223 0.0000 ( 40974 PWs)   bands (ev):

   -73.4800 -72.7666 -72.5297 -72.3657 -72.3436 -72.0604 -44.0397 -43.2828
   -43.0868 -42.8399 -42.7421 -42.6960 -42.6438 -42.6115 -42.6082 -42.3997
   -42.3901 -42.2878 -42.2304 -42.2107 -42.1812 -42.1620 -41.9542 -41.9170
   -18.7972 -18.5616 -18.3630 -18.2737 -17.9929 -17.8661 -17.4269 -17.3228
   -17.2860 -17.2480 -16.8814 -16.7816 -16.1185  -7.0030  -6.7914  -6.7641
    -6.6093  -6.4265  -5.9250  -5.7648  -5.6395  -5.6145  -5.5431  -5.4758
    -5.4549  -5.3032  -4.9981  -4.6325  -4.2253  -4.0282  -3.7629  -3.6150
    -3.5353  -3.4123  -3.2567  -2.9076  -2.8719  -2.8629  -2.7440  -2.6825
    -2.5797  -2.3791  -2.2075  -2.1527  -2.0839  -1.7071  -1.6387  -1.6063
    -1.3553  -1.1345  -0.9032  -0.6993  -0.0697  -0.0530   0.1371   0.2550
     0.3438   0.3874   0.4218   0.5156   0.5381   0.6147   0.9835   1.0759
     1.3018   1.4806   1.7614   1.8355   2.0316   2.3653   2.5852   3.9196
     4.6416   4.7974   4.8955   5.2151   5.4321   5.4692   5.5069   5.5471

          k = 0.0000-0.2445 0.0000 ( 41014 PWs)   bands (ev):

   -73.4800 -72.7666 -72.5297 -72.3656 -72.3437 -72.0604 -44.0397 -43.2828
   -43.0840 -42.8429 -42.7421 -42.6950 -42.6438 -42.6098 -42.6082 -42.3997
   -42.3900 -42.2878 -42.2304 -42.2101 -42.1819 -42.1640 -41.9542 -41.9182
   -18.5481 -18.4963 -18.3273 -18.1220 -18.0679 -17.9605 -17.4974 -17.4734
   -17.4339 -17.3710 -16.8536 -16.8054 -16.1162  -6.6639  -6.4650  -6.3454
    -6.0240  -5.9758  -5.8465  -5.7634  -5.6158  -5.5312  -5.4626  -5.4571
    -5.2971  -5.0598  -4.9273  -4.6163  -4.6015  -4.4965  -4.4754  -4.3460
    -4.2746  -3.6761  -3.4860  -3.3440  -3.1406  -3.1146  -2.9929  -2.7095
    -2.5871  -2.4694  -2.2197  -2.1181  -1.9639  -1.7049  -1.6427  -1.4030
    -1.1874  -1.0912  -0.9925  -0.9786   0.1909   0.1999   0.2729   0.3936
     0.5076   0.6731   0.8010   0.8165   0.8864   0.9193   1.0481   1.1152
     1.2123   1.5422   1.5584   1.6096   2.0137   2.1208   2.7146   4.3409
     4.5338   4.8317   5.1814   5.1921   5.2162   5.2542   5.5252   5.6632

          k = 0.0000-0.1223 0.0000 ( 40974 PWs)   bands (ev):

   -73.4800 -72.7666 -72.5297 -72.3657 -72.3436 -72.0604 -44.0397 -43.2828
   -43.0868 -42.8399 -42.7421 -42.6960 -42.6438 -42.6115 -42.6082 -42.3997
   -42.3901 -42.2878 -42.2304 -42.2107 -42.1812 -42.1620 -41.9542 -41.9170
   -18.7972 -18.5616 -18.3630 -18.2737 -17.9929 -17.8661 -17.4269 -17.3228
   -17.2860 -17.2480 -16.8814 -16.7816 -16.1185  -7.0030  -6.7914  -6.7641
    -6.6093  -6.4265  -5.9250  -5.7648  -5.6395  -5.6145  -5.5431  -5.4758
    -5.4549  -5.3032  -4.9981  -4.6325  -4.2253  -4.0282  -3.7629  -3.6150
    -3.5353  -3.4123  -3.2567  -2.9076  -2.8719  -2.8629  -2.7440  -2.6825
    -2.5797  -2.3791  -2.2075  -2.1527  -2.0839  -1.7071  -1.6387  -1.6063
    -1.3553  -1.1345  -0.9032  -0.6993  -0.0697  -0.0530   0.1371   0.2550
     0.3438   0.3874   0.4218   0.5156   0.5381   0.6147   0.9835   1.0759
     1.3018   1.4806   1.7614   1.8355   2.0316   2.3653   2.5852   3.9196
     4.6416   4.7974   4.8955   5.2151   5.4321   5.4692   5.5069   5.5471

          k = 0.1250 0.0000 0.0000 ( 40851 PWs)   bands (ev):

   -73.4785 -72.7650 -72.5282 -72.3642 -72.3420 -72.0589 -44.0380 -43.3083
   -43.0845 -42.8360 -42.7708 -42.6950 -42.6390 -42.6110 -42.6063 -42.4161
   -42.3956 -42.2850 -42.2381 -42.2275 -42.2064 -42.1560 -41.9815 -41.9114
   -18.7896 -18.5764 -18.3767 -18.1397 -17.8985 -17.7573 -17.4220 -17.2671
   -17.2355 -17.1495 -16.9445 -16.8244 -16.1625  -7.2312  -7.0605  -7.0479
    -6.4420  -6.4226  -6.0380  -5.8039  -5.7514  -5.6249  -5.5702  -5.4580
    -5.2098  -5.0289  -4.9753  -4.4284  -4.0909  -4.0295  -3.4365  -3.2776
    -3.2357  -3.1496  -3.0736  -3.0485  -2.9004  -2.7344  -2.7207  -2.5716
    -2.4712  -2.3259  -2.1715  -2.1449  -2.0655  -2.0438  -1.8614  -1.7184
    -1.5743  -1.1073  -1.0612  -0.7102  -0.4108  -0.2265   0.0255   0.0641
     0.1501   0.3364   0.4635   0.5232   0.6881   0.7011   1.1535   1.2125
     1.3374   1.4459   1.6462   1.8770   2.1485   2.3664   2.5665   3.7099
     4.3431   4.7577   4.7681   4.8997   5.0621   5.3657   5.4085   5.4631

          k = 0.1250 0.1223 0.0000 ( 40932 PWs)   bands (ev):

   -73.4785 -72.7650 -72.5282 -72.3642 -72.3421 -72.0589 -44.0380 -43.3084
   -43.0821 -42.8384 -42.7707 -42.6942 -42.6390 -42.6097 -42.6063 -42.4161
   -42.3956 -42.2850 -42.2374 -42.2276 -42.2072 -42.1573 -41.9814 -41.9124
   -18.6755 -18.4518 -18.2563 -18.1868 -17.9022 -17.7942 -17.4518 -17.3854
   -17.3366 -17.3140 -16.9257 -16.8362 -16.1601  -6.8340  -6.6429  -6.6076
    -6.4460  -6.4013  -5.9429  -5.7648  -5.6874  -5.6397  -5.5249  -5.2529
    -5.2038  -5.0303  -4.8501  -4.4653  -4.2140  -4.0132  -3.9941  -3.6937
    -3.4650  -3.4338  -3.3533  -3.3196  -3.1769  -3.1256  -3.0618  -2.8180
    -2.6316  -2.5185  -2.3231  -2.1999  -2.0690  -1.9929  -1.7419  -1.5592
    -1.4234  -1.0689  -0.9863  -0.7872  -0.0643   0.1753   0.1975   0.2723
     0.3822   0.4457   0.6716   0.7465   0.8016   0.8859   1.1488   1.2318
     1.3624   1.4697   1.6705   1.7262   1.9298   2.3170   2.5857   4.0224
     4.3976   4.7405   4.8376   4.8699   5.0074   5.2051   5.2659   5.3823

          k = 0.1250-0.2445 0.0000 ( 40974 PWs)   bands (ev):

   -73.4785 -72.7650 -72.5282 -72.3641 -72.3422 -72.0589 -44.0380 -43.3085
   -43.0797 -42.8408 -42.7707 -42.6935 -42.6390 -42.6084 -42.6062 -42.4161
   -42.3955 -42.2850 -42.2367 -42.2276 -42.2080 -42.1587 -41.9813 -41.9134
   -18.4411 -18.3873 -18.2216 -18.0293 -17.9725 -17.8818 -17.5585 -17.5400
   -17.4779 -17.3798 -16.8939 -16.8639 -16.1582  -6.4817  -6.4503  -6.1308
    -5.9218  -5.8341  -5.7599  -5.7491  -5.6777  -5.6455  -5.6315  -5.2459
    -5.0567  -4.8945  -4.7722  -4.6378  -4.4738  -4.3196  -4.1665  -4.1341
    -4.0927  -3.9919  -3.8660  -3.7888  -3.4696  -3.3672  -3.2710  -2.8552
    -2.7251  -2.6259  -2.3107  -2.2292  -1.9348  -1.7669  -1.5531  -1.4000
    -1.1578  -1.0868  -1.0011  -0.9780   0.1826   0.2007   0.2995   0.4019
     0.5383   0.5843   0.7918   1.1080   1.1289   1.1446   1.2125   1.2582
     1.4096   1.4315   1.5363   1.6572   1.9275   2.0043   2.7326   4.0742
     4.4310   4.5574   4.7228   4.8479   5.0796   5.1123   5.3017   5.4384

          k = 0.1250-0.1223 0.0000 ( 40932 PWs)   bands (ev):

   -73.4785 -72.7650 -72.5282 -72.3642 -72.3421 -72.0589 -44.0380 -43.3084
   -43.0821 -42.8384 -42.7707 -42.6942 -42.6390 -42.6097 -42.6063 -42.4161
   -42.3956 -42.2850 -42.2374 -42.2276 -42.2072 -42.1573 -41.9814 -41.9124
   -18.6755 -18.4518 -18.2563 -18.1868 -17.9022 -17.7942 -17.4518 -17.3854
   -17.3366 -17.3140 -16.9257 -16.8362 -16.1601  -6.8340  -6.6429  -6.6076
    -6.4460  -6.4013  -5.9429  -5.7648  -5.6874  -5.6397  -5.5249  -5.2529
    -5.2038  -5.0303  -4.8501  -4.4653  -4.2140  -4.0132  -3.9941  -3.6937
    -3.4650  -3.4338  -3.3533  -3.3196  -3.1769  -3.1256  -3.0618  -2.8180
    -2.6316  -2.5185  -2.3231  -2.1999  -2.0690  -1.9929  -1.7419  -1.5592
    -1.4234  -1.0689  -0.9863  -0.7872  -0.0643   0.1753   0.1975   0.2723
     0.3822   0.4457   0.6716   0.7465   0.8016   0.8859   1.1488   1.2318
     1.3624   1.4697   1.6705   1.7262   1.9298   2.3170   2.5857   4.0224
     4.3976   4.7405   4.8376   4.8699   5.0074   5.2051   5.2659   5.3823

          k = 0.2500 0.0000 0.0000 ( 40947 PWs)   bands (ev):

   -73.4750 -72.7612 -72.5245 -72.3605 -72.3384 -72.0551 -44.0339 -43.3692
   -43.0722 -42.8391 -42.8336 -42.6901 -42.6274 -42.6055 -42.6022 -42.4780
   -42.3857 -42.3022 -42.2850 -42.2616 -42.2201 -42.1460 -42.0469 -41.9007
   -18.4640 -18.2883 -18.1085 -17.9687 -17.7727 -17.5604 -17.4681 -17.4285
   -17.4007 -17.3362 -17.0697 -16.8672 -16.2149  -6.7622  -6.6125  -6.5779
    -6.2432  -5.9924  -5.9664  -5.8512  -5.8020  -5.4659  -5.4366  -5.0453
    -4.9782  -4.6375  -4.5362  -4.5057  -4.3325  -4.1382  -4.0232  -3.9811
    -3.7482  -3.6698  -3.3407  -3.1922  -3.1205  -3.0058  -2.8506  -2.7903
    -2.6805  -2.4752  -2.3959  -2.2327  -2.1939  -2.1006  -2.0417  -1.6092
    -1.4626  -1.2517  -1.1935  -0.9638  -0.2340  -0.0997   0.1873   0.4542
     0.5193   0.5909   0.8046   0.9781   1.0702   1.1690   1.2048   1.3282
     1.3724   1.4724   1.5092   1.6199   1.8608   2.1848   2.4984   3.9535
     4.1778   4.2177   4.4054   4.6706   4.7449   4.8139   4.8850   4.9672

          k = 0.2500 0.1223 0.0000 ( 40905 PWs)   bands (ev):

   -73.4750 -72.7612 -72.5245 -72.3605 -72.3384 -72.0551 -44.0339 -43.3696
   -43.0709 -42.8390 -42.8346 -42.6899 -42.6274 -42.6054 -42.6022 -42.4781
   -42.3857 -42.3011 -42.2853 -42.2621 -42.2201 -42.1466 -42.0465 -41.9012
   -18.3772 -18.1941 -18.0142 -18.0055 -17.7656 -17.6378 -17.5388 -17.4971
   -17.4537 -17.3878 -17.0601 -16.8735 -16.2144  -6.4551  -6.3232  -6.2598
    -6.2111  -5.9840  -5.8629  -5.8118  -5.6392  -5.5604  -5.3591  -5.1040
    -4.7972  -4.7312  -4.6561  -4.5003  -4.4456  -4.3493  -4.2355  -4.1393
    -3.9968  -3.5691  -3.5032  -3.3496  -3.2035  -3.1754  -3.0112  -2.9209
    -2.7694  -2.6523  -2.4326  -2.2562  -2.1707  -2.1137  -1.9257  -1.5988
    -1.4273  -1.2481  -1.1610  -1.0177  -0.2133   0.1029   0.4240   0.4710
     0.5829   0.8397   0.8998   0.9727   1.0611   1.1453   1.2094   1.2708
     1.3656   1.5255   1.5979   1.6701   1.7987   2.0659   2.6151   3.7019
     4.0366   4.1465   4.2443   4.3770   4.6702   4.7785   5.2061   5.3558

          k = 0.2500-0.2445 0.0000 ( 40892 PWs)   bands (ev):

   -73.4750 -72.7612 -72.5245 -72.3605 -72.3384 -72.0551 -44.0339 -43.3699
   -43.0697 -42.8388 -42.8359 -42.6898 -42.6274 -42.6054 -42.6021 -42.4782
   -42.3857 -42.2999 -42.2857 -42.2625 -42.2201 -42.1471 -42.0462 -41.9017
   -18.2041 -18.1487 -17.9751 -17.9071 -17.7712 -17.7389 -17.6898 -17.6158
   -17.5043 -17.3904 -17.0505 -16.8808 -16.2139  -6.2642  -6.0293  -5.9470
    -5.8394  -5.7869  -5.7857  -5.6572  -5.5445  -5.3161  -5.2943  -5.2165
    -4.9936  -4.9880  -4.9542  -4.7771  -4.5846  -4.4874  -4.2446  -4.0460
    -3.8276  -3.7512  -3.6397  -3.6037  -3.5140  -3.4962  -3.2814  -3.2640
    -2.9281  -2.7820  -2.3781  -2.2418  -1.9530  -1.8650  -1.6665  -1.6094
    -1.3334  -1.2962  -1.1384  -1.1047   0.0011   0.0344   0.2697   0.5772
     0.5993   0.8647   1.0214   1.0982   1.1252   1.1462   1.2835   1.3870
     1.4015   1.5980   1.6571   1.7841   1.8234   1.9236   2.7071   3.3022
     3.7593   3.8414   4.0916   4.3664   4.6866   5.0661   5.3098   5.5867

          k = 0.2500-0.1223 0.0000 ( 40905 PWs)   bands (ev):

   -73.4750 -72.7612 -72.5245 -72.3605 -72.3384 -72.0551 -44.0339 -43.3696
   -43.0709 -42.8390 -42.8346 -42.6899 -42.6274 -42.6054 -42.6022 -42.4781
   -42.3857 -42.3011 -42.2853 -42.2621 -42.2201 -42.1466 -42.0465 -41.9012
   -18.3772 -18.1941 -18.0142 -18.0055 -17.7656 -17.6378 -17.5388 -17.4971
   -17.4537 -17.3878 -17.0601 -16.8735 -16.2144  -6.4551  -6.3232  -6.2598
    -6.2111  -5.9840  -5.8629  -5.8118  -5.6392  -5.5604  -5.3591  -5.1040
    -4.7972  -4.7312  -4.6561  -4.5003  -4.4456  -4.3493  -4.2355  -4.1393
    -3.9968  -3.5691  -3.5032  -3.3496  -3.2035  -3.1754  -3.0112  -2.9209
    -2.7694  -2.6523  -2.4326  -2.2562  -2.1707  -2.1137  -1.9257  -1.5988
    -1.4273  -1.2481  -1.1610  -1.0177  -0.2133   0.1029   0.4240   0.4710
     0.5829   0.8397   0.8998   0.9727   1.0611   1.1453   1.2094   1.2708
     1.3656   1.5255   1.5979   1.6701   1.7987   2.0659   2.6151   3.7019
     4.0366   4.1465   4.2443   4.3770   4.6702   4.7785   5.2061   5.3558

          k = 0.3750 0.0000 0.0000 ( 40852 PWs)   bands (ev):

   -73.4714 -72.7573 -72.5209 -72.3569 -72.3347 -72.0514 -44.0297 -43.4296
   -43.0597 -42.9065 -42.8313 -42.6852 -42.6161 -42.6000 -42.5992 -42.5383
   -42.3784 -42.3628 -42.3355 -42.2661 -42.2127 -42.1360 -42.1115 -41.8899
   -18.1144 -17.9956 -17.8672 -17.8385 -17.7355 -17.6246 -17.5941 -17.5220
   -17.4456 -17.4074 -17.0837 -16.8348 -16.1873  -6.3282  -6.1640  -6.0426
    -6.0184  -5.8936  -5.8428  -5.6434  -5.6147  -5.4946  -5.3954  -5.2017
    -5.0510  -4.8205  -4.7844  -4.5727  -4.4138  -4.3677  -4.2027  -3.9604
    -3.6623  -3.4918  -3.4049  -3.3763  -3.3317  -3.1624  -3.0836  -2.8096
    -2.6691  -2.5931  -2.4343  -2.2689  -2.2102  -2.0291  -1.9498  -1.5167
    -1.3769  -1.3715  -1.2292  -0.9646  -0.1575   0.0259   0.2746   0.4803
     0.5876   0.6685   0.7647   0.7837   0.8704   1.0360   1.1603   1.2268
     1.3862   1.5293   1.6577   1.7941   1.9710   2.1552   2.3732   3.4220
     3.7946   4.0637   4.2778   4.3909   4.4886   4.5452   4.7869   4.9453

          k = 0.3750 0.1223 0.0000 ( 40842 PWs)   bands (ev):

   -73.4714 -72.7573 -72.5209 -72.3569 -72.3347 -72.0514 -44.0297 -43.4301
   -43.0598 -42.9060 -42.8312 -42.6857 -42.6161 -42.6016 -42.5990 -42.5384
   -42.3780 -42.3614 -42.3360 -42.2662 -42.2127 -42.1358 -42.1108 -41.8899
   -18.0947 -17.9954 -17.9300 -17.8721 -17.8030 -17.6194 -17.5290 -17.4724
   -17.4411 -17.3920 -17.0831 -16.8385 -16.1875  -6.2064  -6.1173  -6.0854
    -6.0401  -5.9506  -5.7543  -5.6474  -5.5932  -5.5127  -5.4630  -5.3467
    -5.0360  -4.7700  -4.7011  -4.5319  -4.4531  -4.2786  -4.0460  -3.8528
    -3.6408  -3.5582  -3.3476  -3.2974  -3.2268  -3.1359  -3.0373  -2.8684
    -2.7308  -2.6030  -2.4967  -2.2831  -2.1762  -2.0558  -1.9345  -1.6234
    -1.5330  -1.4001  -1.2568  -1.1168  -0.1241  -0.0783   0.1998   0.2496
     0.5412   0.6094   0.6407   0.7646   0.8147   0.9316   0.9601   1.2270
     1.6742   1.7439   1.8364   1.8850   2.0368   2.0648   2.4835   3.1712
     3.4853   3.6582   3.7563   4.1044   4.2959   5.1285   5.4562   5.5725

          k = 0.3750-0.2445 0.0000 ( 40856 PWs)   bands (ev):

   -73.4714 -72.7573 -72.5209 -72.3569 -72.3347 -72.0514 -44.0297 -43.4306
   -43.0598 -42.9055 -42.8310 -42.6862 -42.6161 -42.6030 -42.5990 -42.5385
   -42.3777 -42.3598 -42.3365 -42.2662 -42.2127 -42.1357 -42.1100 -41.8900
   -18.0471 -18.0240 -17.9877 -17.8974 -17.8411 -17.6267 -17.4787 -17.4535
   -17.4191 -17.3782 -17.0824 -16.8423 -16.1877  -6.2488  -6.0660  -5.9214
    -5.9117  -5.8532  -5.8119  -5.7484  -5.6764  -5.6609  -5.5518  -5.4052
    -4.9338  -4.7848  -4.5411  -4.4937  -4.2841  -4.2047  -4.0651  -3.7295
    -3.5395  -3.4398  -3.4056  -3.2771  -3.2602  -3.1505  -3.1098  -2.9699
    -2.7684  -2.7319  -2.3599  -2.2121  -2.1545  -2.0231  -1.8933  -1.8384
    -1.5751  -1.4287  -1.2736  -1.2442  -0.3201  -0.2576  -0.0960   0.3198
     0.4454   0.6055   0.6815   0.7720   0.8248   0.8836   1.0154   1.2155
     1.5768   1.7983   1.9602   1.9876   2.1190   2.2163   2.5816   2.7712
     3.2219   3.3244   3.5175   4.1288   4.2983   5.5056   5.5972   5.8098

          k = 0.3750-0.1223 0.0000 ( 40842 PWs)   bands (ev):

   -73.4714 -72.7573 -72.5209 -72.3569 -72.3347 -72.0514 -44.0297 -43.4301
   -43.0598 -42.9060 -42.8312 -42.6857 -42.6161 -42.6016 -42.5990 -42.5384
   -42.3780 -42.3614 -42.3360 -42.2662 -42.2127 -42.1358 -42.1108 -41.8899
   -18.0947 -17.9954 -17.9300 -17.8721 -17.8030 -17.6194 -17.5290 -17.4724
   -17.4411 -17.3920 -17.0831 -16.8385 -16.1875  -6.2064  -6.1173  -6.0854
    -6.0401  -5.9506  -5.7543  -5.6474  -5.5932  -5.5127  -5.4630  -5.3467
    -5.0360  -4.7700  -4.7011  -4.5319  -4.4531  -4.2786  -4.0460  -3.8528
    -3.6408  -3.5582  -3.3476  -3.2974  -3.2268  -3.1359  -3.0373  -2.8684
    -2.7308  -2.6030  -2.4967  -2.2831  -2.1762  -2.0558  -1.9345  -1.6234
    -1.5330  -1.4001  -1.2568  -1.1168  -0.1241  -0.0783   0.1998   0.2496
     0.5412   0.6094   0.6407   0.7646   0.8147   0.9316   0.9601   1.2270
     1.6742   1.7439   1.8364   1.8850   2.0368   2.0648   2.4835   3.1712
     3.4853   3.6582   3.7563   4.1044   4.2959   5.1285   5.4562   5.5725

          k =-0.5000 0.0000 0.0000 ( 40876 PWs)   bands (ev):

   -73.4700 -72.7557 -72.5194 -72.3554 -72.3332 -72.0498 -44.0280 -43.4544
   -43.0545 -42.9342 -42.8304 -42.6831 -42.6127 -42.5979 -42.5978 -42.5618
   -42.3941 -42.3691 -42.3605 -42.2638 -42.2097 -42.1379 -42.1319 -41.8854
   -18.0011 -17.8400 -17.8367 -17.7804 -17.7035 -17.6806 -17.6555 -17.5911
   -17.4667 -17.4045 -17.0116 -16.8081 -16.1507  -6.3197  -6.1398  -5.9754
    -5.7834  -5.7567  -5.6873  -5.5818  -5.5369  -5.5188  -5.4180  -5.3165
    -5.1519  -5.0250  -4.8991  -4.7281  -4.4960  -4.0729  -3.8372  -3.7877
    -3.6792  -3.6725  -3.6704  -3.5663  -3.4040  -2.9547  -2.8507  -2.7084
    -2.6066  -2.4725  -2.4685  -2.3596  -2.1589  -1.9777  -1.8256  -1.7121
    -1.6099  -1.2377  -1.1133  -0.8957  -0.1997   0.0808   0.0863   0.4683
     0.5385   0.5760   0.6411   0.6695   0.7285   0.7925   1.0360   1.1655
     1.3282   1.5107   1.8528   1.9341   2.1536   2.2613   2.3280   3.2010
     3.6457   4.0199   4.2170   4.2589   4.3709   4.5553   4.7638   4.9147

          k =-0.5000 0.1223 0.0000 ( 40858 PWs)   bands (ev):

   -73.4700 -72.7557 -72.5194 -72.3554 -72.3332 -72.0498 -44.0280 -43.4550
   -43.0552 -42.9334 -42.8297 -42.6839 -42.6127 -42.6002 -42.5976 -42.5619
   -42.3919 -42.3689 -42.3609 -42.2638 -42.2097 -42.1370 -42.1314 -41.8853
   -17.9945 -17.9605 -17.9511 -17.9037 -17.8434 -17.5277 -17.4657 -17.4639
   -17.4204 -17.4047 -17.0137 -16.8105 -16.1502  -6.2701  -6.2265  -6.1026
    -6.0982  -5.9941  -5.7498  -5.6585  -5.6148  -5.6002  -5.4107  -5.1726
    -5.0868  -4.8314  -4.5778  -4.4030  -4.1118  -3.8652  -3.8272  -3.7938
    -3.7740  -3.6393  -3.6287  -3.6023  -3.0059  -2.9413  -2.8114  -2.6157
    -2.5957  -2.5166  -2.4910  -2.2643  -2.1829  -2.1341  -1.8338  -1.6583
    -1.6210  -1.4859  -1.2992  -1.0806  -0.1931  -0.0334   0.0383   0.0855
     0.2092   0.4521   0.4953   0.5668   0.5967   0.6395   0.7504   1.1830
     1.8214   1.8548   2.0117   2.0194   2.1881   2.2066   2.4101   3.0120
     3.2484   3.4592   3.5840   4.0485   4.2197   5.3256   5.6020   5.6359

          k =-0.5000-0.2445 0.0000 ( 40872 PWs)   bands (ev):

   -73.4700 -72.7557 -72.5194 -72.3554 -72.3332 -72.0498 -44.0280 -43.4556
   -43.0560 -42.9327 -42.8291 -42.6848 -42.6127 -42.6024 -42.5976 -42.5621
   -42.3899 -42.3687 -42.3614 -42.2638 -42.2096 -42.1360 -42.1309 -41.8851
   -18.0422 -18.0337 -17.9946 -17.9875 -17.8474 -17.4646 -17.4487 -17.4050
   -17.3642 -17.3230 -17.0158 -16.8129 -16.1497  -6.4767  -6.2690  -6.1949
    -6.0929  -6.0659  -5.7591  -5.6682  -5.6680  -5.6327  -5.4913  -5.1718
    -5.0432  -4.9529  -4.1772  -4.1179  -3.9051  -3.8676  -3.8263  -3.5916
    -3.5832  -3.5165  -3.4156  -3.2373  -3.1896  -2.8925  -2.8543  -2.7985
    -2.6612  -2.4134  -2.3175  -2.2009  -2.1413  -1.9338  -1.9049  -1.7849
    -1.7496  -1.7107  -1.5754  -1.2606  -0.5063  -0.2272  -0.1894   0.0120
     0.1053   0.1831   0.4559   0.4754   0.6060   0.6385   0.7646   1.2206
     1.7527   1.9255   2.0480   2.1255   2.3646   2.3729   2.4649   2.6365
     3.0745   3.1962   3.2845   4.0754   4.2218   5.7150   5.7760   5.8259

          k =-0.5000-0.1223 0.0000 ( 40858 PWs)   bands (ev):

   -73.4700 -72.7557 -72.5194 -72.3554 -72.3332 -72.0498 -44.0280 -43.4550
   -43.0552 -42.9334 -42.8297 -42.6839 -42.6127 -42.6002 -42.5976 -42.5619
   -42.3919 -42.3689 -42.3609 -42.2638 -42.2097 -42.1370 -42.1314 -41.8853
   -17.9945 -17.9605 -17.9511 -17.9037 -17.8434 -17.5277 -17.4657 -17.4639
   -17.4204 -17.4047 -17.0137 -16.8105 -16.1502  -6.2701  -6.2265  -6.1026
    -6.0982  -5.9941  -5.7498  -5.6585  -5.6148  -5.6002  -5.4107  -5.1726
    -5.0868  -4.8314  -4.5778  -4.4030  -4.1118  -3.8652  -3.8272  -3.7938
    -3.7740  -3.6393  -3.6287  -3.6023  -3.0059  -2.9413  -2.8114  -2.6157
    -2.5957  -2.5166  -2.4910  -2.2643  -2.1829  -2.1341  -1.8338  -1.6583
    -1.6210  -1.4859  -1.2992  -1.0806  -0.1931  -0.0334   0.0383   0.0855
     0.2092   0.4521   0.4953   0.5668   0.5967   0.6395   0.7504   1.1830
     1.8214   1.8548   2.0117   2.0194   2.1881   2.2066   2.4101   3.0120
     3.2484   3.4592   3.5840   4.0485   4.2197   5.3256   5.6020   5.6359

          k =-0.3750 0.0000 0.0000 ( 40852 PWs)   bands (ev):

   -73.4714 -72.7573 -72.5209 -72.3569 -72.3347 -72.0514 -44.0297 -43.4296
   -43.0597 -42.9065 -42.8313 -42.6852 -42.6161 -42.6000 -42.5992 -42.5383
   -42.3784 -42.3628 -42.3355 -42.2661 -42.2127 -42.1360 -42.1115 -41.8899
   -18.1144 -17.9956 -17.8672 -17.8385 -17.7355 -17.6246 -17.5941 -17.5220
   -17.4456 -17.4074 -17.0837 -16.8348 -16.1873  -6.3282  -6.1640  -6.0426
    -6.0184  -5.8936  -5.8428  -5.6434  -5.6147  -5.4946  -5.3954  -5.2017
    -5.0510  -4.8205  -4.7844  -4.5727  -4.4138  -4.3677  -4.2027  -3.9604
    -3.6623  -3.4918  -3.4049  -3.3763  -3.3317  -3.1624  -3.0836  -2.8096
    -2.6691  -2.5931  -2.4343  -2.2689  -2.2102  -2.0291  -1.9498  -1.5167
    -1.3769  -1.3715  -1.2292  -0.9646  -0.1575   0.0259   0.2746   0.4803
     0.5876   0.6685   0.7647   0.7837   0.8704   1.0360   1.1603   1.2268
     1.3862   1.5293   1.6577   1.7941   1.9710   2.1552   2.3732   3.4220
     3.7946   4.0637   4.2778   4.3909   4.4886   4.5452   4.7869   4.9453

          k =-0.3750 0.1223 0.0000 ( 40842 PWs)   bands (ev):

   -73.4714 -72.7573 -72.5209 -72.3569 -72.3347 -72.0514 -44.0297 -43.4301
   -43.0598 -42.9060 -42.8312 -42.6857 -42.6161 -42.6016 -42.5990 -42.5384
   -42.3780 -42.3614 -42.3360 -42.2662 -42.2127 -42.1358 -42.1108 -41.8899
   -18.0947 -17.9954 -17.9300 -17.8721 -17.8030 -17.6194 -17.5290 -17.4724
   -17.4411 -17.3920 -17.0831 -16.8385 -16.1875  -6.2064  -6.1173  -6.0854
    -6.0401  -5.9506  -5.7543  -5.6474  -5.5932  -5.5127  -5.4630  -5.3467
    -5.0360  -4.7700  -4.7011  -4.5319  -4.4531  -4.2786  -4.0460  -3.8528
    -3.6408  -3.5582  -3.3476  -3.2974  -3.2268  -3.1359  -3.0373  -2.8684
    -2.7308  -2.6030  -2.4967  -2.2831  -2.1762  -2.0558  -1.9345  -1.6234
    -1.5330  -1.4001  -1.2568  -1.1168  -0.1241  -0.0783   0.1998   0.2496
     0.5412   0.6094   0.6407   0.7646   0.8147   0.9316   0.9601   1.2270
     1.6742   1.7439   1.8364   1.8850   2.0368   2.0648   2.4835   3.1712
     3.4853   3.6582   3.7563   4.1044   4.2959   5.1285   5.4562   5.5724

          k =-0.3750-0.2445 0.0000 ( 40856 PWs)   bands (ev):

   -73.4714 -72.7573 -72.5209 -72.3569 -72.3347 -72.0514 -44.0297 -43.4306
   -43.0598 -42.9055 -42.8310 -42.6862 -42.6161 -42.6030 -42.5990 -42.5385
   -42.3777 -42.3598 -42.3365 -42.2662 -42.2127 -42.1357 -42.1100 -41.8900
   -18.0471 -18.0240 -17.9877 -17.8974 -17.8411 -17.6267 -17.4787 -17.4535
   -17.4191 -17.3782 -17.0824 -16.8423 -16.1877  -6.2488  -6.0660  -5.9214
    -5.9117  -5.8532  -5.8119  -5.7484  -5.6764  -5.6609  -5.5518  -5.4052
    -4.9338  -4.7848  -4.5411  -4.4937  -4.2841  -4.2047  -4.0651  -3.7295
    -3.5395  -3.4398  -3.4056  -3.2771  -3.2602  -3.1505  -3.1098  -2.9699
    -2.7684  -2.7319  -2.3599  -2.2121  -2.1545  -2.0231  -1.8933  -1.8384
    -1.5751  -1.4287  -1.2736  -1.2442  -0.3201  -0.2576  -0.0960   0.3198
     0.4454   0.6055   0.6815   0.7720   0.8248   0.8836   1.0154   1.2155
     1.5768   1.7983   1.9602   1.9876   2.1190   2.2163   2.5816   2.7712
     3.2219   3.3244   3.5175   4.1288   4.2983   5.5056   5.5972   5.8098

          k =-0.3750-0.1223 0.0000 ( 40842 PWs)   bands (ev):

   -73.4714 -72.7573 -72.5209 -72.3569 -72.3347 -72.0514 -44.0297 -43.4301
   -43.0598 -42.9060 -42.8312 -42.6857 -42.6161 -42.6016 -42.5990 -42.5384
   -42.3780 -42.3614 -42.3360 -42.2662 -42.2127 -42.1358 -42.1108 -41.8899
   -18.0947 -17.9954 -17.9300 -17.8721 -17.8030 -17.6194 -17.5290 -17.4724
   -17.4411 -17.3920 -17.0831 -16.8385 -16.1875  -6.2064  -6.1173  -6.0854
    -6.0401  -5.9506  -5.7543  -5.6474  -5.5932  -5.5127  -5.4630  -5.3467
    -5.0360  -4.7700  -4.7011  -4.5319  -4.4531  -4.2786  -4.0460  -3.8528
    -3.6408  -3.5582  -3.3476  -3.2974  -3.2268  -3.1359  -3.0373  -2.8684
    -2.7308  -2.6030  -2.4967  -2.2831  -2.1762  -2.0558  -1.9345  -1.6234
    -1.5330  -1.4001  -1.2568  -1.1168  -0.1241  -0.0783   0.1998   0.2496
     0.5412   0.6094   0.6407   0.7646   0.8147   0.9316   0.9601   1.2270
     1.6742   1.7439   1.8364   1.8850   2.0368   2.0648   2.4835   3.1712
     3.4853   3.6582   3.7563   4.1044   4.2959   5.1285   5.4562   5.5725

          k =-0.2500 0.0000 0.0000 ( 40947 PWs)   bands (ev):

   -73.4750 -72.7612 -72.5245 -72.3605 -72.3384 -72.0551 -44.0339 -43.3692
   -43.0722 -42.8391 -42.8336 -42.6901 -42.6274 -42.6055 -42.6022 -42.4780
   -42.3857 -42.3022 -42.2850 -42.2616 -42.2201 -42.1460 -42.0469 -41.9007
   -18.4640 -18.2883 -18.1085 -17.9687 -17.7727 -17.5604 -17.4681 -17.4285
   -17.4007 -17.3362 -17.0697 -16.8672 -16.2149  -6.7622  -6.6125  -6.5779
    -6.2432  -5.9924  -5.9664  -5.8512  -5.8020  -5.4659  -5.4366  -5.0453
    -4.9782  -4.6375  -4.5362  -4.5057  -4.3325  -4.1382  -4.0232  -3.9811
    -3.7482  -3.6698  -3.3407  -3.1922  -3.1205  -3.0058  -2.8506  -2.7903
    -2.6805  -2.4752  -2.3959  -2.2327  -2.1939  -2.1006  -2.0417  -1.6092
    -1.4626  -1.2517  -1.1935  -0.9638  -0.2340  -0.0997   0.1873   0.4542
     0.5193   0.5909   0.8046   0.9781   1.0702   1.1690   1.2048   1.3282
     1.3724   1.4724   1.5092   1.6199   1.8608   2.1848   2.4984   3.9535
     4.1778   4.2177   4.4054   4.6706   4.7449   4.8139   4.8850   4.9672

          k =-0.2500 0.1223 0.0000 ( 40905 PWs)   bands (ev):

   -73.4750 -72.7612 -72.5245 -72.3605 -72.3384 -72.0551 -44.0339 -43.3696
   -43.0709 -42.8390 -42.8346 -42.6899 -42.6274 -42.6054 -42.6022 -42.4781
   -42.3857 -42.3011 -42.2853 -42.2621 -42.2201 -42.1466 -42.0465 -41.9012
   -18.3772 -18.1941 -18.0142 -18.0055 -17.7656 -17.6378 -17.5388 -17.4971
   -17.4537 -17.3878 -17.0601 -16.8735 -16.2144  -6.4551  -6.3232  -6.2598
    -6.2111  -5.9840  -5.8629  -5.8118  -5.6392  -5.5604  -5.3591  -5.1040
    -4.7972  -4.7312  -4.6561  -4.5003  -4.4456  -4.3493  -4.2355  -4.1393
    -3.9968  -3.5691  -3.5032  -3.3496  -3.2035  -3.1754  -3.0112  -2.9209
    -2.7694  -2.6523  -2.4326  -2.2562  -2.1707  -2.1137  -1.9257  -1.5988
    -1.4273  -1.2481  -1.1610  -1.0177  -0.2133   0.1029   0.4240   0.4710
     0.5829   0.8397   0.8998   0.9727   1.0611   1.1453   1.2094   1.2708
     1.3656   1.5255   1.5979   1.6701   1.7987   2.0659   2.6151   3.7019
     4.0366   4.1465   4.2443   4.3770   4.6702   4.7785   5.2061   5.3558

          k =-0.2500-0.2445 0.0000 ( 40892 PWs)   bands (ev):

   -73.4750 -72.7612 -72.5245 -72.3605 -72.3384 -72.0551 -44.0339 -43.3699
   -43.0697 -42.8388 -42.8359 -42.6898 -42.6274 -42.6054 -42.6021 -42.4782
   -42.3857 -42.2999 -42.2857 -42.2625 -42.2201 -42.1471 -42.0462 -41.9017
   -18.2041 -18.1487 -17.9751 -17.9071 -17.7712 -17.7389 -17.6898 -17.6158
   -17.5043 -17.3904 -17.0505 -16.8808 -16.2139  -6.2642  -6.0293  -5.9470
    -5.8394  -5.7869  -5.7857  -5.6572  -5.5445  -5.3161  -5.2943  -5.2165
    -4.9936  -4.9880  -4.9542  -4.7771  -4.5846  -4.4874  -4.2446  -4.0460
    -3.8276  -3.7512  -3.6397  -3.6037  -3.5140  -3.4962  -3.2814  -3.2640
    -2.9281  -2.7820  -2.3781  -2.2418  -1.9530  -1.8650  -1.6665  -1.6094
    -1.3334  -1.2962  -1.1384  -1.1047   0.0011   0.0344   0.2697   0.5772
     0.5993   0.8647   1.0214   1.0982   1.1252   1.1462   1.2835   1.3870
     1.4015   1.5980   1.6571   1.7841   1.8234   1.9236   2.7071   3.3022
     3.7593   3.8414   4.0916   4.3664   4.6866   5.0661   5.3098   5.5867

          k =-0.2500-0.1223 0.0000 ( 40905 PWs)   bands (ev):

   -73.4750 -72.7612 -72.5245 -72.3605 -72.3384 -72.0551 -44.0339 -43.3696
   -43.0709 -42.8390 -42.8346 -42.6899 -42.6274 -42.6054 -42.6022 -42.4781
   -42.3857 -42.3011 -42.2853 -42.2621 -42.2201 -42.1466 -42.0465 -41.9012
   -18.3772 -18.1941 -18.0142 -18.0055 -17.7656 -17.6378 -17.5388 -17.4971
   -17.4537 -17.3878 -17.0601 -16.8735 -16.2144  -6.4551  -6.3232  -6.2598
    -6.2111  -5.9840  -5.8629  -5.8118  -5.6392  -5.5604  -5.3591  -5.1040
    -4.7972  -4.7312  -4.6561  -4.5003  -4.4456  -4.3493  -4.2355  -4.1393
    -3.9968  -3.5691  -3.5032  -3.3496  -3.2035  -3.1754  -3.0112  -2.9209
    -2.7694  -2.6523  -2.4326  -2.2562  -2.1707  -2.1137  -1.9257  -1.5988
    -1.4273  -1.2481  -1.1610  -1.0177  -0.2133   0.1029   0.4240   0.4710
     0.5829   0.8397   0.8998   0.9727   1.0611   1.1453   1.2094   1.2708
     1.3656   1.5255   1.5979   1.6701   1.7987   2.0659   2.6151   3.7019
     4.0366   4.1465   4.2443   4.3770   4.6702   4.7785   5.2061   5.3558

          k =-0.1250 0.0000 0.0000 ( 40851 PWs)   bands (ev):

   -73.4785 -72.7650 -72.5282 -72.3642 -72.3420 -72.0589 -44.0380 -43.3083
   -43.0845 -42.8360 -42.7708 -42.6950 -42.6390 -42.6110 -42.6063 -42.4161
   -42.3956 -42.2850 -42.2381 -42.2275 -42.2064 -42.1560 -41.9815 -41.9114
   -18.7896 -18.5764 -18.3767 -18.1397 -17.8985 -17.7573 -17.4220 -17.2671
   -17.2355 -17.1495 -16.9445 -16.8244 -16.1625  -7.2312  -7.0605  -7.0479
    -6.4420  -6.4226  -6.0380  -5.8039  -5.7514  -5.6249  -5.5702  -5.4580
    -5.2098  -5.0289  -4.9753  -4.4284  -4.0909  -4.0295  -3.4365  -3.2776
    -3.2357  -3.1496  -3.0736  -3.0485  -2.9004  -2.7344  -2.7207  -2.5716
    -2.4712  -2.3259  -2.1715  -2.1449  -2.0655  -2.0438  -1.8614  -1.7184
    -1.5743  -1.1073  -1.0612  -0.7102  -0.4108  -0.2265   0.0255   0.0641
     0.1501   0.3364   0.4635   0.5232   0.6881   0.7011   1.1535   1.2125
     1.3374   1.4459   1.6462   1.8770   2.1485   2.3664   2.5665   3.7099
     4.3431   4.7577   4.7681   4.8997   5.0621   5.3657   5.4085   5.4631

          k =-0.1250 0.1223 0.0000 ( 40932 PWs)   bands (ev):

   -73.4785 -72.7650 -72.5282 -72.3642 -72.3421 -72.0589 -44.0380 -43.3084
   -43.0821 -42.8384 -42.7707 -42.6942 -42.6390 -42.6097 -42.6063 -42.4161
   -42.3956 -42.2850 -42.2374 -42.2276 -42.2072 -42.1573 -41.9814 -41.9124
   -18.6755 -18.4518 -18.2563 -18.1868 -17.9022 -17.7942 -17.4518 -17.3854
   -17.3366 -17.3140 -16.9257 -16.8362 -16.1601  -6.8340  -6.6429  -6.6076
    -6.4460  -6.4013  -5.9429  -5.7648  -5.6874  -5.6397  -5.5249  -5.2529
    -5.2038  -5.0303  -4.8501  -4.4653  -4.2140  -4.0132  -3.9941  -3.6937
    -3.4650  -3.4338  -3.3533  -3.3196  -3.1769  -3.1256  -3.0618  -2.8180
    -2.6316  -2.5185  -2.3231  -2.1999  -2.0690  -1.9929  -1.7419  -1.5592
    -1.4234  -1.0689  -0.9863  -0.7872  -0.0643   0.1753   0.1975   0.2723
     0.3822   0.4457   0.6716   0.7465   0.8016   0.8859   1.1488   1.2318
     1.3624   1.4697   1.6705   1.7262   1.9298   2.3170   2.5857   4.0224
     4.3976   4.7405   4.8376   4.8699   5.0074   5.2051   5.2659   5.3823

          k =-0.1250-0.2445 0.0000 ( 40974 PWs)   bands (ev):

   -73.4785 -72.7650 -72.5282 -72.3641 -72.3422 -72.0589 -44.0380 -43.3085
   -43.0797 -42.8408 -42.7707 -42.6935 -42.6390 -42.6084 -42.6062 -42.4161
   -42.3955 -42.2850 -42.2367 -42.2276 -42.2080 -42.1587 -41.9813 -41.9134
   -18.4411 -18.3873 -18.2216 -18.0293 -17.9725 -17.8818 -17.5585 -17.5400
   -17.4779 -17.3798 -16.8939 -16.8639 -16.1582  -6.4817  -6.4503  -6.1308
    -5.9218  -5.8341  -5.7599  -5.7491  -5.6777  -5.6455  -5.6315  -5.2459
    -5.0567  -4.8945  -4.7722  -4.6378  -4.4738  -4.3196  -4.1665  -4.1341
    -4.0927  -3.9919  -3.8660  -3.7888  -3.4696  -3.3672  -3.2710  -2.8552
    -2.7251  -2.6259  -2.3107  -2.2292  -1.9348  -1.7669  -1.5531  -1.4000
    -1.1578  -1.0868  -1.0011  -0.9780   0.1826   0.2007   0.2995   0.4019
     0.5383   0.5843   0.7918   1.1080   1.1289   1.1446   1.2125   1.2582
     1.4096   1.4315   1.5363   1.6572   1.9275   2.0043   2.7326   4.0742
     4.4310   4.5574   4.7228   4.8479   5.0796   5.1123   5.3017   5.4384

          k =-0.1250-0.1223 0.0000 ( 40932 PWs)   bands (ev):

   -73.4785 -72.7650 -72.5282 -72.3642 -72.3421 -72.0589 -44.0380 -43.3084
   -43.0821 -42.8384 -42.7707 -42.6942 -42.6390 -42.6097 -42.6063 -42.4161
   -42.3956 -42.2850 -42.2374 -42.2276 -42.2072 -42.1573 -41.9814 -41.9124
   -18.6755 -18.4518 -18.2563 -18.1868 -17.9022 -17.7942 -17.4518 -17.3854
   -17.3366 -17.3140 -16.9257 -16.8362 -16.1601  -6.8340  -6.6429  -6.6076
    -6.4460  -6.4013  -5.9429  -5.7648  -5.6874  -5.6397  -5.5249  -5.2529
    -5.2038  -5.0303  -4.8501  -4.4653  -4.2140  -4.0132  -3.9941  -3.6937
    -3.4650  -3.4338  -3.3533  -3.3196  -3.1769  -3.1256  -3.0618  -2.8180
    -2.6316  -2.5185  -2.3231  -2.1999  -2.0690  -1.9929  -1.7419  -1.5592
    -1.4234  -1.0689  -0.9863  -0.7872  -0.0643   0.1753   0.1975   0.2723
     0.3822   0.4457   0.6716   0.7465   0.8016   0.8859   1.1488   1.2318
     1.3624   1.4697   1.6705   1.7262   1.9298   2.3170   2.5857   4.0224
     4.3976   4.7405   4.8376   4.8699   5.0074   5.2051   5.2659   5.3823

     the Fermi energy is     1.2017 ev

!    total energy              =   -1672.25415685 Ry
     estimated scf accuracy    <       0.00000001 Ry
     smearing contrib. (-TS)   =      -0.00190070 Ry
     internal energy E=F+TS    =   -1672.25225615 Ry

     The total energy is F=E-TS. E is the sum of the following terms:
     one-electron contribution =  -16954.31774359 Ry
     hartree contribution      =    8499.22508444 Ry
     xc contribution           =    -214.03522242 Ry
     ewald contribution        =    7120.66254967 Ry
     one-center paw contrib.   =    -123.78692426 Ry

     convergence has been achieved in  10 iterations

     negative rho (up, down):  1.105E-04 0.000E+00

     Forces acting on atoms (cartesian axes, Ry/au):

     atom    1 type  1   force =    -0.00000000   -0.00014953    0.07044548
     atom    2 type  1   force =    -0.00000001    0.00028995   -0.09042160
     atom    3 type  1   force =     0.00000002   -0.00031725   -0.00040069
     atom    4 type  1   force =    -0.00000000    0.00079431    0.00068859
     atom    5 type  1   force =     0.00000000    0.00102117   -0.00291392
     atom    6 type  1   force =     0.00000002   -0.00278502   -0.00116302
     atom    7 type  2   force =    -0.00000000   -0.00024079    0.01867569
     atom    8 type  2   force =    -0.00000000    0.00011349    0.06201093
     atom    9 type  2   force =    -0.00000000    0.02386977   -0.02492209
     atom   10 type  2   force =    -0.00000000   -0.02434000   -0.02454529
     atom   11 type  2   force =     0.00000000   -0.00029107   -0.00039336
     atom   12 type  2   force =    -0.00000000    0.00123032   -0.00977681
     atom   13 type  2   force =    -0.00000005   -0.00096259    0.00136497
     atom   14 type  2   force =     0.00000004   -0.00077767   -0.00143098
     atom   15 type  2   force =     0.00000001   -0.00167513    0.00069920
     atom   16 type  2   force =     0.00000000    0.00169264   -0.00057709
     atom   17 type  2   force =    -0.00000000    0.00247557   -0.00360676
     atom   18 type  2   force =    -0.00000001    0.00174955    0.00378370
     atom   19 type  2   force =    -0.00000001   -0.00169772    0.00248304

     Total force =     0.008817     Total SCF correction =     0.000734
     Energy error            =      1.6E-04 Ry
     Gradient error          =      3.8E-03 Ry/Bohr

     number of scf cycles    =   9
     number of bfgs steps    =   8

     energy             old  =   -1672.2540006903 Ry
     energy             new  =   -1672.2541568501 Ry

     CASE: energy            _new < energy            _old

     new trust radius        =       0.0200731582 bohr
     new conv_thr            =       0.0000000156 Ry


ATOMIC_POSITIONS (angstrom)
Ru               0.0000000000        1.5881618300        9.5289709800    0   0   0
Ru               1.5535000000        4.7644854900        9.5289709800    0   0   0
Ru              -0.0000000282        4.7720856122       12.7217806270
Ru               1.5534999052        1.5901558523       12.7063095892
Ru              -0.0000000604        1.6201953523       16.0585330810
Ru               1.5534999668        4.7875520562       15.9498637974
O                0.0000000000        4.7644854900       10.7677372100    0   0   0
O                0.0000000000        4.7644854900        8.2902047600    0   0   0
O                1.5535000000        0.3493956000        9.5289709800    0   0   0
O                1.5535000000        2.8269280600        9.5289709800    0   0   0
O               -0.0000000436        1.5680612242       13.9799714514
O                0.0000000000        1.5881618300       11.4665284200    0   0   0
O                1.5535000593        3.5358113334       12.7106725113
O                1.5534998997        6.0035549236       12.7033802268
O               -0.0000000867        4.7630466583       17.0519412995
O               -0.0000000162        4.8122681833       14.6509270668
O                1.5534999784        0.3931089528       15.9457374525
O                1.5534999845        2.8300961693       15.7814201753
O                0.0000001638        1.7897139088       17.7460414275



     Writing config-only to output data dir ./tmp_s0_O__1x1_off/s0_O__1x1_off.save/ :
     XML data file
     NEW-OLD atomic charge density approx. for the potential

     negative rho (up, down):  1.106E-04 0.000E+00

     total cpu time spent up to now is    12516.8 secs

     per-process dynamical memory:  1113.7 Mb

     Self-consistent Calculation

     iteration #  1     ecut=    80.00 Ry     beta= 0.30
     Davidson diagonalization with overlap
     ethr =  1.00E-06,  avg # of iterations =  3.5

     negative rho (up, down):  1.135E-04 0.000E+00

     total cpu time spent up to now is    12688.4 secs

     total energy              =   -1672.25427915 Ry
     estimated scf accuracy    <       0.00025538 Ry

     iteration #  2     ecut=    80.00 Ry     beta= 0.30
     Davidson diagonalization with overlap
     ethr =  1.47E-07,  avg # of iterations =  1.8

     negative rho (up, down):  1.140E-04 0.000E+00

     total cpu time spent up to now is    12795.0 secs

     total energy              =   -1672.25428210 Ry
     estimated scf accuracy    <       0.00014999 Ry

     iteration #  3     ecut=    80.00 Ry     beta= 0.30
     Davidson diagonalization with overlap
     ethr =  8.62E-08,  avg # of iterations =  1.1

     negative rho (up, down):  1.157E-04 0.000E+00

     total cpu time spent up to now is    12900.6 secs

     total energy              =   -1672.25427680 Ry
     estimated scf accuracy    <       0.00004166 Ry

     iteration #  4     ecut=    80.00 Ry     beta= 0.30
     Davidson diagonalization with overlap
     ethr =  2.39E-08,  avg # of iterations =  2.7

     negative rho (up, down):  1.180E-04 0.000E+00

     total cpu time spent up to now is    13013.2 secs

     total energy              =   -1672.25427739 Ry
     estimated scf accuracy    <       0.00000975 Ry

     iteration #  5     ecut=    80.00 Ry     beta= 0.30
     Davidson diagonalization with overlap
     ethr =  5.60E-09,  avg # of iterations =  3.6

     negative rho (up, down):  1.186E-04 0.000E+00

     total cpu time spent up to now is    13129.0 secs

     total energy              =   -1672.25427814 Ry
     estimated scf accuracy    <       0.00000111 Ry

     iteration #  6     ecut=    80.00 Ry     beta= 0.30
     Davidson diagonalization with overlap
     ethr =  6.36E-10,  avg # of iterations =  3.7

     negative rho (up, down):  1.190E-04 0.000E+00

     total cpu time spent up to now is    13251.6 secs

     total energy              =   -1672.25427820 Ry
     estimated scf accuracy    <       0.00000050 Ry

     iteration #  7     ecut=    80.00 Ry     beta= 0.30
     Davidson diagonalization with overlap
     ethr =  2.88E-10,  avg # of iterations =  1.2

     negative rho (up, down):  1.194E-04 0.000E+00

     total cpu time spent up to now is    13355.1 secs

     total energy              =   -1672.25427819 Ry
     estimated scf accuracy    <       0.00000019 Ry

     iteration #  8     ecut=    80.00 Ry     beta= 0.30
     Davidson diagonalization with overlap
     ethr =  1.09E-10,  avg # of iterations =  1.5

     negative rho (up, down):  1.193E-04 0.000E+00

     total cpu time spent up to now is    13461.7 secs

     total energy              =   -1672.25427820 Ry
     estimated scf accuracy    <       0.00000011 Ry

     iteration #  9     ecut=    80.00 Ry     beta= 0.30
     Davidson diagonalization with overlap
     ethr =  6.20E-11,  avg # of iterations =  1.3

     negative rho (up, down):  1.187E-04 0.000E+00

     total cpu time spent up to now is    13563.6 secs

     total energy              =   -1672.25427820 Ry
     estimated scf accuracy    <       0.00000002 Ry

     iteration # 10     ecut=    80.00 Ry     beta= 0.30
     Davidson diagonalization with overlap
     ethr =  1.19E-11,  avg # of iterations =  2.8

     negative rho (up, down):  1.105E-04 0.000E+00

     total cpu time spent up to now is    13668.8 secs

     End of self-consistent calculation

          k = 0.0000 0.0000 0.0000 ( 40831 PWs)   bands (ev):

   -73.4795 -72.7673 -72.5295 -72.3654 -72.3430 -72.0588 -44.0392 -43.2824
   -43.0891 -42.8382 -42.7428 -42.6968 -42.6444 -42.6131 -42.6084 -42.3995
   -42.3899 -42.2862 -42.2293 -42.2112 -42.1816 -42.1594 -41.9527 -41.9144
   -18.9191 -18.6941 -18.4858 -18.2300 -17.9798 -17.8350 -17.4124 -17.1922
   -17.1589 -17.0691 -16.8999 -16.7704 -16.1208  -7.4191  -7.2370  -7.2262
    -6.6207  -6.4392  -5.9970  -5.7723  -5.7584  -5.6943  -5.6233  -5.5379
    -5.4872  -5.3036  -5.1904  -4.5907  -4.1715  -3.5703  -3.3943  -3.1937
    -3.0659  -2.9568  -2.9140  -2.7941  -2.7117  -2.6753  -2.6643  -2.4982
    -2.3603  -2.2571  -2.1803  -1.9908  -1.9409  -1.6673  -1.4577  -1.4187
    -1.2490  -1.1617  -0.7391  -0.7328  -0.5356  -0.4929  -0.2203  -0.2020
    -0.1416  -0.1353   0.2712   0.3444   0.4600   0.5289   0.9958   1.1181
     1.2378   1.4353   1.7673   2.0299   2.2356   2.2902   2.7102   3.5324
     4.2244   4.7170   5.0406   5.2244   5.4258   5.5181   5.7275   5.7779

          k = 0.0000 0.1223 0.0000 ( 40974 PWs)   bands (ev):

   -73.4795 -72.7673 -72.5295 -72.3654 -72.3430 -72.0588 -44.0392 -43.2823
   -43.0864 -42.8411 -42.7429 -42.6958 -42.6444 -42.6114 -42.6083 -42.3995
   -42.3898 -42.2863 -42.2293 -42.2106 -42.1823 -42.1614 -41.9528 -41.9156
   -18.7987 -18.5629 -18.3635 -18.2770 -17.9964 -17.8654 -17.4255 -17.3225
   -17.2861 -17.2480 -16.8801 -16.7811 -16.1179  -7.0066  -6.7919  -6.7635
    -6.6122  -6.4280  -5.9270  -5.7702  -5.6416  -5.6152  -5.5424  -5.4833
    -5.4556  -5.3027  -4.9995  -4.6312  -4.2251  -4.0285  -3.7632  -3.6121
    -3.5358  -3.4161  -3.2557  -2.9082  -2.8737  -2.8606  -2.7446  -2.6828
    -2.5772  -2.3810  -2.2087  -2.1527  -2.0835  -1.7076  -1.6383  -1.6055
    -1.3535  -1.1336  -0.9035  -0.6991  -0.0691  -0.0537   0.1396   0.2555
     0.3438   0.3887   0.4203   0.5176   0.5386   0.6155   0.9846   1.0780
     1.3008   1.4803   1.7630   1.8356   2.0328   2.3665   2.5864   3.9220
     4.6433   4.8031   4.8982   5.2246   5.4355   5.4711   5.5082   5.5484

          k = 0.0000-0.2445 0.0000 ( 41014 PWs)   bands (ev):

   -73.4795 -72.7673 -72.5295 -72.3653 -72.3431 -72.0588 -44.0392 -43.2823
   -43.0835 -42.8441 -42.7429 -42.6948 -42.6444 -42.6097 -42.6082 -42.3995
   -42.3898 -42.2863 -42.2293 -42.2099 -42.1830 -42.1633 -41.9528 -41.9168
   -18.5516 -18.4974 -18.3288 -18.1233 -18.0693 -17.9600 -17.4973 -17.4734
   -17.4337 -17.3715 -16.8510 -16.8057 -16.1156  -6.6667  -6.4666  -6.3473
    -6.0251  -5.9753  -5.8493  -5.7677  -5.6172  -5.5336  -5.4688  -5.4563
    -5.2964  -5.0582  -4.9287  -4.6151  -4.6025  -4.4956  -4.4757  -4.3471
    -4.2806  -3.6738  -3.4865  -3.3428  -3.1402  -3.1140  -2.9975  -2.7084
    -2.5844  -2.4712  -2.2196  -2.1184  -1.9651  -1.7046  -1.6430  -1.4030
    -1.1880  -1.0914  -0.9921  -0.9769   0.1923   0.2032   0.2736   0.3945
     0.5075   0.6739   0.8030   0.8169   0.8850   0.9198   1.0493   1.1174
     1.2131   1.5441   1.5578   1.6090   2.0149   2.1211   2.7159   4.3441
     4.5385   4.8349   5.1853   5.1945   5.2256   5.2552   5.5268   5.6654

          k = 0.0000-0.1223 0.0000 ( 40974 PWs)   bands (ev):

   -73.4795 -72.7673 -72.5295 -72.3654 -72.3430 -72.0588 -44.0392 -43.2823
   -43.0864 -42.8411 -42.7429 -42.6958 -42.6444 -42.6114 -42.6083 -42.3995
   -42.3898 -42.2863 -42.2293 -42.2106 -42.1823 -42.1614 -41.9528 -41.9156
   -18.7987 -18.5629 -18.3635 -18.2770 -17.9964 -17.8654 -17.4255 -17.3225
   -17.2861 -17.2480 -16.8801 -16.7811 -16.1179  -7.0066  -6.7919  -6.7635
    -6.6122  -6.4280  -5.9270  -5.7702  -5.6416  -5.6152  -5.5424  -5.4833
    -5.4556  -5.3027  -4.9995  -4.6312  -4.2251  -4.0285  -3.7632  -3.6121
    -3.5358  -3.4161  -3.2557  -2.9082  -2.8737  -2.8606  -2.7446  -2.6828
    -2.5772  -2.3810  -2.2087  -2.1527  -2.0835  -1.7076  -1.6383  -1.6055
    -1.3535  -1.1336  -0.9035  -0.6991  -0.0691  -0.0537   0.1396   0.2555
     0.3438   0.3887   0.4203   0.5176   0.5386   0.6155   0.9846   1.0780
     1.3008   1.4803   1.7630   1.8356   2.0328   2.3665   2.5864   3.9220
     4.6433   4.8031   4.8982   5.2246   5.4355   5.4711   5.5082   5.5484

          k = 0.1250 0.0000 0.0000 ( 40851 PWs)   bands (ev):

   -73.4780 -72.7657 -72.5280 -72.3639 -72.3414 -72.0572 -44.0375 -43.3078
   -43.0841 -42.8372 -42.7716 -42.6948 -42.6396 -42.6108 -42.6065 -42.4158
   -42.3954 -42.2834 -42.2379 -42.2265 -42.2074 -42.1553 -41.9801 -41.9100
   -18.7909 -18.5776 -18.3769 -18.1441 -17.9015 -17.7574 -17.4199 -17.2670
   -17.2352 -17.1490 -16.9443 -16.8234 -16.1619  -7.2360  -7.0604  -7.0475
    -6.4444  -6.4249  -6.0396  -5.8052  -5.7536  -5.6258  -5.5735  -5.4593
    -5.2123  -5.0284  -4.9769  -4.4308  -4.0888  -4.0290  -3.4372  -3.2779
    -3.2372  -3.1485  -3.0718  -3.0509  -2.9002  -2.7349  -2.7193  -2.5733
    -2.4734  -2.3262  -2.1712  -2.1441  -2.0635  -2.0466  -1.8634  -1.7160
    -1.5718  -1.1048  -1.0606  -0.7054  -0.4128  -0.2306   0.0267   0.0645
     0.1509   0.3386   0.4639   0.5240   0.6881   0.7028   1.1552   1.2111
     1.3377   1.4467   1.6444   1.8791   2.1495   2.3683   2.5675   3.7118
     4.3445   4.7633   4.7715   4.9056   5.0640   5.3681   5.4100   5.4641

          k = 0.1250 0.1223 0.0000 ( 40932 PWs)   bands (ev):

   -73.4780 -72.7657 -72.5280 -72.3639 -72.3415 -72.0572 -44.0375 -43.3079
   -43.0817 -42.8396 -42.7715 -42.6940 -42.6395 -42.6096 -42.6064 -42.4158
   -42.3954 -42.2834 -42.2372 -42.2265 -42.2082 -42.1567 -41.9800 -41.9110
   -18.6770 -18.4531 -18.2568 -18.1900 -17.9054 -17.7936 -17.4506 -17.3850
   -17.3363 -17.3145 -16.9249 -16.8351 -16.1596  -6.8379  -6.6432  -6.6071
    -6.4485  -6.4033  -5.9446  -5.7673  -5.6884  -5.6427  -5.5250  -5.2556
    -5.2055  -5.0297  -4.8512  -4.4676  -4.2136  -4.0134  -3.9936  -3.6935
    -3.4660  -3.4339  -3.3539  -3.3187  -3.1793  -3.1255  -3.0632  -2.8182
    -2.6311  -2.5185  -2.3224  -2.1996  -2.0694  -1.9941  -1.7422  -1.5581
    -1.4217  -1.0680  -0.9861  -0.7869  -0.0627   0.1768   0.1982   0.2727
     0.3828   0.4458   0.6719   0.7483   0.8024   0.8868   1.1495   1.2312
     1.3626   1.4702   1.6715   1.7264   1.9305   2.3182   2.5872   4.0248
     4.4011   4.7431   4.8405   4.8760   5.0097   5.2065   5.2685   5.3851

          k = 0.1250-0.2445 0.0000 ( 40974 PWs)   bands (ev):

   -73.4780 -72.7657 -72.5280 -72.3638 -72.3416 -72.0572 -44.0375 -43.3080
   -43.0793 -42.8420 -42.7715 -42.6932 -42.6395 -42.6083 -42.6063 -42.4158
   -42.3953 -42.2835 -42.2365 -42.2265 -42.2091 -42.1580 -41.9799 -41.9120
   -18.4449 -18.3883 -18.2231 -18.0302 -17.9734 -17.8816 -17.5587 -17.5401
   -17.4786 -17.3794 -16.8926 -16.8632 -16.1577  -6.4843  -6.4522  -6.1330
    -5.9239  -5.8358  -5.7596  -5.7506  -5.6798  -5.6468  -5.6309  -5.2485
    -5.0562  -4.8936  -4.7718  -4.6423  -4.4759  -4.3213  -4.1656  -4.1337
    -4.0947  -3.9923  -3.8657  -3.7891  -3.4740  -3.3658  -3.2717  -2.8555
    -2.7248  -2.6256  -2.3089  -2.2288  -1.9347  -1.7671  -1.5540  -1.3995
    -1.1578  -1.0868  -1.0003  -0.9777   0.1846   0.2026   0.2999   0.4025
     0.5382   0.5875   0.7932   1.1086   1.1295   1.1444   1.2138   1.2589
     1.4103   1.4312   1.5371   1.6573   1.9286   2.0043   2.7342   4.0770
     4.4337   4.5600   4.7246   4.8534   5.0825   5.1168   5.3042   5.4421

          k = 0.1250-0.1223 0.0000 ( 40932 PWs)   bands (ev):

   -73.4780 -72.7657 -72.5280 -72.3639 -72.3415 -72.0572 -44.0375 -43.3079
   -43.0817 -42.8396 -42.7715 -42.6940 -42.6395 -42.6096 -42.6064 -42.4158
   -42.3954 -42.2834 -42.2372 -42.2265 -42.2082 -42.1567 -41.9800 -41.9110
   -18.6770 -18.4531 -18.2568 -18.1900 -17.9054 -17.7936 -17.4506 -17.3850
   -17.3363 -17.3145 -16.9249 -16.8351 -16.1596  -6.8379  -6.6432  -6.6071
    -6.4485  -6.4033  -5.9446  -5.7673  -5.6884  -5.6427  -5.5250  -5.2556
    -5.2055  -5.0297  -4.8512  -4.4676  -4.2136  -4.0134  -3.9936  -3.6935
    -3.4660  -3.4339  -3.3539  -3.3187  -3.1793  -3.1255  -3.0632  -2.8182
    -2.6311  -2.5185  -2.3224  -2.1996  -2.0694  -1.9941  -1.7422  -1.5581
    -1.4217  -1.0680  -0.9861  -0.7869  -0.0627   0.1768   0.1982   0.2727
     0.3828   0.4458   0.6719   0.7483   0.8024   0.8868   1.1495   1.2312
     1.3626   1.4702   1.6715   1.7264   1.9305   2.3182   2.5872   4.0248
     4.4011   4.7431   4.8405   4.8760   5.0097   5.2065   5.2685   5.3851

          k = 0.2500 0.0000 0.0000 ( 40947 PWs)   bands (ev):

   -73.4744 -72.7619 -72.5244 -72.3602 -72.3378 -72.0535 -44.0334 -43.3688
   -43.0718 -42.8400 -42.8348 -42.6898 -42.6277 -42.6054 -42.6026 -42.4778
   -42.3855 -42.3021 -42.2845 -42.2617 -42.2191 -42.1454 -42.0455 -41.8993
   -18.4654 -18.2897 -18.1086 -17.9733 -17.7738 -17.5620 -17.4667 -17.4276
   -17.4008 -17.3362 -17.0693 -16.8656 -16.2144  -6.7668  -6.6124  -6.5776
    -6.2448  -5.9921  -5.9693  -5.8523  -5.8031  -5.4670  -5.4368  -5.0470
    -4.9801  -4.6378  -4.5361  -4.5086  -4.3345  -4.1375  -4.0226  -3.9810
    -3.7480  -3.6694  -3.3414  -3.1923  -3.1181  -3.0097  -2.8513  -2.7903
    -2.6848  -2.4746  -2.3936  -2.2309  -2.1979  -2.1013  -2.0429  -1.6076
    -1.4604  -1.2517  -1.1922  -0.9627  -0.2272  -0.1032   0.1855   0.4549
     0.5216   0.5920   0.8054   0.9788   1.0708   1.1706   1.2067   1.3298
     1.3726   1.4728   1.5068   1.6198   1.8609   2.1856   2.5005   3.9562
     4.1804   4.2213   4.4104   4.6719   4.7461   4.8152   4.8860   4.9684

          k = 0.2500 0.1223 0.0000 ( 40905 PWs)   bands (ev):

   -73.4744 -72.7619 -72.5244 -72.3602 -72.3378 -72.0535 -44.0334 -43.3691
   -43.0705 -42.8399 -42.8358 -42.6897 -42.6277 -42.6053 -42.6025 -42.4779
   -42.3855 -42.3009 -42.2849 -42.2620 -42.2191 -42.1459 -42.0452 -41.8998
   -18.3790 -18.1959 -18.0155 -18.0075 -17.7671 -17.6372 -17.5396 -17.4973
   -17.4535 -17.3870 -17.0597 -16.8719 -16.2139  -6.4592  -6.3239  -6.2594
    -6.2122  -5.9855  -5.8633  -5.8130  -5.6404  -5.5616  -5.3595  -5.1056
    -4.7985  -4.7337  -4.6557  -4.5013  -4.4464  -4.3503  -4.2351  -4.1398
    -3.9972  -3.5697  -3.5035  -3.3505  -3.2018  -3.1756  -3.0112  -2.9204
    -2.7739  -2.6526  -2.4337  -2.2570  -2.1706  -2.1138  -1.9253  -1.5973
    -1.4261  -1.2478  -1.1603  -1.0173  -0.2115   0.1052   0.4229   0.4723
     0.5848   0.8402   0.9013   0.9736   1.0616   1.1455   1.2102   1.2700
     1.3665   1.5277   1.5986   1.6692   1.7984   2.0666   2.6170   3.7040
     4.0384   4.1484   4.2453   4.3807   4.6722   4.7821   5.2083   5.3586

          k = 0.2500-0.2445 0.0000 ( 40892 PWs)   bands (ev):

   -73.4744 -72.7619 -72.5244 -72.3602 -72.3378 -72.0535 -44.0334 -43.3695
   -43.0692 -42.8396 -42.8371 -42.6895 -42.6277 -42.6053 -42.6024 -42.4779
   -42.3855 -42.2997 -42.2853 -42.2624 -42.2191 -42.1465 -42.0448 -41.9003
   -18.2088 -18.1496 -17.9775 -17.9055 -17.7721 -17.7380 -17.6905 -17.6159
   -17.5063 -17.3891 -17.0500 -16.8792 -16.2134  -6.2658  -6.0308  -5.9507
    -5.8407  -5.7872  -5.7848  -5.6582  -5.5445  -5.3172  -5.2970  -5.2171
    -4.9944  -4.9900  -4.9547  -4.7767  -4.5850  -4.4861  -4.2454  -4.0460
    -3.8307  -3.7514  -3.6385  -3.6033  -3.5186  -3.4984  -3.2817  -3.2645
    -2.9286  -2.7814  -2.3784  -2.2403  -1.9521  -1.8678  -1.6649  -1.6084
    -1.3332  -1.2961  -1.1376  -1.1048   0.0040   0.0347   0.2717   0.5776
     0.6011   0.8661   1.0214   1.0982   1.1255   1.1464   1.2839   1.3875
     1.4026   1.6002   1.6572   1.7843   1.8237   1.9236   2.7090   3.3023
     3.7607   3.8422   4.0935   4.3714   4.6882   5.0702   5.3130   5.5912

          k = 0.2500-0.1223 0.0000 ( 40905 PWs)   bands (ev):

   -73.4744 -72.7619 -72.5244 -72.3602 -72.3378 -72.0535 -44.0334 -43.3691
   -43.0705 -42.8399 -42.8358 -42.6897 -42.6277 -42.6053 -42.6025 -42.4779
   -42.3855 -42.3009 -42.2849 -42.2620 -42.2191 -42.1459 -42.0452 -41.8998
   -18.3790 -18.1959 -18.0155 -18.0075 -17.7671 -17.6372 -17.5396 -17.4973
   -17.4535 -17.3870 -17.0597 -16.8719 -16.2139  -6.4592  -6.3239  -6.2594
    -6.2122  -5.9855  -5.8633  -5.8130  -5.6404  -5.5616  -5.3595  -5.1056
    -4.7985  -4.7337  -4.6557  -4.5013  -4.4464  -4.3503  -4.2351  -4.1398
    -3.9972  -3.5697  -3.5035  -3.3505  -3.2018  -3.1756  -3.0112  -2.9204
    -2.7739  -2.6526  -2.4337  -2.2570  -2.1706  -2.1138  -1.9253  -1.5973
    -1.4261  -1.2478  -1.1603  -1.0173  -0.2115   0.1052   0.4229   0.4723
     0.5848   0.8402   0.9013   0.9736   1.0616   1.1455   1.2102   1.2700
     1.3665   1.5277   1.5986   1.6692   1.7984   2.0666   2.6170   3.7040
     4.0384   4.1484   4.2453   4.3807   4.6722   4.7821   5.2083   5.3586

          k = 0.3750 0.0000 0.0000 ( 40852 PWs)   bands (ev):

   -73.4709 -72.7580 -72.5207 -72.3566 -72.3341 -72.0497 -44.0292 -43.4292
   -43.0593 -42.9074 -42.8325 -42.6849 -42.6160 -42.6000 -42.5998 -42.5381
   -42.3782 -42.3627 -42.3367 -42.2645 -42.2118 -42.1354 -42.1101 -41.8885
   -18.1173 -17.9981 -17.8701 -17.8386 -17.7357 -17.6246 -17.5936 -17.5214
   -17.4478 -17.4056 -17.0829 -16.8333 -16.1867  -6.3296  -6.1645  -6.0430
    -6.0188  -5.8948  -5.8434  -5.6462  -5.6152  -5.4961  -5.3980  -5.2025
    -5.0547  -4.8200  -4.7838  -4.5712  -4.4127  -4.3690  -4.2034  -3.9593
    -3.6593  -3.4924  -3.4045  -3.3760  -3.3320  -3.1622  -3.0860  -2.8093
    -2.6738  -2.5933  -2.4368  -2.2702  -2.2107  -2.0295  -1.9489  -1.5163
    -1.3756  -1.3710  -1.2293  -0.9644  -0.1545   0.0249   0.2757   0.4804
     0.5866   0.6689   0.7671   0.7830   0.8711   1.0353   1.1632   1.2267
     1.3868   1.5303   1.6592   1.7928   1.9729   2.1554   2.3755   3.4247
     3.7964   4.0665   4.2787   4.3919   4.4896   4.5483   4.7886   4.9460

          k = 0.3750 0.1223 0.0000 ( 40842 PWs)   bands (ev):

   -73.4709 -72.7580 -72.5207 -72.3566 -72.3341 -72.0497 -44.0292 -43.4297
   -43.0593 -42.9069 -42.8324 -42.6854 -42.6160 -42.6015 -42.5997 -42.5382
   -42.3778 -42.3612 -42.3372 -42.2645 -42.2118 -42.1352 -42.1094 -41.8885
   -18.0977 -17.9983 -17.9310 -17.8737 -17.8032 -17.6186 -17.5286 -17.4719
   -17.4436 -17.3904 -17.0824 -16.8369 -16.1870  -6.2097  -6.1174  -6.0852
    -6.0404  -5.9513  -5.7547  -5.6491  -5.5940  -5.5156  -5.4654  -5.3489
    -5.0368  -4.7679  -4.7000  -4.5319  -4.4531  -4.2791  -4.0463  -3.8530
    -3.6391  -3.5579  -3.3478  -3.2961  -3.2271  -3.1382  -3.0375  -2.8686
    -2.7316  -2.6057  -2.5012  -2.2833  -2.1771  -2.0556  -1.9335  -1.6222
    -1.5328  -1.3992  -1.2563  -1.1165  -0.1237  -0.0762   0.2006   0.2488
     0.5419   0.6087   0.6401   0.7644   0.8152   0.9321   0.9598   1.2282
     1.6767   1.7456   1.8371   1.8856   2.0375   2.0649   2.4857   3.1715
     3.4867   3.6593   3.7571   4.1072   4.2969   5.1338   5.4588   5.5750

          k = 0.3750-0.2445 0.0000 ( 40856 PWs)   bands (ev):

   -73.4709 -72.7580 -72.5207 -72.3565 -72.3341 -72.0497 -44.0292 -43.4302
   -43.0594 -42.9064 -42.8323 -42.6860 -42.6160 -42.6029 -42.5997 -42.5383
   -42.3775 -42.3597 -42.3377 -42.2645 -42.2118 -42.1350 -42.1086 -41.8885
   -18.0517 -18.0247 -17.9893 -17.8989 -17.8418 -17.6253 -17.4783 -17.4548
   -17.4198 -17.3767 -17.0817 -16.8407 -16.1872  -6.2506  -6.0665  -5.9213
    -5.9136  -5.8517  -5.8154  -5.7509  -5.6774  -5.6633  -5.5529  -5.4072
    -4.9326  -4.7847  -4.5388  -4.4947  -4.2836  -4.2012  -4.0653  -3.7305
    -3.5399  -3.4399  -3.4059  -3.2784  -3.2632  -3.1513  -3.1113  -2.9697
    -2.7693  -2.7322  -2.3626  -2.2115  -2.1538  -2.0247  -1.8934  -1.8373
    -1.5737  -1.4284  -1.2730  -1.2437  -0.3197  -0.2575  -0.0939   0.3206
     0.4431   0.6042   0.6809   0.7720   0.8254   0.8839   1.0163   1.2161
     1.5773   1.8009   1.9632   1.9891   2.1197   2.2167   2.5836   2.7684
     3.2230   3.3253   3.5194   4.1315   4.2993   5.5110   5.6008   5.8147

          k = 0.3750-0.1223 0.0000 ( 40842 PWs)   bands (ev):

   -73.4709 -72.7580 -72.5207 -72.3566 -72.3341 -72.0497 -44.0292 -43.4297
   -43.0593 -42.9069 -42.8324 -42.6854 -42.6160 -42.6015 -42.5997 -42.5382
   -42.3778 -42.3612 -42.3372 -42.2645 -42.2118 -42.1352 -42.1094 -41.8885
   -18.0977 -17.9983 -17.9310 -17.8737 -17.8032 -17.6186 -17.5286 -17.4719
   -17.4436 -17.3904 -17.0824 -16.8369 -16.1870  -6.2097  -6.1174  -6.0852
    -6.0404  -5.9513  -5.7547  -5.6491  -5.5940  -5.5156  -5.4654  -5.3489
    -5.0368  -4.7679  -4.7000  -4.5319  -4.4531  -4.2791  -4.0463  -3.8530
    -3.6391  -3.5579  -3.3478  -3.2961  -3.2271  -3.1382  -3.0375  -2.8686
    -2.7316  -2.6057  -2.5012  -2.2833  -2.1771  -2.0556  -1.9335  -1.6222
    -1.5328  -1.3992  -1.2563  -1.1165  -0.1237  -0.0762   0.2006   0.2488
     0.5419   0.6087   0.6401   0.7644   0.8152   0.9321   0.9598   1.2282
     1.6767   1.7456   1.8371   1.8856   2.0375   2.0649   2.4857   3.1715
     3.4867   3.6593   3.7571   4.1072   4.2969   5.1338   5.4588   5.5750

          k =-0.5000 0.0000 0.0000 ( 40876 PWs)   bands (ev):

   -73.4694 -72.7564 -72.5192 -72.3550 -72.3326 -72.0482 -44.0275 -43.4540
   -43.0540 -42.9351 -42.8317 -42.6829 -42.6122 -42.5991 -42.5976 -42.5615
   -42.3939 -42.3689 -42.3618 -42.2620 -42.2088 -42.1365 -42.1312 -41.8840
   -18.0070 -17.8412 -17.8398 -17.7802 -17.7030 -17.6808 -17.6548 -17.5902
   -17.4682 -17.4022 -17.0111 -16.8065 -16.1501  -6.3187  -6.1415  -5.9771
    -5.7827  -5.7576  -5.6874  -5.5830  -5.5429  -5.5213  -5.4185  -5.3200
    -5.1516  -5.0266  -4.8962  -4.7278  -4.4959  -4.0696  -3.8339  -3.7879
    -3.6785  -3.6719  -3.6716  -3.5642  -3.4051  -2.9587  -2.8488  -2.7074
    -2.6100  -2.4765  -2.4701  -2.3625  -2.1583  -1.9776  -1.8251  -1.7114
    -1.6099  -1.2371  -1.1134  -0.8955  -0.1998   0.0791   0.0865   0.4686
     0.5439   0.5760   0.6382   0.6688   0.7295   0.7923   1.0362   1.1657
     1.3296   1.5121   1.8539   1.9344   2.1559   2.2640   2.3284   3.2039
     3.6470   4.0218   4.2178   4.2598   4.3719   4.5583   4.7661   4.9153

          k =-0.5000 0.1223 0.0000 ( 40858 PWs)   bands (ev):

   -73.4694 -72.7564 -72.5192 -72.3550 -72.3326 -72.0482 -44.0275 -43.4546
   -43.0548 -42.9343 -42.8310 -42.6837 -42.6123 -42.6003 -42.5986 -42.5617
   -42.3918 -42.3687 -42.3622 -42.2621 -42.2088 -42.1356 -42.1307 -41.8838
   -18.0006 -17.9630 -17.9507 -17.9034 -17.8445 -17.5276 -17.4675 -17.4633
   -17.4201 -17.4022 -17.0133 -16.8088 -16.1496  -6.2733  -6.2258  -6.1042
    -6.0995  -5.9936  -5.7494  -5.6581  -5.6208  -5.6013  -5.4142  -5.1741
    -5.0853  -4.8310  -4.5753  -4.4031  -4.1099  -3.8643  -3.8278  -3.7927
    -3.7722  -3.6388  -3.6294  -3.6025  -3.0054  -2.9432  -2.8101  -2.6191
    -2.5982  -2.5185  -2.4925  -2.2672  -2.1818  -2.1345  -1.8333  -1.6574
    -1.6199  -1.4858  -1.2985  -1.0804  -0.1930  -0.0332   0.0384   0.0847
     0.2089   0.4526   0.4954   0.5668   0.5966   0.6369   0.7515   1.1831
     1.8263   1.8548   2.0136   2.0204   2.1894   2.2076   2.4120   3.0101
     3.2512   3.4602   3.5849   4.0505   4.2205   5.3326   5.6036   5.6399

          k =-0.5000-0.2445 0.0000 ( 40872 PWs)   bands (ev):

   -73.4694 -72.7564 -72.5192 -72.3550 -72.3326 -72.0482 -44.0275 -43.4552
   -43.0555 -42.9336 -42.8303 -42.6845 -42.6123 -42.6024 -42.5987 -42.5618
   -42.3897 -42.3685 -42.3627 -42.2621 -42.2087 -42.1347 -42.1303 -41.8837
   -18.0417 -18.0364 -17.9943 -17.9939 -17.8482 -17.4666 -17.4485 -17.4022
   -17.3637 -17.3228 -17.0154 -16.8112 -16.1491  -6.4801  -6.2705  -6.1943
    -6.0904  -6.0691  -5.7627  -5.6695  -5.6690  -5.6351  -5.4925  -5.1740
    -5.0397  -4.9525  -4.1765  -4.1133  -3.9027  -3.8681  -3.8241  -3.5913
    -3.5837  -3.5166  -3.4176  -3.2327  -3.1986  -2.8934  -2.8537  -2.8015
    -2.6606  -2.4129  -2.3181  -2.2002  -2.1494  -1.9325  -1.9022  -1.7846
    -1.7487  -1.7105  -1.5746  -1.2602  -0.5063  -0.2271  -0.1889   0.0114
     0.1057   0.1787   0.4567   0.4757   0.6059   0.6359   0.7657   1.2205
     1.7530   1.9265   2.0583   2.1265   2.3649   2.3734   2.4671   2.6305
     3.0756   3.1971   3.2872   4.0773   4.2226   5.7197   5.7852   5.8267

          k =-0.5000-0.1223 0.0000 ( 40858 PWs)   bands (ev):

   -73.4694 -72.7564 -72.5192 -72.3550 -72.3326 -72.0482 -44.0275 -43.4546
   -43.0548 -42.9343 -42.8310 -42.6837 -42.6123 -42.6003 -42.5986 -42.5617
   -42.3918 -42.3687 -42.3622 -42.2621 -42.2088 -42.1356 -42.1307 -41.8838
   -18.0006 -17.9630 -17.9507 -17.9034 -17.8445 -17.5276 -17.4675 -17.4633
   -17.4201 -17.4022 -17.0133 -16.8088 -16.1496  -6.2733  -6.2258  -6.1042
    -6.0995  -5.9936  -5.7494  -5.6581  -5.6208  -5.6013  -5.4142  -5.1741
    -5.0853  -4.8310  -4.5753  -4.4031  -4.1099  -3.8643  -3.8278  -3.7927
    -3.7722  -3.6388  -3.6294  -3.6025  -3.0054  -2.9432  -2.8101  -2.6191
    -2.5982  -2.5185  -2.4925  -2.2672  -2.1818  -2.1345  -1.8333  -1.6574
    -1.6199  -1.4858  -1.2985  -1.0804  -0.1930  -0.0332   0.0384   0.0847
     0.2089   0.4526   0.4954   0.5668   0.5966   0.6369   0.7515   1.1831
     1.8263   1.8548   2.0136   2.0204   2.1894   2.2076   2.4120   3.0101
     3.2512   3.4602   3.5849   4.0505   4.2205   5.3326   5.6036   5.6399

          k =-0.3750 0.0000 0.0000 ( 40852 PWs)   bands (ev):

   -73.4709 -72.7580 -72.5207 -72.3566 -72.3341 -72.0497 -44.0292 -43.4292
   -43.0593 -42.9074 -42.8325 -42.6849 -42.6160 -42.6000 -42.5998 -42.5381
   -42.3782 -42.3627 -42.3367 -42.2645 -42.2118 -42.1354 -42.1101 -41.8885
   -18.1173 -17.9981 -17.8701 -17.8386 -17.7357 -17.6246 -17.5936 -17.5214
   -17.4478 -17.4056 -17.0829 -16.8333 -16.1867  -6.3296  -6.1645  -6.0430
    -6.0188  -5.8948  -5.8434  -5.6462  -5.6152  -5.4961  -5.3980  -5.2025
    -5.0547  -4.8200  -4.7838  -4.5712  -4.4127  -4.3690  -4.2034  -3.9593
    -3.6593  -3.4924  -3.4045  -3.3760  -3.3320  -3.1622  -3.0860  -2.8093
    -2.6738  -2.5933  -2.4368  -2.2702  -2.2107  -2.0295  -1.9489  -1.5163
    -1.3756  -1.3710  -1.2293  -0.9644  -0.1545   0.0249   0.2757   0.4804
     0.5866   0.6689   0.7671   0.7830   0.8711   1.0353   1.1632   1.2267
     1.3868   1.5303   1.6592   1.7928   1.9729   2.1554   2.3755   3.4247
     3.7964   4.0665   4.2787   4.3919   4.4896   4.5483   4.7886   4.9460

          k =-0.3750 0.1223 0.0000 ( 40842 PWs)   bands (ev):

   -73.4709 -72.7580 -72.5207 -72.3566 -72.3341 -72.0497 -44.0292 -43.4297
   -43.0593 -42.9069 -42.8324 -42.6854 -42.6160 -42.6015 -42.5997 -42.5382
   -42.3778 -42.3612 -42.3372 -42.2645 -42.2118 -42.1352 -42.1094 -41.8885
   -18.0977 -17.9983 -17.9310 -17.8737 -17.8032 -17.6186 -17.5286 -17.4719
   -17.4436 -17.3904 -17.0824 -16.8369 -16.1870  -6.2097  -6.1174  -6.0852
    -6.0404  -5.9513  -5.7547  -5.6491  -5.5940  -5.5156  -5.4654  -5.3489
    -5.0368  -4.7679  -4.7000  -4.5319  -4.4531  -4.2791  -4.0463  -3.8530
    -3.6391  -3.5579  -3.3478  -3.2961  -3.2271  -3.1382  -3.0375  -2.8686
    -2.7316  -2.6057  -2.5012  -2.2833  -2.1771  -2.0556  -1.9335  -1.6222
    -1.5328  -1.3992  -1.2563  -1.1165  -0.1237  -0.0762   0.2006   0.2488
     0.5419   0.6087   0.6401   0.7644   0.8152   0.9321   0.9598   1.2282
     1.6767   1.7456   1.8371   1.8856   2.0375   2.0649   2.4857   3.1715
     3.4867   3.6593   3.7571   4.1072   4.2969   5.1338   5.4588   5.5749

          k =-0.3750-0.2445 0.0000 ( 40856 PWs)   bands (ev):

   -73.4709 -72.7580 -72.5207 -72.3565 -72.3341 -72.0497 -44.0292 -43.4302
   -43.0594 -42.9064 -42.8323 -42.6860 -42.6160 -42.6029 -42.5997 -42.5383
   -42.3775 -42.3597 -42.3377 -42.2645 -42.2118 -42.1350 -42.1086 -41.8885
   -18.0517 -18.0247 -17.9893 -17.8989 -17.8418 -17.6253 -17.4783 -17.4548
   -17.4198 -17.3767 -17.0817 -16.8407 -16.1872  -6.2506  -6.0665  -5.9213
    -5.9136  -5.8517  -5.8154  -5.7509  -5.6774  -5.6633  -5.5529  -5.4072
    -4.9326  -4.7847  -4.5388  -4.4947  -4.2836  -4.2012  -4.0653  -3.7305
    -3.5399  -3.4399  -3.4059  -3.2784  -3.2632  -3.1513  -3.1113  -2.9697
    -2.7693  -2.7322  -2.3626  -2.2115  -2.1538  -2.0247  -1.8934  -1.8373
    -1.5737  -1.4284  -1.2730  -1.2437  -0.3197  -0.2575  -0.0939   0.3206
     0.4431   0.6042   0.6809   0.7720   0.8254   0.8839   1.0163   1.2161
     1.5773   1.8009   1.9632   1.9891   2.1197   2.2167   2.5836   2.7684
     3.2230   3.3253   3.5194   4.1315   4.2993   5.5110   5.6008   5.8147

          k =-0.3750-0.1223 0.0000 ( 40842 PWs)   bands (ev):

   -73.4709 -72.7580 -72.5207 -72.3566 -72.3341 -72.0497 -44.0292 -43.4297
   -43.0593 -42.9069 -42.8324 -42.6854 -42.6160 -42.6015 -42.5997 -42.5382
   -42.3778 -42.3612 -42.3372 -42.2645 -42.2118 -42.1352 -42.1094 -41.8885
   -18.0977 -17.9983 -17.9310 -17.8737 -17.8032 -17.6186 -17.5286 -17.4719
   -17.4436 -17.3904 -17.0824 -16.8369 -16.1870  -6.2097  -6.1174  -6.0852
    -6.0404  -5.9513  -5.7547  -5.6491  -5.5940  -5.5156  -5.4654  -5.3489
    -5.0368  -4.7679  -4.7000  -4.5319  -4.4531  -4.2791  -4.0463  -3.8530
    -3.6391  -3.5579  -3.3478  -3.2961  -3.2271  -3.1382  -3.0375  -2.8686
    -2.7316  -2.6057  -2.5012  -2.2833  -2.1771  -2.0556  -1.9335  -1.6222
    -1.5328  -1.3992  -1.2563  -1.1165  -0.1237  -0.0762   0.2006   0.2488
     0.5419   0.6087   0.6401   0.7644   0.8152   0.9321   0.9598   1.2282
     1.6767   1.7456   1.8371   1.8856   2.0375   2.0649   2.4857   3.1715
     3.4867   3.6593   3.7571   4.1072   4.2969   5.1338   5.4588   5.5750

          k =-0.2500 0.0000 0.0000 ( 40947 PWs)   bands (ev):

   -73.4744 -72.7619 -72.5244 -72.3602 -72.3378 -72.0535 -44.0334 -43.3688
   -43.0718 -42.8400 -42.8348 -42.6898 -42.6277 -42.6054 -42.6026 -42.4778
   -42.3855 -42.3021 -42.2845 -42.2617 -42.2191 -42.1454 -42.0455 -41.8993
   -18.4654 -18.2897 -18.1086 -17.9733 -17.7738 -17.5620 -17.4667 -17.4276
   -17.4008 -17.3362 -17.0693 -16.8656 -16.2144  -6.7668  -6.6124  -6.5776
    -6.2448  -5.9921  -5.9693  -5.8523  -5.8031  -5.4670  -5.4368  -5.0470
    -4.9801  -4.6378  -4.5361  -4.5086  -4.3345  -4.1375  -4.0226  -3.9810
    -3.7480  -3.6694  -3.3414  -3.1923  -3.1181  -3.0097  -2.8513  -2.7903
    -2.6848  -2.4746  -2.3936  -2.2309  -2.1979  -2.1013  -2.0429  -1.6076
    -1.4604  -1.2517  -1.1922  -0.9627  -0.2272  -0.1032   0.1855   0.4549
     0.5216   0.5920   0.8054   0.9788   1.0708   1.1706   1.2067   1.3298
     1.3726   1.4728   1.5068   1.6198   1.8609   2.1856   2.5005   3.9562
     4.1804   4.2213   4.4104   4.6719   4.7461   4.8152   4.8860   4.9684

          k =-0.2500 0.1223 0.0000 ( 40905 PWs)   bands (ev):

   -73.4744 -72.7619 -72.5244 -72.3602 -72.3378 -72.0535 -44.0334 -43.3691
   -43.0705 -42.8399 -42.8358 -42.6897 -42.6277 -42.6053 -42.6025 -42.4779
   -42.3855 -42.3009 -42.2849 -42.2620 -42.2191 -42.1459 -42.0452 -41.8998
   -18.3790 -18.1959 -18.0155 -18.0075 -17.7671 -17.6372 -17.5396 -17.4973
   -17.4535 -17.3870 -17.0597 -16.8719 -16.2139  -6.4592  -6.3239  -6.2594
    -6.2122  -5.9855  -5.8633  -5.8130  -5.6404  -5.5616  -5.3595  -5.1056
    -4.7985  -4.7337  -4.6557  -4.5013  -4.4464  -4.3503  -4.2351  -4.1398
    -3.9972  -3.5697  -3.5035  -3.3505  -3.2018  -3.1756  -3.0112  -2.9204
    -2.7739  -2.6526  -2.4337  -2.2570  -2.1706  -2.1138  -1.9253  -1.5973
    -1.4261  -1.2478  -1.1603  -1.0173  -0.2115   0.1052   0.4229   0.4723
     0.5848   0.8402   0.9013   0.9736   1.0616   1.1455   1.2102   1.2700
     1.3665   1.5277   1.5986   1.6692   1.7984   2.0666   2.6170   3.7040
     4.0384   4.1484   4.2453   4.3807   4.6722   4.7821   5.2083   5.3586

          k =-0.2500-0.2445 0.0000 ( 40892 PWs)   bands (ev):

   -73.4744 -72.7619 -72.5244 -72.3602 -72.3378 -72.0535 -44.0334 -43.3695
   -43.0692 -42.8396 -42.8371 -42.6895 -42.6277 -42.6053 -42.6024 -42.4779
   -42.3855 -42.2997 -42.2853 -42.2624 -42.2191 -42.1465 -42.0448 -41.9003
   -18.2088 -18.1496 -17.9775 -17.9055 -17.7721 -17.7380 -17.6905 -17.6159
   -17.5063 -17.3891 -17.0500 -16.8792 -16.2134  -6.2658  -6.0308  -5.9507
    -5.8407  -5.7872  -5.7848  -5.6582  -5.5445  -5.3172  -5.2970  -5.2171
    -4.9944  -4.9900  -4.9547  -4.7767  -4.5850  -4.4861  -4.2454  -4.0460
    -3.8307  -3.7514  -3.6385  -3.6033  -3.5186  -3.4984  -3.2817  -3.2645
    -2.9286  -2.7814  -2.3784  -2.2403  -1.9521  -1.8678  -1.6649  -1.6084
    -1.3332  -1.2961  -1.1376  -1.1048   0.0040   0.0347   0.2717   0.5776
     0.6011   0.8661   1.0214   1.0982   1.1255   1.1464   1.2839   1.3875
     1.4026   1.6002   1.6572   1.7843   1.8237   1.9236   2.7090   3.3023
     3.7607   3.8422   4.0935   4.3714   4.6882   5.0702   5.3130   5.5912

          k =-0.2500-0.1223 0.0000 ( 40905 PWs)   bands (ev):

   -73.4744 -72.7619 -72.5244 -72.3602 -72.3378 -72.0535 -44.0334 -43.3691
   -43.0705 -42.8399 -42.8358 -42.6897 -42.6277 -42.6053 -42.6025 -42.4779
   -42.3855 -42.3009 -42.2849 -42.2620 -42.2191 -42.1459 -42.0452 -41.8998
   -18.3790 -18.1959 -18.0155 -18.0075 -17.7671 -17.6372 -17.5396 -17.4973
   -17.4535 -17.3870 -17.0597 -16.8719 -16.2139  -6.4592  -6.3239  -6.2594
    -6.2122  -5.9855  -5.8633  -5.8130  -5.6404  -5.5616  -5.3595  -5.1056
    -4.7985  -4.7337  -4.6557  -4.5013  -4.4464  -4.3503  -4.2351  -4.1398
    -3.9972  -3.5697  -3.5035  -3.3505  -3.2018  -3.1756  -3.0112  -2.9204
    -2.7739  -2.6526  -2.4337  -2.2570  -2.1706  -2.1138  -1.9253  -1.5973
    -1.4261  -1.2478  -1.1603  -1.0173  -0.2115   0.1052   0.4229   0.4723
     0.5848   0.8402   0.9013   0.9736   1.0616   1.1455   1.2102   1.2700
     1.3665   1.5277   1.5986   1.6692   1.7984   2.0666   2.6170   3.7040
     4.0384   4.1484   4.2453   4.3807   4.6722   4.7821   5.2083   5.3586

          k =-0.1250 0.0000 0.0000 ( 40851 PWs)   bands (ev):

   -73.4780 -72.7657 -72.5280 -72.3639 -72.3414 -72.0572 -44.0375 -43.3078
   -43.0841 -42.8372 -42.7716 -42.6948 -42.6396 -42.6108 -42.6065 -42.4158
   -42.3954 -42.2834 -42.2379 -42.2265 -42.2074 -42.1553 -41.9801 -41.9100
   -18.7909 -18.5776 -18.3769 -18.1441 -17.9015 -17.7574 -17.4199 -17.2670
   -17.2352 -17.1490 -16.9443 -16.8234 -16.1619  -7.2360  -7.0604  -7.0475
    -6.4444  -6.4249  -6.0396  -5.8052  -5.7536  -5.6258  -5.5735  -5.4593
    -5.2123  -5.0284  -4.9769  -4.4308  -4.0888  -4.0290  -3.4372  -3.2779
    -3.2372  -3.1485  -3.0718  -3.0509  -2.9002  -2.7349  -2.7193  -2.5733
    -2.4734  -2.3262  -2.1712  -2.1441  -2.0635  -2.0466  -1.8634  -1.7160
    -1.5718  -1.1048  -1.0606  -0.7054  -0.4128  -0.2306   0.0267   0.0645
     0.1509   0.3386   0.4639   0.5240   0.6881   0.7028   1.1552   1.2111
     1.3377   1.4467   1.6444   1.8791   2.1495   2.3683   2.5675   3.7118
     4.3445   4.7633   4.7715   4.9056   5.0640   5.3681   5.4100   5.4641

          k =-0.1250 0.1223 0.0000 ( 40932 PWs)   bands (ev):

   -73.4780 -72.7657 -72.5280 -72.3639 -72.3415 -72.0572 -44.0375 -43.3079
   -43.0817 -42.8396 -42.7715 -42.6940 -42.6395 -42.6096 -42.6064 -42.4158
   -42.3954 -42.2834 -42.2372 -42.2265 -42.2082 -42.1567 -41.9800 -41.9110
   -18.6770 -18.4531 -18.2568 -18.1900 -17.9054 -17.7936 -17.4506 -17.3850
   -17.3363 -17.3145 -16.9249 -16.8351 -16.1596  -6.8379  -6.6432  -6.6071
    -6.4485  -6.4033  -5.9446  -5.7673  -5.6884  -5.6427  -5.5250  -5.2556
    -5.2055  -5.0297  -4.8512  -4.4676  -4.2136  -4.0134  -3.9936  -3.6935
    -3.4660  -3.4339  -3.3539  -3.3187  -3.1793  -3.1255  -3.0632  -2.8182
    -2.6311  -2.5185  -2.3224  -2.1996  -2.0694  -1.9941  -1.7422  -1.5581
    -1.4217  -1.0680  -0.9861  -0.7869  -0.0627   0.1768   0.1982   0.2727
     0.3828   0.4458   0.6719   0.7483   0.8024   0.8868   1.1495   1.2312
     1.3626   1.4702   1.6715   1.7264   1.9305   2.3182   2.5872   4.0248
     4.4011   4.7431   4.8405   4.8760   5.0097   5.2065   5.2685   5.3851

          k =-0.1250-0.2445 0.0000 ( 40974 PWs)   bands (ev):

   -73.4780 -72.7657 -72.5280 -72.3638 -72.3416 -72.0572 -44.0375 -43.3080
   -43.0793 -42.8420 -42.7715 -42.6932 -42.6395 -42.6083 -42.6063 -42.4158
   -42.3953 -42.2835 -42.2365 -42.2265 -42.2091 -42.1580 -41.9799 -41.9120
   -18.4449 -18.3883 -18.2231 -18.0302 -17.9734 -17.8816 -17.5587 -17.5401
   -17.4786 -17.3794 -16.8926 -16.8632 -16.1577  -6.4843  -6.4522  -6.1330
    -5.9239  -5.8358  -5.7596  -5.7506  -5.6798  -5.6468  -5.6309  -5.2485
    -5.0562  -4.8936  -4.7718  -4.6423  -4.4759  -4.3213  -4.1656  -4.1337
    -4.0947  -3.9923  -3.8657  -3.7891  -3.4740  -3.3658  -3.2717  -2.8555
    -2.7248  -2.6256  -2.3089  -2.2288  -1.9347  -1.7671  -1.5540  -1.3995
    -1.1578  -1.0868  -1.0003  -0.9777   0.1846   0.2026   0.2999   0.4025
     0.5382   0.5875   0.7932   1.1086   1.1295   1.1444   1.2138   1.2589
     1.4103   1.4312   1.5371   1.6573   1.9286   2.0043   2.7342   4.0770
     4.4337   4.5600   4.7246   4.8534   5.0825   5.1168   5.3042   5.4421

          k =-0.1250-0.1223 0.0000 ( 40932 PWs)   bands (ev):

   -73.4780 -72.7657 -72.5280 -72.3639 -72.3415 -72.0572 -44.0375 -43.3079
   -43.0817 -42.8396 -42.7715 -42.6940 -42.6395 -42.6096 -42.6064 -42.4158
   -42.3954 -42.2834 -42.2372 -42.2265 -42.2082 -42.1567 -41.9800 -41.9110
   -18.6770 -18.4531 -18.2568 -18.1900 -17.9054 -17.7936 -17.4506 -17.3850
   -17.3363 -17.3145 -16.9249 -16.8351 -16.1596  -6.8379  -6.6432  -6.6071
    -6.4485  -6.4033  -5.9446  -5.7673  -5.6884  -5.6427  -5.5250  -5.2556
    -5.2055  -5.0297  -4.8512  -4.4676  -4.2136  -4.0134  -3.9936  -3.6935
    -3.4660  -3.4339  -3.3539  -3.3187  -3.1793  -3.1255  -3.0632  -2.8182
    -2.6311  -2.5185  -2.3224  -2.1996  -2.0694  -1.9941  -1.7422  -1.5581
    -1.4217  -1.0680  -0.9861  -0.7869  -0.0627   0.1768   0.1982   0.2727
     0.3828   0.4458   0.6719   0.7483   0.8024   0.8868   1.1495   1.2312
     1.3626   1.4702   1.6715   1.7264   1.9305   2.3182   2.5872   4.0248
     4.4011   4.7431   4.8405   4.8760   5.0097   5.2065   5.2685   5.3851

     the Fermi energy is     1.2023 ev

!    total energy              =   -1672.25427820 Ry
     estimated scf accuracy    <          7.0E-09 Ry
     smearing contrib. (-TS)   =      -0.00192287 Ry
     internal energy E=F+TS    =   -1672.25235533 Ry

     The total energy is F=E-TS. E is the sum of the following terms:
     one-electron contribution =  -16956.43692485 Ry
     hartree contribution      =    8500.27551966 Ry
     xc contribution           =    -214.03822024 Ry
     ewald contribution        =    7121.73396416 Ry
     one-center paw contrib.   =    -123.78669405 Ry

     convergence has been achieved in  10 iterations

     negative rho (up, down):  1.105E-04 0.000E+00

     Forces acting on atoms (cartesian axes, Ry/au):

     atom    1 type  1   force =     0.00000000   -0.00010767    0.07011602
     atom    2 type  1   force =    -0.00000000    0.00051055   -0.09037941
     atom    3 type  1   force =     0.00000001   -0.00024068   -0.00073857
     atom    4 type  1   force =     0.00000005    0.00102108    0.00139653
     atom    5 type  1   force =     0.00000001    0.00099740   -0.00318133
     atom    6 type  1   force =    -0.00000001   -0.00337337   -0.00088381
     atom    7 type  2   force =    -0.00000000   -0.00076693    0.01847365
     atom    8 type  2   force =     0.00000000    0.00008244    0.06205493
     atom    9 type  2   force =     0.00000000    0.02378891   -0.02491233
     atom   10 type  2   force =    -0.00000000   -0.02434362   -0.02447507
     atom   11 type  2   force =     0.00000000    0.00038018    0.00035444
     atom   12 type  2   force =    -0.00000004    0.00130580   -0.01053034
     atom   13 type  2   force =    -0.00000005   -0.00086022    0.00144843
     atom   14 type  2   force =     0.00000004   -0.00045800   -0.00127047
     atom   15 type  2   force =     0.00000002   -0.00093499    0.00112169
     atom   16 type  2   force =    -0.00000000   -0.00073334   -0.00086840
     atom   17 type  2   force =    -0.00000001    0.00317481   -0.00302684
     atom   18 type  2   force =    -0.00000001    0.00224009    0.00234074
     atom   19 type  2   force =    -0.00000001   -0.00168242    0.00296015

     Total force =     0.008750     Total SCF correction =     0.000534
     Energy error            =      1.2E-04 Ry
     Gradient error          =      3.4E-03 Ry/Bohr

     number of scf cycles    =  10
     number of bfgs steps    =   9

     energy             old  =   -1672.2541568501 Ry
     energy             new  =   -1672.2542781954 Ry

     CASE: energy            _new < energy            _old

     new trust radius        =       0.0188511002 bohr
     new conv_thr            =       0.0000000121 Ry


ATOMIC_POSITIONS (angstrom)
Ru               0.0000000000        1.5881618300        9.5289709800    0   0   0
Ru               1.5535000000        4.7644854900        9.5289709800    0   0   0
Ru              -0.0000000149        4.7717123390       12.7212916282
Ru               1.5534998689        1.5893601543       12.7054076290
Ru              -0.0000000993        1.6217453404       16.0571453031
Ru               1.5535000203        4.7891347985       15.9484536888
O                0.0000000000        4.7644854900       10.7677372100    0   0   0
O                0.0000000000        4.7644854900        8.2902047600    0   0   0
O                1.5535000000        0.3493956000        9.5289709800    0   0   0
O                1.5535000000        2.8269280600        9.5289709800    0   0   0
O               -0.0000000915        1.5667056255       13.9784361162
O                0.0000000000        1.5881618300       11.4665284200    0   0   0
O                1.5535000271        3.5346916862       12.7135597626
O                1.5534999341        6.0023297457       12.6992656672
O               -0.0000000464        4.7589019721       17.0508686655
O                0.0000000498        4.8208715203       14.6499982474
O                1.5534999748        0.3955468237       15.9391067088
O                1.5534999745        2.8324897285       15.7889246932
O                0.0000000939        1.7797622203       17.7467313151



     Writing config-only to output data dir ./tmp_s0_O__1x1_off/s0_O__1x1_off.save/ :
     XML data file
     NEW-OLD atomic charge density approx. for the potential

     negative rho (up, down):  1.104E-04 0.000E+00

     total cpu time spent up to now is    13689.6 secs

     per-process dynamical memory:  1113.7 Mb

     Self-consistent Calculation

     iteration #  1     ecut=    80.00 Ry     beta= 0.30
     Davidson diagonalization with overlap
     ethr =  1.00E-06,  avg # of iterations =  3.0

     Threshold (ethr) on eigenvalues was too large:
     Diagonalizing with lowered threshold

     Davidson diagonalization with overlap
     ethr =  6.01E-08,  avg # of iterations =  2.5

     negative rho (up, down):  1.152E-04 0.000E+00

     total cpu time spent up to now is    13958.0 secs

     total energy              =   -1672.25438695 Ry
     estimated scf accuracy    <       0.00010702 Ry

     iteration #  2     ecut=    80.00 Ry     beta= 0.30
     Davidson diagonalization with overlap
     ethr =  6.15E-08,  avg # of iterations =  1.0

     negative rho (up, down):  1.179E-04 0.000E+00

     total cpu time spent up to now is    14059.1 secs

     total energy              =   -1672.25438215 Ry
     estimated scf accuracy    <       0.00005173 Ry

     iteration #  3     ecut=    80.00 Ry     beta= 0.30
     Davidson diagonalization with overlap
     ethr =  2.97E-08,  avg # of iterations =  1.3

     negative rho (up, down):  1.246E-04 0.000E+00

     total cpu time spent up to now is    14165.6 secs

     total energy              =   -1672.25437651 Ry
     estimated scf accuracy    <       0.00003036 Ry

     iteration #  4     ecut=    80.00 Ry     beta= 0.30
     Davidson diagonalization with overlap
     ethr =  1.75E-08,  avg # of iterations =  2.0

     negative rho (up, down):  1.288E-04 0.000E+00

     total cpu time spent up to now is    14274.5 secs

     total energy              =   -1672.25437719 Ry
     estimated scf accuracy    <       0.00000611 Ry

     iteration #  5     ecut=    80.00 Ry     beta= 0.30
     Davidson diagonalization with overlap
     ethr =  3.51E-09,  avg # of iterations =  3.2

     negative rho (up, down):  1.306E-04 0.000E+00

     total cpu time spent up to now is    14389.0 secs

     total energy              =   -1672.25437753 Ry
     estimated scf accuracy    <       0.00000120 Ry

     iteration #  6     ecut=    80.00 Ry     beta= 0.30
     Davidson diagonalization with overlap
     ethr =  6.87E-10,  avg # of iterations =  4.3

     negative rho (up, down):  1.320E-04 0.000E+00

     total cpu time spent up to now is    14504.2 secs

     total energy              =   -1672.25437755 Ry
     estimated scf accuracy    <       0.00000060 Ry

     iteration #  7     ecut=    80.00 Ry     beta= 0.30
     Davidson diagonalization with overlap
     ethr =  3.45E-10,  avg # of iterations =  1.1

     negative rho (up, down):  1.332E-04 0.000E+00

     total cpu time spent up to now is    14605.3 secs

     total energy              =   -1672.25437754 Ry
     estimated scf accuracy    <       0.00000024 Ry

     iteration #  8     ecut=    80.00 Ry     beta= 0.30
     Davidson diagonalization with overlap
     ethr =  1.35E-10,  avg # of iterations =  1.3

     negative rho (up, down):  1.328E-04 0.000E+00

     total cpu time spent up to now is    14711.4 secs

     total energy              =   -1672.25437755 Ry
     estimated scf accuracy    <       0.00000010 Ry

     iteration #  9     ecut=    80.00 Ry     beta= 0.30
     Davidson diagonalization with overlap
     ethr =  5.48E-11,  avg # of iterations =  1.1

     negative rho (up, down):  1.308E-04 0.000E+00

     total cpu time spent up to now is    14814.1 secs

     total energy              =   -1672.25437755 Ry
     estimated scf accuracy    <       0.00000003 Ry

     iteration # 10     ecut=    80.00 Ry     beta= 0.30
     Davidson diagonalization with overlap
     ethr =  1.72E-11,  avg # of iterations =  1.5

     negative rho (up, down):  1.105E-04 0.000E+00

     total cpu time spent up to now is    14913.0 secs

     End of self-consistent calculation

          k = 0.0000 0.0000 0.0000 ( 40831 PWs)   bands (ev):

   -73.4785 -72.7694 -72.5317 -72.3678 -72.3455 -72.0605 -44.0357 -43.2823
   -43.0887 -42.8410 -42.7439 -42.6991 -42.6469 -42.6157 -42.6110 -42.4018
   -42.3921 -42.2880 -42.2313 -42.2139 -42.1849 -42.1620 -41.9546 -41.9163
   -18.9226 -18.6972 -18.4886 -18.2348 -17.9830 -17.8378 -17.4068 -17.1949
   -17.1613 -17.0714 -16.9017 -16.7707 -16.1231  -7.4257  -7.2396  -7.2286
    -6.6255  -6.4427  -6.0026  -5.7739  -5.7628  -5.6971  -5.6256  -5.5391
    -5.4949  -5.3066  -5.1918  -4.5870  -4.1720  -3.5641  -3.3955  -3.1928
    -3.0708  -2.9570  -2.9192  -2.7944  -2.7140  -2.6746  -2.6670  -2.4995
    -2.3634  -2.2583  -2.1821  -1.9946  -1.9415  -1.6689  -1.4605  -1.4187
    -1.2463  -1.1664  -0.7410  -0.7274  -0.5374  -0.5048  -0.2220  -0.2043
    -0.1450  -0.1374   0.2688   0.3445   0.4573   0.5269   0.9938   1.1180
     1.2324   1.4325   1.7639   2.0296   2.2336   2.2887   2.7083   3.5311
     4.2226   4.7154   5.0490   5.2284   5.4270   5.5156   5.7251   5.7758

          k = 0.0000 0.1223 0.0000 ( 40974 PWs)   bands (ev):

   -73.4785 -72.7694 -72.5317 -72.3678 -72.3456 -72.0605 -44.0357 -43.2823
   -43.0859 -42.8440 -42.7439 -42.6981 -42.6469 -42.6140 -42.6110 -42.4017
   -42.3921 -42.2881 -42.2314 -42.2132 -42.1856 -42.1639 -41.9547 -41.9174
   -18.8022 -18.5660 -18.3664 -18.2813 -17.9992 -17.8684 -17.4207 -17.3252
   -17.2883 -17.2512 -16.8812 -16.7815 -16.1202  -7.0118  -6.7949  -6.7659
    -6.6169  -6.4314  -5.9327  -5.7716  -5.6456  -5.6181  -5.5446  -5.4911
    -5.4572  -5.3056  -5.0004  -4.6277  -4.2258  -4.0307  -3.7654  -3.6066
    -3.5385  -3.4185  -3.2576  -2.9086  -2.8765  -2.8613  -2.7474  -2.6846
    -2.5758  -2.3834  -2.2110  -2.1559  -2.0861  -1.7113  -1.6410  -1.6052
    -1.3546  -1.1352  -0.9059  -0.7019  -0.0699  -0.0538   0.1390   0.2531
     0.3414   0.3864   0.4170   0.5161   0.5365   0.6133   0.9825   1.0763
     1.2976   1.4771   1.7624   1.8326   2.0309   2.3647   2.5846   3.9214
     4.6422   4.8107   4.8975   5.2285   5.4356   5.4687   5.5060   5.5462

          k = 0.0000-0.2445 0.0000 ( 41014 PWs)   bands (ev):

   -73.4785 -72.7694 -72.5317 -72.3677 -72.3456 -72.0605 -44.0357 -43.2823
   -43.0830 -42.8470 -42.7439 -42.6971 -42.6469 -42.6123 -42.6108 -42.4017
   -42.3921 -42.2881 -42.2314 -42.2125 -42.1862 -42.1659 -41.9547 -41.9186
   -18.5562 -18.5004 -18.3317 -18.1251 -18.0729 -17.9627 -17.4994 -17.4754
   -17.4347 -17.3709 -16.8515 -16.8065 -16.1179  -6.6710  -6.4701  -6.3510
    -6.0281  -5.9777  -5.8553  -5.7686  -5.6200  -5.5379  -5.4754  -5.4585
    -5.2991  -5.0573  -4.9319  -4.6143  -4.6037  -4.4964  -4.4790  -4.3489
    -4.2851  -3.6695  -3.4885  -3.3440  -3.1426  -3.1164  -2.9981  -2.7090
    -2.5830  -2.4736  -2.2224  -2.1211  -1.9673  -1.7073  -1.6450  -1.4052
    -1.1901  -1.0924  -0.9942  -0.9802   0.1912   0.2035   0.2747   0.3934
     0.5054   0.6713   0.8015   0.8146   0.8816   0.9175   1.0465   1.1169
     1.2111   1.5449   1.5542   1.6039   2.0135   2.1181   2.7142   4.3445
     4.5455   4.8347   5.1849   5.1923   5.2295   5.2531   5.5244   5.6657

          k = 0.0000-0.1223 0.0000 ( 40974 PWs)   bands (ev):

   -73.4785 -72.7694 -72.5317 -72.3678 -72.3456 -72.0605 -44.0357 -43.2823
   -43.0859 -42.8440 -42.7439 -42.6981 -42.6469 -42.6140 -42.6110 -42.4017
   -42.3921 -42.2881 -42.2314 -42.2132 -42.1856 -42.1639 -41.9547 -41.9174
   -18.8022 -18.5660 -18.3664 -18.2813 -17.9992 -17.8684 -17.4207 -17.3252
   -17.2883 -17.2512 -16.8812 -16.7815 -16.1202  -7.0118  -6.7949  -6.7659
    -6.6169  -6.4314  -5.9327  -5.7716  -5.6456  -5.6181  -5.5446  -5.4911
    -5.4572  -5.3056  -5.0004  -4.6277  -4.2258  -4.0307  -3.7654  -3.6066
    -3.5385  -3.4185  -3.2576  -2.9086  -2.8765  -2.8613  -2.7474  -2.6846
    -2.5758  -2.3834  -2.2110  -2.1559  -2.0861  -1.7113  -1.6410  -1.6052
    -1.3546  -1.1352  -0.9059  -0.7019  -0.0699  -0.0538   0.1390   0.2531
     0.3414   0.3864   0.4170   0.5161   0.5365   0.6133   0.9825   1.0763
     1.2976   1.4771   1.7624   1.8326   2.0309   2.3647   2.5846   3.9214
     4.6422   4.8107   4.8975   5.2285   5.4356   5.4687   5.5060   5.5462

          k = 0.1250 0.0000 0.0000 ( 40851 PWs)   bands (ev):

   -73.4770 -72.7678 -72.5302 -72.3663 -72.3440 -72.0590 -44.0340 -43.3078
   -43.0837 -42.8400 -42.7726 -42.6970 -42.6421 -42.6134 -42.6090 -42.4181
   -42.3976 -42.2852 -42.2406 -42.2286 -42.2107 -42.1579 -41.9820 -41.9118
   -18.7943 -18.5807 -18.3795 -18.1490 -17.9049 -17.7601 -17.4146 -17.2703
   -17.2381 -17.1516 -16.9452 -16.8233 -16.1642  -7.2425  -7.0630  -7.0499
    -6.4484  -6.4287  -6.0440  -5.8086  -5.7569  -5.6292  -5.5774  -5.4623
    -5.2137  -5.0311  -4.9778  -4.4296  -4.0854  -4.0296  -3.4387  -3.2787
    -3.2405  -3.1501  -3.0720  -3.0550  -2.9021  -2.7389  -2.7187  -2.5733
    -2.4746  -2.3284  -2.1732  -2.1462  -2.0671  -2.0491  -1.8662  -1.7153
    -1.5725  -1.1046  -1.0626  -0.7029  -0.4177  -0.2339   0.0247   0.0618
     0.1487   0.3372   0.4616   0.5221   0.6856   0.7016   1.1534   1.2075
     1.3355   1.4442   1.6405   1.8783   2.1478   2.3667   2.5656   3.7106
     4.3431   4.7669   4.7746   4.9069   5.0619   5.3660   5.4075   5.4620

          k = 0.1250 0.1223 0.0000 ( 40932 PWs)   bands (ev):

   -73.4770 -72.7678 -72.5302 -72.3662 -72.3440 -72.0590 -44.0340 -43.3079
   -43.0813 -42.8424 -42.7726 -42.6963 -42.6421 -42.6121 -42.6090 -42.4181
   -42.3976 -42.2853 -42.2399 -42.2286 -42.2115 -42.1592 -41.9819 -41.9128
   -18.6805 -18.4561 -18.2596 -18.1943 -17.9083 -17.7964 -17.4478 -17.3874
   -17.3378 -17.3180 -16.9254 -16.8353 -16.1618  -6.8431  -6.6462  -6.6095
    -6.4525  -6.4068  -5.9491  -5.7706  -5.6916  -5.6469  -5.5278  -5.2587
    -5.2070  -5.0324  -4.8520  -4.4663  -4.2123  -4.0152  -3.9941  -3.6960
    -3.4682  -3.4362  -3.3560  -3.3207  -3.1829  -3.1274  -3.0619  -2.8202
    -2.6322  -2.5202  -2.3244  -2.2016  -2.0714  -1.9968  -1.7443  -1.5569
    -1.4231  -1.0699  -0.9881  -0.7892  -0.0625   0.1756   0.1969   0.2703
     0.3810   0.4432   0.6694   0.7470   0.8000   0.8849   1.1472   1.2283
     1.3603   1.4677   1.6704   1.7231   1.9283   2.3163   2.5855   4.0243
     4.4049   4.7437   4.8402   4.8772   5.0085   5.2044   5.2675   5.3831

          k = 0.1250-0.2445 0.0000 ( 40974 PWs)   bands (ev):

   -73.4770 -72.7678 -72.5302 -72.3662 -72.3441 -72.0590 -44.0340 -43.3080
   -43.0788 -42.8449 -42.7725 -42.6955 -42.6421 -42.6109 -42.6089 -42.4181
   -42.3976 -42.2853 -42.2391 -42.2286 -42.2123 -42.1606 -41.9818 -41.9138
   -18.4495 -18.3914 -18.2255 -18.0322 -17.9767 -17.8842 -17.5614 -17.5425
   -17.4810 -17.3778 -16.8923 -16.8640 -16.1599  -6.4884  -6.4554  -6.1354
    -5.9303  -5.8387  -5.7621  -5.7538  -5.6839  -5.6502  -5.6331  -5.2499
    -5.0587  -4.8929  -4.7746  -4.6440  -4.4779  -4.3228  -4.1653  -4.1360
    -4.0986  -3.9959  -3.8682  -3.7905  -3.4748  -3.3669  -3.2729  -2.8573
    -2.7248  -2.6275  -2.3102  -2.2305  -1.9363  -1.7688  -1.5560  -1.4012
    -1.1576  -1.0888  -1.0026  -0.9813   0.1855   0.2017   0.2974   0.4001
     0.5352   0.5886   0.7916   1.1071   1.1284   1.1406   1.2119   1.2568
     1.4080   1.4284   1.5350   1.6540   1.9273   2.0012   2.7325   4.0811
     4.4339   4.5585   4.7233   4.8545   5.0816   5.1171   5.3032   5.4406

          k = 0.1250-0.1223 0.0000 ( 40932 PWs)   bands (ev):

   -73.4770 -72.7678 -72.5302 -72.3662 -72.3440 -72.0590 -44.0340 -43.3079
   -43.0813 -42.8424 -42.7726 -42.6963 -42.6421 -42.6121 -42.6090 -42.4181
   -42.3976 -42.2853 -42.2399 -42.2286 -42.2115 -42.1592 -41.9819 -41.9128
   -18.6805 -18.4561 -18.2596 -18.1943 -17.9083 -17.7964 -17.4478 -17.3874
   -17.3378 -17.3180 -16.9254 -16.8353 -16.1618  -6.8431  -6.6462  -6.6095
    -6.4525  -6.4068  -5.9491  -5.7706  -5.6916  -5.6469  -5.5278  -5.2587
    -5.2070  -5.0324  -4.8520  -4.4663  -4.2123  -4.0152  -3.9941  -3.6960
    -3.4682  -3.4362  -3.3560  -3.3207  -3.1829  -3.1274  -3.0619  -2.8202
    -2.6322  -2.5202  -2.3244  -2.2016  -2.0714  -1.9968  -1.7443  -1.5569
    -1.4231  -1.0699  -0.9881  -0.7892  -0.0625   0.1756   0.1969   0.2703
     0.3810   0.4432   0.6694   0.7470   0.8000   0.8849   1.1472   1.2283
     1.3603   1.4677   1.6704   1.7231   1.9283   2.3163   2.5855   4.0243
     4.4049   4.7437   4.8402   4.8772   5.0085   5.2044   5.2675   5.3831

          k = 0.2500 0.0000 0.0000 ( 40947 PWs)   bands (ev):

   -73.4735 -72.7639 -72.5266 -72.3626 -72.3403 -72.0552 -44.0299 -43.3689
   -43.0713 -42.8410 -42.8376 -42.6921 -42.6304 -42.6079 -42.6051 -42.4801
   -42.3878 -42.3047 -42.2870 -42.2643 -42.2212 -42.1479 -42.0474 -41.9011
   -18.4688 -18.2924 -18.1111 -17.9782 -17.7773 -17.5642 -17.4659 -17.4287
   -17.4044 -17.3394 -17.0687 -16.8645 -16.2166  -6.7726  -6.6151  -6.5800
    -6.2482  -5.9930  -5.9746  -5.8550  -5.8064  -5.4708  -5.4388  -5.0482
    -4.9830  -4.6402  -4.5353  -4.5112  -4.3351  -4.1380  -4.0246  -3.9833
    -3.7499  -3.6707  -3.3414  -3.1946  -3.1151  -3.0138  -2.8537  -2.7930
    -2.6901  -2.4770  -2.3938  -2.2295  -2.2019  -2.1039  -2.0463  -1.6084
    -1.4571  -1.2550  -1.1943  -0.9647  -0.2229  -0.1083   0.1822   0.4524
     0.5203   0.5899   0.8035   0.9765   1.0687   1.1687   1.2057   1.3295
     1.3699   1.4702   1.5029   1.6168   1.8585   2.1837   2.4991   3.9558
     4.1792   4.2263   4.4113   4.6701   4.7436   4.8126   4.8839   4.9666

          k = 0.2500 0.1223 0.0000 ( 40905 PWs)   bands (ev):

   -73.4735 -72.7639 -72.5266 -72.3626 -72.3403 -72.0552 -44.0299 -43.3692
   -43.0700 -42.8410 -42.8386 -42.6920 -42.6303 -42.6079 -42.6050 -42.4801
   -42.3877 -42.3036 -42.2874 -42.2647 -42.2212 -42.1485 -42.0470 -41.9016
   -18.3826 -18.1984 -18.0192 -18.0106 -17.7704 -17.6394 -17.5422 -17.4993
   -17.4566 -17.3873 -17.0590 -16.8709 -16.2160  -6.4640  -6.3271  -6.2619
    -6.2153  -5.9885  -5.8652  -5.8165  -5.6438  -5.5648  -5.3622  -5.1074
    -4.8006  -4.7361  -4.6575  -4.5036  -4.4493  -4.3530  -4.2342  -4.1403
    -3.9979  -3.5700  -3.5052  -3.3530  -3.2012  -3.1781  -3.0140  -2.9227
    -2.7769  -2.6541  -2.4368  -2.2594  -2.1711  -2.1151  -1.9279  -1.5984
    -1.4247  -1.2505  -1.1618  -1.0203  -0.2122   0.1059   0.4204   0.4701
     0.5835   0.8376   0.8996   0.9716   1.0593   1.1431   1.2085   1.2666
     1.3645   1.5273   1.5969   1.6653   1.7956   2.0645   2.6156   3.7061
     4.0375   4.1467   4.2433   4.3805   4.6709   4.7823   5.2075   5.3579

          k = 0.2500-0.2445 0.0000 ( 40892 PWs)   bands (ev):

   -73.4735 -72.7639 -72.5266 -72.3626 -72.3404 -72.0552 -44.0299 -43.3695
   -43.0687 -42.8406 -42.8400 -42.6918 -42.6303 -42.6078 -42.6050 -42.4802
   -42.3877 -42.3024 -42.2878 -42.2650 -42.2213 -42.1490 -42.0467 -41.9021
   -18.2135 -18.1529 -17.9763 -17.9103 -17.7740 -17.7420 -17.6937 -17.6191
   -17.5097 -17.3882 -17.0493 -16.8783 -16.2156  -6.2691  -6.0330  -5.9540
    -5.8432  -5.7907  -5.7864  -5.6616  -5.5483  -5.3206  -5.3001  -5.2203
    -4.9977  -4.9932  -4.9569  -4.7777  -4.5863  -4.4864  -4.2455  -4.0462
    -3.8326  -3.7522  -3.6402  -3.6057  -3.5228  -3.5003  -3.2848  -3.2673
    -2.9274  -2.7835  -2.3810  -2.2401  -1.9521  -1.8716  -1.6658  -1.6097
    -1.3346  -1.2989  -1.1372  -1.1086   0.0041   0.0322   0.2714   0.5753
     0.5997   0.8653   1.0188   1.0959   1.1231   1.1440   1.2810   1.3852
     1.4008   1.6000   1.6548   1.7817   1.8209   1.9210   2.7076   3.3030
     3.7585   3.8401   4.0925   4.3721   4.6864   5.0713   5.3129   5.5919

          k = 0.2500-0.1223 0.0000 ( 40905 PWs)   bands (ev):

   -73.4735 -72.7639 -72.5266 -72.3626 -72.3403 -72.0552 -44.0299 -43.3692
   -43.0700 -42.8410 -42.8386 -42.6920 -42.6303 -42.6079 -42.6050 -42.4801
   -42.3877 -42.3036 -42.2874 -42.2647 -42.2212 -42.1485 -42.0470 -41.9016
   -18.3826 -18.1984 -18.0192 -18.0106 -17.7704 -17.6394 -17.5422 -17.4993
   -17.4566 -17.3873 -17.0590 -16.8709 -16.2160  -6.4640  -6.3271  -6.2619
    -6.2153  -5.9885  -5.8652  -5.8165  -5.6438  -5.5648  -5.3622  -5.1074
    -4.8006  -4.7361  -4.6575  -4.5036  -4.4493  -4.3530  -4.2342  -4.1403
    -3.9979  -3.5700  -3.5052  -3.3530  -3.2012  -3.1781  -3.0140  -2.9227
    -2.7769  -2.6541  -2.4368  -2.2594  -2.1711  -2.1151  -1.9279  -1.5984
    -1.4247  -1.2505  -1.1618  -1.0203  -0.2122   0.1059   0.4204   0.4701
     0.5835   0.8376   0.8996   0.9716   1.0593   1.1431   1.2085   1.2666
     1.3645   1.5273   1.5969   1.6653   1.7956   2.0645   2.6156   3.7061
     4.0375   4.1467   4.2433   4.3805   4.6709   4.7823   5.2075   5.3579

          k = 0.3750 0.0000 0.0000 ( 40852 PWs)   bands (ev):

   -73.4699 -72.7600 -72.5230 -72.3590 -72.3366 -72.0515 -44.0257 -43.4293
   -43.0588 -42.9084 -42.8354 -42.6872 -42.6188 -42.6025 -42.6023 -42.5403
   -42.3805 -42.3653 -42.3401 -42.2662 -42.2139 -42.1379 -42.1120 -41.8903
   -18.1214 -18.0001 -17.8734 -17.8407 -17.7390 -17.6292 -17.5964 -17.5240
   -17.4524 -17.4040 -17.0813 -16.8315 -16.1889  -6.3329  -6.1674  -6.0458
    -6.0216  -5.8985  -5.8452  -5.6505  -5.6165  -5.4989  -5.4018  -5.2046
    -5.0585  -4.8221  -4.7850  -4.5720  -4.4138  -4.3693  -4.2055  -3.9603
    -3.6562  -3.4955  -3.4068  -3.3773  -3.3323  -3.1631  -3.0890  -2.8114
    -2.6776  -2.5944  -2.4403  -2.2733  -2.2129  -2.0311  -1.9491  -1.5165
    -1.3772  -1.3747  -1.2307  -0.9672  -0.1532   0.0216   0.2746   0.4780
     0.5840   0.6665   0.7669   0.7802   0.8687   1.0322   1.1633   1.2237
     1.3847   1.5284   1.6575   1.7892   1.9714   2.1527   2.3741   3.4252
     3.7995   4.0660   4.2770   4.3893   4.4875   4.5473   4.7867   4.9440

          k = 0.3750 0.1223 0.0000 ( 40842 PWs)   bands (ev):

   -73.4699 -72.7600 -72.5230 -72.3589 -72.3366 -72.0515 -44.0257 -43.4299
   -43.0588 -42.9079 -42.8353 -42.6877 -42.6188 -42.6041 -42.6021 -42.5404
   -42.3802 -42.3638 -42.3406 -42.2663 -42.2139 -42.1377 -42.1113 -41.8903
   -18.1017 -18.0004 -17.9341 -17.8764 -17.8065 -17.6230 -17.5310 -17.4745
   -17.4475 -17.3896 -17.0807 -16.8352 -16.1891  -6.2135  -6.1188  -6.0877
    -6.0433  -5.9546  -5.7575  -5.6529  -5.5972  -5.5178  -5.4692  -5.3523
    -5.0385  -4.7685  -4.7010  -4.5340  -4.4549  -4.2818  -4.0442  -3.8540
    -3.6388  -3.5599  -3.3481  -3.2976  -3.2289  -3.1408  -3.0397  -2.8710
    -2.7341  -2.6090  -2.5036  -2.2846  -2.1794  -2.0567  -1.9348  -1.6224
    -1.5370  -1.4005  -1.2582  -1.1190  -0.1256  -0.0759   0.1990   0.2459
     0.5403   0.6062   0.6377   0.7618   0.8129   0.9297   0.9571   1.2264
     1.6754   1.7450   1.8349   1.8835   2.0354   2.0621   2.4842   3.1715
     3.4864   3.6572   3.7550   4.1066   4.2951   5.1351   5.4581   5.5744

          k = 0.3750-0.2445 0.0000 ( 40856 PWs)   bands (ev):

   -73.4699 -72.7600 -72.5230 -72.3589 -72.3367 -72.0515 -44.0257 -43.4304
   -43.0589 -42.9074 -42.8352 -42.6882 -42.6188 -42.6055 -42.6021 -42.5406
   -42.3798 -42.3623 -42.3411 -42.2663 -42.2139 -42.1376 -42.1105 -41.8904
   -18.0562 -18.0273 -17.9911 -17.9021 -17.8451 -17.6290 -17.4807 -17.4584
   -17.4227 -17.3764 -17.0800 -16.8391 -16.1893  -6.2523  -6.0699  -5.9237
    -5.9167  -5.8522  -5.8200  -5.7549  -5.6810  -5.6669  -5.5559  -5.4107
    -4.9323  -4.7868  -4.5405  -4.4968  -4.2860  -4.1965  -4.0665  -3.7327
    -3.5419  -3.4407  -3.4067  -3.2828  -3.2654  -3.1533  -3.1136  -2.9719
    -2.7721  -2.7323  -2.3637  -2.2139  -2.1534  -2.0283  -1.8945  -1.8396
    -1.5751  -1.4300  -1.2756  -1.2466  -0.3222  -0.2596  -0.0935   0.3188
     0.4394   0.6017   0.6777   0.7696   0.8236   0.8814   1.0142   1.2135
     1.5746   1.8006   1.9630   1.9888   2.1175   2.2141   2.5822   2.7653
     3.2209   3.3233   3.5193   4.1310   4.2975   5.5130   5.6009   5.8162

          k = 0.3750-0.1223 0.0000 ( 40842 PWs)   bands (ev):

   -73.4699 -72.7600 -72.5230 -72.3589 -72.3366 -72.0515 -44.0257 -43.4299
   -43.0588 -42.9079 -42.8353 -42.6877 -42.6188 -42.6041 -42.6021 -42.5404
   -42.3802 -42.3638 -42.3406 -42.2663 -42.2139 -42.1377 -42.1113 -41.8903
   -18.1017 -18.0004 -17.9341 -17.8764 -17.8065 -17.6230 -17.5310 -17.4745
   -17.4475 -17.3896 -17.0807 -16.8352 -16.1891  -6.2135  -6.1188  -6.0877
    -6.0433  -5.9546  -5.7575  -5.6529  -5.5972  -5.5178  -5.4692  -5.3523
    -5.0385  -4.7685  -4.7010  -4.5340  -4.4549  -4.2818  -4.0442  -3.8540
    -3.6388  -3.5599  -3.3481  -3.2976  -3.2289  -3.1408  -3.0397  -2.8710
    -2.7341  -2.6090  -2.5036  -2.2846  -2.1794  -2.0567  -1.9348  -1.6224
    -1.5370  -1.4005  -1.2582  -1.1190  -0.1256  -0.0759   0.1990   0.2459
     0.5403   0.6062   0.6377   0.7618   0.8129   0.9297   0.9571   1.2264
     1.6754   1.7450   1.8349   1.8835   2.0354   2.0621   2.4842   3.1715
     3.4864   3.6572   3.7550   4.1066   4.2951   5.1351   5.4581   5.5744

          k =-0.5000 0.0000 0.0000 ( 40876 PWs)   bands (ev):

   -73.4684 -72.7584 -72.5214 -72.3574 -72.3351 -72.0499 -44.0240 -43.4542
   -43.0535 -42.9361 -42.8346 -42.6851 -42.6151 -42.6012 -42.6002 -42.5638
   -42.3965 -42.3711 -42.3653 -42.2638 -42.2109 -42.1384 -42.1337 -41.8858
   -18.0121 -17.8456 -17.8375 -17.7821 -17.7055 -17.6863 -17.6603 -17.5938
   -17.4717 -17.3995 -17.0100 -16.8047 -16.1523  -6.3200  -6.1455  -5.9809
    -5.7846  -5.7602  -5.6902  -5.5846  -5.5479  -5.5253  -5.4210  -5.3222
    -5.1535  -5.0302  -4.8970  -4.7293  -4.4979  -4.0686  -3.8246  -3.7891
    -3.6808  -3.6761  -3.6740  -3.5642  -3.4091  -2.9640  -2.8494  -2.7082
    -2.6134  -2.4818  -2.4704  -2.3663  -2.1584  -1.9796  -1.8272  -1.7125
    -1.6106  -1.2408  -1.1148  -0.8981  -0.2014   0.0781   0.0841   0.4663
     0.5469   0.5735   0.6331   0.6661   0.7275   0.7900   1.0337   1.1627
     1.3277   1.5107   1.8522   1.9318   2.1544   2.2627   2.3258   3.2050
     3.6495   4.0211   4.2160   4.2572   4.3699   4.5570   4.7641   4.9133

          k =-0.5000 0.1223 0.0000 ( 40858 PWs)   bands (ev):

   -73.4684 -72.7584 -72.5214 -72.3574 -72.3351 -72.0499 -44.0240 -43.4548
   -43.0543 -42.9353 -42.8339 -42.6860 -42.6152 -42.6028 -42.6008 -42.5640
   -42.3944 -42.3710 -42.3657 -42.2638 -42.2109 -42.1375 -42.1333 -41.8857
   -18.0058 -17.9645 -17.9530 -17.9058 -17.8488 -17.5330 -17.4710 -17.4656
   -17.4228 -17.3995 -17.0121 -16.8071 -16.1518  -6.2764  -6.2270  -6.1082
    -6.1032  -5.9962  -5.7511  -5.6605  -5.6258  -5.6052  -5.4170  -5.1772
    -5.0846  -4.8326  -4.5756  -4.4056  -4.1106  -3.8659  -3.8292  -3.7935
    -3.7664  -3.6408  -3.6320  -3.6050  -3.0065  -2.9462  -2.8114  -2.6231
    -2.6022  -2.5197  -2.4957  -2.2705  -2.1822  -2.1354  -1.8351  -1.6581
    -1.6212  -1.4897  -1.3003  -1.0834  -0.1943  -0.0353   0.0358   0.0839
     0.2066   0.4505   0.4934   0.5648   0.5937   0.6322   0.7495   1.1799
     1.8287   1.8518   2.0122   2.0183   2.1871   2.2056   2.4104   3.0081
     3.2522   3.4581   3.5828   4.0498   4.2188   5.3348   5.6022   5.6405

          k =-0.5000-0.2445 0.0000 ( 40872 PWs)   bands (ev):

   -73.4684 -72.7584 -72.5214 -72.3574 -72.3351 -72.0499 -44.0240 -43.4554
   -43.0550 -42.9346 -42.8332 -42.6868 -42.6152 -42.6049 -42.6009 -42.5641
   -42.3923 -42.3708 -42.3661 -42.2638 -42.2109 -42.1366 -42.1328 -41.8855
   -18.0441 -18.0388 -17.9990 -17.9967 -17.8525 -17.4702 -17.4530 -17.3995
   -17.3660 -17.3255 -17.0141 -16.8095 -16.1513  -6.4834  -6.2744  -6.1967
    -6.0908  -6.0735  -5.7657  -5.6731  -5.6727  -5.6383  -5.4954  -5.1774
    -5.0379  -4.9542  -4.1784  -4.1100  -3.9025  -3.8709  -3.8203  -3.5933
    -3.5865  -3.5191  -3.4204  -3.2309  -3.2061  -2.8955  -2.8541  -2.8053
    -2.6620  -2.4141  -2.3185  -2.2008  -2.1517  -1.9322  -1.9067  -1.7877
    -1.7504  -1.7140  -1.5774  -1.2627  -0.5087  -0.2293  -0.1898   0.0084
     0.1063   0.1731   0.4551   0.4734   0.6032   0.6312   0.7637   1.2169
     1.7500   1.9246   2.0671   2.1241   2.3619   2.3713   2.4657   2.6237
     3.0736   3.1951   3.2882   4.0765   4.2208   5.7207   5.7893   5.8259

          k =-0.5000-0.1223 0.0000 ( 40858 PWs)   bands (ev):

   -73.4684 -72.7584 -72.5214 -72.3574 -72.3351 -72.0499 -44.0240 -43.4548
   -43.0543 -42.9353 -42.8339 -42.6860 -42.6152 -42.6028 -42.6008 -42.5640
   -42.3944 -42.3710 -42.3657 -42.2638 -42.2109 -42.1375 -42.1333 -41.8857
   -18.0058 -17.9645 -17.9530 -17.9058 -17.8488 -17.5330 -17.4710 -17.4656
   -17.4228 -17.3995 -17.0121 -16.8071 -16.1518  -6.2764  -6.2270  -6.1082
    -6.1032  -5.9962  -5.7511  -5.6605  -5.6258  -5.6052  -5.4170  -5.1772
    -5.0846  -4.8326  -4.5756  -4.4056  -4.1106  -3.8659  -3.8292  -3.7935
    -3.7664  -3.6408  -3.6320  -3.6050  -3.0065  -2.9462  -2.8114  -2.6231
    -2.6022  -2.5197  -2.4957  -2.2705  -2.1822  -2.1354  -1.8351  -1.6581
    -1.6212  -1.4897  -1.3003  -1.0834  -0.1943  -0.0353   0.0358   0.0839
     0.2066   0.4505   0.4934   0.5648   0.5937   0.6322   0.7495   1.1799
     1.8287   1.8518   2.0122   2.0183   2.1871   2.2056   2.4104   3.0081
     3.2522   3.4581   3.5828   4.0498   4.2188   5.3348   5.6022   5.6405

          k =-0.3750 0.0000 0.0000 ( 40852 PWs)   bands (ev):

   -73.4699 -72.7600 -72.5230 -72.3590 -72.3366 -72.0515 -44.0257 -43.4293
   -43.0588 -42.9084 -42.8354 -42.6872 -42.6188 -42.6025 -42.6023 -42.5403
   -42.3805 -42.3653 -42.3401 -42.2662 -42.2139 -42.1379 -42.1120 -41.8903
   -18.1214 -18.0001 -17.8734 -17.8407 -17.7390 -17.6292 -17.5964 -17.5240
   -17.4524 -17.4040 -17.0813 -16.8315 -16.1889  -6.3329  -6.1674  -6.0458
    -6.0216  -5.8985  -5.8452  -5.6505  -5.6165  -5.4989  -5.4018  -5.2046
    -5.0585  -4.8221  -4.7850  -4.5720  -4.4138  -4.3693  -4.2055  -3.9603
    -3.6562  -3.4955  -3.4068  -3.3773  -3.3323  -3.1631  -3.0890  -2.8114
    -2.6776  -2.5944  -2.4403  -2.2733  -2.2129  -2.0311  -1.9491  -1.5165
    -1.3772  -1.3747  -1.2307  -0.9672  -0.1532   0.0216   0.2746   0.4780
     0.5840   0.6665   0.7669   0.7802   0.8687   1.0322   1.1633   1.2237
     1.3847   1.5284   1.6575   1.7892   1.9714   2.1527   2.3741   3.4252
     3.7995   4.0660   4.2770   4.3893   4.4875   4.5473   4.7867   4.9440

          k =-0.3750 0.1223 0.0000 ( 40842 PWs)   bands (ev):

   -73.4699 -72.7600 -72.5230 -72.3589 -72.3366 -72.0515 -44.0257 -43.4299
   -43.0588 -42.9079 -42.8353 -42.6877 -42.6188 -42.6041 -42.6021 -42.5404
   -42.3802 -42.3638 -42.3406 -42.2663 -42.2139 -42.1377 -42.1113 -41.8903
   -18.1017 -18.0004 -17.9341 -17.8764 -17.8065 -17.6230 -17.5310 -17.4745
   -17.4475 -17.3896 -17.0807 -16.8352 -16.1891  -6.2135  -6.1188  -6.0877
    -6.0433  -5.9546  -5.7575  -5.6529  -5.5972  -5.5178  -5.4692  -5.3523
    -5.0385  -4.7685  -4.7010  -4.5340  -4.4549  -4.2818  -4.0442  -3.8540
    -3.6388  -3.5599  -3.3481  -3.2976  -3.2289  -3.1408  -3.0397  -2.8710
    -2.7341  -2.6090  -2.5036  -2.2846  -2.1794  -2.0567  -1.9348  -1.6224
    -1.5370  -1.4005  -1.2582  -1.1190  -0.1256  -0.0759   0.1990   0.2459
     0.5403   0.6062   0.6377   0.7618   0.8129   0.9297   0.9571   1.2264
     1.6754   1.7450   1.8349   1.8835   2.0354   2.0621   2.4842   3.1715
     3.4864   3.6572   3.7550   4.1066   4.2951   5.1351   5.4581   5.5744

          k =-0.3750-0.2445 0.0000 ( 40856 PWs)   bands (ev):

   -73.4699 -72.7600 -72.5230 -72.3589 -72.3367 -72.0515 -44.0257 -43.4304
   -43.0589 -42.9074 -42.8352 -42.6882 -42.6188 -42.6055 -42.6021 -42.5406
   -42.3798 -42.3623 -42.3411 -42.2663 -42.2139 -42.1376 -42.1105 -41.8904
   -18.0562 -18.0273 -17.9911 -17.9021 -17.8451 -17.6290 -17.4807 -17.4584
   -17.4227 -17.3764 -17.0800 -16.8391 -16.1893  -6.2523  -6.0699  -5.9237
    -5.9167  -5.8522  -5.8200  -5.7549  -5.6810  -5.6669  -5.5559  -5.4107
    -4.9323  -4.7868  -4.5405  -4.4968  -4.2860  -4.1965  -4.0665  -3.7327
    -3.5419  -3.4407  -3.4067  -3.2828  -3.2654  -3.1533  -3.1136  -2.9719
    -2.7721  -2.7323  -2.3637  -2.2139  -2.1534  -2.0283  -1.8945  -1.8396
    -1.5751  -1.4300  -1.2756  -1.2466  -0.3222  -0.2596  -0.0935   0.3188
     0.4394   0.6017   0.6777   0.7696   0.8236   0.8814   1.0142   1.2135
     1.5746   1.8006   1.9630   1.9888   2.1175   2.2141   2.5822   2.7653
     3.2209   3.3233   3.5193   4.1310   4.2975   5.5130   5.6009   5.8162

          k =-0.3750-0.1223 0.0000 ( 40842 PWs)   bands (ev):

   -73.4699 -72.7600 -72.5230 -72.3589 -72.3366 -72.0515 -44.0257 -43.4299
   -43.0588 -42.9079 -42.8353 -42.6877 -42.6188 -42.6041 -42.6021 -42.5404
   -42.3802 -42.3638 -42.3406 -42.2663 -42.2139 -42.1377 -42.1113 -41.8903
   -18.1017 -18.0004 -17.9341 -17.8764 -17.8065 -17.6230 -17.5310 -17.4745
   -17.4475 -17.3896 -17.0807 -16.8352 -16.1891  -6.2135  -6.1188  -6.0877
    -6.0433  -5.9546  -5.7575  -5.6529  -5.5972  -5.5178  -5.4692  -5.3523
    -5.0385  -4.7685  -4.7010  -4.5340  -4.4549  -4.2818  -4.0442  -3.8540
    -3.6388  -3.5599  -3.3481  -3.2976  -3.2289  -3.1408  -3.0397  -2.8710
    -2.7341  -2.6090  -2.5036  -2.2846  -2.1794  -2.0567  -1.9348  -1.6224
    -1.5370  -1.4005  -1.2582  -1.1190  -0.1256  -0.0759   0.1990   0.2459
     0.5403   0.6062   0.6377   0.7618   0.8129   0.9297   0.9571   1.2264
     1.6754   1.7450   1.8349   1.8835   2.0354   2.0621   2.4842   3.1715
     3.4864   3.6572   3.7550   4.1066   4.2951   5.1351   5.4581   5.5744

          k =-0.2500 0.0000 0.0000 ( 40947 PWs)   bands (ev):

   -73.4735 -72.7639 -72.5266 -72.3626 -72.3403 -72.0552 -44.0299 -43.3689
   -43.0713 -42.8410 -42.8376 -42.6921 -42.6304 -42.6079 -42.6051 -42.4801
   -42.3878 -42.3047 -42.2870 -42.2643 -42.2212 -42.1479 -42.0474 -41.9011
   -18.4688 -18.2924 -18.1111 -17.9782 -17.7773 -17.5642 -17.4659 -17.4287
   -17.4044 -17.3394 -17.0687 -16.8645 -16.2166  -6.7726  -6.6151  -6.5800
    -6.2482  -5.9930  -5.9746  -5.8550  -5.8064  -5.4708  -5.4388  -5.0482
    -4.9830  -4.6402  -4.5353  -4.5112  -4.3351  -4.1380  -4.0246  -3.9833
    -3.7499  -3.6707  -3.3414  -3.1946  -3.1151  -3.0138  -2.8537  -2.7930
    -2.6901  -2.4770  -2.3938  -2.2295  -2.2019  -2.1039  -2.0463  -1.6084
    -1.4571  -1.2550  -1.1943  -0.9647  -0.2229  -0.1083   0.1822   0.4524
     0.5203   0.5899   0.8035   0.9765   1.0687   1.1687   1.2057   1.3295
     1.3699   1.4702   1.5029   1.6168   1.8585   2.1837   2.4991   3.9558
     4.1792   4.2263   4.4113   4.6701   4.7436   4.8126   4.8839   4.9666

          k =-0.2500 0.1223 0.0000 ( 40905 PWs)   bands (ev):

   -73.4735 -72.7639 -72.5266 -72.3626 -72.3403 -72.0552 -44.0299 -43.3692
   -43.0700 -42.8410 -42.8386 -42.6920 -42.6303 -42.6079 -42.6050 -42.4801
   -42.3877 -42.3036 -42.2874 -42.2647 -42.2212 -42.1485 -42.0470 -41.9016
   -18.3826 -18.1984 -18.0192 -18.0106 -17.7704 -17.6394 -17.5422 -17.4993
   -17.4566 -17.3873 -17.0590 -16.8709 -16.2160  -6.4640  -6.3271  -6.2619
    -6.2153  -5.9885  -5.8652  -5.8165  -5.6438  -5.5648  -5.3622  -5.1074
    -4.8006  -4.7361  -4.6575  -4.5036  -4.4493  -4.3530  -4.2342  -4.1403
    -3.9979  -3.5700  -3.5052  -3.3530  -3.2012  -3.1781  -3.0140  -2.9227
    -2.7769  -2.6541  -2.4368  -2.2594  -2.1711  -2.1151  -1.9279  -1.5984
    -1.4247  -1.2505  -1.1618  -1.0203  -0.2122   0.1059   0.4204   0.4701
     0.5835   0.8376   0.8996   0.9716   1.0593   1.1431   1.2085   1.2666
     1.3645   1.5273   1.5969   1.6653   1.7956   2.0645   2.6156   3.7061
     4.0375   4.1467   4.2433   4.3805   4.6709   4.7823   5.2075   5.3579

          k =-0.2500-0.2445 0.0000 ( 40892 PWs)   bands (ev):

   -73.4735 -72.7639 -72.5266 -72.3626 -72.3404 -72.0552 -44.0299 -43.3695
   -43.0687 -42.8406 -42.8400 -42.6918 -42.6303 -42.6078 -42.6050 -42.4802
   -42.3877 -42.3024 -42.2878 -42.2650 -42.2213 -42.1490 -42.0467 -41.9021
   -18.2135 -18.1529 -17.9763 -17.9103 -17.7740 -17.7420 -17.6937 -17.6191
   -17.5097 -17.3882 -17.0493 -16.8783 -16.2156  -6.2691  -6.0330  -5.9540
    -5.8432  -5.7907  -5.7864  -5.6616  -5.5483  -5.3206  -5.3001  -5.2203
    -4.9977  -4.9932  -4.9569  -4.7777  -4.5863  -4.4864  -4.2455  -4.0462
    -3.8326  -3.7522  -3.6402  -3.6057  -3.5228  -3.5003  -3.2848  -3.2673
    -2.9274  -2.7835  -2.3810  -2.2401  -1.9521  -1.8716  -1.6658  -1.6097
    -1.3346  -1.2989  -1.1372  -1.1086   0.0041   0.0322   0.2714   0.5753
     0.5997   0.8653   1.0188   1.0959   1.1231   1.1440   1.2810   1.3852
     1.4008   1.6000   1.6548   1.7817   1.8209   1.9210   2.7076   3.3030
     3.7585   3.8401   4.0925   4.3721   4.6864   5.0713   5.3129   5.5919

          k =-0.2500-0.1223 0.0000 ( 40905 PWs)   bands (ev):

   -73.4735 -72.7639 -72.5266 -72.3626 -72.3403 -72.0552 -44.0299 -43.3692
   -43.0700 -42.8410 -42.8386 -42.6920 -42.6303 -42.6079 -42.6050 -42.4801
   -42.3877 -42.3036 -42.2874 -42.2647 -42.2212 -42.1485 -42.0470 -41.9016
   -18.3826 -18.1984 -18.0192 -18.0106 -17.7704 -17.6394 -17.5422 -17.4993
   -17.4566 -17.3873 -17.0590 -16.8709 -16.2160  -6.4640  -6.3271  -6.2619
    -6.2153  -5.9885  -5.8652  -5.8165  -5.6438  -5.5648  -5.3622  -5.1074
    -4.8006  -4.7361  -4.6575  -4.5036  -4.4493  -4.3530  -4.2342  -4.1403
    -3.9979  -3.5700  -3.5052  -3.3530  -3.2012  -3.1781  -3.0140  -2.9227
    -2.7769  -2.6541  -2.4368  -2.2594  -2.1711  -2.1151  -1.9279  -1.5984
    -1.4247  -1.2505  -1.1618  -1.0203  -0.2122   0.1059   0.4204   0.4701
     0.5835   0.8376   0.8996   0.9716   1.0593   1.1431   1.2085   1.2666
     1.3645   1.5273   1.5969   1.6653   1.7956   2.0645   2.6156   3.7061
     4.0375   4.1467   4.2433   4.3805   4.6709   4.7823   5.2075   5.3579

          k =-0.1250 0.0000 0.0000 ( 40851 PWs)   bands (ev):

   -73.4770 -72.7678 -72.5302 -72.3663 -72.3440 -72.0590 -44.0340 -43.3078
   -43.0837 -42.8400 -42.7726 -42.6970 -42.6421 -42.6134 -42.6090 -42.4181
   -42.3976 -42.2852 -42.2406 -42.2286 -42.2107 -42.1579 -41.9820 -41.9118
   -18.7943 -18.5807 -18.3795 -18.1490 -17.9049 -17.7601 -17.4146 -17.2703
   -17.2381 -17.1516 -16.9452 -16.8233 -16.1642  -7.2425  -7.0630  -7.0499
    -6.4484  -6.4287  -6.0440  -5.8086  -5.7569  -5.6292  -5.5774  -5.4623
    -5.2137  -5.0311  -4.9778  -4.4296  -4.0854  -4.0296  -3.4387  -3.2787
    -3.2405  -3.1501  -3.0720  -3.0550  -2.9021  -2.7389  -2.7187  -2.5733
    -2.4746  -2.3284  -2.1732  -2.1462  -2.0671  -2.0491  -1.8662  -1.7153
    -1.5725  -1.1046  -1.0626  -0.7029  -0.4177  -0.2339   0.0247   0.0618
     0.1487   0.3372   0.4616   0.5221   0.6856   0.7016   1.1534   1.2075
     1.3355   1.4442   1.6405   1.8783   2.1478   2.3667   2.5656   3.7106
     4.3431   4.7669   4.7746   4.9069   5.0619   5.3660   5.4075   5.4620

          k =-0.1250 0.1223 0.0000 ( 40932 PWs)   bands (ev):

   -73.4770 -72.7678 -72.5302 -72.3662 -72.3440 -72.0590 -44.0340 -43.3079
   -43.0813 -42.8424 -42.7726 -42.6963 -42.6421 -42.6121 -42.6090 -42.4181
   -42.3976 -42.2853 -42.2399 -42.2286 -42.2115 -42.1592 -41.9819 -41.9128
   -18.6805 -18.4561 -18.2596 -18.1943 -17.9083 -17.7964 -17.4478 -17.3874
   -17.3378 -17.3180 -16.9254 -16.8353 -16.1618  -6.8431  -6.6462  -6.6095
    -6.4525  -6.4068  -5.9491  -5.7706  -5.6916  -5.6469  -5.5278  -5.2587
    -5.2070  -5.0324  -4.8520  -4.4663  -4.2123  -4.0152  -3.9941  -3.6960
    -3.4682  -3.4362  -3.3560  -3.3207  -3.1829  -3.1274  -3.0619  -2.8202
    -2.6322  -2.5202  -2.3244  -2.2016  -2.0714  -1.9968  -1.7443  -1.5569
    -1.4231  -1.0699  -0.9881  -0.7892  -0.0625   0.1756   0.1969   0.2703
     0.3810   0.4432   0.6694   0.7470   0.8000   0.8849   1.1472   1.2283
     1.3603   1.4677   1.6704   1.7231   1.9283   2.3163   2.5855   4.0243
     4.4049   4.7437   4.8402   4.8772   5.0085   5.2044   5.2675   5.3831

          k =-0.1250-0.2445 0.0000 ( 40974 PWs)   bands (ev):

   -73.4770 -72.7678 -72.5302 -72.3662 -72.3441 -72.0590 -44.0340 -43.3080
   -43.0788 -42.8449 -42.7725 -42.6955 -42.6421 -42.6109 -42.6089 -42.4181
   -42.3976 -42.2853 -42.2391 -42.2286 -42.2123 -42.1606 -41.9818 -41.9138
   -18.4495 -18.3914 -18.2255 -18.0322 -17.9767 -17.8842 -17.5614 -17.5425
   -17.4810 -17.3778 -16.8923 -16.8640 -16.1599  -6.4884  -6.4554  -6.1354
    -5.9303  -5.8387  -5.7621  -5.7538  -5.6839  -5.6502  -5.6331  -5.2499
    -5.0587  -4.8929  -4.7746  -4.6440  -4.4779  -4.3228  -4.1653  -4.1360
    -4.0986  -3.9959  -3.8682  -3.7905  -3.4748  -3.3669  -3.2729  -2.8573
    -2.7248  -2.6275  -2.3102  -2.2305  -1.9363  -1.7688  -1.5560  -1.4012
    -1.1576  -1.0888  -1.0026  -0.9813   0.1855   0.2017   0.2974   0.4001
     0.5352   0.5886   0.7916   1.1071   1.1284   1.1406   1.2119   1.2568
     1.4080   1.4284   1.5350   1.6540   1.9273   2.0012   2.7325   4.0811
     4.4339   4.5585   4.7233   4.8545   5.0816   5.1171   5.3032   5.4406

          k =-0.1250-0.1223 0.0000 ( 40932 PWs)   bands (ev):

   -73.4770 -72.7678 -72.5302 -72.3662 -72.3440 -72.0590 -44.0340 -43.3079
   -43.0813 -42.8424 -42.7726 -42.6963 -42.6421 -42.6121 -42.6090 -42.4181
   -42.3976 -42.2853 -42.2399 -42.2286 -42.2115 -42.1592 -41.9819 -41.9128
   -18.6805 -18.4561 -18.2596 -18.1943 -17.9083 -17.7964 -17.4478 -17.3874
   -17.3378 -17.3180 -16.9254 -16.8353 -16.1618  -6.8431  -6.6462  -6.6095
    -6.4525  -6.4068  -5.9491  -5.7706  -5.6916  -5.6469  -5.5278  -5.2587
    -5.2070  -5.0324  -4.8520  -4.4663  -4.2123  -4.0152  -3.9941  -3.6960
    -3.4682  -3.4362  -3.3560  -3.3207  -3.1829  -3.1274  -3.0619  -2.8202
    -2.6322  -2.5202  -2.3244  -2.2016  -2.0714  -1.9968  -1.7443  -1.5569
    -1.4231  -1.0699  -0.9881  -0.7892  -0.0625   0.1756   0.1969   0.2703
     0.3810   0.4432   0.6694   0.7470   0.8000   0.8849   1.1472   1.2283
     1.3603   1.4677   1.6704   1.7231   1.9283   2.3163   2.5855   4.0243
     4.4049   4.7437   4.8402   4.8772   5.0085   5.2044   5.2675   5.3831

     the Fermi energy is     1.2000 ev

!    total energy              =   -1672.25437754 Ry
     estimated scf accuracy    <       0.00000001 Ry
     smearing contrib. (-TS)   =      -0.00193983 Ry
     internal energy E=F+TS    =   -1672.25243772 Ry

     The total energy is F=E-TS. E is the sum of the following terms:
     one-electron contribution =  -16958.67600326 Ry
     hartree contribution      =    8501.37977622 Ry
     xc contribution           =    -214.03953294 Ry
     ewald contribution        =    7122.86986394 Ry
     one-center paw contrib.   =    -123.78654168 Ry

     convergence has been achieved in  10 iterations

     negative rho (up, down):  1.105E-04 0.000E+00

     Forces acting on atoms (cartesian axes, Ry/au):

     atom    1 type  1   force =     0.00000001   -0.00008980    0.06994659
     atom    2 type  1   force =    -0.00000000    0.00070101   -0.09042750
     atom    3 type  1   force =     0.00000001   -0.00013386   -0.00076043
     atom    4 type  1   force =     0.00000007    0.00063005    0.00139612
     atom    5 type  1   force =     0.00000002    0.00078493   -0.00146112
     atom    6 type  1   force =    -0.00000002   -0.00170151   -0.00021249
     atom    7 type  2   force =    -0.00000000   -0.00133413    0.01819026
     atom    8 type  2   force =    -0.00000000    0.00007542    0.06204841
     atom    9 type  2   force =    -0.00000000    0.02372997   -0.02493086
     atom   10 type  2   force =    -0.00000000   -0.02435400   -0.02440059
     atom   11 type  2   force =     0.00000001    0.00109102    0.00102935
     atom   12 type  2   force =    -0.00000005    0.00145205   -0.01092838
     atom   13 type  2   force =    -0.00000003   -0.00038694    0.00119946
     atom   14 type  2   force =     0.00000002    0.00006672   -0.00094484
     atom   15 type  2   force =     0.00000003    0.00019458    0.00085569
     atom   16 type  2   force =    -0.00000001   -0.00274605   -0.00077764
     atom   17 type  2   force =    -0.00000002    0.00218223   -0.00210749
     atom   18 type  2   force =    -0.00000001    0.00177176    0.00062135
     atom   19 type  2   force =    -0.00000001   -0.00193345    0.00166411

     Total force =     0.006444     Total SCF correction =     0.000592
     Energy error            =      9.9E-05 Ry
     Gradient error          =      2.7E-03 Ry/Bohr

     number of scf cycles    =  11
     number of bfgs steps    =  10

     energy             old  =   -1672.2542781954 Ry
     energy             new  =   -1672.2543775448 Ry

     CASE: energy            _new < energy            _old

     new trust radius        =       0.0124415215 bohr
     new conv_thr            =       0.0000000100 Ry


ATOMIC_POSITIONS (angstrom)
Ru               0.0000000000        1.5881618300        9.5289709800    0   0   0
Ru               1.5535000000        4.7644854900        9.5289709800    0   0   0
Ru              -0.0000000029        4.7714036713       12.7205158189
Ru               1.5534998931        1.5893102523       12.7058259388
Ru              -0.0000001083        1.6232654732       16.0561848414
Ru               1.5535000390        4.7889422949       15.9476884292
O                0.0000000000        4.7644854900       10.7677372100    0   0   0
O                0.0000000000        4.7644854900        8.2902047600    0   0   0
O                1.5535000000        0.3493956000        9.5289709800    0   0   0
O                1.5535000000        2.8269280600        9.5289709800    0   0   0
O               -0.0000001018        1.5668268610       13.9783796448
O                0.0000000000        1.5881618300       11.4665284200    0   0   0
O                1.5534999857        3.5338554811       12.7159447741
O                1.5534999705        6.0017437551       12.6964351644
O               -0.0000000105        4.7568975174       17.0508075753
O                0.0000000709        4.8233837287       14.6489840908
O                1.5534999649        0.3981239558       15.9338966613
O                1.5534999610        2.8348631333       15.7935029882
O                0.0000000508        1.7732284346       17.7475410477



     Writing config-only to output data dir ./tmp_s0_O__1x1_off/s0_O__1x1_off.save/ :
     XML data file
     NEW-OLD atomic charge density approx. for the potential

     negative rho (up, down):  1.103E-04 0.000E+00

     total cpu time spent up to now is    14933.9 secs

     per-process dynamical memory:  1113.7 Mb

     Self-consistent Calculation

     iteration #  1     ecut=    80.00 Ry     beta= 0.30
     Davidson diagonalization with overlap
     ethr =  1.00E-06,  avg # of iterations =  3.0

     Threshold (ethr) on eigenvalues was too large:
     Diagonalizing with lowered threshold

     Davidson diagonalization with overlap
     ethr =  2.94E-08,  avg # of iterations =  2.7

     negative rho (up, down):  1.141E-04 0.000E+00

     total cpu time spent up to now is    15191.8 secs

     total energy              =   -1672.25443681 Ry
     estimated scf accuracy    <       0.00005185 Ry

     iteration #  2     ecut=    80.00 Ry     beta= 0.30
     Davidson diagonalization with overlap
     ethr =  2.98E-08,  avg # of iterations =  1.0

     negative rho (up, down):  1.165E-04 0.000E+00

     total cpu time spent up to now is    15292.9 secs

     total energy              =   -1672.25443541 Ry
     estimated scf accuracy    <       0.00002260 Ry

     iteration #  3     ecut=    80.00 Ry     beta= 0.30
     Davidson diagonalization with overlap
     ethr =  1.30E-08,  avg # of iterations =  1.2

     negative rho (up, down):  1.213E-04 0.000E+00

     total cpu time spent up to now is    15395.0 secs

     total energy              =   -1672.25443341 Ry
     estimated scf accuracy    <       0.00001291 Ry

     iteration #  4     ecut=    80.00 Ry     beta= 0.30
     Davidson diagonalization with overlap
     ethr =  7.42E-09,  avg # of iterations =  1.8

     negative rho (up, down):  1.260E-04 0.000E+00

     total cpu time spent up to now is    15500.0 secs

     total energy              =   -1672.25443313 Ry
     estimated scf accuracy    <       0.00000482 Ry

     iteration #  5     ecut=    80.00 Ry     beta= 0.30
     Davidson diagonalization with overlap
     ethr =  2.77E-09,  avg # of iterations =  2.4

     negative rho (up, down):  1.276E-04 0.000E+00

     total cpu time spent up to now is    15610.5 secs

     total energy              =   -1672.25443339 Ry
     estimated scf accuracy    <       0.00000048 Ry

     iteration #  6     ecut=    80.00 Ry     beta= 0.30
     Davidson diagonalization with overlap
     ethr =  2.78E-10,  avg # of iterations =  4.8

     negative rho (up, down):  1.287E-04 0.000E+00

     total cpu time spent up to now is    15732.1 secs

     total energy              =   -1672.25443342 Ry
     estimated scf accuracy    <       0.00000041 Ry

     iteration #  7     ecut=    80.00 Ry     beta= 0.30
     Davidson diagonalization with overlap
     ethr =  2.33E-10,  avg # of iterations =  1.1

     negative rho (up, down):  1.299E-04 0.000E+00

     total cpu time spent up to now is    15834.5 secs

     total energy              =   -1672.25443341 Ry
     estimated scf accuracy    <       0.00000015 Ry

     iteration #  8     ecut=    80.00 Ry     beta= 0.30
     Davidson diagonalization with overlap
     ethr =  8.82E-11,  avg # of iterations =  1.2

     negative rho (up, down):  1.290E-04 0.000E+00

     total cpu time spent up to now is    15937.4 secs

     total energy              =   -1672.25443341 Ry
     estimated scf accuracy    <       0.00000005 Ry

     iteration #  9     ecut=    80.00 Ry     beta= 0.30
     Davidson diagonalization with overlap
     ethr =  2.82E-11,  avg # of iterations =  1.1

     negative rho (up, down):  1.269E-04 0.000E+00

     total cpu time spent up to now is    16039.5 secs

     total energy              =   -1672.25443341 Ry
     estimated scf accuracy    <       0.00000002 Ry

     iteration # 10     ecut=    80.00 Ry     beta= 0.30
     Davidson diagonalization with overlap
     ethr =  8.82E-12,  avg # of iterations =  1.5

     negative rho (up, down):  1.104E-04 0.000E+00

     total cpu time spent up to now is    16139.6 secs

     End of self-consistent calculation

          k = 0.0000 0.0000 0.0000 ( 40831 PWs)   bands (ev):

   -73.4782 -72.7712 -72.5341 -72.3704 -72.3486 -72.0635 -44.0330 -43.2829
   -43.0889 -42.8435 -42.7445 -42.7015 -42.6494 -42.6185 -42.6139 -42.4041
   -42.3945 -42.2910 -42.2341 -42.2168 -42.1874 -42.1652 -41.9576 -41.9192
   -18.9254 -18.6998 -18.4913 -18.2367 -17.9838 -17.8414 -17.4028 -17.1981
   -17.1644 -17.0742 -16.9040 -16.7715 -16.1260  -7.4299  -7.2423  -7.2314
    -6.6283  -6.4456  -6.0069  -5.7715  -5.7663  -5.6996  -5.6283  -5.5403
    -5.4974  -5.3104  -5.1923  -4.5846  -4.1727  -3.5607  -3.3962  -3.1921
    -3.0753  -2.9583  -2.9253  -2.7937  -2.7159  -2.6733  -2.6695  -2.5012
    -2.3665  -2.2603  -2.1834  -1.9982  -1.9434  -1.6720  -1.4639  -1.4198
    -1.2472  -1.1703  -0.7446  -0.7225  -0.5386  -0.5126  -0.2249  -0.2069
    -0.1477  -0.1401   0.2661   0.3420   0.4542   0.5249   0.9911   1.1157
     1.2283   1.4298   1.7611   2.0277   2.2306   2.2864   2.7057   3.5290
     4.2204   4.7129   5.0529   5.2257   5.4256   5.5117   5.7211   5.7730

          k = 0.0000 0.1223 0.0000 ( 40974 PWs)   bands (ev):

   -73.4782 -72.7712 -72.5341 -72.3703 -72.3487 -72.0635 -44.0330 -43.2829
   -43.0860 -42.8465 -42.7445 -42.7005 -42.6494 -42.6168 -42.6139 -42.4041
   -42.3945 -42.2910 -42.2341 -42.2161 -42.1880 -42.1671 -41.9576 -41.9203
   -18.8049 -18.5683 -18.3690 -18.2835 -17.9996 -17.8723 -17.4172 -17.3283
   -17.2909 -17.2545 -16.8832 -16.7825 -16.1231  -7.0154  -6.7977  -6.7687
    -6.6198  -6.4342  -5.9370  -5.7693  -5.6484  -5.6205  -5.5474  -5.4936
    -5.4590  -5.3093  -5.0008  -4.6254  -4.2269  -4.0330  -3.7677  -3.6039
    -3.5411  -3.4187  -3.2605  -2.9089  -2.8782  -2.8636  -2.7499  -2.6865
    -2.5762  -2.3848  -2.2125  -2.1593  -2.0893  -1.7148  -1.6444  -1.6058
    -1.3569  -1.1377  -0.9081  -0.7048  -0.0711  -0.0541   0.1368   0.2504
     0.3390   0.3832   0.4147   0.5130   0.5342   0.6104   0.9798   1.0733
     1.2945   1.4743   1.7607   1.8292   2.0280   2.3620   2.5819   3.9197
     4.6405   4.8144   4.8951   5.2259   5.4341   5.4646   5.5025   5.5429

          k = 0.0000-0.2445 0.0000 ( 41014 PWs)   bands (ev):

   -73.4782 -72.7712 -72.5340 -72.3703 -72.3488 -72.0635 -44.0330 -43.2828
   -43.0831 -42.8496 -42.7446 -42.6994 -42.6494 -42.6151 -42.6138 -42.4040
   -42.3944 -42.2910 -42.2341 -42.2155 -42.1887 -42.1691 -41.9576 -41.9215
   -18.5584 -18.5030 -18.3339 -18.1259 -18.0757 -17.9660 -17.5018 -17.4775
   -17.4363 -17.3708 -16.8537 -16.8072 -16.1208  -6.6736  -6.4731  -6.3537
    -6.0304  -5.9806  -5.8597  -5.7663  -5.6219  -5.5403  -5.4779  -5.4613
    -5.3028  -5.0584  -4.9345  -4.6150  -4.6043  -4.4977  -4.4826  -4.3496
    -4.2871  -3.6678  -3.4907  -3.3462  -3.1454  -3.1195  -2.9961  -2.7105
    -2.5834  -2.4751  -2.2255  -2.1240  -1.9687  -1.7106  -1.6471  -1.4076
    -1.1922  -1.0935  -0.9965  -0.9851   0.1891   0.2016   0.2751   0.3917
     0.5036   0.6679   0.7986   0.8120   0.8791   0.9147   1.0428   1.1146
     1.2083   1.5448   1.5513   1.5984   2.0111   2.1151   2.7114   4.3435
     4.5490   4.8329   5.1823   5.1880   5.2268   5.2502   5.5205   5.6652

          k = 0.0000-0.1223 0.0000 ( 40974 PWs)   bands (ev):

   -73.4782 -72.7712 -72.5341 -72.3703 -72.3487 -72.0635 -44.0330 -43.2829
   -43.0860 -42.8465 -42.7445 -42.7005 -42.6494 -42.6168 -42.6139 -42.4041
   -42.3945 -42.2910 -42.2341 -42.2161 -42.1880 -42.1671 -41.9576 -41.9203
   -18.8049 -18.5683 -18.3690 -18.2835 -17.9996 -17.8723 -17.4172 -17.3283
   -17.2909 -17.2545 -16.8832 -16.7825 -16.1231  -7.0154  -6.7977  -6.7687
    -6.6198  -6.4342  -5.9370  -5.7693  -5.6484  -5.6205  -5.5474  -5.4936
    -5.4590  -5.3093  -5.0008  -4.6254  -4.2269  -4.0330  -3.7677  -3.6039
    -3.5411  -3.4187  -3.2605  -2.9089  -2.8782  -2.8636  -2.7499  -2.6865
    -2.5762  -2.3848  -2.2125  -2.1593  -2.0893  -1.7148  -1.6444  -1.6058
    -1.3569  -1.1377  -0.9081  -0.7048  -0.0711  -0.0541   0.1368   0.2504
     0.3390   0.3832   0.4147   0.5130   0.5342   0.6104   0.9798   1.0733
     1.2945   1.4743   1.7607   1.8292   2.0280   2.3620   2.5819   3.9197
     4.6405   4.8144   4.8951   5.2259   5.4341   5.4646   5.5025   5.5429

          k = 0.1250 0.0000 0.0000 ( 40851 PWs)   bands (ev):

   -73.4767 -72.7696 -72.5325 -72.3689 -72.3471 -72.0620 -44.0313 -43.3084
   -43.0838 -42.8425 -42.7732 -42.6994 -42.6447 -42.6162 -42.6119 -42.4205
   -42.4000 -42.2882 -42.2435 -42.2313 -42.2132 -42.1611 -41.9849 -41.9147
   -18.7971 -18.5831 -18.3822 -18.1509 -17.9062 -17.7632 -17.4111 -17.2740
   -17.2414 -17.1546 -16.9464 -16.8240 -16.1670  -7.2466  -7.0657  -7.0527
    -6.4510  -6.4311  -6.0476  -5.8111  -5.7589  -5.6321  -5.5793  -5.4649
    -5.2133  -5.0346  -4.9781  -4.4270  -4.0840  -4.0306  -3.4398  -3.2791
    -3.2432  -3.1526  -3.0736  -3.0580  -2.9042  -2.7424  -2.7199  -2.5721
    -2.4752  -2.3307  -2.1756  -2.1489  -2.0715  -2.0506  -1.8682  -1.7162
    -1.5750  -1.1055  -1.0652  -0.7024  -0.4222  -0.2362   0.0219   0.0587
     0.1458   0.3339   0.4589   0.5198   0.6830   0.6994   1.1506   1.2044
     1.3330   1.4412   1.6376   1.8759   2.1453   2.3639   2.5630   3.7087
     4.3411   4.7653   4.7771   4.9041   5.0582   5.3620   5.4035   5.4591

          k = 0.1250 0.1223 0.0000 ( 40932 PWs)   bands (ev):

   -73.4767 -72.7696 -72.5325 -72.3688 -72.3472 -72.0620 -44.0313 -43.3085
   -43.0813 -42.8450 -42.7732 -42.6987 -42.6447 -42.6149 -42.6119 -42.4205
   -42.3999 -42.2882 -42.2428 -42.2313 -42.2140 -42.1624 -41.9848 -41.9157
   -18.6832 -18.4583 -18.2622 -18.1966 -17.9089 -17.8001 -17.4460 -17.3904
   -17.3398 -17.3216 -16.9264 -16.8362 -16.1646  -6.8465  -6.6490  -6.6123
    -6.4552  -6.4093  -5.9527  -5.7724  -5.6942  -5.6493  -5.5306  -5.2600
    -5.2075  -5.0359  -4.8524  -4.4637  -4.2118  -4.0173  -3.9951  -3.6988
    -3.4697  -3.4387  -3.3580  -3.3234  -3.1855  -3.1292  -3.0602  -2.8224
    -2.6338  -2.5222  -2.3273  -2.2042  -2.0732  -1.9989  -1.7463  -1.5567
    -1.4259  -1.0726  -0.9904  -0.7917  -0.0637   0.1734   0.1947   0.2676
     0.3786   0.4403   0.6666   0.7445   0.7969   0.8824   1.1442   1.2257
     1.3576   1.4651   1.6688   1.7194   1.9255   2.3138   2.5828   4.0228
     4.4063   4.7429   4.8382   4.8740   5.0054   5.2012   5.2645   5.3787

          k = 0.1250-0.2445 0.0000 ( 40974 PWs)   bands (ev):

   -73.4767 -72.7696 -72.5325 -72.3688 -72.3472 -72.0620 -44.0313 -43.3086
   -43.0788 -42.8475 -42.7731 -42.6979 -42.6447 -42.6137 -42.6118 -42.4205
   -42.3999 -42.2882 -42.2420 -42.2314 -42.2148 -42.1638 -41.9848 -41.9167
   -18.4515 -18.3942 -18.2273 -18.0337 -17.9795 -17.8872 -17.5642 -17.5451
   -17.4832 -17.3774 -16.8927 -16.8655 -16.1627  -6.4909  -6.4578  -6.1368
    -5.9353  -5.8405  -5.7649  -5.7562  -5.6865  -5.6527  -5.6359  -5.2494
    -5.0620  -4.8933  -4.7783  -4.6429  -4.4785  -4.3235  -4.1662  -4.1386
    -4.1015  -3.9992  -3.8711  -3.7916  -3.4739  -3.3691  -3.2742  -2.8589
    -2.7252  -2.6301  -2.3127  -2.2329  -1.9382  -1.7703  -1.5575  -1.4033
    -1.1574  -1.0912  -1.0058  -0.9853   0.1850   0.1994   0.2943   0.3971
     0.5322   0.5878   0.7890   1.1052   1.1268   1.1368   1.2088   1.2542
     1.4051   1.4257   1.5324   1.6507   1.9252   1.9979   2.7298   4.0830
     4.4329   4.5550   4.7209   4.8519   5.0786   5.1146   5.3007   5.4366

          k = 0.1250-0.1223 0.0000 ( 40932 PWs)   bands (ev):

   -73.4767 -72.7696 -72.5325 -72.3688 -72.3472 -72.0620 -44.0313 -43.3085
   -43.0813 -42.8450 -42.7732 -42.6987 -42.6447 -42.6149 -42.6119 -42.4205
   -42.3999 -42.2882 -42.2428 -42.2313 -42.2140 -42.1624 -41.9848 -41.9157
   -18.6832 -18.4583 -18.2622 -18.1966 -17.9089 -17.8001 -17.4460 -17.3904
   -17.3398 -17.3216 -16.9264 -16.8362 -16.1646  -6.8465  -6.6490  -6.6123
    -6.4552  -6.4093  -5.9527  -5.7724  -5.6942  -5.6493  -5.5306  -5.2600
    -5.2075  -5.0359  -4.8524  -4.4637  -4.2118  -4.0173  -3.9951  -3.6988
    -3.4697  -3.4387  -3.3580  -3.3234  -3.1855  -3.1292  -3.0602  -2.8224
    -2.6338  -2.5222  -2.3273  -2.2042  -2.0732  -1.9989  -1.7463  -1.5567
    -1.4259  -1.0726  -0.9904  -0.7917  -0.0637   0.1734   0.1947   0.2676
     0.3786   0.4403   0.6666   0.7445   0.7969   0.8824   1.1442   1.2257
     1.3576   1.4651   1.6688   1.7194   1.9255   2.3138   2.5828   4.0228
     4.4063   4.7429   4.8382   4.8740   5.0054   5.2012   5.2645   5.3787

          k = 0.2500 0.0000 0.0000 ( 40947 PWs)   bands (ev):

   -73.4731 -72.7658 -72.5289 -72.3652 -72.3434 -72.0582 -44.0272 -43.3695
   -43.0714 -42.8415 -42.8402 -42.6945 -42.6332 -42.6107 -42.6077 -42.4825
   -42.3901 -42.3076 -42.2897 -42.2670 -42.2240 -42.1511 -42.0504 -41.9040
   -18.4715 -18.2944 -18.1136 -17.9799 -17.7805 -17.5656 -17.4664 -17.4304
   -17.4087 -17.3429 -17.0681 -16.8644 -16.2192  -6.7765  -6.6179  -6.5828
    -6.2510  -5.9943  -5.9784  -5.8574  -5.8092  -5.4741  -5.4410  -5.0486
    -4.9850  -4.6429  -4.5345  -4.5124  -4.3343  -4.1391  -4.0270  -3.9857
    -3.7519  -3.6724  -3.3409  -3.1967  -3.1146  -3.0152  -2.8557  -2.7963
    -2.6926  -2.4801  -2.3955  -2.2287  -2.2047  -2.1066  -2.0492  -1.6104
    -1.4553  -1.2586  -1.1974  -0.9676  -0.2219  -0.1120   0.1794   0.4492
     0.5175   0.5869   0.8009   0.9735   1.0662   1.1657   1.2033   1.3284
     1.3669   1.4675   1.4998   1.6137   1.8559   2.1812   2.4962   3.9541
     4.1763   4.2289   4.4089   4.6674   4.7405   4.8089   4.8810   4.9640

          k = 0.2500 0.1223 0.0000 ( 40905 PWs)   bands (ev):

   -73.4731 -72.7658 -72.5289 -72.3652 -72.3435 -72.0582 -44.0272 -43.3698
   -43.0701 -42.8420 -42.8407 -42.6943 -42.6332 -42.6107 -42.6076 -42.4825
   -42.3901 -42.3065 -42.2901 -42.2674 -42.2240 -42.1517 -42.0500 -41.9045
   -18.3851 -18.2001 -18.0217 -18.0129 -17.7728 -17.6422 -17.5444 -17.5014
   -17.4601 -17.3889 -17.0584 -16.8709 -16.2186  -6.4670  -6.3303  -6.2647
    -6.2180  -5.9906  -5.8671  -5.8196  -5.6465  -5.5677  -5.3648  -5.1084
    -4.8023  -4.7370  -4.6600  -4.5053  -4.4518  -4.3551  -4.2337  -4.1407
    -3.9983  -3.5699  -3.5071  -3.3549  -3.2021  -3.1808  -3.0170  -2.9255
    -2.7775  -2.6558  -2.4392  -2.2611  -2.1719  -2.1164  -1.9310  -1.6006
    -1.4242  -1.2537  -1.1640  -1.0237  -0.2141   0.1050   0.4182   0.4667
     0.5810   0.8347   0.8968   0.9688   1.0565   1.1405   1.2062   1.2635
     1.3620   1.5259   1.5947   1.6615   1.7927   2.0619   2.6128   3.7068
     4.0354   4.1436   4.2405   4.3779   4.6682   4.7805   5.2056   5.3556

          k = 0.2500-0.2445 0.0000 ( 40892 PWs)   bands (ev):

   -73.4731 -72.7658 -72.5289 -72.3651 -72.3435 -72.0582 -44.0272 -43.3702
   -43.0687 -42.8426 -42.8411 -42.6942 -42.6332 -42.6106 -42.6076 -42.4826
   -42.3900 -42.3053 -42.2905 -42.2677 -42.2240 -42.1522 -42.0496 -41.9050
   -18.2150 -18.1561 -17.9739 -17.9165 -17.7753 -17.7468 -17.6964 -17.6224
   -17.5120 -17.3890 -17.0487 -16.8784 -16.2182  -6.2719  -6.0344  -5.9556
    -5.8450  -5.7945  -5.7886  -5.6646  -5.5521  -5.3233  -5.3015  -5.2236
    -5.0005  -4.9954  -4.9592  -4.7795  -4.5877  -4.4880  -4.2450  -4.0464
    -3.8326  -3.7527  -3.6426  -3.6082  -3.5247  -3.5016  -3.2877  -3.2701
    -2.9268  -2.7863  -2.3835  -2.2414  -1.9521  -1.8737  -1.6678  -1.6118
    -1.3365  -1.3017  -1.1374  -1.1128   0.0024   0.0291   0.2696   0.5725
     0.5970   0.8638   1.0161   1.0937   1.1205   1.1411   1.2776   1.3824
     1.3981   1.5988   1.6523   1.7790   1.8176   1.9182   2.7048   3.3032
     3.7551   3.8373   4.0903   4.3696   4.6833   5.0702   5.3114   5.5900

          k = 0.2500-0.1223 0.0000 ( 40905 PWs)   bands (ev):

   -73.4731 -72.7658 -72.5289 -72.3652 -72.3435 -72.0582 -44.0272 -43.3698
   -43.0701 -42.8420 -42.8407 -42.6943 -42.6332 -42.6107 -42.6076 -42.4825
   -42.3901 -42.3065 -42.2901 -42.2674 -42.2240 -42.1517 -42.0500 -41.9045
   -18.3851 -18.2001 -18.0217 -18.0129 -17.7728 -17.6422 -17.5444 -17.5014
   -17.4601 -17.3889 -17.0584 -16.8709 -16.2186  -6.4670  -6.3303  -6.2647
    -6.2180  -5.9906  -5.8671  -5.8196  -5.6465  -5.5677  -5.3648  -5.1084
    -4.8023  -4.7370  -4.6600  -4.5053  -4.4518  -4.3551  -4.2337  -4.1407
    -3.9983  -3.5699  -3.5071  -3.3549  -3.2021  -3.1808  -3.0170  -2.9255
    -2.7775  -2.6558  -2.4392  -2.2611  -2.1719  -2.1164  -1.9310  -1.6006
    -1.4242  -1.2537  -1.1640  -1.0237  -0.2141   0.1050   0.4182   0.4667
     0.5810   0.8347   0.8968   0.9688   1.0565   1.1405   1.2062   1.2635
     1.3620   1.5259   1.5947   1.6615   1.7927   2.0619   2.6128   3.7068
     4.0354   4.1436   4.2405   4.3779   4.6682   4.7805   5.2056   5.3556

          k = 0.3750 0.0000 0.0000 ( 40852 PWs)   bands (ev):

   -73.4696 -72.7619 -72.5253 -72.3615 -72.3398 -72.0545 -44.0230 -43.4300
   -43.0588 -42.9089 -42.8380 -42.6896 -42.6221 -42.6053 -42.6044 -42.5427
   -42.3830 -42.3680 -42.3426 -42.2692 -42.2166 -42.1411 -42.1150 -41.8932
   -18.1235 -18.0010 -17.8751 -17.8429 -17.7425 -17.6340 -17.5997 -17.5270
   -17.4557 -17.4044 -17.0800 -16.8308 -16.1914  -6.3363  -6.1703  -6.0487
    -6.0245  -5.9019  -5.8471  -5.6534  -5.6180  -5.5011  -5.4041  -5.2064
    -5.0601  -4.8245  -4.7867  -4.5742  -4.4156  -4.3691  -4.2074  -3.9623
    -3.6550  -3.4984  -3.4096  -3.3790  -3.3321  -3.1641  -3.0908  -2.8136
    -2.6786  -2.5957  -2.4425  -2.2760  -2.2154  -2.0327  -1.9504  -1.5171
    -1.3807  -1.3784  -1.2323  -0.9704  -0.1534   0.0188   0.2727   0.4755
     0.5821   0.6639   0.7654   0.7775   0.8658   1.0294   1.1618   1.2201
     1.3819   1.5258   1.6550   1.7861   1.9684   2.1500   2.3711   3.4238
     3.8013   4.0637   4.2745   4.3858   4.4847   4.5446   4.7839   4.9416

          k = 0.3750 0.1223 0.0000 ( 40842 PWs)   bands (ev):

   -73.4696 -72.7619 -72.5253 -72.3615 -72.3398 -72.0545 -44.0230 -43.4305
   -43.0588 -42.9083 -42.8379 -42.6901 -42.6221 -42.6068 -42.6042 -42.5429
   -42.3826 -42.3666 -42.3431 -42.2693 -42.2166 -42.1409 -42.1142 -41.8932
   -18.1037 -18.0012 -17.9365 -17.8783 -17.8102 -17.6280 -17.5338 -17.4777
   -17.4501 -17.3906 -17.0793 -16.8346 -16.1916  -6.2158  -6.1205  -6.0911
    -6.0461  -5.9578  -5.7605  -5.6558  -5.5999  -5.5189  -5.4719  -5.3544
    -5.0400  -4.7708  -4.7028  -4.5361  -4.4569  -4.2844  -4.0422  -3.8550
    -3.6398  -3.5621  -3.3481  -3.3002  -3.2307  -3.1421  -3.0421  -2.8736
    -2.7361  -2.6106  -2.5038  -2.2859  -2.1817  -2.0584  -1.9368  -1.6232
    -1.5417  -1.4027  -1.2607  -1.1219  -0.1278  -0.0769   0.1972   0.2430
     0.5383   0.6039   0.6356   0.7592   0.8101   0.9268   0.9544   1.2236
     1.6728   1.7431   1.8320   1.8808   2.0328   2.0589   2.4813   3.1709
     3.4850   3.6542   3.7522   4.1045   4.2926   5.1337   5.4560   5.5727

          k = 0.3750-0.2445 0.0000 ( 40856 PWs)   bands (ev):

   -73.4696 -72.7619 -72.5253 -72.3615 -72.3398 -72.0545 -44.0230 -43.4310
   -43.0589 -42.9078 -42.8378 -42.6906 -42.6221 -42.6082 -42.6042 -42.5430
   -42.3823 -42.3651 -42.3436 -42.2693 -42.2166 -42.1408 -42.1134 -41.8933
   -18.0574 -18.0299 -17.9923 -17.9045 -17.8486 -17.6339 -17.4834 -17.4613
   -17.4252 -17.3779 -17.0785 -16.8385 -16.1919  -6.2531  -6.0735  -5.9266
    -5.9190  -5.8537  -5.8228  -5.7577  -5.6841  -5.6700  -5.5582  -5.4129
    -4.9334  -4.7891  -4.5437  -4.4989  -4.2889  -4.1946  -4.0674  -3.7344
    -3.5433  -3.4411  -3.4072  -3.2863  -3.2668  -3.1549  -3.1153  -2.9744
    -2.7740  -2.7327  -2.3633  -2.2174  -2.1529  -2.0311  -1.8959  -1.8432
    -1.5776  -1.4319  -1.2788  -1.2501  -0.3250  -0.2618  -0.0945   0.3167
     0.4369   0.6001   0.6749   0.7674   0.8213   0.8785   1.0114   1.2102
     1.5712   1.7989   1.9610   1.9875   2.1147   2.2110   2.5793   2.7632
     3.2178   3.3206   3.5178   4.1289   4.2949   5.5124   5.5997   5.8152

          k = 0.3750-0.1223 0.0000 ( 40842 PWs)   bands (ev):

   -73.4696 -72.7619 -72.5253 -72.3615 -72.3398 -72.0545 -44.0230 -43.4305
   -43.0588 -42.9083 -42.8379 -42.6901 -42.6221 -42.6068 -42.6042 -42.5429
   -42.3826 -42.3666 -42.3431 -42.2693 -42.2166 -42.1409 -42.1142 -41.8932
   -18.1037 -18.0012 -17.9365 -17.8783 -17.8102 -17.6280 -17.5338 -17.4777
   -17.4501 -17.3906 -17.0793 -16.8346 -16.1916  -6.2158  -6.1205  -6.0911
    -6.0461  -5.9578  -5.7605  -5.6558  -5.5999  -5.5189  -5.4719  -5.3544
    -5.0400  -4.7708  -4.7028  -4.5361  -4.4569  -4.2844  -4.0422  -3.8550
    -3.6398  -3.5621  -3.3481  -3.3002  -3.2307  -3.1421  -3.0421  -2.8736
    -2.7361  -2.6106  -2.5038  -2.2859  -2.1817  -2.0584  -1.9368  -1.6232
    -1.5417  -1.4027  -1.2607  -1.1219  -0.1278  -0.0769   0.1972   0.2430
     0.5383   0.6039   0.6356   0.7592   0.8101   0.9268   0.9544   1.2236
     1.6728   1.7431   1.8320   1.8808   2.0328   2.0589   2.4813   3.1709
     3.4850   3.6542   3.7522   4.1045   4.2926   5.1337   5.4560   5.5727

          k =-0.5000 0.0000 0.0000 ( 40876 PWs)   bands (ev):

   -73.4681 -72.7603 -72.5238 -72.3600 -72.3383 -72.0529 -44.0213 -43.4549
   -43.0535 -42.9365 -42.8372 -42.6875 -42.6188 -42.6030 -42.6030 -42.5663
   -42.3994 -42.3735 -42.3677 -42.2668 -42.2136 -42.1413 -42.1370 -41.8887
   -18.0130 -17.8499 -17.8339 -17.7842 -17.7087 -17.6924 -17.6658 -17.5979
   -17.4745 -17.3992 -17.0091 -16.8040 -16.1549  -6.3228  -6.1487  -5.9842
    -5.7872  -5.7629  -5.6933  -5.5865  -5.5495  -5.5273  -5.4234  -5.3224
    -5.1558  -5.0326  -4.9001  -4.7309  -4.5003  -4.0700  -3.8175  -3.7902
    -3.6837  -3.6794  -3.6772  -3.5651  -3.4128  -2.9673  -2.8517  -2.7098
    -2.6147  -2.4853  -2.4700  -2.3683  -2.1590  -1.9820  -1.8297  -1.7143
    -1.6116  -1.2454  -1.1164  -0.9011  -0.2032   0.0783   0.0815   0.4637
     0.5470   0.5711   0.6300   0.6639   0.7247   0.7878   1.0311   1.1594
     1.3245   1.5082   1.8497   1.9290   2.1513   2.2595   2.3229   3.2041
     3.6510   4.0193   4.2135   4.2537   4.3670   4.5541   4.7609   4.9111

          k =-0.5000 0.1223 0.0000 ( 40858 PWs)   bands (ev):

   -73.4681 -72.7603 -72.5238 -72.3600 -72.3383 -72.0529 -44.0213 -43.4555
   -43.0543 -42.9357 -42.8365 -42.6884 -42.6188 -42.6055 -42.6027 -42.5665
   -42.3972 -42.3733 -42.3682 -42.2668 -42.2136 -42.1404 -42.1365 -41.8886
   -18.0066 -17.9652 -17.9557 -17.9086 -17.8532 -17.5386 -17.4737 -17.4684
   -17.4258 -17.3993 -17.0110 -16.8064 -16.1544  -6.2777  -6.2293  -6.1116
    -6.1066  -5.9993  -5.7534  -5.6635  -5.6277  -5.6090  -5.4179  -5.1792
    -5.0856  -4.8345  -4.5779  -4.4082  -4.1127  -3.8681  -3.8306  -3.7950
    -3.7617  -3.6431  -3.6341  -3.6075  -3.0076  -2.9486  -2.8143  -2.6250
    -2.6047  -2.5199  -2.4986  -2.2726  -2.1834  -2.1362  -1.8373  -1.6593
    -1.6233  -1.4941  -1.3028  -1.0870  -0.1958  -0.0374   0.0332   0.0840
     0.2044   0.4482   0.4913   0.5630   0.5908   0.6294   0.7466   1.1762
     1.8283   1.8485   2.0093   2.0156   2.1839   2.2030   2.4074   3.0068
     3.2513   3.4551   3.5800   4.0479   4.2163   5.3331   5.5998   5.6394

          k =-0.5000-0.2445 0.0000 ( 40872 PWs)   bands (ev):

   -73.4681 -72.7603 -72.5238 -72.3600 -72.3383 -72.0529 -44.0213 -43.4561
   -43.0550 -42.9350 -42.8358 -42.6892 -42.6188 -42.6076 -42.6027 -42.5666
   -42.3952 -42.3731 -42.3686 -42.2668 -42.2136 -42.1395 -42.1360 -41.8884
   -18.0468 -18.0402 -17.9997 -17.9995 -17.8571 -17.4728 -17.4580 -17.3995
   -17.3688 -17.3284 -17.0129 -16.8089 -16.1539  -6.4846  -6.2777  -6.1996
    -6.0933  -6.0761  -5.7671  -5.6774  -5.6754  -5.6407  -5.4978  -5.1793
    -5.0394  -4.9561  -4.1810  -4.1102  -3.9037  -3.8736  -3.8177  -3.5952
    -3.5892  -3.5217  -3.4220  -3.2323  -3.2082  -2.8970  -2.8552  -2.8069
    -2.6643  -2.4154  -2.3181  -2.2021  -2.1509  -1.9324  -1.9128  -1.7914
    -1.7529  -1.7179  -1.5810  -1.2659  -0.5112  -0.2313  -0.1911   0.0054
     0.1072   0.1700   0.4531   0.4709   0.6005   0.6284   0.7609   1.2129
     1.7464   1.9218   2.0706   2.1211   2.3583   2.3686   2.4626   2.6194
     3.0707   3.1923   3.2872   4.0747   4.2183   5.7199   5.7882   5.8253

          k =-0.5000-0.1223 0.0000 ( 40858 PWs)   bands (ev):

   -73.4681 -72.7603 -72.5238 -72.3600 -72.3383 -72.0529 -44.0213 -43.4555
   -43.0543 -42.9357 -42.8365 -42.6884 -42.6188 -42.6055 -42.6027 -42.5665
   -42.3972 -42.3733 -42.3682 -42.2668 -42.2136 -42.1404 -42.1365 -41.8886
   -18.0066 -17.9652 -17.9557 -17.9086 -17.8532 -17.5386 -17.4737 -17.4684
   -17.4258 -17.3993 -17.0110 -16.8064 -16.1544  -6.2777  -6.2293  -6.1116
    -6.1066  -5.9993  -5.7534  -5.6635  -5.6277  -5.6090  -5.4179  -5.1792
    -5.0856  -4.8345  -4.5779  -4.4082  -4.1127  -3.8681  -3.8306  -3.7950
    -3.7617  -3.6431  -3.6341  -3.6075  -3.0076  -2.9486  -2.8143  -2.6250
    -2.6047  -2.5199  -2.4986  -2.2726  -2.1834  -2.1362  -1.8373  -1.6593
    -1.6233  -1.4941  -1.3028  -1.0870  -0.1958  -0.0374   0.0332   0.0840
     0.2044   0.4482   0.4913   0.5630   0.5908   0.6294   0.7466   1.1762
     1.8283   1.8485   2.0093   2.0156   2.1839   2.2030   2.4074   3.0068
     3.2513   3.4551   3.5800   4.0479   4.2163   5.3331   5.5998   5.6394

          k =-0.3750 0.0000 0.0000 ( 40852 PWs)   bands (ev):

   -73.4696 -72.7619 -72.5253 -72.3615 -72.3398 -72.0545 -44.0230 -43.4300
   -43.0588 -42.9089 -42.8380 -42.6896 -42.6221 -42.6053 -42.6044 -42.5427
   -42.3830 -42.3680 -42.3426 -42.2692 -42.2166 -42.1411 -42.1150 -41.8932
   -18.1235 -18.0010 -17.8751 -17.8429 -17.7425 -17.6340 -17.5997 -17.5270
   -17.4557 -17.4044 -17.0800 -16.8308 -16.1914  -6.3363  -6.1703  -6.0487
    -6.0245  -5.9019  -5.8471  -5.6534  -5.6180  -5.5011  -5.4041  -5.2064
    -5.0601  -4.8245  -4.7867  -4.5742  -4.4156  -4.3691  -4.2074  -3.9623
    -3.6550  -3.4984  -3.4096  -3.3790  -3.3321  -3.1641  -3.0908  -2.8136
    -2.6786  -2.5957  -2.4425  -2.2760  -2.2154  -2.0327  -1.9504  -1.5171
    -1.3807  -1.3784  -1.2323  -0.9704  -0.1534   0.0188   0.2727   0.4755
     0.5821   0.6639   0.7654   0.7775   0.8658   1.0294   1.1618   1.2201
     1.3819   1.5258   1.6550   1.7861   1.9684   2.1500   2.3711   3.4238
     3.8013   4.0637   4.2745   4.3858   4.4847   4.5446   4.7839   4.9416

          k =-0.3750 0.1223 0.0000 ( 40842 PWs)   bands (ev):

   -73.4696 -72.7619 -72.5253 -72.3615 -72.3398 -72.0545 -44.0230 -43.4305
   -43.0588 -42.9083 -42.8379 -42.6901 -42.6221 -42.6068 -42.6042 -42.5429
   -42.3826 -42.3666 -42.3431 -42.2693 -42.2166 -42.1409 -42.1142 -41.8932
   -18.1037 -18.0012 -17.9365 -17.8783 -17.8102 -17.6280 -17.5338 -17.4777
   -17.4501 -17.3906 -17.0793 -16.8346 -16.1916  -6.2158  -6.1205  -6.0911
    -6.0461  -5.9578  -5.7605  -5.6558  -5.5999  -5.5189  -5.4719  -5.3544
    -5.0400  -4.7708  -4.7028  -4.5361  -4.4569  -4.2844  -4.0422  -3.8550
    -3.6398  -3.5621  -3.3481  -3.3002  -3.2307  -3.1421  -3.0421  -2.8736
    -2.7361  -2.6106  -2.5038  -2.2859  -2.1817  -2.0584  -1.9368  -1.6232
    -1.5417  -1.4027  -1.2607  -1.1219  -0.1278  -0.0769   0.1972   0.2430
     0.5383   0.6039   0.6356   0.7592   0.8101   0.9268   0.9544   1.2236
     1.6728   1.7431   1.8320   1.8808   2.0328   2.0589   2.4813   3.1709
     3.4850   3.6542   3.7522   4.1045   4.2926   5.1337   5.4560   5.5727

          k =-0.3750-0.2445 0.0000 ( 40856 PWs)   bands (ev):

   -73.4696 -72.7619 -72.5253 -72.3615 -72.3398 -72.0545 -44.0230 -43.4310
   -43.0589 -42.9078 -42.8378 -42.6906 -42.6221 -42.6082 -42.6042 -42.5430
   -42.3823 -42.3651 -42.3436 -42.2693 -42.2166 -42.1408 -42.1134 -41.8933
   -18.0574 -18.0299 -17.9923 -17.9045 -17.8486 -17.6339 -17.4834 -17.4613
   -17.4252 -17.3779 -17.0785 -16.8385 -16.1919  -6.2531  -6.0735  -5.9266
    -5.9190  -5.8537  -5.8228  -5.7577  -5.6841  -5.6700  -5.5582  -5.4129
    -4.9334  -4.7891  -4.5437  -4.4989  -4.2889  -4.1946  -4.0674  -3.7344
    -3.5433  -3.4411  -3.4072  -3.2863  -3.2668  -3.1549  -3.1153  -2.9744
    -2.7740  -2.7327  -2.3633  -2.2174  -2.1529  -2.0311  -1.8959  -1.8432
    -1.5776  -1.4319  -1.2788  -1.2501  -0.3250  -0.2618  -0.0945   0.3167
     0.4369   0.6001   0.6749   0.7674   0.8213   0.8785   1.0114   1.2102
     1.5712   1.7989   1.9610   1.9875   2.1147   2.2110   2.5793   2.7632
     3.2178   3.3206   3.5178   4.1289   4.2949   5.5124   5.5997   5.8152

          k =-0.3750-0.1223 0.0000 ( 40842 PWs)   bands (ev):

   -73.4696 -72.7619 -72.5253 -72.3615 -72.3398 -72.0545 -44.0230 -43.4305
   -43.0588 -42.9083 -42.8379 -42.6901 -42.6221 -42.6068 -42.6042 -42.5429
   -42.3826 -42.3666 -42.3431 -42.2693 -42.2166 -42.1409 -42.1142 -41.8932
   -18.1037 -18.0012 -17.9365 -17.8783 -17.8102 -17.6280 -17.5338 -17.4777
   -17.4501 -17.3906 -17.0793 -16.8346 -16.1916  -6.2158  -6.1205  -6.0911
    -6.0461  -5.9578  -5.7605  -5.6558  -5.5999  -5.5189  -5.4719  -5.3544
    -5.0400  -4.7708  -4.7028  -4.5361  -4.4569  -4.2844  -4.0422  -3.8550
    -3.6398  -3.5621  -3.3481  -3.3002  -3.2307  -3.1421  -3.0421  -2.8736
    -2.7361  -2.6106  -2.5038  -2.2859  -2.1817  -2.0584  -1.9368  -1.6232
    -1.5417  -1.4027  -1.2607  -1.1219  -0.1278  -0.0769   0.1972   0.2430
     0.5383   0.6039   0.6356   0.7592   0.8101   0.9268   0.9544   1.2236
     1.6728   1.7431   1.8320   1.8808   2.0328   2.0589   2.4813   3.1709
     3.4850   3.6542   3.7522   4.1045   4.2926   5.1337   5.4560   5.5727

          k =-0.2500 0.0000 0.0000 ( 40947 PWs)   bands (ev):

   -73.4731 -72.7658 -72.5289 -72.3652 -72.3434 -72.0582 -44.0272 -43.3695
   -43.0714 -42.8415 -42.8402 -42.6945 -42.6332 -42.6107 -42.6077 -42.4825
   -42.3901 -42.3076 -42.2897 -42.2670 -42.2240 -42.1511 -42.0504 -41.9040
   -18.4715 -18.2944 -18.1136 -17.9799 -17.7805 -17.5656 -17.4664 -17.4304
   -17.4087 -17.3429 -17.0681 -16.8644 -16.2192  -6.7765  -6.6179  -6.5828
    -6.2510  -5.9943  -5.9784  -5.8574  -5.8092  -5.4741  -5.4410  -5.0486
    -4.9850  -4.6429  -4.5345  -4.5124  -4.3343  -4.1391  -4.0270  -3.9857
    -3.7519  -3.6724  -3.3409  -3.1967  -3.1146  -3.0152  -2.8557  -2.7963
    -2.6926  -2.4801  -2.3955  -2.2287  -2.2047  -2.1066  -2.0492  -1.6104
    -1.4553  -1.2586  -1.1974  -0.9676  -0.2219  -0.1120   0.1794   0.4492
     0.5175   0.5869   0.8009   0.9735   1.0662   1.1657   1.2033   1.3284
     1.3669   1.4675   1.4998   1.6137   1.8559   2.1812   2.4962   3.9541
     4.1763   4.2289   4.4089   4.6674   4.7405   4.8089   4.8810   4.9640

          k =-0.2500 0.1223 0.0000 ( 40905 PWs)   bands (ev):

   -73.4731 -72.7658 -72.5289 -72.3652 -72.3435 -72.0582 -44.0272 -43.3698
   -43.0701 -42.8420 -42.8407 -42.6943 -42.6332 -42.6107 -42.6076 -42.4825
   -42.3901 -42.3065 -42.2901 -42.2674 -42.2240 -42.1517 -42.0500 -41.9045
   -18.3851 -18.2001 -18.0217 -18.0129 -17.7728 -17.6422 -17.5444 -17.5014
   -17.4601 -17.3889 -17.0584 -16.8709 -16.2186  -6.4670  -6.3303  -6.2647
    -6.2180  -5.9906  -5.8671  -5.8196  -5.6465  -5.5677  -5.3648  -5.1084
    -4.8023  -4.7370  -4.6600  -4.5053  -4.4518  -4.3551  -4.2337  -4.1407
    -3.9983  -3.5699  -3.5071  -3.3549  -3.2021  -3.1808  -3.0170  -2.9255
    -2.7775  -2.6558  -2.4392  -2.2611  -2.1719  -2.1164  -1.9310  -1.6006
    -1.4242  -1.2537  -1.1640  -1.0237  -0.2141   0.1050   0.4182   0.4667
     0.5810   0.8347   0.8968   0.9688   1.0565   1.1405   1.2062   1.2635
     1.3620   1.5259   1.5947   1.6615   1.7927   2.0619   2.6128   3.7068
     4.0354   4.1436   4.2405   4.3779   4.6682   4.7805   5.2056   5.3556

          k =-0.2500-0.2445 0.0000 ( 40892 PWs)   bands (ev):

   -73.4731 -72.7658 -72.5289 -72.3651 -72.3435 -72.0582 -44.0272 -43.3702
   -43.0687 -42.8426 -42.8411 -42.6942 -42.6332 -42.6106 -42.6076 -42.4826
   -42.3900 -42.3053 -42.2905 -42.2677 -42.2240 -42.1522 -42.0496 -41.9050
   -18.2150 -18.1561 -17.9739 -17.9165 -17.7753 -17.7468 -17.6964 -17.6224
   -17.5120 -17.3890 -17.0487 -16.8784 -16.2182  -6.2719  -6.0344  -5.9556
    -5.8450  -5.7945  -5.7886  -5.6646  -5.5521  -5.3233  -5.3015  -5.2236
    -5.0005  -4.9954  -4.9592  -4.7795  -4.5877  -4.4880  -4.2450  -4.0464
    -3.8326  -3.7527  -3.6426  -3.6082  -3.5247  -3.5016  -3.2877  -3.2701
    -2.9268  -2.7863  -2.3835  -2.2414  -1.9521  -1.8737  -1.6678  -1.6118
    -1.3365  -1.3017  -1.1374  -1.1128   0.0024   0.0291   0.2696   0.5725
     0.5970   0.8638   1.0161   1.0937   1.1205   1.1411   1.2776   1.3824
     1.3981   1.5988   1.6523   1.7790   1.8176   1.9182   2.7048   3.3032
     3.7551   3.8373   4.0903   4.3696   4.6833   5.0702   5.3114   5.5900

          k =-0.2500-0.1223 0.0000 ( 40905 PWs)   bands (ev):

   -73.4731 -72.7658 -72.5289 -72.3652 -72.3435 -72.0582 -44.0272 -43.3698
   -43.0701 -42.8420 -42.8407 -42.6943 -42.6332 -42.6107 -42.6076 -42.4825
   -42.3901 -42.3065 -42.2901 -42.2674 -42.2240 -42.1517 -42.0500 -41.9045
   -18.3851 -18.2001 -18.0217 -18.0129 -17.7728 -17.6422 -17.5444 -17.5014
   -17.4601 -17.3889 -17.0584 -16.8709 -16.2186  -6.4670  -6.3303  -6.2647
    -6.2180  -5.9906  -5.8671  -5.8196  -5.6465  -5.5677  -5.3648  -5.1084
    -4.8023  -4.7370  -4.6600  -4.5053  -4.4518  -4.3551  -4.2337  -4.1407
    -3.9983  -3.5699  -3.5071  -3.3549  -3.2021  -3.1808  -3.0170  -2.9255
    -2.7775  -2.6558  -2.4392  -2.2611  -2.1719  -2.1164  -1.9310  -1.6006
    -1.4242  -1.2537  -1.1640  -1.0237  -0.2141   0.1050   0.4182   0.4667
     0.5810   0.8347   0.8968   0.9688   1.0565   1.1405   1.2062   1.2635
     1.3620   1.5259   1.5947   1.6615   1.7927   2.0619   2.6128   3.7068
     4.0354   4.1436   4.2405   4.3779   4.6682   4.7805   5.2056   5.3556

          k =-0.1250 0.0000 0.0000 ( 40851 PWs)   bands (ev):

   -73.4767 -72.7696 -72.5325 -72.3689 -72.3471 -72.0620 -44.0313 -43.3084
   -43.0838 -42.8425 -42.7732 -42.6994 -42.6447 -42.6162 -42.6119 -42.4205
   -42.4000 -42.2882 -42.2435 -42.2313 -42.2132 -42.1611 -41.9849 -41.9147
   -18.7971 -18.5831 -18.3822 -18.1509 -17.9062 -17.7632 -17.4111 -17.2740
   -17.2414 -17.1546 -16.9464 -16.8240 -16.1670  -7.2466  -7.0657  -7.0527
    -6.4510  -6.4311  -6.0476  -5.8111  -5.7589  -5.6321  -5.5793  -5.4649
    -5.2133  -5.0346  -4.9781  -4.4270  -4.0840  -4.0306  -3.4398  -3.2791
    -3.2432  -3.1526  -3.0736  -3.0580  -2.9042  -2.7424  -2.7199  -2.5721
    -2.4752  -2.3307  -2.1756  -2.1489  -2.0715  -2.0506  -1.8682  -1.7162
    -1.5750  -1.1055  -1.0652  -0.7024  -0.4222  -0.2362   0.0219   0.0587
     0.1458   0.3339   0.4589   0.5198   0.6830   0.6994   1.1506   1.2044
     1.3330   1.4412   1.6376   1.8759   2.1453   2.3639   2.5630   3.7087
     4.3411   4.7653   4.7771   4.9041   5.0582   5.3620   5.4035   5.4591

          k =-0.1250 0.1223 0.0000 ( 40932 PWs)   bands (ev):

   -73.4767 -72.7696 -72.5325 -72.3688 -72.3472 -72.0620 -44.0313 -43.3085
   -43.0813 -42.8450 -42.7732 -42.6987 -42.6447 -42.6149 -42.6119 -42.4205
   -42.3999 -42.2882 -42.2428 -42.2313 -42.2140 -42.1624 -41.9848 -41.9157
   -18.6832 -18.4583 -18.2622 -18.1966 -17.9089 -17.8001 -17.4460 -17.3904
   -17.3398 -17.3216 -16.9264 -16.8362 -16.1646  -6.8465  -6.6490  -6.6123
    -6.4552  -6.4093  -5.9527  -5.7724  -5.6942  -5.6493  -5.5306  -5.2600
    -5.2075  -5.0359  -4.8524  -4.4637  -4.2118  -4.0173  -3.9951  -3.6988
    -3.4697  -3.4387  -3.3580  -3.3234  -3.1855  -3.1292  -3.0602  -2.8224
    -2.6338  -2.5222  -2.3273  -2.2042  -2.0732  -1.9989  -1.7463  -1.5567
    -1.4259  -1.0726  -0.9904  -0.7917  -0.0637   0.1734   0.1947   0.2676
     0.3786   0.4403   0.6666   0.7445   0.7969   0.8824   1.1442   1.2257
     1.3576   1.4651   1.6688   1.7194   1.9255   2.3138   2.5828   4.0228
     4.4063   4.7429   4.8382   4.8740   5.0054   5.2012   5.2645   5.3787

          k =-0.1250-0.2445 0.0000 ( 40974 PWs)   bands (ev):

   -73.4767 -72.7696 -72.5325 -72.3688 -72.3472 -72.0620 -44.0313 -43.3086
   -43.0788 -42.8475 -42.7731 -42.6979 -42.6447 -42.6137 -42.6118 -42.4205
   -42.3999 -42.2882 -42.2420 -42.2314 -42.2148 -42.1638 -41.9848 -41.9167
   -18.4515 -18.3942 -18.2273 -18.0337 -17.9795 -17.8872 -17.5642 -17.5451
   -17.4832 -17.3774 -16.8927 -16.8655 -16.1627  -6.4909  -6.4578  -6.1368
    -5.9353  -5.8405  -5.7649  -5.7562  -5.6865  -5.6527  -5.6359  -5.2494
    -5.0620  -4.8933  -4.7783  -4.6429  -4.4785  -4.3235  -4.1662  -4.1386
    -4.1015  -3.9992  -3.8711  -3.7916  -3.4739  -3.3691  -3.2742  -2.8589
    -2.7252  -2.6301  -2.3127  -2.2329  -1.9382  -1.7703  -1.5575  -1.4033
    -1.1574  -1.0912  -1.0058  -0.9853   0.1850   0.1994   0.2943   0.3971
     0.5322   0.5878   0.7890   1.1052   1.1268   1.1368   1.2088   1.2542
     1.4051   1.4257   1.5324   1.6507   1.9252   1.9979   2.7298   4.0830
     4.4329   4.5550   4.7209   4.8519   5.0786   5.1146   5.3007   5.4366

          k =-0.1250-0.1223 0.0000 ( 40932 PWs)   bands (ev):

   -73.4767 -72.7696 -72.5325 -72.3688 -72.3472 -72.0620 -44.0313 -43.3085
   -43.0813 -42.8450 -42.7732 -42.6987 -42.6447 -42.6149 -42.6119 -42.4205
   -42.3999 -42.2882 -42.2428 -42.2313 -42.2140 -42.1624 -41.9848 -41.9157
   -18.6832 -18.4583 -18.2622 -18.1966 -17.9089 -17.8001 -17.4460 -17.3904
   -17.3398 -17.3216 -16.9264 -16.8362 -16.1646  -6.8465  -6.6490  -6.6123
    -6.4552  -6.4093  -5.9527  -5.7724  -5.6942  -5.6493  -5.5306  -5.2600
    -5.2075  -5.0359  -4.8524  -4.4637  -4.2118  -4.0173  -3.9951  -3.6988
    -3.4697  -3.4387  -3.3580  -3.3234  -3.1855  -3.1292  -3.0602  -2.8224
    -2.6338  -2.5222  -2.3273  -2.2042  -2.0732  -1.9989  -1.7463  -1.5567
    -1.4259  -1.0726  -0.9904  -0.7917  -0.0637   0.1734   0.1947   0.2676
     0.3786   0.4403   0.6666   0.7445   0.7969   0.8824   1.1442   1.2257
     1.3576   1.4651   1.6688   1.7194   1.9255   2.3138   2.5828   4.0228
     4.4063   4.7429   4.8382   4.8740   5.0054   5.2012   5.2645   5.3787

     the Fermi energy is     1.1972 ev

!    total energy              =   -1672.25443341 Ry
     estimated scf accuracy    <          7.8E-09 Ry
     smearing contrib. (-TS)   =      -0.00194840 Ry
     internal energy E=F+TS    =   -1672.25248501 Ry

     The total energy is F=E-TS. E is the sum of the following terms:
     one-electron contribution =  -16959.95827151 Ry
     hartree contribution      =    8502.00947307 Ry
     xc contribution           =    -214.03918599 Ry
     ewald contribution        =    7123.52200933 Ry
     one-center paw contrib.   =    -123.78650991 Ry

     convergence has been achieved in  10 iterations

     negative rho (up, down):  1.104E-04 0.000E+00

     Forces acting on atoms (cartesian axes, Ry/au):

     atom    1 type  1   force =     0.00000000   -0.00009339    0.07000174
     atom    2 type  1   force =     0.00000000    0.00077903   -0.09055900
     atom    3 type  1   force =    -0.00000001   -0.00009039   -0.00045430
     atom    4 type  1   force =     0.00000005    0.00009642    0.00084437
     atom    5 type  1   force =     0.00000002    0.00054401    0.00033403
     atom    6 type  1   force =    -0.00000002    0.00056684    0.00022933
     atom    7 type  2   force =    -0.00000000   -0.00166474    0.01794058
     atom    8 type  2   force =    -0.00000000    0.00008552    0.06204214
     atom    9 type  2   force =    -0.00000000    0.02371817   -0.02496137
     atom   10 type  2   force =    -0.00000000   -0.02436887   -0.02437099
     atom   11 type  2   force =     0.00000002    0.00140473    0.00114767
     atom   12 type  2   force =    -0.00000004    0.00160356   -0.01080085
     atom   13 type  2   force =    -0.00000000    0.00008044    0.00071650
     atom   14 type  2   force =     0.00000001    0.00038140   -0.00057458
     atom   15 type  2   force =     0.00000002    0.00102061    0.00032536
     atom   16 type  2   force =    -0.00000002   -0.00330223   -0.00038448
     atom   17 type  2   force =    -0.00000001    0.00058660   -0.00145495
     atom   18 type  2   force =    -0.00000001    0.00072439   -0.00020181
     atom   19 type  2   force =    -0.00000001   -0.00207210    0.00018063

     Total force =     0.005055     Total SCF correction =     0.000515
     SCF correction compared to forces is large: reduce conv_thr to get better values
     Energy error            =      5.6E-05 Ry
     Gradient error          =      3.3E-03 Ry/Bohr

     number of scf cycles    =  12
     number of bfgs steps    =  11

     energy             old  =   -1672.2543775448 Ry
     energy             new  =   -1672.2544334090 Ry

     CASE: energy            _new < energy            _old

     new trust radius        =       0.0127490332 bohr
     new conv_thr            =       0.0000000100 Ry


ATOMIC_POSITIONS (angstrom)
Ru               0.0000000000        1.5881618300        9.5289709800    0   0   0
Ru               1.5535000000        4.7644854900        9.5289709800    0   0   0
Ru              -0.0000000002        4.7711011542       12.7195676210
Ru               1.5534999463        1.5894655561       12.7068849326
Ru              -0.0000000972        1.6249821484       16.0555532633
Ru               1.5535000407        4.7890480663       15.9472174929
O                0.0000000000        4.7644854900       10.7677372100    0   0   0
O                0.0000000000        4.7644854900        8.2902047600    0   0   0
O                1.5535000000        0.3493956000        9.5289709800    0   0   0
O                1.5535000000        2.8269280600        9.5289709800    0   0   0
O               -0.0000000896        1.5680105141       13.9792617230
O                0.0000000000        1.5881618300       11.4665284200    0   0   0
O                1.5534999518        3.5332765978       12.7182632795
O                1.5535000067        6.0016027793       12.6938946977
O                0.0000000250        4.7562585911       17.0511003367
O                0.0000000675        4.8225631103       14.6479134535
O                1.5534999497        0.4006405514       15.9290222879
O                1.5534999446        2.8372843693       15.7965721320
O                0.0000000167        1.7665423304       17.7484417389



     Writing config-only to output data dir ./tmp_s0_O__1x1_off/s0_O__1x1_off.save/ :
     XML data file
     NEW-OLD atomic charge density approx. for the potential

     negative rho (up, down):  1.102E-04 0.000E+00

     total cpu time spent up to now is    16159.5 secs

     per-process dynamical memory:  1113.7 Mb

     Self-consistent Calculation

     iteration #  1     ecut=    80.00 Ry     beta= 0.30
     Davidson diagonalization with overlap
     ethr =  1.00E-06,  avg # of iterations =  3.0

     Threshold (ethr) on eigenvalues was too large:
     Diagonalizing with lowered threshold

     Davidson diagonalization with overlap
     ethr =  2.13E-08,  avg # of iterations =  3.0

     negative rho (up, down):  1.136E-04 0.000E+00

     total cpu time spent up to now is    16426.0 secs

     total energy              =   -1672.25448359 Ry
     estimated scf accuracy    <       0.00003787 Ry

     iteration #  2     ecut=    80.00 Ry     beta= 0.30
     Davidson diagonalization with overlap
     ethr =  2.18E-08,  avg # of iterations =  1.1

     negative rho (up, down):  1.149E-04 0.000E+00

     total cpu time spent up to now is    16529.1 secs

     total energy              =   -1672.25448325 Ry
     estimated scf accuracy    <       0.00002607 Ry

     iteration #  3     ecut=    80.00 Ry     beta= 0.30
     Davidson diagonalization with overlap
     ethr =  1.50E-08,  avg # of iterations =  1.0

     negative rho (up, down):  1.197E-04 0.000E+00

     total cpu time spent up to now is    16629.2 secs

     total energy              =   -1672.25448107 Ry
     estimated scf accuracy    <       0.00001136 Ry

     iteration #  4     ecut=    80.00 Ry     beta= 0.30
     Davidson diagonalization with overlap
     ethr =  6.53E-09,  avg # of iterations =  2.0

     negative rho (up, down):  1.234E-04 0.000E+00

     total cpu time spent up to now is    16727.2 secs

     total energy              =   -1672.25448105 Ry
     estimated scf accuracy    <       0.00000278 Ry

     iteration #  5     ecut=    80.00 Ry     beta= 0.30
     Davidson diagonalization with overlap
     ethr =  1.60E-09,  avg # of iterations =  2.4

     negative rho (up, down):  1.248E-04 0.000E+00

     total cpu time spent up to now is    16829.3 secs

     total energy              =   -1672.25448123 Ry
     estimated scf accuracy    <       0.00000034 Ry

     iteration #  6     ecut=    80.00 Ry     beta= 0.30
     Davidson diagonalization with overlap
     ethr =  1.96E-10,  avg # of iterations =  3.2

     negative rho (up, down):  1.258E-04 0.000E+00

     total cpu time spent up to now is    16935.3 secs

     total energy              =   -1672.25448125 Ry
     estimated scf accuracy    <       0.00000021 Ry

     iteration #  7     ecut=    80.00 Ry     beta= 0.30
     Davidson diagonalization with overlap
     ethr =  1.19E-10,  avg # of iterations =  1.3

     negative rho (up, down):  1.269E-04 0.000E+00

     total cpu time spent up to now is    17028.4 secs

     total energy              =   -1672.25448125 Ry
     estimated scf accuracy    <       0.00000008 Ry

     iteration #  8     ecut=    80.00 Ry     beta= 0.30
     Davidson diagonalization with overlap
     ethr =  4.59E-11,  avg # of iterations =  1.8

     negative rho (up, down):  1.262E-04 0.000E+00

     total cpu time spent up to now is    17124.3 secs

     total energy              =   -1672.25448126 Ry
     estimated scf accuracy    <       0.00000002 Ry

     iteration #  9     ecut=    80.00 Ry     beta= 0.30
     Davidson diagonalization with overlap
     ethr =  1.31E-11,  avg # of iterations =  3.0

     negative rho (up, down):  1.247E-04 0.000E+00

     total cpu time spent up to now is    17225.2 secs

     total energy              =   -1672.25448126 Ry
     estimated scf accuracy    <       0.00000001 Ry

     iteration # 10     ecut=    80.00 Ry     beta= 0.30
     Davidson diagonalization with overlap
     ethr =  6.87E-12,  avg # of iterations =  1.2

     negative rho (up, down):  1.102E-04 0.000E+00

     total cpu time spent up to now is    17313.0 secs

     End of self-consistent calculation

          k = 0.0000 0.0000 0.0000 ( 40831 PWs)   bands (ev):

   -73.4783 -72.7725 -72.5356 -72.3722 -72.3513 -72.0663 -44.0316 -43.2836
   -43.0892 -42.8455 -42.7446 -42.7031 -42.6515 -42.6205 -42.6163 -42.4057
   -42.3962 -42.2936 -42.2364 -42.2190 -42.1885 -42.1679 -41.9602 -41.9218
   -18.9271 -18.7015 -18.4932 -18.2366 -17.9829 -17.8447 -17.4008 -17.2008
   -17.1668 -17.0765 -16.9057 -16.7721 -16.1284  -7.4325  -7.2443  -7.2336
    -6.6292  -6.4479  -6.0093  -5.7688  -5.7674  -5.7012  -5.6306  -5.5411
    -5.4961  -5.3137  -5.1924  -4.5837  -4.1733  -3.5602  -3.3963  -3.1914
    -3.0788  -2.9593  -2.9309  -2.7924  -2.7172  -2.6716  -2.6713  -2.5025
    -2.3688  -2.2621  -2.1842  -2.0008  -1.9451  -1.6748  -1.4668  -1.4214
    -1.2484  -1.1733  -0.7471  -0.7186  -0.5391  -0.5186  -0.2276  -0.2088
    -0.1492  -0.1424   0.2639   0.3387   0.4518   0.5238   0.9887   1.1132
     1.2255   1.4282   1.7591   2.0255   2.2279   2.2843   2.7035   3.5276
     4.2192   4.7107   5.0536   5.2198   5.4239   5.5079   5.7171   5.7705

          k = 0.0000 0.1223 0.0000 ( 40974 PWs)   bands (ev):

   -73.4783 -72.7726 -72.5356 -72.3721 -72.3514 -72.0663 -44.0316 -43.2836
   -43.0863 -42.8485 -42.7446 -42.7021 -42.6515 -42.6188 -42.6163 -42.4056
   -42.3962 -42.2937 -42.2364 -42.2184 -42.1891 -42.1698 -41.9603 -41.9230
   -18.8065 -18.5698 -18.3708 -18.2840 -17.9983 -17.8760 -17.4152 -17.3309
   -17.2930 -17.2572 -16.8849 -16.7832 -16.1255  -7.0177  -6.7996  -6.7709
    -6.6207  -6.4364  -5.9393  -5.7653  -5.6499  -5.6219  -5.5497  -5.4923
    -5.4605  -5.3127  -5.0010  -4.6246  -4.2280  -4.0347  -3.7696  -3.6040
    -3.5427  -3.4176  -3.2630  -2.9091  -2.8787  -2.8659  -2.7516  -2.6879
    -2.5773  -2.3852  -2.2130  -2.1619  -2.0920  -1.7174  -1.6474  -1.6069
    -1.3588  -1.1401  -0.9094  -0.7068  -0.0720  -0.0550   0.1343   0.2483
     0.3374   0.3801   0.4138   0.5098   0.5326   0.6079   0.9774   1.0705
     1.2921   1.4729   1.7590   1.8266   2.0254   2.3598   2.5797   3.9184
     4.6397   4.8149   4.8926   5.2200   5.4325   5.4603   5.4993   5.5399

          k = 0.0000-0.2445 0.0000 ( 41014 PWs)   bands (ev):

   -73.4783 -72.7726 -72.5356 -72.3720 -72.3514 -72.0663 -44.0316 -43.2836
   -43.0834 -42.8516 -42.7446 -42.7011 -42.6515 -42.6172 -42.6161 -42.4056
   -42.3961 -42.2937 -42.2364 -42.2177 -42.1897 -42.1718 -41.9603 -41.9242
   -18.5587 -18.5047 -18.3352 -18.1258 -18.0772 -17.9688 -17.5039 -17.4790
   -17.4375 -17.3716 -16.8559 -16.8075 -16.1232  -6.6746  -6.4755  -6.3554
    -6.0315  -5.9830  -5.8619  -5.7623  -5.6227  -5.5409  -5.4771  -5.4638
    -5.3061  -5.0605  -4.9363  -4.6162  -4.6046  -4.4988  -4.4855  -4.3490
    -4.2880  -3.6687  -3.4926  -3.3480  -3.1477  -3.1221  -2.9932  -2.7118
    -2.5841  -2.4756  -2.2277  -2.1263  -1.9691  -1.7136  -1.6485  -1.4093
    -1.1938  -1.0945  -0.9983  -0.9898   0.1871   0.1992   0.2748   0.3906
     0.5028   0.6649   0.7957   0.8100   0.8781   0.9125   1.0397   1.1119
     1.2058   1.5445   1.5500   1.5937   2.0090   2.1129   2.7089   4.3425
     4.5495   4.8313   5.1798   5.1833   5.2210   5.2477   5.5169   5.6651

          k = 0.0000-0.1223 0.0000 ( 40974 PWs)   bands (ev):

   -73.4783 -72.7726 -72.5356 -72.3721 -72.3514 -72.0663 -44.0316 -43.2836
   -43.0863 -42.8485 -42.7446 -42.7021 -42.6515 -42.6188 -42.6163 -42.4056
   -42.3962 -42.2937 -42.2364 -42.2184 -42.1891 -42.1698 -41.9603 -41.9230
   -18.8065 -18.5698 -18.3708 -18.2840 -17.9983 -17.8760 -17.4152 -17.3309
   -17.2930 -17.2572 -16.8849 -16.7832 -16.1255  -7.0177  -6.7996  -6.7709
    -6.6207  -6.4364  -5.9393  -5.7653  -5.6499  -5.6219  -5.5497  -5.4923
    -5.4605  -5.3127  -5.0010  -4.6246  -4.2280  -4.0347  -3.7696  -3.6040
    -3.5427  -3.4176  -3.2630  -2.9091  -2.8787  -2.8659  -2.7516  -2.6879
    -2.5773  -2.3852  -2.2130  -2.1619  -2.0920  -1.7174  -1.6474  -1.6069
    -1.3588  -1.1401  -0.9094  -0.7068  -0.0720  -0.0550   0.1343   0.2483
     0.3374   0.3801   0.4138   0.5098   0.5326   0.6079   0.9774   1.0705
     1.2921   1.4729   1.7590   1.8266   2.0254   2.3598   2.5797   3.9184
     4.6397   4.8149   4.8926   5.2200   5.4325   5.4603   5.4993   5.5399

          k = 0.1250 0.0000 0.0000 ( 40851 PWs)   bands (ev):

   -73.4768 -72.7710 -72.5341 -72.3706 -72.3498 -72.0648 -44.0299 -43.3091
   -43.0841 -42.8445 -42.7732 -42.7011 -42.6468 -42.6182 -42.6142 -42.4222
   -42.4016 -42.2908 -42.2457 -42.2335 -42.2142 -42.1638 -41.9876 -41.9174
   -18.7988 -18.5848 -18.3842 -18.1508 -17.9062 -17.7657 -17.4096 -17.2770
   -17.2440 -17.1570 -16.9470 -16.8247 -16.1693  -7.2492  -7.0678  -7.0548
    -6.4523  -6.4324  -6.0500  -5.8124  -5.7598  -5.6340  -5.5795  -5.4668
    -5.2117  -5.0377  -4.9780  -4.4241  -4.0844  -4.0314  -3.4403  -3.2788
    -3.2450  -3.1549  -3.0753  -3.0601  -2.9058  -2.7450  -2.7215  -2.5702
    -2.4755  -2.3322  -2.1776  -2.1511  -2.0741  -2.0523  -1.8694  -1.7174
    -1.5776  -1.1059  -1.0676  -0.7017  -0.4258  -0.2387   0.0193   0.0563
     0.1434   0.3305   0.4568   0.5179   0.6812   0.6973   1.1482   1.2020
     1.3313   1.4390   1.6356   1.8734   2.1431   2.3613   2.5609   3.7074
     4.3401   4.7628   4.7777   4.8998   5.0545   5.3580   5.3995   5.4567

          k = 0.1250 0.1223 0.0000 ( 40932 PWs)   bands (ev):

   -73.4768 -72.7710 -72.5341 -72.3706 -72.3498 -72.0648 -44.0299 -43.3092
   -43.0817 -42.8470 -42.7732 -42.7003 -42.6468 -42.6170 -42.6142 -42.4222
   -42.4015 -42.2909 -42.2450 -42.2335 -42.2150 -42.1651 -41.9875 -41.9184
   -18.6848 -18.4597 -18.2640 -18.1971 -17.9080 -17.8035 -17.4450 -17.3929
   -17.3416 -17.3245 -16.9269 -16.8371 -16.1669  -6.8488  -6.6510  -6.6145
    -6.4564  -6.4106  -5.9549  -5.7729  -5.6957  -5.6500  -5.5326  -5.2601
    -5.2072  -5.0391  -4.8525  -4.4609  -4.2121  -4.0190  -3.9964  -3.7008
    -3.4703  -3.4406  -3.3594  -3.3257  -3.1868  -3.1305  -3.0591  -2.8240
    -2.6351  -2.5237  -2.3298  -2.2065  -2.0741  -2.0000  -1.7478  -1.5571
    -1.4285  -1.0750  -0.9919  -0.7933  -0.0653   0.1711   0.1925   0.2655
     0.3766   0.4381   0.6646   0.7421   0.7942   0.8803   1.1418   1.2238
     1.3555   1.4634   1.6674   1.7162   1.9230   2.3116   2.5803   4.0217
     4.4063   4.7422   4.8359   4.8693   5.0020   5.1982   5.2615   5.3742

          k = 0.1250-0.2445 0.0000 ( 40974 PWs)   bands (ev):

   -73.4768 -72.7710 -72.5341 -72.3705 -72.3499 -72.0648 -44.0299 -43.3093
   -43.0792 -42.8495 -42.7732 -42.6996 -42.6468 -42.6157 -42.6141 -42.4222
   -42.4015 -42.2909 -42.2443 -42.2336 -42.2159 -42.1665 -41.9874 -41.9193
   -18.4515 -18.3962 -18.2285 -18.0343 -17.9811 -17.8895 -17.5666 -17.5469
   -17.4849 -17.3781 -16.8927 -16.8671 -16.1650  -6.4919  -6.4595  -6.1377
    -5.9381  -5.8412  -5.7670  -5.7575  -5.6877  -5.6538  -5.6382  -5.2476
    -5.0651  -4.8947  -4.7817  -4.6408  -4.4780  -4.3238  -4.1678  -4.1407
    -4.1027  -4.0014  -3.8735  -3.7920  -3.4727  -3.3709  -3.2756  -2.8599
    -2.7255  -2.6322  -2.3148  -2.2352  -1.9396  -1.7713  -1.5581  -1.4050
    -1.1571  -1.0931  -1.0087  -0.9884   0.1841   0.1969   0.2915   0.3946
     0.5300   0.5864   0.7867   1.1041   1.1256   1.1341   1.2058   1.2519
     1.4025   1.4239   1.5302   1.6485   1.9233   1.9955   2.7272   4.0832
     4.4320   4.5513   4.7187   4.8480   5.0753   5.1113   5.2983   5.4324

          k = 0.1250-0.1223 0.0000 ( 40932 PWs)   bands (ev):

   -73.4768 -72.7710 -72.5341 -72.3706 -72.3498 -72.0648 -44.0299 -43.3092
   -43.0817 -42.8470 -42.7732 -42.7003 -42.6468 -42.6170 -42.6142 -42.4222
   -42.4015 -42.2909 -42.2450 -42.2335 -42.2150 -42.1651 -41.9875 -41.9184
   -18.6848 -18.4597 -18.2640 -18.1971 -17.9080 -17.8035 -17.4450 -17.3929
   -17.3416 -17.3245 -16.9269 -16.8371 -16.1669  -6.8488  -6.6510  -6.6145
    -6.4564  -6.4106  -5.9549  -5.7729  -5.6957  -5.6500  -5.5326  -5.2601
    -5.2072  -5.0391  -4.8525  -4.4609  -4.2121  -4.0190  -3.9964  -3.7008
    -3.4703  -3.4406  -3.3594  -3.3257  -3.1868  -3.1305  -3.0591  -2.8240
    -2.6351  -2.5237  -2.3298  -2.2065  -2.0741  -2.0000  -1.7478  -1.5571
    -1.4285  -1.0750  -0.9919  -0.7933  -0.0653   0.1711   0.1925   0.2655
     0.3766   0.4381   0.6646   0.7421   0.7942   0.8803   1.1418   1.2238
     1.3555   1.4634   1.6674   1.7162   1.9230   2.3116   2.5803   4.0217
     4.4063   4.7422   4.8359   4.8693   5.0020   5.1982   5.2615   5.3742

          k = 0.2500 0.0000 0.0000 ( 40947 PWs)   bands (ev):

   -73.4733 -72.7671 -72.5305 -72.3670 -72.3461 -72.0610 -44.0257 -43.3703
   -43.0717 -42.8422 -42.8414 -42.6962 -42.6356 -42.6127 -42.6097 -42.4842
   -42.3917 -42.3098 -42.2917 -42.2688 -42.2261 -42.1539 -42.0530 -41.9067
   -18.4732 -18.2959 -18.1156 -17.9796 -17.7828 -17.5663 -17.4669 -17.4320
   -17.4130 -17.3456 -17.0672 -16.8644 -16.2212  -6.7791  -6.6201  -6.5850
    -6.2532  -5.9954  -5.9805  -5.8590  -5.8109  -5.4763  -5.4428  -5.0487
    -4.9859  -4.6452  -4.5333  -4.5127  -4.3327  -4.1402  -4.0287  -3.9874
    -3.7532  -3.6737  -3.3400  -3.1979  -3.1162  -3.0146  -2.8567  -2.7993
    -2.6927  -2.4827  -2.3974  -2.2276  -2.2070  -2.1087  -2.0510  -1.6123
    -1.4548  -1.2613  -1.2000  -0.9701  -0.2210  -0.1153   0.1766   0.4465
     0.5147   0.5841   0.7987   0.9711   1.0643   1.1632   1.2010   1.3276
     1.3643   1.4664   1.4970   1.6112   1.8539   2.1793   2.4935   3.9526
     4.1737   4.2299   4.4058   4.6650   4.7380   4.8053   4.8786   4.9619

          k = 0.2500 0.1223 0.0000 ( 40905 PWs)   bands (ev):

   -73.4733 -72.7671 -72.5305 -72.3669 -72.3462 -72.0610 -44.0257 -43.3706
   -43.0704 -42.8436 -42.8411 -42.6960 -42.6356 -42.6127 -42.6097 -42.4842
   -42.3917 -42.3087 -42.2921 -42.2692 -42.2261 -42.1544 -42.0527 -41.9071
   -18.3866 -18.2010 -18.0230 -18.0142 -17.7743 -17.6447 -17.5457 -17.5028
   -17.4628 -17.3913 -17.0575 -16.8710 -16.2207  -6.4689  -6.3327  -6.2669
    -6.2200  -5.9916  -5.8688  -5.8218  -5.6483  -5.5697  -5.3665  -5.1087
    -4.8033  -4.7368  -4.6625  -4.5062  -4.4534  -4.3563  -4.2335  -4.1408
    -3.9981  -3.5695  -3.5087  -3.3560  -3.2034  -3.1828  -3.0193  -2.9279
    -2.7767  -2.6573  -2.4406  -2.2615  -2.1724  -2.1176  -1.9334  -1.6029
    -1.4244  -1.2563  -1.1658  -1.0265  -0.2158   0.1036   0.4163   0.4636
     0.5787   0.8323   0.8941   0.9664   1.0543   1.1383   1.2041   1.2615
     1.3599   1.5249   1.5932   1.6584   1.7903   2.0598   2.6101   3.7067
     4.0336   4.1406   4.2381   4.3748   4.6656   4.7784   5.2041   5.3534

          k = 0.2500-0.2445 0.0000 ( 40892 PWs)   bands (ev):

   -73.4733 -72.7671 -72.5305 -72.3669 -72.3462 -72.0610 -44.0257 -43.3710
   -43.0690 -42.8446 -42.8411 -42.6959 -42.6356 -42.6126 -42.6096 -42.4843
   -42.3916 -42.3075 -42.2925 -42.2695 -42.2261 -42.1549 -42.0523 -41.9076
   -18.2141 -18.1587 -17.9721 -17.9214 -17.7759 -17.7506 -17.6979 -17.6251
   -17.5132 -17.3908 -17.0477 -16.8787 -16.2203  -6.2741  -6.0352  -5.9565
    -5.8460  -5.7976  -5.7901  -5.6668  -5.5548  -5.3248  -5.3017  -5.2261
    -5.0021  -4.9965  -4.9609  -4.7813  -4.5889  -4.4902  -4.2444  -4.0462
    -3.8316  -3.7525  -3.6439  -3.6095  -3.5257  -3.5026  -3.2895  -3.2722
    -2.9270  -2.7886  -2.3852  -2.2430  -1.9513  -1.8742  -1.6700  -1.6139
    -1.3381  -1.3038  -1.1378  -1.1161   0.0001   0.0264   0.2674   0.5702
     0.5945   0.8627   1.0140   1.0921   1.1186   1.1387   1.2745   1.3800
     1.3959   1.5981   1.6505   1.7771   1.8148   1.9160   2.7022   3.3029
     3.7517   3.8350   4.0883   4.3660   4.6804   5.0689   5.3101   5.5880

          k = 0.2500-0.1223 0.0000 ( 40905 PWs)   bands (ev):

   -73.4733 -72.7671 -72.5305 -72.3669 -72.3462 -72.0610 -44.0257 -43.3706
   -43.0704 -42.8436 -42.8411 -42.6960 -42.6356 -42.6127 -42.6097 -42.4842
   -42.3917 -42.3087 -42.2921 -42.2692 -42.2261 -42.1544 -42.0527 -41.9071
   -18.3866 -18.2010 -18.0230 -18.0142 -17.7743 -17.6447 -17.5457 -17.5028
   -17.4628 -17.3913 -17.0575 -16.8710 -16.2207  -6.4689  -6.3327  -6.2669
    -6.2200  -5.9916  -5.8688  -5.8218  -5.6483  -5.5697  -5.3665  -5.1087
    -4.8033  -4.7368  -4.6625  -4.5062  -4.4534  -4.3563  -4.2335  -4.1408
    -3.9981  -3.5695  -3.5087  -3.3560  -3.2034  -3.1828  -3.0193  -2.9279
    -2.7767  -2.6573  -2.4406  -2.2615  -2.1724  -2.1176  -1.9334  -1.6029
    -1.4244  -1.2563  -1.1658  -1.0265  -0.2158   0.1036   0.4163   0.4636
     0.5787   0.8323   0.8941   0.9664   1.0543   1.1383   1.2041   1.2615
     1.3599   1.5249   1.5932   1.6584   1.7903   2.0598   2.6101   3.7067
     4.0336   4.1406   4.2381   4.3748   4.6656   4.7784   5.2041   5.3534

          k = 0.3750 0.0000 0.0000 ( 40852 PWs)   bands (ev):

   -73.4697 -72.7632 -72.5268 -72.3633 -72.3425 -72.0573 -44.0216 -43.4308
   -43.0591 -42.9087 -42.8400 -42.6912 -42.6250 -42.6073 -42.6059 -42.5445
   -42.3847 -42.3700 -42.3436 -42.2720 -42.2187 -42.1438 -42.1176 -41.8959
   -18.1241 -18.0014 -17.8756 -17.8447 -17.7456 -17.6374 -17.6022 -17.5292
   -17.4578 -17.4061 -17.0785 -16.8304 -16.1934  -6.3397  -6.1726  -6.0510
    -6.0268  -5.9046  -5.8488  -5.6547  -5.6193  -5.5022  -5.4050  -5.2075
    -5.0596  -4.8263  -4.7879  -4.5767  -4.4169  -4.3687  -4.2088  -3.9642
    -3.6546  -3.5004  -3.4119  -3.3804  -3.3312  -3.1645  -3.0919  -2.8152
    -2.6779  -2.5969  -2.4436  -2.2776  -2.2174  -2.0339  -1.9519  -1.5173
    -1.3843  -1.3811  -1.2336  -0.9730  -0.1537   0.0168   0.2711   0.4736
     0.5810   0.6621   0.7642   0.7751   0.8634   1.0276   1.1605   1.2168
     1.3795   1.5238   1.6530   1.7838   1.9655   2.1481   2.3681   3.4222
     3.8022   4.0612   4.2725   4.3825   4.4822   4.5423   4.7818   4.9397

          k = 0.3750 0.1223 0.0000 ( 40842 PWs)   bands (ev):

   -73.4697 -72.7632 -72.5268 -72.3633 -72.3425 -72.0573 -44.0216 -43.4313
   -43.0591 -42.9082 -42.8399 -42.6918 -42.6251 -42.6088 -42.6057 -42.5446
   -42.3843 -42.3686 -42.3441 -42.2720 -42.2187 -42.1437 -42.1169 -41.8959
   -18.1042 -18.0013 -17.9379 -17.8793 -17.8134 -17.6318 -17.5360 -17.4802
   -17.4512 -17.3928 -17.0777 -16.8342 -16.1937  -6.2172  -6.1221  -6.0946
    -6.0482  -5.9605  -5.7629  -5.6574  -5.6018  -5.5193  -5.4732  -5.3550
    -5.0408  -4.7734  -4.7047  -4.5377  -4.4583  -4.2863  -4.0405  -3.8555
    -3.6410  -3.5636  -3.3475  -3.3026  -3.2320  -3.1425  -3.0439  -2.8756
    -2.7370  -2.6108  -2.5033  -2.2865  -2.1833  -2.0599  -1.9384  -1.6238
    -1.5457  -1.4048  -1.2627  -1.1243  -0.1294  -0.0781   0.1964   0.2403
     0.5369   0.6024   0.6343   0.7574   0.8079   0.9245   0.9525   1.2212
     1.6708   1.7410   1.8295   1.8786   2.0310   2.0562   2.4784   3.1703
     3.4834   3.6516   3.7499   4.1021   4.2904   5.1320   5.4542   5.5715

          k = 0.3750-0.2445 0.0000 ( 40856 PWs)   bands (ev):

   -73.4697 -72.7632 -72.5268 -72.3633 -72.3425 -72.0573 -44.0216 -43.4319
   -43.0592 -42.9077 -42.8398 -42.6923 -42.6251 -42.6103 -42.6057 -42.5447
   -42.3840 -42.3671 -42.3446 -42.2720 -42.2187 -42.1435 -42.1161 -41.8959
   -18.0564 -18.0321 -17.9932 -17.9055 -17.8518 -17.6380 -17.4856 -17.4632
   -17.4267 -17.3802 -17.0768 -16.8382 -16.1939  -6.2534  -6.0767  -5.9290
    -5.9205  -5.8552  -5.8240  -5.7597  -5.6864  -5.6726  -5.5595  -5.4139
    -4.9351  -4.7908  -4.5469  -4.5004  -4.2913  -4.1948  -4.0679  -3.7351
    -3.5439  -3.4407  -3.4071  -3.2882  -3.2680  -3.1560  -3.1164  -2.9763
    -2.7747  -2.7335  -2.3622  -2.2206  -2.1518  -2.0327  -1.8973  -1.8466
    -1.5800  -1.4331  -1.2815  -1.2532  -0.3270  -0.2633  -0.0961   0.3151
     0.4359   0.5994   0.6734   0.7660   0.8194   0.8762   1.0090   1.2072
     1.5684   1.7973   1.9593   1.9861   2.1124   2.2084   2.5764   2.7617
     3.2150   3.3183   3.5161   4.1265   4.2927   5.5114   5.5991   5.8141

          k = 0.3750-0.1223 0.0000 ( 40842 PWs)   bands (ev):

   -73.4697 -72.7632 -72.5268 -72.3633 -72.3425 -72.0573 -44.0216 -43.4313
   -43.0591 -42.9082 -42.8399 -42.6918 -42.6251 -42.6088 -42.6057 -42.5446
   -42.3843 -42.3686 -42.3441 -42.2720 -42.2187 -42.1437 -42.1169 -41.8959
   -18.1042 -18.0013 -17.9379 -17.8793 -17.8134 -17.6318 -17.5360 -17.4802
   -17.4512 -17.3928 -17.0777 -16.8342 -16.1937  -6.2172  -6.1221  -6.0946
    -6.0482  -5.9605  -5.7629  -5.6574  -5.6018  -5.5193  -5.4732  -5.3550
    -5.0408  -4.7734  -4.7047  -4.5377  -4.4583  -4.2863  -4.0405  -3.8555
    -3.6410  -3.5636  -3.3475  -3.3026  -3.2320  -3.1425  -3.0439  -2.8756
    -2.7370  -2.6108  -2.5033  -2.2865  -2.1833  -2.0599  -1.9384  -1.6238
    -1.5457  -1.4048  -1.2627  -1.1243  -0.1294  -0.0781   0.1964   0.2403
     0.5369   0.6024   0.6343   0.7574   0.8079   0.9245   0.9525   1.2212
     1.6708   1.7410   1.8295   1.8786   2.0310   2.0562   2.4784   3.1703
     3.4834   3.6516   3.7499   4.1021   4.2904   5.1320   5.4542   5.5715

          k =-0.5000 0.0000 0.0000 ( 40876 PWs)   bands (ev):

   -73.4682 -72.7616 -72.5253 -72.3618 -72.3409 -72.0557 -44.0198 -43.4557
   -43.0538 -42.9364 -42.8392 -42.6892 -42.6221 -42.6050 -42.6041 -42.5681
   -42.4015 -42.3751 -42.3687 -42.2696 -42.2157 -42.1440 -42.1397 -41.8914
   -18.0112 -17.8534 -17.8318 -17.7857 -17.7115 -17.6967 -17.6698 -17.6010
   -17.4762 -17.4003 -17.0078 -16.8036 -16.1569  -6.3264  -6.1509  -5.9869
    -5.7896  -5.7649  -5.6957  -5.5883  -5.5494  -5.5277  -5.4251  -5.3212
    -5.1576  -5.0337  -4.9038  -4.7318  -4.5023  -4.0724  -3.8129  -3.7905
    -3.6862  -3.6815  -3.6801  -3.5656  -3.4153  -2.9689  -2.8544  -2.7112
    -2.6145  -2.4876  -2.4692  -2.3687  -2.1596  -1.9839  -1.8317  -1.7158
    -1.6126  -1.2491  -1.1175  -0.9035  -0.2047   0.0794   0.0796   0.4619
     0.5462   0.5694   0.6290   0.6628   0.7222   0.7864   1.0294   1.1568
     1.3212   1.5057   1.8476   1.9269   2.1482   2.2563   2.3209   3.2027
     3.6517   4.0174   4.2115   4.2505   4.3645   4.5516   4.7584   4.9094

          k =-0.5000 0.1223 0.0000 ( 40858 PWs)   bands (ev):

   -73.4682 -72.7616 -72.5253 -72.3618 -72.3409 -72.0557 -44.0198 -43.4563
   -43.0546 -42.9356 -42.8385 -42.6900 -42.6221 -42.6074 -42.6039 -42.5683
   -42.3994 -42.3750 -42.3691 -42.2696 -42.2157 -42.1431 -42.1392 -41.8912
   -18.0045 -17.9659 -17.9578 -17.9108 -17.8570 -17.5427 -17.4753 -17.4707
   -17.4280 -17.4007 -17.0096 -16.8061 -16.1564  -6.2777  -6.2321  -6.1139
    -6.1090  -6.0020  -5.7554  -5.6659  -5.6282  -5.6121  -5.4175  -5.1799
    -5.0879  -4.8358  -4.5807  -4.4102  -4.1149  -3.8698  -3.8311  -3.7962
    -3.7587  -3.6449  -3.6354  -3.6090  -3.0081  -2.9504  -2.8174  -2.6254
    -2.6056  -2.5197  -2.5008  -2.2739  -2.1844  -2.1364  -1.8389  -1.6601
    -1.6253  -1.4975  -1.3048  -1.0899  -0.1971  -0.0387   0.0313   0.0849
     0.2029   0.4464   0.4899   0.5621   0.5886   0.6287   0.7441   1.1733
     1.8270   1.8460   2.0065   2.0133   2.1812   2.2007   2.4046   3.0059
     3.2499   3.4525   3.5777   4.0461   4.2142   5.3306   5.5976   5.6391

          k =-0.5000-0.2445 0.0000 ( 40872 PWs)   bands (ev):

   -73.4682 -72.7616 -72.5253 -72.3618 -72.3409 -72.0557 -44.0198 -43.4569
   -43.0553 -42.9348 -42.8378 -42.6908 -42.6221 -42.6096 -42.6038 -42.5684
   -42.3973 -42.3748 -42.3695 -42.2696 -42.2157 -42.1422 -42.1388 -41.8911
   -18.0491 -18.0411 -18.0017 -17.9974 -17.8611 -17.4741 -17.4617 -17.4012
   -17.3710 -17.3305 -17.0113 -16.8086 -16.1559  -6.4844  -6.2797  -6.2021
    -6.0962  -6.0770  -5.7679  -5.6812  -5.6776  -5.6423  -5.4992  -5.1797
    -5.0430  -4.9577  -4.1832  -4.1123  -3.9048  -3.8755  -3.8164  -3.5959
    -3.5911  -3.5235  -3.4226  -3.2349  -3.2070  -2.8977  -2.8563  -2.8067
    -2.6670  -2.4161  -2.3167  -2.2034  -2.1506  -1.9322  -1.9174  -1.7944
    -1.7555  -1.7211  -1.5838  -1.2685  -0.5129  -0.2321  -0.1922   0.0031
     0.1085   0.1690   0.4519   0.4690   0.5985   0.6277   0.7584   1.2096
     1.7435   1.9193   2.0724   2.1185   2.3551   2.3666   2.4596   2.6162
     3.0682   3.1901   3.2858   4.0729   4.2162   5.7196   5.7858   5.8258

          k =-0.5000-0.1223 0.0000 ( 40858 PWs)   bands (ev):

   -73.4682 -72.7616 -72.5253 -72.3618 -72.3409 -72.0557 -44.0198 -43.4563
   -43.0546 -42.9356 -42.8385 -42.6900 -42.6221 -42.6074 -42.6039 -42.5683
   -42.3994 -42.3750 -42.3691 -42.2696 -42.2157 -42.1431 -42.1392 -41.8912
   -18.0045 -17.9659 -17.9578 -17.9108 -17.8570 -17.5427 -17.4753 -17.4707
   -17.4280 -17.4007 -17.0096 -16.8061 -16.1564  -6.2777  -6.2321  -6.1139
    -6.1090  -6.0020  -5.7554  -5.6659  -5.6282  -5.6121  -5.4175  -5.1799
    -5.0879  -4.8358  -4.5807  -4.4102  -4.1149  -3.8698  -3.8311  -3.7962
    -3.7587  -3.6449  -3.6354  -3.6090  -3.0081  -2.9504  -2.8174  -2.6254
    -2.6056  -2.5197  -2.5008  -2.2739  -2.1844  -2.1364  -1.8389  -1.6601
    -1.6253  -1.4975  -1.3048  -1.0899  -0.1971  -0.0387   0.0313   0.0849
     0.2029   0.4464   0.4899   0.5621   0.5886   0.6287   0.7441   1.1733
     1.8270   1.8460   2.0065   2.0133   2.1812   2.2007   2.4046   3.0059
     3.2499   3.4525   3.5777   4.0461   4.2142   5.3306   5.5976   5.6391

          k =-0.3750 0.0000 0.0000 ( 40852 PWs)   bands (ev):

   -73.4697 -72.7632 -72.5268 -72.3633 -72.3425 -72.0573 -44.0216 -43.4308
   -43.0591 -42.9087 -42.8400 -42.6912 -42.6250 -42.6073 -42.6059 -42.5445
   -42.3847 -42.3700 -42.3436 -42.2720 -42.2187 -42.1438 -42.1176 -41.8959
   -18.1241 -18.0014 -17.8756 -17.8447 -17.7456 -17.6374 -17.6022 -17.5292
   -17.4578 -17.4061 -17.0785 -16.8304 -16.1934  -6.3397  -6.1726  -6.0510
    -6.0268  -5.9046  -5.8488  -5.6547  -5.6193  -5.5022  -5.4050  -5.2075
    -5.0596  -4.8263  -4.7879  -4.5767  -4.4169  -4.3687  -4.2088  -3.9642
    -3.6546  -3.5004  -3.4119  -3.3804  -3.3312  -3.1645  -3.0919  -2.8152
    -2.6779  -2.5969  -2.4436  -2.2776  -2.2174  -2.0339  -1.9519  -1.5173
    -1.3843  -1.3811  -1.2336  -0.9730  -0.1537   0.0168   0.2711   0.4736
     0.5810   0.6621   0.7642   0.7751   0.8634   1.0276   1.1605   1.2168
     1.3795   1.5238   1.6530   1.7838   1.9655   2.1481   2.3681   3.4222
     3.8022   4.0612   4.2725   4.3825   4.4822   4.5423   4.7818   4.9397

          k =-0.3750 0.1223 0.0000 ( 40842 PWs)   bands (ev):

   -73.4697 -72.7632 -72.5268 -72.3633 -72.3425 -72.0573 -44.0216 -43.4313
   -43.0591 -42.9082 -42.8399 -42.6918 -42.6251 -42.6088 -42.6057 -42.5446
   -42.3843 -42.3686 -42.3441 -42.2720 -42.2187 -42.1437 -42.1169 -41.8959
   -18.1042 -18.0013 -17.9379 -17.8793 -17.8134 -17.6318 -17.5360 -17.4802
   -17.4512 -17.3928 -17.0777 -16.8342 -16.1937  -6.2172  -6.1221  -6.0946
    -6.0482  -5.9605  -5.7629  -5.6574  -5.6018  -5.5193  -5.4732  -5.3550
    -5.0408  -4.7734  -4.7047  -4.5377  -4.4583  -4.2863  -4.0405  -3.8555
    -3.6410  -3.5636  -3.3475  -3.3026  -3.2320  -3.1425  -3.0439  -2.8756
    -2.7370  -2.6108  -2.5033  -2.2865  -2.1833  -2.0599  -1.9384  -1.6238
    -1.5457  -1.4048  -1.2627  -1.1243  -0.1294  -0.0781   0.1964   0.2403
     0.5369   0.6024   0.6343   0.7574   0.8079   0.9245   0.9525   1.2212
     1.6708   1.7410   1.8295   1.8786   2.0310   2.0562   2.4784   3.1703
     3.4834   3.6516   3.7499   4.1021   4.2904   5.1320   5.4542   5.5715

          k =-0.3750-0.2445 0.0000 ( 40856 PWs)   bands (ev):

   -73.4697 -72.7632 -72.5268 -72.3633 -72.3425 -72.0573 -44.0216 -43.4319
   -43.0592 -42.9077 -42.8398 -42.6923 -42.6251 -42.6103 -42.6057 -42.5447
   -42.3840 -42.3671 -42.3446 -42.2720 -42.2187 -42.1435 -42.1161 -41.8959
   -18.0564 -18.0321 -17.9932 -17.9055 -17.8518 -17.6380 -17.4856 -17.4632
   -17.4267 -17.3802 -17.0768 -16.8382 -16.1939  -6.2534  -6.0767  -5.9290
    -5.9205  -5.8552  -5.8240  -5.7597  -5.6864  -5.6726  -5.5595  -5.4139
    -4.9351  -4.7908  -4.5469  -4.5004  -4.2913  -4.1948  -4.0679  -3.7351
    -3.5439  -3.4407  -3.4071  -3.2882  -3.2680  -3.1560  -3.1164  -2.9763
    -2.7747  -2.7335  -2.3622  -2.2206  -2.1518  -2.0327  -1.8973  -1.8466
    -1.5800  -1.4331  -1.2815  -1.2532  -0.3270  -0.2633  -0.0961   0.3151
     0.4359   0.5994   0.6734   0.7660   0.8194   0.8762   1.0090   1.2072
     1.5684   1.7973   1.9593   1.9861   2.1124   2.2084   2.5764   2.7617
     3.2150   3.3183   3.5161   4.1265   4.2927   5.5114   5.5991   5.8141

          k =-0.3750-0.1223 0.0000 ( 40842 PWs)   bands (ev):

   -73.4697 -72.7632 -72.5268 -72.3633 -72.3425 -72.0573 -44.0216 -43.4313
   -43.0591 -42.9082 -42.8399 -42.6918 -42.6251 -42.6088 -42.6057 -42.5446
   -42.3843 -42.3686 -42.3441 -42.2720 -42.2187 -42.1437 -42.1169 -41.8959
   -18.1042 -18.0013 -17.9379 -17.8793 -17.8134 -17.6318 -17.5360 -17.4802
   -17.4512 -17.3928 -17.0777 -16.8342 -16.1937  -6.2172  -6.1221  -6.0946
    -6.0482  -5.9605  -5.7629  -5.6574  -5.6018  -5.5193  -5.4732  -5.3550
    -5.0408  -4.7734  -4.7047  -4.5377  -4.4583  -4.2863  -4.0405  -3.8555
    -3.6410  -3.5636  -3.3475  -3.3026  -3.2320  -3.1425  -3.0439  -2.8756
    -2.7370  -2.6108  -2.5033  -2.2865  -2.1833  -2.0599  -1.9384  -1.6238
    -1.5457  -1.4048  -1.2627  -1.1243  -0.1294  -0.0781   0.1964   0.2403
     0.5369   0.6024   0.6343   0.7574   0.8079   0.9245   0.9525   1.2212
     1.6708   1.7410   1.8295   1.8786   2.0310   2.0562   2.4784   3.1703
     3.4834   3.6516   3.7499   4.1021   4.2904   5.1320   5.4542   5.5715

          k =-0.2500 0.0000 0.0000 ( 40947 PWs)   bands (ev):

   -73.4733 -72.7671 -72.5305 -72.3670 -72.3461 -72.0610 -44.0257 -43.3703
   -43.0717 -42.8422 -42.8414 -42.6962 -42.6356 -42.6127 -42.6097 -42.4842
   -42.3917 -42.3098 -42.2917 -42.2688 -42.2261 -42.1539 -42.0530 -41.9067
   -18.4732 -18.2959 -18.1156 -17.9796 -17.7828 -17.5663 -17.4669 -17.4320
   -17.4130 -17.3456 -17.0672 -16.8644 -16.2212  -6.7791  -6.6201  -6.5850
    -6.2532  -5.9954  -5.9805  -5.8590  -5.8109  -5.4763  -5.4428  -5.0487
    -4.9859  -4.6452  -4.5333  -4.5127  -4.3327  -4.1402  -4.0287  -3.9874
    -3.7532  -3.6737  -3.3400  -3.1979  -3.1162  -3.0146  -2.8567  -2.7993
    -2.6927  -2.4827  -2.3974  -2.2276  -2.2070  -2.1087  -2.0510  -1.6123
    -1.4548  -1.2613  -1.2000  -0.9701  -0.2210  -0.1153   0.1766   0.4465
     0.5147   0.5841   0.7987   0.9711   1.0643   1.1632   1.2010   1.3276
     1.3643   1.4664   1.4970   1.6112   1.8539   2.1793   2.4935   3.9526
     4.1737   4.2299   4.4058   4.6650   4.7380   4.8053   4.8786   4.9619

          k =-0.2500 0.1223 0.0000 ( 40905 PWs)   bands (ev):

   -73.4733 -72.7671 -72.5305 -72.3669 -72.3462 -72.0610 -44.0257 -43.3706
   -43.0704 -42.8436 -42.8411 -42.6960 -42.6356 -42.6127 -42.6097 -42.4842
   -42.3917 -42.3087 -42.2921 -42.2692 -42.2261 -42.1544 -42.0527 -41.9071
   -18.3866 -18.2010 -18.0230 -18.0142 -17.7743 -17.6447 -17.5457 -17.5028
   -17.4628 -17.3913 -17.0575 -16.8710 -16.2207  -6.4689  -6.3327  -6.2669
    -6.2200  -5.9916  -5.8688  -5.8218  -5.6483  -5.5697  -5.3665  -5.1087
    -4.8033  -4.7368  -4.6625  -4.5062  -4.4534  -4.3563  -4.2335  -4.1408
    -3.9981  -3.5695  -3.5087  -3.3560  -3.2034  -3.1828  -3.0193  -2.9279
    -2.7767  -2.6573  -2.4406  -2.2615  -2.1724  -2.1176  -1.9334  -1.6029
    -1.4244  -1.2563  -1.1658  -1.0265  -0.2158   0.1036   0.4163   0.4636
     0.5787   0.8323   0.8941   0.9664   1.0543   1.1383   1.2041   1.2615
     1.3599   1.5249   1.5932   1.6584   1.7903   2.0598   2.6101   3.7067
     4.0336   4.1406   4.2381   4.3748   4.6656   4.7784   5.2041   5.3534

          k =-0.2500-0.2445 0.0000 ( 40892 PWs)   bands (ev):

   -73.4733 -72.7671 -72.5305 -72.3669 -72.3462 -72.0610 -44.0257 -43.3710
   -43.0690 -42.8446 -42.8411 -42.6959 -42.6356 -42.6126 -42.6096 -42.4843
   -42.3916 -42.3075 -42.2925 -42.2695 -42.2261 -42.1549 -42.0523 -41.9076
   -18.2141 -18.1587 -17.9721 -17.9214 -17.7759 -17.7506 -17.6979 -17.6251
   -17.5132 -17.3908 -17.0477 -16.8787 -16.2203  -6.2741  -6.0352  -5.9565
    -5.8460  -5.7976  -5.7901  -5.6668  -5.5548  -5.3248  -5.3017  -5.2261
    -5.0021  -4.9965  -4.9609  -4.7813  -4.5889  -4.4902  -4.2444  -4.0462
    -3.8316  -3.7525  -3.6439  -3.6095  -3.5257  -3.5026  -3.2895  -3.2722
    -2.9270  -2.7886  -2.3852  -2.2430  -1.9513  -1.8742  -1.6700  -1.6139
    -1.3381  -1.3038  -1.1378  -1.1161   0.0001   0.0264   0.2674   0.5702
     0.5945   0.8627   1.0140   1.0921   1.1186   1.1387   1.2745   1.3800
     1.3959   1.5981   1.6505   1.7771   1.8148   1.9160   2.7022   3.3029
     3.7517   3.8350   4.0883   4.3660   4.6804   5.0689   5.3101   5.5880

          k =-0.2500-0.1223 0.0000 ( 40905 PWs)   bands (ev):

   -73.4733 -72.7671 -72.5305 -72.3669 -72.3462 -72.0610 -44.0257 -43.3706
   -43.0704 -42.8436 -42.8411 -42.6960 -42.6356 -42.6127 -42.6097 -42.4842
   -42.3917 -42.3087 -42.2921 -42.2692 -42.2261 -42.1544 -42.0527 -41.9071
   -18.3866 -18.2010 -18.0230 -18.0142 -17.7743 -17.6447 -17.5457 -17.5028
   -17.4628 -17.3913 -17.0575 -16.8710 -16.2207  -6.4689  -6.3327  -6.2669
    -6.2200  -5.9916  -5.8688  -5.8218  -5.6483  -5.5697  -5.3665  -5.1087
    -4.8033  -4.7368  -4.6625  -4.5062  -4.4534  -4.3563  -4.2335  -4.1408
    -3.9981  -3.5695  -3.5087  -3.3560  -3.2034  -3.1828  -3.0193  -2.9279
    -2.7767  -2.6573  -2.4406  -2.2615  -2.1724  -2.1176  -1.9334  -1.6029
    -1.4244  -1.2563  -1.1658  -1.0265  -0.2158   0.1036   0.4163   0.4636
     0.5787   0.8323   0.8941   0.9664   1.0543   1.1383   1.2041   1.2615
     1.3599   1.5249   1.5932   1.6584   1.7903   2.0598   2.6101   3.7067
     4.0336   4.1406   4.2381   4.3748   4.6656   4.7784   5.2041   5.3534

          k =-0.1250 0.0000 0.0000 ( 40851 PWs)   bands (ev):

   -73.4768 -72.7710 -72.5341 -72.3706 -72.3498 -72.0648 -44.0299 -43.3091
   -43.0841 -42.8445 -42.7732 -42.7011 -42.6468 -42.6182 -42.6142 -42.4222
   -42.4016 -42.2908 -42.2457 -42.2335 -42.2142 -42.1638 -41.9876 -41.9174
   -18.7988 -18.5848 -18.3842 -18.1508 -17.9062 -17.7657 -17.4096 -17.2770
   -17.2440 -17.1570 -16.9470 -16.8247 -16.1693  -7.2492  -7.0678  -7.0548
    -6.4523  -6.4324  -6.0500  -5.8124  -5.7598  -5.6340  -5.5795  -5.4668
    -5.2117  -5.0377  -4.9780  -4.4241  -4.0844  -4.0314  -3.4403  -3.2788
    -3.2450  -3.1549  -3.0753  -3.0601  -2.9058  -2.7450  -2.7215  -2.5702
    -2.4755  -2.3322  -2.1776  -2.1511  -2.0741  -2.0523  -1.8694  -1.7174
    -1.5776  -1.1059  -1.0676  -0.7017  -0.4258  -0.2387   0.0193   0.0563
     0.1434   0.3305   0.4568   0.5179   0.6812   0.6973   1.1482   1.2020
     1.3313   1.4390   1.6356   1.8734   2.1431   2.3613   2.5609   3.7074
     4.3401   4.7628   4.7777   4.8998   5.0545   5.3580   5.3995   5.4567

          k =-0.1250 0.1223 0.0000 ( 40932 PWs)   bands (ev):

   -73.4768 -72.7710 -72.5341 -72.3706 -72.3498 -72.0648 -44.0299 -43.3092
   -43.0817 -42.8470 -42.7732 -42.7003 -42.6468 -42.6170 -42.6142 -42.4222
   -42.4015 -42.2909 -42.2450 -42.2335 -42.2150 -42.1651 -41.9875 -41.9184
   -18.6848 -18.4597 -18.2640 -18.1971 -17.9080 -17.8035 -17.4450 -17.3929
   -17.3416 -17.3245 -16.9269 -16.8371 -16.1669  -6.8488  -6.6510  -6.6145
    -6.4564  -6.4106  -5.9549  -5.7729  -5.6957  -5.6500  -5.5326  -5.2601
    -5.2072  -5.0391  -4.8525  -4.4609  -4.2121  -4.0190  -3.9964  -3.7008
    -3.4703  -3.4406  -3.3594  -3.3257  -3.1868  -3.1305  -3.0591  -2.8240
    -2.6351  -2.5237  -2.3298  -2.2065  -2.0741  -2.0000  -1.7478  -1.5571
    -1.4285  -1.0750  -0.9919  -0.7933  -0.0653   0.1711   0.1925   0.2655
     0.3766   0.4381   0.6646   0.7421   0.7942   0.8803   1.1418   1.2238
     1.3555   1.4634   1.6674   1.7162   1.9230   2.3116   2.5803   4.0217
     4.4063   4.7422   4.8359   4.8693   5.0020   5.1982   5.2615   5.3742

          k =-0.1250-0.2445 0.0000 ( 40974 PWs)   bands (ev):

   -73.4768 -72.7710 -72.5341 -72.3705 -72.3499 -72.0648 -44.0299 -43.3093
   -43.0792 -42.8495 -42.7732 -42.6996 -42.6468 -42.6157 -42.6141 -42.4222
   -42.4015 -42.2909 -42.2443 -42.2336 -42.2159 -42.1665 -41.9874 -41.9193
   -18.4515 -18.3962 -18.2285 -18.0343 -17.9811 -17.8895 -17.5666 -17.5469
   -17.4849 -17.3781 -16.8927 -16.8671 -16.1650  -6.4919  -6.4595  -6.1377
    -5.9381  -5.8412  -5.7670  -5.7575  -5.6877  -5.6538  -5.6382  -5.2476
    -5.0651  -4.8947  -4.7817  -4.6408  -4.4780  -4.3238  -4.1678  -4.1407
    -4.1027  -4.0014  -3.8735  -3.7920  -3.4727  -3.3709  -3.2756  -2.8599
    -2.7255  -2.6322  -2.3148  -2.2352  -1.9396  -1.7713  -1.5581  -1.4050
    -1.1571  -1.0931  -1.0087  -0.9884   0.1841   0.1969   0.2915   0.3946
     0.5300   0.5864   0.7867   1.1041   1.1256   1.1341   1.2058   1.2519
     1.4025   1.4239   1.5302   1.6485   1.9233   1.9955   2.7272   4.0832
     4.4320   4.5513   4.7187   4.8480   5.0753   5.1113   5.2983   5.4324

          k =-0.1250-0.1223 0.0000 ( 40932 PWs)   bands (ev):

   -73.4768 -72.7710 -72.5341 -72.3706 -72.3498 -72.0648 -44.0299 -43.3092
   -43.0817 -42.8470 -42.7732 -42.7003 -42.6468 -42.6170 -42.6142 -42.4222
   -42.4015 -42.2909 -42.2450 -42.2335 -42.2150 -42.1651 -41.9875 -41.9184
   -18.6848 -18.4597 -18.2640 -18.1971 -17.9080 -17.8035 -17.4450 -17.3929
   -17.3416 -17.3245 -16.9269 -16.8371 -16.1669  -6.8488  -6.6510  -6.6145
    -6.4564  -6.4106  -5.9549  -5.7729  -5.6957  -5.6500  -5.5326  -5.2601
    -5.2072  -5.0391  -4.8525  -4.4609  -4.2121  -4.0190  -3.9964  -3.7008
    -3.4703  -3.4406  -3.3594  -3.3257  -3.1868  -3.1305  -3.0591  -2.8240
    -2.6351  -2.5237  -2.3298  -2.2065  -2.0741  -2.0000  -1.7478  -1.5571
    -1.4285  -1.0750  -0.9919  -0.7933  -0.0653   0.1711   0.1925   0.2655
     0.3766   0.4381   0.6646   0.7421   0.7942   0.8803   1.1418   1.2238
     1.3555   1.4634   1.6674   1.7162   1.9230   2.3116   2.5803   4.0217
     4.4063   4.7422   4.8359   4.8693   5.0020   5.1982   5.2615   5.3742

     the Fermi energy is     1.1949 ev

!    total energy              =   -1672.25448126 Ry
     estimated scf accuracy    <          4.8E-09 Ry
     smearing contrib. (-TS)   =      -0.00195490 Ry
     internal energy E=F+TS    =   -1672.25252636 Ry

     The total energy is F=E-TS. E is the sum of the following terms:
     one-electron contribution =  -16960.83423500 Ry
     hartree contribution      =    8502.43785648 Ry
     xc contribution           =    -214.03827334 Ry
     ewald contribution        =    7123.96864980 Ry
     one-center paw contrib.   =    -123.78652431 Ry

     convergence has been achieved in  10 iterations

     negative rho (up, down):  1.102E-04 0.000E+00

     Forces acting on atoms (cartesian axes, Ry/au):

     atom    1 type  1   force =     0.00000000   -0.00010036    0.07016294
     atom    2 type  1   force =     0.00000000    0.00081083   -0.09073642
     atom    3 type  1   force =    -0.00000001   -0.00008550   -0.00000462
     atom    4 type  1   force =     0.00000001   -0.00031113    0.00010910
     atom    5 type  1   force =     0.00000001    0.00029151    0.00169125
     atom    6 type  1   force =    -0.00000001    0.00245207    0.00043763
     atom    7 type  2   force =    -0.00000000   -0.00188110    0.01769996
     atom    8 type  2   force =    -0.00000000    0.00009169    0.06203203
     atom    9 type  2   force =    -0.00000000    0.02372535   -0.02498291
     atom   10 type  2   force =    -0.00000000   -0.02438525   -0.02436957
     atom   11 type  2   force =     0.00000003    0.00141521    0.00083250
     atom   12 type  2   force =    -0.00000002    0.00176906   -0.01039522
     atom   13 type  2   force =     0.00000002    0.00043197    0.00005770
     atom   14 type  2   force =    -0.00000001    0.00047403   -0.00006679
     atom   15 type  2   force =    -0.00000000    0.00158374   -0.00024379
     atom   16 type  2   force =    -0.00000002   -0.00302358    0.00012909
     atom   17 type  2   force =     0.00000000   -0.00081639   -0.00096684
     atom   18 type  2   force =     0.00000001   -0.00041079   -0.00034698
     atom   19 type  2   force =    -0.00000000   -0.00203135   -0.00103907

     Total force =     0.005586     Total SCF correction =     0.000387
     Energy error            =      4.8E-05 Ry
     Gradient error          =      3.0E-03 Ry/Bohr

     number of scf cycles    =  13
     number of bfgs steps    =  12

     energy             old  =   -1672.2544334090 Ry
     energy             new  =   -1672.2544812557 Ry

     CASE: energy            _new < energy            _old

     new trust radius        =       0.0185704277 bohr
     new conv_thr            =       0.0000000100 Ry


ATOMIC_POSITIONS (angstrom)
Ru               0.0000000000        1.5881618300        9.5289709800    0   0   0
Ru               1.5535000000        4.7644854900        9.5289709800    0   0   0
Ru              -0.0000000008        4.7707003495       12.7184591094
Ru               1.5535000128        1.5895871293       12.7083218315
Ru              -0.0000000747        1.6272249704       16.0551855684
Ru               1.5535000354        4.7907990084       15.9467854577
O                0.0000000000        4.7644854900       10.7677372100    0   0   0
O                0.0000000000        4.7644854900        8.2902047600    0   0   0
O                1.5535000000        0.3493956000        9.5289709800    0   0   0
O                1.5535000000        2.8269280600        9.5289709800    0   0   0
O               -0.0000000566        1.5703654474       13.9808681554
O                0.0000000000        1.5881618300       11.4665284200    0   0   0
O                1.5534999296        3.5329022725       12.7209176544
O                1.5535000398        6.0017791461       12.6909277096
O                0.0000000644        4.7567555008       17.0513823475
O                0.0000000486        4.8193924692       14.6467610206
O                1.5534999332        0.4032840136       15.9230441404
O                1.5534999300        2.8399734497       15.7995034937
O               -0.0000000251        1.7567742679       17.7495168246



     Writing config-only to output data dir ./tmp_s0_O__1x1_off/s0_O__1x1_off.save/ :
     XML data file
     NEW-OLD atomic charge density approx. for the potential

     negative rho (up, down):  1.099E-04 0.000E+00

     total cpu time spent up to now is    17332.3 secs

     per-process dynamical memory:  1113.7 Mb

     Self-consistent Calculation

     iteration #  1     ecut=    80.00 Ry     beta= 0.30
     Davidson diagonalization with overlap
     ethr =  1.00E-06,  avg # of iterations =  3.0

     Threshold (ethr) on eigenvalues was too large:
     Diagonalizing with lowered threshold

     Davidson diagonalization with overlap
     ethr =  2.87E-08,  avg # of iterations =  4.1

     negative rho (up, down):  1.128E-04 0.000E+00

     total cpu time spent up to now is    17566.1 secs

     total energy              =   -1672.25454206 Ry
     estimated scf accuracy    <       0.00005176 Ry

     iteration #  2     ecut=    80.00 Ry     beta= 0.30
     Davidson diagonalization with overlap
     ethr =  2.97E-08,  avg # of iterations =  1.0

     negative rho (up, down):  1.145E-04 0.000E+00

     total cpu time spent up to now is    17647.7 secs

     total energy              =   -1672.25453924 Ry
     estimated scf accuracy    <       0.00002800 Ry

     iteration #  3     ecut=    80.00 Ry     beta= 0.30
     Davidson diagonalization with overlap
     ethr =  1.61E-08,  avg # of iterations =  1.0

     negative rho (up, down):  1.176E-04 0.000E+00

     total cpu time spent up to now is    17729.3 secs

     total energy              =   -1672.25453707 Ry
     estimated scf accuracy    <       0.00002033 Ry

     iteration #  4     ecut=    80.00 Ry     beta= 0.30
     Davidson diagonalization with overlap
     ethr =  1.17E-08,  avg # of iterations =  1.1

     negative rho (up, down):  1.203E-04 0.000E+00

     total cpu time spent up to now is    17811.3 secs

     total energy              =   -1672.25453690 Ry
     estimated scf accuracy    <       0.00000379 Ry

     iteration #  5     ecut=    80.00 Ry     beta= 0.30
     Davidson diagonalization with overlap
     ethr =  2.18E-09,  avg # of iterations =  2.2

     negative rho (up, down):  1.214E-04 0.000E+00

     total cpu time spent up to now is    17902.3 secs

     total energy              =   -1672.25453712 Ry
     estimated scf accuracy    <       0.00000046 Ry

     iteration #  6     ecut=    80.00 Ry     beta= 0.30
     Davidson diagonalization with overlap
     ethr =  2.64E-10,  avg # of iterations =  3.1

     negative rho (up, down):  1.218E-04 0.000E+00

     total cpu time spent up to now is    17993.2 secs

     total energy              =   -1672.25453714 Ry
     estimated scf accuracy    <       0.00000026 Ry

     iteration #  7     ecut=    80.00 Ry     beta= 0.30
     Davidson diagonalization with overlap
     ethr =  1.51E-10,  avg # of iterations =  1.2

     negative rho (up, down):  1.223E-04 0.000E+00

     total cpu time spent up to now is    18075.4 secs

     total energy              =   -1672.25453714 Ry
     estimated scf accuracy    <       0.00000007 Ry

     iteration #  8     ecut=    80.00 Ry     beta= 0.30
     Davidson diagonalization with overlap
     ethr =  4.23E-11,  avg # of iterations =  2.3

     negative rho (up, down):  1.219E-04 0.000E+00

     total cpu time spent up to now is    18162.3 secs

     total energy              =   -1672.25453714 Ry
     estimated scf accuracy    <       0.00000002 Ry

     iteration #  9     ecut=    80.00 Ry     beta= 0.30
     Davidson diagonalization with overlap
     ethr =  1.04E-11,  avg # of iterations =  4.1

     negative rho (up, down):  1.099E-04 0.000E+00

     total cpu time spent up to now is    18251.8 secs

     End of self-consistent calculation

          k = 0.0000 0.0000 0.0000 ( 40831 PWs)   bands (ev):

   -73.4795 -72.7734 -72.5365 -72.3731 -72.3534 -72.0687 -44.0321 -43.2851
   -43.0903 -42.8470 -42.7443 -42.7041 -42.6531 -42.6217 -42.6182 -42.4066
   -42.3972 -42.2959 -42.2379 -42.2205 -42.1883 -42.1700 -41.9625 -41.9241
   -18.9281 -18.7027 -18.4944 -18.2350 -17.9809 -17.8477 -17.4011 -17.2030
   -17.1688 -17.0782 -16.9069 -16.7726 -16.1303  -7.4345  -7.2455  -7.2351
    -6.6286  -6.4499  -6.0101  -5.7705  -5.7627  -5.7020  -5.6322  -5.5416
    -5.4917  -5.3167  -5.1924  -4.5847  -4.1737  -3.5632  -3.3962  -3.1910
    -3.0816  -2.9596  -2.9360  -2.7909  -2.7180  -2.6724  -2.6697  -2.5036
    -2.3703  -2.2637  -2.1844  -2.0023  -1.9466  -1.6771  -1.4691  -1.4233
    -1.2482  -1.1757  -0.7477  -0.7152  -0.5392  -0.5257  -0.2299  -0.2102
    -0.1495  -0.1442   0.2623   0.3350   0.4499   0.5234   0.9869   1.1111
     1.2232   1.4277   1.7577   2.0233   2.2256   2.2827   2.7019   3.5270
     4.2191   4.7089   5.0514   5.2118   5.4222   5.5045   5.7132   5.7685

          k = 0.0000 0.1223 0.0000 ( 40974 PWs)   bands (ev):

   -73.4795 -72.7734 -72.5365 -72.3730 -72.3535 -72.0687 -44.0321 -43.2851
   -43.0874 -42.8500 -42.7443 -42.7031 -42.6531 -42.6200 -42.6182 -42.4065
   -42.3972 -42.2959 -42.2379 -42.2199 -42.1889 -42.1720 -41.9625 -41.9253
   -18.8072 -18.5708 -18.3720 -18.2831 -17.9961 -17.8793 -17.4149 -17.3330
   -17.2951 -17.2592 -16.8862 -16.7836 -16.1274  -7.0196  -6.8005  -6.7726
    -6.6203  -6.4383  -5.9402  -5.7607  -5.6505  -5.6223  -5.5515  -5.4879
    -5.4618  -5.3156  -5.0011  -4.6255  -4.2296  -4.0360  -3.7713  -3.6076
    -3.5436  -3.4155  -3.2650  -2.9094  -2.8785  -2.8680  -2.7525  -2.6886
    -2.5788  -2.3849  -2.2128  -2.1635  -2.0943  -1.7194  -1.6499  -1.6086
    -1.3600  -1.1424  -0.9099  -0.7076  -0.0727  -0.0570   0.1319   0.2470
     0.3365   0.3774   0.4138   0.5067   0.5317   0.6059   0.9755   1.0680
     1.2903   1.4728   1.7571   1.8245   2.0232   2.3581   2.5778   3.9180
     4.6400   4.8126   4.8903   5.2120   5.4314   5.4561   5.4965   5.5374

          k = 0.0000-0.2445 0.0000 ( 41014 PWs)   bands (ev):

   -73.4795 -72.7734 -72.5365 -72.3729 -72.3535 -72.0687 -44.0321 -43.2850
   -43.0844 -42.8532 -42.7444 -42.7021 -42.6531 -42.6186 -42.6178 -42.4065
   -42.3971 -42.2959 -42.2379 -42.2193 -42.1895 -42.1739 -41.9626 -41.9265
   -18.5578 -18.5060 -18.3360 -18.1252 -18.0775 -17.9710 -17.5057 -17.4797
   -17.4386 -17.3738 -16.8577 -16.8074 -16.1251  -6.6744  -6.4776  -6.3566
    -6.0317  -5.9848  -5.8627  -5.7578  -5.6228  -5.5402  -5.4737  -5.4656
    -5.3090  -5.0632  -4.9380  -4.6176  -4.6054  -4.4998  -4.4876  -4.3470
    -4.2888  -3.6728  -3.4945  -3.3496  -3.1493  -3.1240  -2.9903  -2.7123
    -2.5851  -2.4753  -2.2291  -2.1284  -1.9688  -1.7162  -1.6494  -1.4105
    -1.1952  -1.0956  -0.9995  -0.9937   0.1852   0.1965   0.2737   0.3899
     0.5028   0.6624   0.7932   0.8087   0.8783   0.9109   1.0370   1.1092
     1.2036   1.5441   1.5505   1.5897   2.0071   2.1117   2.7069   4.3420
     4.5470   4.8303   5.1780   5.1785   5.2131   5.2457   5.5136   5.6656

          k = 0.0000-0.1223 0.0000 ( 40974 PWs)   bands (ev):

   -73.4795 -72.7734 -72.5365 -72.3730 -72.3535 -72.0687 -44.0321 -43.2851
   -43.0874 -42.8500 -42.7443 -42.7031 -42.6531 -42.6200 -42.6182 -42.4065
   -42.3972 -42.2959 -42.2379 -42.2199 -42.1889 -42.1720 -41.9625 -41.9253
   -18.8072 -18.5708 -18.3720 -18.2831 -17.9961 -17.8793 -17.4149 -17.3330
   -17.2951 -17.2592 -16.8862 -16.7836 -16.1274  -7.0196  -6.8005  -6.7726
    -6.6203  -6.4383  -5.9402  -5.7607  -5.6505  -5.6223  -5.5515  -5.4879
    -5.4618  -5.3156  -5.0011  -4.6255  -4.2296  -4.0360  -3.7713  -3.6076
    -3.5436  -3.4155  -3.2650  -2.9094  -2.8785  -2.8680  -2.7525  -2.6886
    -2.5788  -2.3849  -2.2128  -2.1635  -2.0943  -1.7194  -1.6499  -1.6086
    -1.3600  -1.1424  -0.9099  -0.7076  -0.0727  -0.0570   0.1319   0.2470
     0.3365   0.3774   0.4138   0.5067   0.5317   0.6059   0.9755   1.0680
     1.2903   1.4728   1.7571   1.8245   2.0232   2.3581   2.5778   3.9180
     4.6400   4.8126   4.8903   5.2120   5.4314   5.4561   5.4965   5.5374

          k = 0.1250 0.0000 0.0000 ( 40851 PWs)   bands (ev):

   -73.4780 -72.7718 -72.5350 -72.3716 -72.3519 -72.0672 -44.0304 -43.3106
   -43.0852 -42.8460 -42.7729 -42.7021 -42.6486 -42.6195 -42.6160 -42.4232
   -42.4024 -42.2931 -42.2472 -42.2350 -42.2140 -42.1659 -41.9898 -41.9197
   -18.7999 -18.5860 -18.3854 -18.1492 -17.9053 -17.7679 -17.4102 -17.2793
   -17.2460 -17.1587 -16.9471 -16.8253 -16.1711  -7.2513  -7.0691  -7.0564
    -6.4527  -6.4329  -6.0517  -5.8128  -5.7599  -5.6348  -5.5785  -5.4682
    -5.2096  -5.0406  -4.9778  -4.4220  -4.0868  -4.0322  -3.4402  -3.2782
    -3.2461  -3.1568  -3.0767  -3.0620  -2.9070  -2.7470  -2.7229  -2.5681
    -2.4759  -2.3329  -2.1792  -2.1528  -2.0732  -2.0557  -1.8702  -1.7191
    -1.5801  -1.1051  -1.0699  -0.6996  -0.4290  -0.2431   0.0173   0.0546
     0.1413   0.3272   0.4553   0.5165   0.6802   0.6955   1.1467   1.1999
     1.3304   1.4378   1.6343   1.8710   2.1413   2.3591   2.5594   3.7071
     4.3402   4.7599   4.7761   4.8946   5.0511   5.3546   5.3957   5.4548

          k = 0.1250 0.1223 0.0000 ( 40932 PWs)   bands (ev):

   -73.4780 -72.7718 -72.5350 -72.3715 -72.3519 -72.0672 -44.0304 -43.3107
   -43.0827 -42.8485 -42.7729 -42.7013 -42.6486 -42.6182 -42.6160 -42.4232
   -42.4024 -42.2931 -42.2465 -42.2350 -42.2148 -42.1672 -41.9898 -41.9206
   -18.6856 -18.4607 -18.2652 -18.1964 -17.9062 -17.8066 -17.4450 -17.3951
   -17.3436 -17.3269 -16.9270 -16.8379 -16.1687  -6.8506  -6.6522  -6.6161
    -6.4568  -6.4111  -5.9563  -5.7727  -5.6964  -5.6495  -5.5337  -5.2595
    -5.2064  -5.0420  -4.8526  -4.4587  -4.2134  -4.0203  -3.9984  -3.7021
    -3.4701  -3.4418  -3.3606  -3.3274  -3.1869  -3.1314  -3.0591  -2.8252
    -2.6360  -2.5249  -2.3320  -2.2083  -2.0742  -2.0003  -1.7488  -1.5585
    -1.4307  -1.0769  -0.9927  -0.7941  -0.0675   0.1689   0.1900   0.2639
     0.3749   0.4366   0.6632   0.7399   0.7920   0.8787   1.1398   1.2225
     1.3541   1.4628   1.6662   1.7136   1.9208   2.3100   2.5782   4.0214
     4.4050   4.7418   4.8336   4.8636   4.9988   5.1956   5.2586   5.3703

          k = 0.1250-0.2445 0.0000 ( 40974 PWs)   bands (ev):

   -73.4780 -72.7718 -72.5350 -72.3714 -72.3520 -72.0672 -44.0304 -43.3108
   -43.0802 -42.8511 -42.7729 -42.7005 -42.6486 -42.6170 -42.6158 -42.4232
   -42.4024 -42.2931 -42.2458 -42.2351 -42.2156 -42.1686 -41.9897 -41.9216
   -18.4503 -18.3978 -18.2293 -18.0345 -17.9817 -17.8912 -17.5685 -17.5478
   -17.4860 -17.3803 -16.8920 -16.8687 -16.1668  -6.4918  -6.4610  -6.1386
    -5.9393  -5.8411  -5.7686  -5.7582  -5.6877  -5.6535  -5.6399  -5.2455
    -5.0679  -4.8969  -4.7849  -4.6388  -4.4770  -4.3239  -4.1699  -4.1423
    -4.1019  -4.0035  -3.8753  -3.7918  -3.4724  -3.3723  -3.2775  -2.8602
    -2.7259  -2.6339  -2.3161  -2.2374  -1.9404  -1.7720  -1.5582  -1.4062
    -1.1572  -1.0948  -1.0113  -0.9906   0.1829   0.1943   0.2891   0.3925
     0.5287   0.5845   0.7846   1.1035   1.1246   1.1323   1.2029   1.2502
     1.4003   1.4227   1.5286   1.6473   1.9217   1.9941   2.7251   4.0817
     4.4315   4.5478   4.7170   4.8436   5.0723   5.1078   5.2965   5.4288

          k = 0.1250-0.1223 0.0000 ( 40932 PWs)   bands (ev):

   -73.4780 -72.7718 -72.5350 -72.3715 -72.3519 -72.0672 -44.0304 -43.3107
   -43.0827 -42.8485 -42.7729 -42.7013 -42.6486 -42.6182 -42.6160 -42.4232
   -42.4024 -42.2931 -42.2465 -42.2350 -42.2148 -42.1672 -41.9898 -41.9206
   -18.6856 -18.4607 -18.2652 -18.1964 -17.9062 -17.8066 -17.4450 -17.3951
   -17.3436 -17.3269 -16.9270 -16.8379 -16.1687  -6.8506  -6.6522  -6.6161
    -6.4568  -6.4111  -5.9563  -5.7727  -5.6964  -5.6495  -5.5337  -5.2595
    -5.2064  -5.0420  -4.8526  -4.4587  -4.2134  -4.0203  -3.9984  -3.7021
    -3.4701  -3.4418  -3.3606  -3.3274  -3.1869  -3.1314  -3.0591  -2.8252
    -2.6360  -2.5249  -2.3320  -2.2083  -2.0742  -2.0003  -1.7488  -1.5585
    -1.4307  -1.0769  -0.9927  -0.7941  -0.0675   0.1689   0.1900   0.2639
     0.3749   0.4366   0.6632   0.7399   0.7920   0.8787   1.1398   1.2225
     1.3541   1.4628   1.6662   1.7136   1.9208   2.3100   2.5782   4.0214
     4.4050   4.7418   4.8336   4.8636   4.9988   5.1956   5.2586   5.3703

          k = 0.2500 0.0000 0.0000 ( 40947 PWs)   bands (ev):

   -73.4744 -72.7680 -72.5313 -72.3679 -72.3482 -72.0634 -44.0262 -43.3717
   -43.0728 -42.8437 -42.8411 -42.6971 -42.6376 -42.6140 -42.6112 -42.4852
   -42.3926 -42.3113 -42.2930 -42.2695 -42.2276 -42.1560 -42.0553 -41.9089
   -18.4742 -18.2970 -18.1169 -17.9777 -17.7846 -17.5666 -17.4672 -17.4333
   -17.4177 -17.3475 -17.0659 -16.8648 -16.2228  -6.7816  -6.6215  -6.5866
    -6.2551  -5.9967  -5.9815  -5.8601  -5.8120  -5.4773  -5.4447  -5.0489
    -4.9860  -4.6472  -4.5320  -4.5128  -4.3311  -4.1414  -4.0297  -3.9883
    -3.7539  -3.6746  -3.3391  -3.1983  -3.1200  -3.0123  -2.8568  -2.8022
    -2.6911  -2.4849  -2.3992  -2.2259  -2.2095  -2.1103  -2.0520  -1.6139
    -1.4558  -1.2629  -1.2020  -0.9721  -0.2184  -0.1197   0.1734   0.4443
     0.5122   0.5817   0.7969   0.9693   1.0630   1.1612   1.1992   1.3271
     1.3619   1.4675   1.4934   1.6095   1.8522   2.1780   2.4910   3.9515
     4.1717   4.2296   4.4023   4.6631   4.7365   4.8020   4.8766   4.9603

          k = 0.2500 0.1223 0.0000 ( 40905 PWs)   bands (ev):

   -73.4744 -72.7680 -72.5313 -72.3678 -72.3482 -72.0634 -44.0262 -43.3721
   -43.0714 -42.8450 -42.8408 -42.6970 -42.6376 -42.6139 -42.6112 -42.4852
   -42.3925 -42.3101 -42.2933 -42.2699 -42.2276 -42.1565 -42.0549 -41.9094
   -18.3873 -18.2017 -18.0233 -18.0148 -17.7749 -17.6469 -17.5464 -17.5036
   -17.4647 -17.3945 -17.0562 -16.8716 -16.2222  -6.4706  -6.3346  -6.2686
    -6.2216  -5.9919  -5.8705  -5.8236  -5.6492  -5.5713  -5.3675  -5.1088
    -4.8040  -4.7359  -4.6649  -4.5066  -4.4541  -4.3568  -4.2338  -4.1408
    -3.9975  -3.5691  -3.5101  -3.3565  -3.2053  -3.1843  -3.0209  -2.9297
    -2.7751  -2.6589  -2.4412  -2.2607  -2.1721  -2.1189  -1.9352  -1.6050
    -1.4255  -1.2581  -1.1672  -1.0285  -0.2173   0.1017   0.4145   0.4607
     0.5767   0.8306   0.8918   0.9646   1.0526   1.1366   1.2024   1.2604
     1.3585   1.5246   1.5924   1.6559   1.7883   2.0582   2.6077   3.7061
     4.0322   4.1377   4.2360   4.3715   4.6635   4.7766   5.2034   5.3515

          k = 0.2500-0.2445 0.0000 ( 40892 PWs)   bands (ev):

   -73.4744 -72.7680 -72.5313 -72.3678 -72.3483 -72.0634 -44.0262 -43.3724
   -43.0701 -42.8461 -42.8407 -42.6968 -42.6376 -42.6139 -42.6111 -42.4853
   -42.3925 -42.3090 -42.2937 -42.2703 -42.2276 -42.1570 -42.0545 -41.9099
   -18.2117 -18.1610 -17.9718 -17.9246 -17.7763 -17.7534 -17.6983 -17.6273
   -17.5136 -17.3939 -17.0464 -16.8793 -16.2218  -6.2762  -6.0358  -5.9569
    -5.8466  -5.8004  -5.7910  -5.6683  -5.5568  -5.3253  -5.3013  -5.2280
    -5.0026  -4.9971  -4.9620  -4.7836  -4.5904  -4.4928  -4.2441  -4.0456
    -3.8303  -3.7516  -3.6438  -3.6090  -3.5266  -3.5046  -3.2899  -3.2738
    -2.9289  -2.7904  -2.3861  -2.2446  -1.9495  -1.8737  -1.6722  -1.6158
    -1.3396  -1.3051  -1.1387  -1.1184  -0.0025   0.0241   0.2648   0.5682
     0.5922   0.8622   1.0126   1.0905   1.1174   1.1372   1.2717   1.3781
     1.3945   1.5981   1.6494   1.7759   1.8124   1.9142   2.6998   3.3020
     3.7487   3.8331   4.0866   4.3620   4.6781   5.0679   5.3094   5.5864

          k = 0.2500-0.1223 0.0000 ( 40905 PWs)   bands (ev):

   -73.4744 -72.7680 -72.5313 -72.3678 -72.3482 -72.0634 -44.0262 -43.3721
   -43.0714 -42.8450 -42.8408 -42.6970 -42.6376 -42.6139 -42.6112 -42.4852
   -42.3925 -42.3101 -42.2933 -42.2699 -42.2276 -42.1565 -42.0549 -41.9094
   -18.3873 -18.2017 -18.0233 -18.0148 -17.7749 -17.6469 -17.5464 -17.5036
   -17.4647 -17.3945 -17.0562 -16.8716 -16.2222  -6.4706  -6.3346  -6.2686
    -6.2216  -5.9919  -5.8705  -5.8236  -5.6492  -5.5713  -5.3675  -5.1088
    -4.8040  -4.7359  -4.6649  -4.5066  -4.4541  -4.3568  -4.2338  -4.1408
    -3.9975  -3.5691  -3.5101  -3.3565  -3.2053  -3.1843  -3.0209  -2.9297
    -2.7751  -2.6589  -2.4412  -2.2607  -2.1721  -2.1189  -1.9352  -1.6050
    -1.4255  -1.2581  -1.1672  -1.0285  -0.2173   0.1017   0.4145   0.4607
     0.5767   0.8306   0.8918   0.9646   1.0526   1.1366   1.2024   1.2604
     1.3585   1.5246   1.5924   1.6559   1.7883   2.0582   2.6077   3.7061
     4.0322   4.1377   4.2360   4.3715   4.6635   4.7766   5.2034   5.3515

          k = 0.3750 0.0000 0.0000 ( 40852 PWs)   bands (ev):

   -73.4709 -72.7641 -72.5277 -72.3642 -72.3446 -72.0597 -44.0221 -43.4323
   -43.0601 -42.9083 -42.8415 -42.6922 -42.6276 -42.6085 -42.6068 -42.5455
   -42.3858 -42.3713 -42.3432 -42.2743 -42.2201 -42.1460 -42.1199 -41.8982
   -18.1238 -18.0018 -17.8753 -17.8462 -17.7481 -17.6395 -17.6040 -17.5306
   -17.4591 -17.4091 -17.0767 -16.8305 -16.1949  -6.3439  -6.1745  -6.0531
    -6.0288  -5.9069  -5.8503  -5.6550  -5.6212  -5.5028  -5.4051  -5.2079
    -5.0578  -4.8275  -4.7887  -4.5796  -4.4178  -4.3683  -4.2101  -3.9660
    -3.6551  -3.5016  -3.4138  -3.3816  -3.3300  -3.1643  -3.0927  -2.8161
    -2.6759  -2.5984  -2.4440  -2.2783  -2.2190  -2.0347  -1.9537  -1.5171
    -1.3872  -1.3833  -1.2349  -0.9750  -0.1538   0.0153   0.2697   0.4723
     0.5806   0.6609   0.7639   0.7729   0.8616   1.0267   1.1599   1.2135
     1.3773   1.5222   1.6516   1.7821   1.9630   2.1470   2.3654   3.4208
     3.8020   4.0588   4.2711   4.3796   4.4802   4.5407   4.7806   4.9385

          k = 0.3750 0.1223 0.0000 ( 40842 PWs)   bands (ev):

   -73.4709 -72.7641 -72.5277 -72.3642 -72.3446 -72.0597 -44.0221 -43.4328
   -43.0602 -42.9078 -42.8414 -42.6927 -42.6276 -42.6101 -42.6067 -42.5457
   -42.3853 -42.3699 -42.3437 -42.2744 -42.2201 -42.1458 -42.1191 -41.8982
   -18.1038 -18.0015 -17.9385 -17.8798 -17.8163 -17.6346 -17.5377 -17.4821
   -17.4515 -17.3961 -17.0758 -16.8344 -16.1951  -6.2183  -6.1243  -6.0980
    -6.0496  -5.9627  -5.7650  -5.6580  -5.6030  -5.5197  -5.4735  -5.3547
    -5.0416  -4.7764  -4.7065  -4.5387  -4.4594  -4.2874  -4.0395  -3.8557
    -3.6424  -3.5647  -3.3466  -3.3048  -3.2329  -3.1425  -3.0454  -2.8770
    -2.7371  -2.6100  -2.5030  -2.2868  -2.1844  -2.0613  -1.9396  -1.6240
    -1.5488  -1.4070  -1.2643  -1.1262  -0.1303  -0.0797   0.1969   0.2373
     0.5362   0.6015   0.6338   0.7565   0.8062   0.9228   0.9513   1.2192
     1.6696   1.7388   1.8273   1.8769   2.0301   2.0538   2.4758   3.1696
     3.4820   3.6494   3.7481   4.0997   4.2887   5.1305   5.4528   5.5711

          k = 0.3750-0.2445 0.0000 ( 40856 PWs)   bands (ev):

   -73.4709 -72.7641 -72.5277 -72.3642 -72.3446 -72.0597 -44.0221 -43.4333
   -43.0602 -42.9073 -42.8413 -42.6933 -42.6276 -42.6115 -42.6066 -42.5458
   -42.3850 -42.3685 -42.3442 -42.2744 -42.2201 -42.1456 -42.1184 -41.8982
   -18.0539 -18.0341 -17.9941 -17.9055 -17.8548 -17.6413 -17.4872 -17.4644
   -17.4273 -17.3836 -17.0747 -16.8384 -16.1953  -6.2539  -6.0795  -5.9309
    -5.9215  -5.8562  -5.8239  -5.7612  -5.6884  -5.6751  -5.5601  -5.4139
    -4.9377  -4.7921  -4.5499  -4.5018  -4.2932  -4.1971  -4.0681  -3.7351
    -3.5437  -3.4395  -3.4065  -3.2890  -3.2689  -3.1567  -3.1175  -2.9776
    -2.7744  -2.7349  -2.3611  -2.2233  -2.1497  -2.0334  -1.8990  -1.8499
    -1.5823  -1.4336  -1.2836  -1.2557  -0.3283  -0.2641  -0.0982   0.3141
     0.4359   0.5992   0.6731   0.7655   0.8178   0.8746   1.0071   1.2047
     1.5663   1.7960   1.9584   1.9847   2.1106   2.2062   2.5738   2.7599
     3.2127   3.3166   3.5146   4.1241   4.2910   5.5106   5.5995   5.8134

          k = 0.3750-0.1223 0.0000 ( 40842 PWs)   bands (ev):

   -73.4709 -72.7641 -72.5277 -72.3642 -72.3446 -72.0597 -44.0221 -43.4328
   -43.0602 -42.9078 -42.8414 -42.6927 -42.6276 -42.6101 -42.6067 -42.5457
   -42.3853 -42.3699 -42.3437 -42.2744 -42.2201 -42.1458 -42.1191 -41.8982
   -18.1038 -18.0015 -17.9385 -17.8798 -17.8163 -17.6346 -17.5377 -17.4821
   -17.4515 -17.3961 -17.0758 -16.8344 -16.1951  -6.2183  -6.1243  -6.0980
    -6.0496  -5.9627  -5.7650  -5.6580  -5.6030  -5.5197  -5.4735  -5.3547
    -5.0416  -4.7764  -4.7065  -4.5387  -4.4594  -4.2874  -4.0395  -3.8557
    -3.6424  -3.5647  -3.3466  -3.3048  -3.2329  -3.1425  -3.0454  -2.8770
    -2.7371  -2.6100  -2.5030  -2.2868  -2.1844  -2.0613  -1.9396  -1.6240
    -1.5488  -1.4070  -1.2643  -1.1262  -0.1303  -0.0797   0.1969   0.2373
     0.5362   0.6015   0.6338   0.7565   0.8062   0.9228   0.9513   1.2192
     1.6696   1.7388   1.8273   1.8769   2.0301   2.0538   2.4758   3.1696
     3.4820   3.6494   3.7481   4.0997   4.2887   5.1305   5.4528   5.5711

          k =-0.5000 0.0000 0.0000 ( 40876 PWs)   bands (ev):

   -73.4694 -72.7625 -72.5262 -72.3627 -72.3430 -72.0581 -44.0203 -43.4572
   -43.0549 -42.9359 -42.8407 -42.6902 -42.6248 -42.6063 -42.6047 -42.5693
   -42.4030 -42.3760 -42.3683 -42.2720 -42.2170 -42.1463 -42.1418 -41.8937
   -18.0076 -17.8565 -17.8315 -17.7870 -17.7135 -17.6993 -17.6723 -17.6029
   -17.4774 -17.4030 -17.0062 -16.8037 -16.1584  -6.3311  -6.1525  -5.9896
    -5.7918  -5.7661  -5.6976  -5.5900  -5.5481  -5.5276  -5.4264  -5.3194
    -5.1589  -5.0336  -4.9081  -4.7322  -4.5041  -4.0758  -3.8111  -3.7903
    -3.6881  -3.6828  -3.6825  -3.5654  -3.4168  -2.9691  -2.8574  -2.7124
    -2.6132  -2.4892  -2.4684  -2.3680  -2.1603  -1.9854  -1.8331  -1.7171
    -1.6136  -1.2518  -1.1184  -0.9052  -0.2064   0.0785   0.0809   0.4607
     0.5451   0.5685   0.6298   0.6626   0.7202   0.7858   1.0284   1.1552
     1.3178   1.5035   1.8458   1.9253   2.1455   2.2532   2.3197   3.2012
     3.6514   4.0157   4.2099   4.2478   4.3625   4.5500   4.7569   4.9083

          k =-0.5000 0.1223 0.0000 ( 40858 PWs)   bands (ev):

   -73.4694 -72.7625 -72.5262 -72.3627 -72.3430 -72.0581 -44.0203 -43.4578
   -43.0556 -42.9351 -42.8400 -42.6910 -42.6249 -42.6086 -42.6045 -42.5694
   -42.4008 -42.3759 -42.3687 -42.2720 -42.2170 -42.1453 -42.1414 -41.8935
   -18.0006 -17.9668 -17.9594 -17.9123 -17.8604 -17.5456 -17.4762 -17.4724
   -17.4295 -17.4037 -17.0077 -16.8063 -16.1579  -6.2772  -6.2355  -6.1156
    -6.1104  -6.0043  -5.7573  -5.6678  -5.6279  -5.6148  -5.4164  -5.1797
    -5.0918  -4.8367  -4.5841  -4.4116  -4.1173  -3.8712  -3.8309  -3.7970
    -3.7577  -3.6462  -3.6362  -3.6097  -3.0081  -2.9518  -2.8205  -2.6246
    -2.6053  -2.5196  -2.5025  -2.2750  -2.1853  -2.1361  -1.8400  -1.6605
    -1.6272  -1.5000  -1.3066  -1.0923  -0.1987  -0.0392   0.0300   0.0862
     0.2020   0.4452   0.4891   0.5620   0.5873   0.6299   0.7421   1.1712
     1.8255   1.8442   2.0039   2.0114   2.1791   2.1989   2.4022   3.0048
     3.2484   3.4505   3.5759   4.0444   4.2126   5.3283   5.5958   5.6399

          k =-0.5000-0.2445 0.0000 ( 40872 PWs)   bands (ev):

   -73.4694 -72.7625 -72.5262 -72.3627 -72.3430 -72.0581 -44.0203 -43.4584
   -43.0563 -42.9344 -42.8393 -42.6918 -42.6249 -42.6108 -42.6045 -42.5695
   -42.3987 -42.3757 -42.3691 -42.2720 -42.2170 -42.1444 -42.1409 -41.8934
   -18.0508 -18.0420 -18.0034 -17.9931 -17.8649 -17.4747 -17.4645 -17.4047
   -17.3728 -17.3318 -17.0092 -16.8089 -16.1574  -6.4836  -6.2807  -6.2041
    -6.0993  -6.0769  -5.7685  -5.6847  -5.6794  -5.6438  -5.5001  -5.1788
    -5.0487  -4.9589  -4.1850  -4.1164  -3.9056  -3.8771  -3.8165  -3.5962
    -3.5918  -3.5247  -3.4226  -3.2379  -3.2040  -2.8981  -2.8574  -2.8050
    -2.6702  -2.4161  -2.3143  -2.2045  -2.1519  -1.9315  -1.9203  -1.7967
    -1.7582  -1.7235  -1.5859  -1.2706  -0.5139  -0.2317  -0.1935   0.0014
     0.1099   0.1694   0.4515   0.4678   0.5973   0.6290   0.7564   1.2069
     1.7413   1.9168   2.0742   2.1166   2.3519   2.3652   2.4570   2.6127
     3.0663   3.1883   3.2844   4.0712   4.2147   5.7206   5.7831   5.8274

          k =-0.5000-0.1223 0.0000 ( 40858 PWs)   bands (ev):

   -73.4694 -72.7625 -72.5262 -72.3627 -72.3430 -72.0581 -44.0203 -43.4578
   -43.0556 -42.9351 -42.8400 -42.6910 -42.6249 -42.6086 -42.6045 -42.5694
   -42.4008 -42.3759 -42.3687 -42.2720 -42.2170 -42.1453 -42.1414 -41.8935
   -18.0006 -17.9668 -17.9594 -17.9123 -17.8604 -17.5456 -17.4762 -17.4724
   -17.4295 -17.4037 -17.0077 -16.8063 -16.1579  -6.2772  -6.2355  -6.1156
    -6.1104  -6.0043  -5.7573  -5.6678  -5.6279  -5.6148  -5.4164  -5.1797
    -5.0918  -4.8367  -4.5841  -4.4116  -4.1173  -3.8712  -3.8309  -3.7970
    -3.7577  -3.6462  -3.6362  -3.6097  -3.0081  -2.9518  -2.8205  -2.6246
    -2.6053  -2.5196  -2.5025  -2.2750  -2.1853  -2.1361  -1.8400  -1.6605
    -1.6272  -1.5000  -1.3066  -1.0923  -0.1987  -0.0392   0.0300   0.0862
     0.2020   0.4452   0.4891   0.5620   0.5873   0.6299   0.7421   1.1712
     1.8255   1.8442   2.0039   2.0114   2.1791   2.1989   2.4022   3.0048
     3.2484   3.4505   3.5759   4.0444   4.2126   5.3283   5.5958   5.6399

          k =-0.3750 0.0000 0.0000 ( 40852 PWs)   bands (ev):

   -73.4709 -72.7641 -72.5277 -72.3642 -72.3446 -72.0597 -44.0221 -43.4323
   -43.0601 -42.9083 -42.8415 -42.6922 -42.6276 -42.6085 -42.6068 -42.5455
   -42.3858 -42.3713 -42.3432 -42.2743 -42.2201 -42.1460 -42.1199 -41.8982
   -18.1238 -18.0018 -17.8753 -17.8462 -17.7481 -17.6395 -17.6040 -17.5306
   -17.4591 -17.4091 -17.0767 -16.8305 -16.1949  -6.3439  -6.1745  -6.0531
    -6.0288  -5.9069  -5.8503  -5.6550  -5.6212  -5.5028  -5.4051  -5.2079
    -5.0578  -4.8275  -4.7887  -4.5796  -4.4178  -4.3683  -4.2101  -3.9660
    -3.6551  -3.5016  -3.4138  -3.3816  -3.3300  -3.1643  -3.0927  -2.8161
    -2.6759  -2.5984  -2.4440  -2.2783  -2.2190  -2.0347  -1.9537  -1.5171
    -1.3872  -1.3833  -1.2349  -0.9750  -0.1538   0.0153   0.2697   0.4723
     0.5806   0.6609   0.7639   0.7729   0.8616   1.0267   1.1599   1.2135
     1.3773   1.5222   1.6516   1.7821   1.9630   2.1470   2.3654   3.4208
     3.8020   4.0588   4.2711   4.3796   4.4802   4.5407   4.7806   4.9385

          k =-0.3750 0.1223 0.0000 ( 40842 PWs)   bands (ev):

   -73.4709 -72.7641 -72.5277 -72.3642 -72.3446 -72.0597 -44.0221 -43.4328
   -43.0602 -42.9078 -42.8414 -42.6927 -42.6276 -42.6101 -42.6067 -42.5457
   -42.3853 -42.3699 -42.3437 -42.2744 -42.2201 -42.1458 -42.1191 -41.8982
   -18.1038 -18.0015 -17.9385 -17.8798 -17.8163 -17.6346 -17.5377 -17.4821
   -17.4515 -17.3961 -17.0758 -16.8344 -16.1951  -6.2183  -6.1243  -6.0980
    -6.0496  -5.9627  -5.7650  -5.6580  -5.6030  -5.5197  -5.4735  -5.3547
    -5.0416  -4.7764  -4.7065  -4.5387  -4.4594  -4.2874  -4.0395  -3.8557
    -3.6424  -3.5647  -3.3466  -3.3048  -3.2329  -3.1425  -3.0454  -2.8770
    -2.7371  -2.6100  -2.5030  -2.2868  -2.1844  -2.0613  -1.9396  -1.6240
    -1.5488  -1.4070  -1.2643  -1.1262  -0.1303  -0.0797   0.1969   0.2373
     0.5362   0.6015   0.6338   0.7565   0.8062   0.9228   0.9513   1.2192
     1.6696   1.7388   1.8273   1.8769   2.0301   2.0538   2.4758   3.1696
     3.4820   3.6494   3.7481   4.0997   4.2887   5.1305   5.4528   5.5711

          k =-0.3750-0.2445 0.0000 ( 40856 PWs)   bands (ev):

   -73.4709 -72.7641 -72.5277 -72.3642 -72.3446 -72.0597 -44.0221 -43.4333
   -43.0602 -42.9073 -42.8413 -42.6933 -42.6276 -42.6115 -42.6066 -42.5458
   -42.3850 -42.3685 -42.3442 -42.2744 -42.2201 -42.1456 -42.1184 -41.8982
   -18.0539 -18.0341 -17.9941 -17.9055 -17.8548 -17.6413 -17.4872 -17.4644
   -17.4273 -17.3836 -17.0747 -16.8384 -16.1953  -6.2539  -6.0795  -5.9309
    -5.9215  -5.8562  -5.8239  -5.7612  -5.6884  -5.6751  -5.5601  -5.4139
    -4.9377  -4.7921  -4.5499  -4.5018  -4.2932  -4.1971  -4.0681  -3.7351
    -3.5437  -3.4395  -3.4065  -3.2890  -3.2689  -3.1567  -3.1175  -2.9776
    -2.7744  -2.7349  -2.3611  -2.2233  -2.1497  -2.0334  -1.8990  -1.8499
    -1.5823  -1.4336  -1.2836  -1.2557  -0.3283  -0.2641  -0.0982   0.3141
     0.4359   0.5992   0.6731   0.7655   0.8178   0.8746   1.0071   1.2047
     1.5663   1.7960   1.9584   1.9847   2.1106   2.2062   2.5738   2.7599
     3.2127   3.3166   3.5146   4.1241   4.2910   5.5106   5.5995   5.8134

          k =-0.3750-0.1223 0.0000 ( 40842 PWs)   bands (ev):

   -73.4709 -72.7641 -72.5277 -72.3642 -72.3446 -72.0597 -44.0221 -43.4328
   -43.0602 -42.9078 -42.8414 -42.6927 -42.6276 -42.6101 -42.6067 -42.5457
   -42.3853 -42.3699 -42.3437 -42.2744 -42.2201 -42.1458 -42.1191 -41.8982
   -18.1038 -18.0015 -17.9385 -17.8798 -17.8163 -17.6346 -17.5377 -17.4821
   -17.4515 -17.3961 -17.0758 -16.8344 -16.1951  -6.2183  -6.1243  -6.0980
    -6.0496  -5.9627  -5.7650  -5.6580  -5.6030  -5.5197  -5.4735  -5.3547
    -5.0416  -4.7764  -4.7065  -4.5387  -4.4594  -4.2874  -4.0395  -3.8557
    -3.6424  -3.5647  -3.3466  -3.3048  -3.2329  -3.1425  -3.0454  -2.8770
    -2.7371  -2.6100  -2.5030  -2.2868  -2.1844  -2.0613  -1.9396  -1.6240
    -1.5488  -1.4070  -1.2643  -1.1262  -0.1303  -0.0797   0.1969   0.2373
     0.5362   0.6015   0.6338   0.7565   0.8062   0.9228   0.9513   1.2192
     1.6696   1.7388   1.8273   1.8769   2.0301   2.0538   2.4758   3.1696
     3.4820   3.6494   3.7481   4.0997   4.2887   5.1305   5.4528   5.5711

          k =-0.2500 0.0000 0.0000 ( 40947 PWs)   bands (ev):

   -73.4744 -72.7680 -72.5313 -72.3679 -72.3482 -72.0634 -44.0262 -43.3717
   -43.0728 -42.8437 -42.8411 -42.6971 -42.6376 -42.6140 -42.6112 -42.4852
   -42.3926 -42.3113 -42.2930 -42.2695 -42.2276 -42.1560 -42.0553 -41.9089
   -18.4742 -18.2970 -18.1169 -17.9777 -17.7846 -17.5666 -17.4672 -17.4333
   -17.4177 -17.3475 -17.0659 -16.8648 -16.2228  -6.7816  -6.6215  -6.5866
    -6.2551  -5.9967  -5.9815  -5.8601  -5.8120  -5.4773  -5.4447  -5.0489
    -4.9860  -4.6472  -4.5320  -4.5128  -4.3311  -4.1414  -4.0297  -3.9883
    -3.7539  -3.6746  -3.3391  -3.1983  -3.1200  -3.0123  -2.8568  -2.8022
    -2.6911  -2.4849  -2.3992  -2.2259  -2.2095  -2.1103  -2.0520  -1.6139
    -1.4558  -1.2629  -1.2020  -0.9721  -0.2184  -0.1197   0.1734   0.4443
     0.5122   0.5817   0.7969   0.9693   1.0630   1.1612   1.1992   1.3271
     1.3619   1.4675   1.4934   1.6095   1.8522   2.1780   2.4910   3.9515
     4.1717   4.2296   4.4023   4.6631   4.7365   4.8020   4.8766   4.9603

          k =-0.2500 0.1223 0.0000 ( 40905 PWs)   bands (ev):

   -73.4744 -72.7680 -72.5313 -72.3678 -72.3482 -72.0634 -44.0262 -43.3721
   -43.0714 -42.8450 -42.8408 -42.6970 -42.6376 -42.6139 -42.6112 -42.4852
   -42.3925 -42.3101 -42.2933 -42.2699 -42.2276 -42.1565 -42.0549 -41.9094
   -18.3873 -18.2017 -18.0233 -18.0148 -17.7749 -17.6469 -17.5464 -17.5036
   -17.4647 -17.3945 -17.0562 -16.8716 -16.2222  -6.4706  -6.3346  -6.2686
    -6.2216  -5.9919  -5.8705  -5.8236  -5.6492  -5.5713  -5.3675  -5.1088
    -4.8040  -4.7359  -4.6649  -4.5066  -4.4541  -4.3568  -4.2338  -4.1408
    -3.9975  -3.5691  -3.5101  -3.3565  -3.2053  -3.1843  -3.0209  -2.9297
    -2.7751  -2.6589  -2.4412  -2.2607  -2.1721  -2.1189  -1.9352  -1.6050
    -1.4255  -1.2581  -1.1672  -1.0285  -0.2173   0.1017   0.4145   0.4607
     0.5767   0.8306   0.8918   0.9646   1.0526   1.1366   1.2024   1.2604
     1.3585   1.5246   1.5924   1.6559   1.7883   2.0582   2.6077   3.7061
     4.0322   4.1377   4.2360   4.3715   4.6635   4.7766   5.2034   5.3515

          k =-0.2500-0.2445 0.0000 ( 40892 PWs)   bands (ev):

   -73.4744 -72.7680 -72.5313 -72.3678 -72.3483 -72.0634 -44.0262 -43.3724
   -43.0701 -42.8461 -42.8407 -42.6968 -42.6376 -42.6139 -42.6111 -42.4853
   -42.3925 -42.3090 -42.2937 -42.2703 -42.2276 -42.1570 -42.0545 -41.9099
   -18.2117 -18.1610 -17.9718 -17.9246 -17.7763 -17.7534 -17.6983 -17.6273
   -17.5136 -17.3939 -17.0464 -16.8793 -16.2218  -6.2762  -6.0358  -5.9569
    -5.8466  -5.8004  -5.7910  -5.6683  -5.5568  -5.3253  -5.3013  -5.2280
    -5.0026  -4.9971  -4.9620  -4.7836  -4.5904  -4.4928  -4.2441  -4.0456
    -3.8303  -3.7516  -3.6438  -3.6090  -3.5266  -3.5046  -3.2899  -3.2738
    -2.9289  -2.7904  -2.3861  -2.2446  -1.9495  -1.8737  -1.6722  -1.6158
    -1.3396  -1.3051  -1.1387  -1.1184  -0.0025   0.0241   0.2648   0.5682
     0.5922   0.8622   1.0126   1.0905   1.1174   1.1372   1.2717   1.3781
     1.3945   1.5981   1.6494   1.7759   1.8124   1.9142   2.6998   3.3020
     3.7487   3.8331   4.0866   4.3620   4.6781   5.0679   5.3094   5.5864

          k =-0.2500-0.1223 0.0000 ( 40905 PWs)   bands (ev):

   -73.4744 -72.7680 -72.5313 -72.3678 -72.3482 -72.0634 -44.0262 -43.3721
   -43.0714 -42.8450 -42.8408 -42.6970 -42.6376 -42.6139 -42.6112 -42.4852
   -42.3925 -42.3101 -42.2933 -42.2699 -42.2276 -42.1565 -42.0549 -41.9094
   -18.3873 -18.2017 -18.0233 -18.0148 -17.7749 -17.6469 -17.5464 -17.5036
   -17.4647 -17.3945 -17.0562 -16.8716 -16.2222  -6.4706  -6.3346  -6.2686
    -6.2216  -5.9919  -5.8705  -5.8236  -5.6492  -5.5713  -5.3675  -5.1088
    -4.8040  -4.7359  -4.6649  -4.5066  -4.4541  -4.3568  -4.2338  -4.1408
    -3.9975  -3.5691  -3.5101  -3.3565  -3.2053  -3.1843  -3.0209  -2.9297
    -2.7751  -2.6589  -2.4412  -2.2607  -2.1721  -2.1189  -1.9352  -1.6050
    -1.4255  -1.2581  -1.1672  -1.0285  -0.2173   0.1017   0.4145   0.4607
     0.5767   0.8306   0.8918   0.9646   1.0526   1.1366   1.2024   1.2604
     1.3585   1.5246   1.5924   1.6559   1.7883   2.0582   2.6077   3.7061
     4.0322   4.1377   4.2360   4.3715   4.6635   4.7766   5.2034   5.3515

          k =-0.1250 0.0000 0.0000 ( 40851 PWs)   bands (ev):

   -73.4780 -72.7718 -72.5350 -72.3716 -72.3519 -72.0672 -44.0304 -43.3106
   -43.0852 -42.8460 -42.7729 -42.7021 -42.6486 -42.6195 -42.6160 -42.4232
   -42.4024 -42.2931 -42.2472 -42.2350 -42.2140 -42.1659 -41.9898 -41.9197
   -18.7999 -18.5860 -18.3854 -18.1492 -17.9053 -17.7679 -17.4102 -17.2793
   -17.2460 -17.1587 -16.9471 -16.8253 -16.1711  -7.2513  -7.0691  -7.0564
    -6.4527  -6.4329  -6.0517  -5.8128  -5.7599  -5.6348  -5.5785  -5.4682
    -5.2096  -5.0406  -4.9778  -4.4220  -4.0868  -4.0322  -3.4402  -3.2782
    -3.2461  -3.1568  -3.0767  -3.0620  -2.9070  -2.7470  -2.7229  -2.5681
    -2.4759  -2.3329  -2.1792  -2.1528  -2.0732  -2.0557  -1.8702  -1.7191
    -1.5801  -1.1051  -1.0699  -0.6996  -0.4290  -0.2431   0.0173   0.0546
     0.1413   0.3272   0.4553   0.5165   0.6802   0.6955   1.1467   1.1999
     1.3304   1.4378   1.6343   1.8710   2.1413   2.3591   2.5594   3.7071
     4.3402   4.7599   4.7761   4.8946   5.0511   5.3546   5.3957   5.4548

          k =-0.1250 0.1223 0.0000 ( 40932 PWs)   bands (ev):

   -73.4780 -72.7718 -72.5350 -72.3715 -72.3519 -72.0672 -44.0304 -43.3107
   -43.0827 -42.8485 -42.7729 -42.7013 -42.6486 -42.6182 -42.6160 -42.4232
   -42.4024 -42.2931 -42.2465 -42.2350 -42.2148 -42.1672 -41.9898 -41.9206
   -18.6856 -18.4607 -18.2652 -18.1964 -17.9062 -17.8066 -17.4450 -17.3951
   -17.3436 -17.3269 -16.9270 -16.8379 -16.1687  -6.8506  -6.6522  -6.6161
    -6.4568  -6.4111  -5.9563  -5.7727  -5.6964  -5.6495  -5.5337  -5.2595
    -5.2064  -5.0420  -4.8526  -4.4587  -4.2134  -4.0203  -3.9984  -3.7021
    -3.4701  -3.4418  -3.3606  -3.3274  -3.1869  -3.1314  -3.0591  -2.8252
    -2.6360  -2.5249  -2.3320  -2.2083  -2.0742  -2.0003  -1.7488  -1.5585
    -1.4307  -1.0769  -0.9927  -0.7941  -0.0675   0.1689   0.1900   0.2639
     0.3749   0.4366   0.6632   0.7399   0.7920   0.8787   1.1398   1.2225
     1.3541   1.4628   1.6662   1.7136   1.9208   2.3100   2.5782   4.0214
     4.4050   4.7418   4.8336   4.8636   4.9988   5.1956   5.2586   5.3703

          k =-0.1250-0.2445 0.0000 ( 40974 PWs)   bands (ev):

   -73.4780 -72.7718 -72.5350 -72.3714 -72.3520 -72.0672 -44.0304 -43.3108
   -43.0802 -42.8511 -42.7729 -42.7005 -42.6486 -42.6170 -42.6158 -42.4232
   -42.4024 -42.2931 -42.2458 -42.2351 -42.2156 -42.1686 -41.9897 -41.9216
   -18.4503 -18.3978 -18.2293 -18.0345 -17.9817 -17.8912 -17.5685 -17.5478
   -17.4860 -17.3803 -16.8920 -16.8687 -16.1668  -6.4918  -6.4610  -6.1386
    -5.9393  -5.8411  -5.7686  -5.7582  -5.6877  -5.6535  -5.6399  -5.2455
    -5.0679  -4.8969  -4.7849  -4.6388  -4.4770  -4.3239  -4.1699  -4.1423
    -4.1019  -4.0035  -3.8753  -3.7918  -3.4724  -3.3723  -3.2775  -2.8602
    -2.7259  -2.6339  -2.3161  -2.2374  -1.9404  -1.7720  -1.5582  -1.4062
    -1.1572  -1.0948  -1.0113  -0.9906   0.1829   0.1943   0.2891   0.3925
     0.5287   0.5845   0.7846   1.1035   1.1246   1.1323   1.2029   1.2502
     1.4003   1.4227   1.5286   1.6473   1.9217   1.9941   2.7251   4.0817
     4.4315   4.5478   4.7170   4.8436   5.0723   5.1078   5.2965   5.4288

          k =-0.1250-0.1223 0.0000 ( 40932 PWs)   bands (ev):

   -73.4780 -72.7718 -72.5350 -72.3715 -72.3519 -72.0672 -44.0304 -43.3107
   -43.0827 -42.8485 -42.7729 -42.7013 -42.6486 -42.6182 -42.6160 -42.4232
   -42.4024 -42.2931 -42.2465 -42.2350 -42.2148 -42.1672 -41.9898 -41.9206
   -18.6856 -18.4607 -18.2652 -18.1964 -17.9062 -17.8066 -17.4450 -17.3951
   -17.3436 -17.3269 -16.9270 -16.8379 -16.1687  -6.8506  -6.6522  -6.6161
    -6.4568  -6.4111  -5.9563  -5.7727  -5.6964  -5.6495  -5.5337  -5.2595
    -5.2064  -5.0420  -4.8526  -4.4587  -4.2134  -4.0203  -3.9984  -3.7021
    -3.4701  -3.4418  -3.3606  -3.3274  -3.1869  -3.1314  -3.0591  -2.8252
    -2.6360  -2.5249  -2.3320  -2.2083  -2.0742  -2.0003  -1.7488  -1.5585
    -1.4307  -1.0769  -0.9927  -0.7941  -0.0675   0.1689   0.1900   0.2639
     0.3749   0.4366   0.6632   0.7399   0.7920   0.8787   1.1398   1.2225
     1.3541   1.4628   1.6662   1.7136   1.9208   2.3100   2.5782   4.0214
     4.4050   4.7418   4.8336   4.8636   4.9988   5.1956   5.2586   5.3703

     the Fermi energy is     1.1932 ev

!    total energy              =   -1672.25453714 Ry
     estimated scf accuracy    <          9.3E-09 Ry
     smearing contrib. (-TS)   =      -0.00196247 Ry
     internal energy E=F+TS    =   -1672.25257467 Ry

     The total energy is F=E-TS. E is the sum of the following terms:
     one-electron contribution =  -16961.69019087 Ry
     hartree contribution      =    8502.85813699 Ry
     xc contribution           =    -214.03731354 Ry
     ewald contribution        =    7124.40334472 Ry
     one-center paw contrib.   =    -123.78655197 Ry

     convergence has been achieved in   9 iterations

     negative rho (up, down):  1.099E-04 0.000E+00

     Forces acting on atoms (cartesian axes, Ry/au):

     atom    1 type  1   force =    -0.00000000   -0.00010127    0.07038277
     atom    2 type  1   force =     0.00000000    0.00083073   -0.09095712
     atom    3 type  1   force =    -0.00000001   -0.00009809    0.00050882
     atom    4 type  1   force =    -0.00000003   -0.00049741   -0.00067291
     atom    5 type  1   force =    -0.00000001    0.00002209    0.00243444
     atom    6 type  1   force =     0.00000000    0.00348516    0.00043893
     atom    7 type  2   force =    -0.00000000   -0.00205994    0.01743306
     atom    8 type  2   force =    -0.00000000    0.00008244    0.06204054
     atom    9 type  2   force =    -0.00000000    0.02373728   -0.02499030
     atom   10 type  2   force =     0.00000000   -0.02440111   -0.02439798
     atom   11 type  2   force =     0.00000003    0.00115211    0.00010757
     atom   12 type  2   force =     0.00000001    0.00196604   -0.00981947
     atom   13 type  2   force =     0.00000004    0.00062564   -0.00081749
     atom   14 type  2   force =    -0.00000002    0.00035244    0.00068798
     atom   15 type  2   force =    -0.00000002    0.00193205   -0.00075365
     atom   16 type  2   force =    -0.00000001   -0.00214011    0.00065152
     atom   17 type  2   force =     0.00000002   -0.00174315   -0.00052049
     atom   18 type  2   force =     0.00000002   -0.00134295    0.00005857
     atom   19 type  2   force =    -0.00000000   -0.00180195   -0.00181478

     Total force =     0.006572     Total SCF correction =     0.000541
     Energy error            =      5.6E-05 Ry
     Gradient error          =      3.5E-03 Ry/Bohr

     number of scf cycles    =  14
     number of bfgs steps    =  13

     energy             old  =   -1672.2544812557 Ry
     energy             new  =   -1672.2545371410 Ry

     CASE: energy            _new < energy            _old

     new trust radius        =       0.0264602872 bohr
     new conv_thr            =       0.0000000100 Ry


ATOMIC_POSITIONS (angstrom)
Ru               0.0000000000        1.5881618300        9.5289709800    0   0   0
Ru               1.5535000000        4.7644854900        9.5289709800    0   0   0
Ru              -0.0000000028        4.7701524728       12.7174664073
Ru               1.5535000703        1.5895244540       12.7096577655
Ru              -0.0000000522        1.6299002834       16.0551810473
Ru               1.5535000317        4.7951773659       15.9462670640
O                0.0000000000        4.7644854900       10.7677372100    0   0   0
O                0.0000000000        4.7644854900        8.2902047600    0   0   0
O                1.5535000000        0.3493956000        9.5289709800    0   0   0
O                1.5535000000        2.8269280600        9.5289709800    0   0   0
O               -0.0000000075        1.5738419577       13.9826964028
O                0.0000000000        1.5881618300       11.4665284200    0   0   0
O                1.5534999326        3.5328048290       12.7235340095
O                1.5535000598        6.0021524876       12.6877367234
O                0.0000000980        4.7585654626       17.0512680878
O                0.0000000203        4.8145950017       14.6457819686
O                1.5534999254        0.4057629517       15.9156249937
O                1.5534999267        2.8426213862       15.8030868914
O               -0.0000000809        1.7428189495       17.7506614477



     Writing config-only to output data dir ./tmp_s0_O__1x1_off/s0_O__1x1_off.save/ :
     XML data file
     NEW-OLD atomic charge density approx. for the potential

     negative rho (up, down):  1.095E-04 0.000E+00

     total cpu time spent up to now is    18270.2 secs

     per-process dynamical memory:  1113.7 Mb

     Self-consistent Calculation

     iteration #  1     ecut=    80.00 Ry     beta= 0.30
     Davidson diagonalization with overlap
     ethr =  1.00E-06,  avg # of iterations =  4.0

     Threshold (ethr) on eigenvalues was too large:
     Diagonalizing with lowered threshold

     Davidson diagonalization with overlap
     ethr =  6.58E-08,  avg # of iterations =  2.7

     negative rho (up, down):  1.110E-04 0.000E+00

     total cpu time spent up to now is    18493.9 secs

     total energy              =   -1672.25460843 Ry
     estimated scf accuracy    <       0.00011752 Ry

     iteration #  2     ecut=    80.00 Ry     beta= 0.30
     Davidson diagonalization with overlap
     ethr =  6.75E-08,  avg # of iterations =  1.0

     negative rho (up, down):  1.111E-04 0.000E+00

     total cpu time spent up to now is    18575.1 secs

     total energy              =   -1672.25460513 Ry
     estimated scf accuracy    <       0.00005579 Ry

     iteration #  3     ecut=    80.00 Ry     beta= 0.30
     Davidson diagonalization with overlap
     ethr =  3.21E-08,  avg # of iterations =  1.0

     negative rho (up, down):  1.127E-04 0.000E+00

     total cpu time spent up to now is    18655.8 secs

     total energy              =   -1672.25459795 Ry
     estimated scf accuracy    <       0.00003937 Ry

     iteration #  4     ecut=    80.00 Ry     beta= 0.30
     Davidson diagonalization with overlap
     ethr =  2.26E-08,  avg # of iterations =  2.0

     negative rho (up, down):  1.133E-04 0.000E+00

     total cpu time spent up to now is    18743.3 secs

     total energy              =   -1672.25459964 Ry
     estimated scf accuracy    <       0.00000263 Ry

     iteration #  5     ecut=    80.00 Ry     beta= 0.30
     Davidson diagonalization with overlap
     ethr =  1.51E-09,  avg # of iterations =  4.5

     negative rho (up, down):  1.134E-04 0.000E+00

     total cpu time spent up to now is    18843.7 secs

     total energy              =   -1672.25459993 Ry
     estimated scf accuracy    <       0.00000087 Ry

     iteration #  6     ecut=    80.00 Ry     beta= 0.30
     Davidson diagonalization with overlap
     ethr =  5.02E-10,  avg # of iterations =  1.3

     negative rho (up, down):  1.134E-04 0.000E+00

     total cpu time spent up to now is    18927.4 secs

     total energy              =   -1672.25459992 Ry
     estimated scf accuracy    <       0.00000038 Ry

     iteration #  7     ecut=    80.00 Ry     beta= 0.30
     Davidson diagonalization with overlap
     ethr =  2.16E-10,  avg # of iterations =  1.2

     negative rho (up, down):  1.133E-04 0.000E+00

     total cpu time spent up to now is    19012.3 secs

     total energy              =   -1672.25459992 Ry
     estimated scf accuracy    <       0.00000013 Ry

     iteration #  8     ecut=    80.00 Ry     beta= 0.30
     Davidson diagonalization with overlap
     ethr =  7.21E-11,  avg # of iterations =  2.2

     negative rho (up, down):  1.129E-04 0.000E+00

     total cpu time spent up to now is    19099.9 secs

     total energy              =   -1672.25459993 Ry
     estimated scf accuracy    <       0.00000003 Ry

     iteration #  9     ecut=    80.00 Ry     beta= 0.30
     Davidson diagonalization with overlap
     ethr =  1.51E-11,  avg # of iterations =  2.5

     negative rho (up, down):  1.096E-04 0.000E+00

     total cpu time spent up to now is    19186.7 secs

     End of self-consistent calculation

          k = 0.0000 0.0000 0.0000 ( 40831 PWs)   bands (ev):

   -73.4821 -72.7740 -72.5368 -72.3732 -72.3546 -72.0704 -44.0353 -43.2876
   -43.0924 -42.8481 -42.7443 -42.7044 -42.6542 -42.6221 -42.6193 -42.4068
   -42.3976 -42.2973 -42.2385 -42.2211 -42.1872 -42.1712 -41.9640 -41.9256
   -18.9287 -18.7036 -18.4950 -18.2331 -17.9792 -17.8500 -17.4039 -17.2045
   -17.1700 -17.0792 -16.9075 -16.7730 -16.1316  -7.4364  -7.2460  -7.2358
    -6.6272  -6.4519  -6.0101  -5.7714  -5.7596  -5.7021  -5.6332  -5.5423
    -5.4862  -5.3187  -5.1927  -4.5880  -4.1744  -3.5702  -3.3963  -3.1912
    -3.0837  -2.9590  -2.9401  -2.7900  -2.7185  -2.6732  -2.6688  -2.5044
    -2.3709  -2.2649  -2.1848  -2.0029  -1.9477  -1.6781  -1.4708  -1.4256
    -1.2459  -1.1773  -0.7458  -0.7129  -0.5391  -0.5348  -0.2313  -0.2108
    -0.1489  -0.1453   0.2612   0.3316   0.4488   0.5237   0.9858   1.1101
     1.2214   1.4284   1.7567   2.0214   2.2242   2.2816   2.7009   3.5274
     4.2200   4.7076   5.0466   5.2040   5.4209   5.5024   5.7103   5.7673

          k = 0.0000 0.1223 0.0000 ( 40974 PWs)   bands (ev):

   -73.4821 -72.7740 -72.5367 -72.3731 -72.3547 -72.0704 -44.0353 -43.2876
   -43.0895 -42.8511 -42.7443 -42.7034 -42.6542 -42.6204 -42.6193 -42.4068
   -42.3976 -42.2973 -42.2386 -42.2206 -42.1877 -42.1732 -41.9640 -41.9268
   -18.8076 -18.5715 -18.3725 -18.2817 -17.9942 -17.8816 -17.4168 -17.3345
   -17.2970 -17.2604 -16.8869 -16.7839 -16.1286  -7.0216  -6.8006  -6.7735
    -6.6190  -6.4401  -5.9400  -5.7578  -5.6505  -5.6221  -5.5525  -5.4823
    -5.4631  -5.3177  -5.0016  -4.6286  -4.2318  -4.0368  -3.7726  -3.6149
    -3.5436  -3.4134  -3.2664  -2.9100  -2.8783  -2.8696  -2.7525  -2.6885
    -2.5807  -2.3844  -2.2123  -2.1641  -2.0956  -1.7207  -1.6518  -1.6111
    -1.3604  -1.1440  -0.9097  -0.7074  -0.0736  -0.0602   0.1299   0.2464
     0.3362   0.3756   0.4143   0.5042   0.5317   0.6047   0.9743   1.0665
     1.2890   1.4739   1.7553   1.8232   2.0215   2.3572   2.5767   3.9184
     4.6413   4.8077   4.8886   5.2042   5.4309   5.4529   5.4947   5.5359

          k = 0.0000-0.2445 0.0000 ( 41014 PWs)   bands (ev):

   -73.4821 -72.7740 -72.5367 -72.3730 -72.3547 -72.0704 -44.0353 -43.2876
   -43.0866 -42.8542 -42.7444 -42.7024 -42.6542 -42.6195 -42.6184 -42.4068
   -42.3975 -42.2973 -42.2386 -42.2200 -42.1883 -42.1751 -41.9640 -41.9280
   -18.5564 -18.5071 -18.3365 -18.1250 -18.0771 -17.9723 -17.5070 -17.4797
   -17.4395 -17.3778 -16.8591 -16.8072 -16.1263  -6.6737  -6.4796  -6.3579
    -6.0313  -5.9859  -5.8625  -5.7547  -5.6228  -5.5390  -5.4697  -5.4660
    -5.3110  -5.0661  -4.9398  -4.6193  -4.6070  -4.5005  -4.4891  -4.3443
    -4.2901  -3.6804  -3.4961  -3.3506  -3.1503  -3.1251  -2.9887  -2.7118
    -2.5860  -2.4748  -2.2296  -2.1302  -1.9683  -1.7181  -1.6499  -1.4112
    -1.1968  -1.0971  -1.0001  -0.9962   0.1835   0.1941   0.2717   0.3888
     0.5039   0.6608   0.7914   0.8080   0.8792   0.9099   1.0354   1.1069
     1.2021   1.5437   1.5525   1.5868   2.0057   2.1114   2.7055   4.3422
     4.5419   4.8300   5.1747   5.1774   5.2054   5.2444   5.5116   5.6664

          k = 0.0000-0.1223 0.0000 ( 40974 PWs)   bands (ev):

   -73.4821 -72.7740 -72.5367 -72.3731 -72.3547 -72.0704 -44.0353 -43.2876
   -43.0895 -42.8511 -42.7443 -42.7034 -42.6542 -42.6204 -42.6193 -42.4068
   -42.3976 -42.2973 -42.2386 -42.2206 -42.1877 -42.1732 -41.9640 -41.9268
   -18.8076 -18.5715 -18.3725 -18.2817 -17.9942 -17.8816 -17.4168 -17.3345
   -17.2970 -17.2604 -16.8869 -16.7839 -16.1286  -7.0216  -6.8006  -6.7735
    -6.6190  -6.4401  -5.9400  -5.7578  -5.6505  -5.6221  -5.5525  -5.4823
    -5.4631  -5.3177  -5.0016  -4.6286  -4.2318  -4.0368  -3.7726  -3.6149
    -3.5436  -3.4134  -3.2664  -2.9100  -2.8783  -2.8696  -2.7525  -2.6885
    -2.5807  -2.3844  -2.2123  -2.1641  -2.0956  -1.7207  -1.6518  -1.6111
    -1.3604  -1.1440  -0.9097  -0.7074  -0.0736  -0.0602   0.1299   0.2464
     0.3362   0.3756   0.4143   0.5042   0.5317   0.6047   0.9743   1.0665
     1.2890   1.4739   1.7553   1.8232   2.0215   2.3572   2.5767   3.9184
     4.6413   4.8077   4.8886   5.2042   5.4309   5.4529   5.4947   5.5359

          k = 0.1250 0.0000 0.0000 ( 40851 PWs)   bands (ev):

   -73.4806 -72.7724 -72.5352 -72.3716 -72.3531 -72.0688 -44.0336 -43.3131
   -43.0873 -42.8471 -42.7729 -42.7024 -42.6497 -42.6198 -42.6171 -42.4236
   -42.4027 -42.2945 -42.2478 -42.2356 -42.2129 -42.1671 -41.9913 -41.9212
   -18.8005 -18.5870 -18.3861 -18.1472 -17.9045 -17.7696 -17.4132 -17.2808
   -17.2473 -17.1597 -16.9469 -16.8261 -16.1722  -7.2533  -7.0696  -7.0571
    -6.4529  -6.4330  -6.0531  -5.8127  -5.7599  -5.6347  -5.5771  -5.4690
    -5.2083  -5.0427  -4.9779  -4.4220  -4.0914  -4.0332  -3.4399  -3.2780
    -3.2467  -3.1582  -3.0778  -3.0640  -2.9077  -2.7489  -2.7235  -2.5672
    -2.4769  -2.3329  -2.1804  -2.1538  -2.0683  -2.0613  -1.8704  -1.7216
    -1.5818  -1.1032  -1.0716  -0.6957  -0.4319  -0.2497   0.0159   0.0539
     0.1400   0.3247   0.4544   0.5157   0.6798   0.6942   1.1461   1.1981
     1.3303   1.4377   1.6333   1.8687   2.1401   2.3577   2.5585   3.7077
     4.3414   4.7573   4.7726   4.8899   5.0489   5.3526   5.3929   5.4535

          k = 0.1250 0.1223 0.0000 ( 40932 PWs)   bands (ev):

   -73.4806 -72.7724 -72.5352 -72.3716 -72.3531 -72.0688 -44.0336 -43.3132
   -43.0849 -42.8496 -42.7729 -42.7016 -42.6497 -42.6186 -42.6170 -42.4236
   -42.4027 -42.2945 -42.2472 -42.2356 -42.2137 -42.1684 -41.9912 -41.9222
   -18.6860 -18.4615 -18.2658 -18.1952 -17.9046 -17.8088 -17.4462 -17.3965
   -17.3458 -17.3284 -16.9267 -16.8388 -16.1698  -6.8525  -6.6526  -6.6170
    -6.4568  -6.4114  -5.9573  -5.7725  -5.6964  -5.6484  -5.5341  -5.2591
    -5.2058  -5.0442  -4.8531  -4.4587  -4.2160  -4.0217  -4.0010  -3.7026
    -3.4695  -3.4424  -3.3615  -3.3281  -3.1861  -3.1323  -3.0611  -2.8258
    -2.6362  -2.5259  -2.3337  -2.2094  -2.0737  -2.0003  -1.7496  -1.5611
    -1.4322  -1.0782  -0.9928  -0.7940  -0.0698   0.1670   0.1874   0.2627
     0.3736   0.4359   0.6626   0.7383   0.7906   0.8778   1.1386   1.2216
     1.3536   1.4634   1.6651   1.7117   1.9191   2.3091   2.5769   4.0220
     4.4027   4.7418   4.8316   4.8585   4.9965   5.1939   5.2564   5.3680

          k = 0.1250-0.2445 0.0000 ( 40974 PWs)   bands (ev):

   -73.4806 -72.7724 -72.5352 -72.3715 -72.3532 -72.0688 -44.0336 -43.3133
   -43.0823 -42.8521 -42.7729 -42.7009 -42.6497 -42.6176 -42.6167 -42.4236
   -42.4026 -42.2946 -42.2465 -42.2357 -42.2145 -42.1698 -41.9912 -41.9232
   -18.4486 -18.3991 -18.2301 -18.0347 -17.9816 -17.8921 -17.5698 -17.5480
   -17.4868 -17.3842 -16.8909 -16.8705 -16.1679  -6.4912  -6.4627  -6.1399
    -5.9394  -5.8407  -5.7695  -5.7586  -5.6871  -5.6524  -5.6409  -5.2443
    -5.0701  -4.8998  -4.7874  -4.6383  -4.4763  -4.3244  -4.1724  -4.1431
    -4.0995  -4.0055  -3.8762  -3.7913  -3.4741  -3.3728  -3.2800  -2.8601
    -2.7267  -2.6348  -2.3165  -2.2391  -1.9409  -1.7727  -1.5580  -1.4069
    -1.1582  -1.0962  -1.0132  -0.9918   0.1815   0.1917   0.2873   0.3911
     0.5282   0.5819   0.7832   1.1035   1.1238   1.1318   1.2009   1.2492
     1.3988   1.4223   1.5278   1.6475   1.9205   1.9935   2.7236   4.0786
     4.4315   4.5451   4.7160   4.8397   5.0705   5.1050   5.2956   5.4267

          k = 0.1250-0.1223 0.0000 ( 40932 PWs)   bands (ev):

   -73.4806 -72.7724 -72.5352 -72.3716 -72.3531 -72.0688 -44.0336 -43.3132
   -43.0849 -42.8496 -42.7729 -42.7016 -42.6497 -42.6186 -42.6170 -42.4236
   -42.4027 -42.2945 -42.2472 -42.2356 -42.2137 -42.1684 -41.9912 -41.9222
   -18.6860 -18.4615 -18.2658 -18.1952 -17.9046 -17.8088 -17.4462 -17.3965
   -17.3458 -17.3284 -16.9267 -16.8388 -16.1698  -6.8525  -6.6526  -6.6170
    -6.4568  -6.4114  -5.9573  -5.7725  -5.6964  -5.6484  -5.5341  -5.2591
    -5.2058  -5.0442  -4.8531  -4.4587  -4.2160  -4.0217  -4.0010  -3.7026
    -3.4695  -3.4424  -3.3615  -3.3281  -3.1861  -3.1323  -3.0611  -2.8258
    -2.6362  -2.5259  -2.3337  -2.2094  -2.0737  -2.0003  -1.7496  -1.5611
    -1.4322  -1.0782  -0.9928  -0.7940  -0.0698   0.1670   0.1874   0.2627
     0.3736   0.4359   0.6626   0.7383   0.7906   0.8778   1.1386   1.2216
     1.3536   1.4634   1.6651   1.7117   1.9191   2.3091   2.5769   4.0220
     4.4027   4.7418   4.8316   4.8585   4.9965   5.1939   5.2564   5.3680

          k = 0.2500 0.0000 0.0000 ( 40947 PWs)   bands (ev):

   -73.4770 -72.7685 -72.5316 -72.3680 -72.3494 -72.0651 -44.0294 -43.3742
   -43.0749 -42.8448 -42.8410 -42.6975 -42.6390 -42.6143 -42.6121 -42.4856
   -42.3928 -42.3119 -42.2936 -42.2692 -42.2281 -42.1572 -42.0568 -41.9105
   -18.4748 -18.2982 -18.1177 -17.9756 -17.7858 -17.5673 -17.4673 -17.4345
   -17.4220 -17.3486 -17.0645 -16.8660 -16.2236  -6.7841  -6.6222  -6.5874
    -6.2571  -5.9985  -5.9818  -5.8611  -5.8125  -5.4772  -5.4466  -5.0496
    -4.9858  -4.6489  -4.5314  -4.5131  -4.3304  -4.1427  -4.0299  -3.9886
    -3.7543  -3.6754  -3.3387  -3.1985  -3.1256  -3.0097  -2.8562  -2.8045
    -2.6886  -2.4863  -2.4007  -2.2245  -2.2119  -2.1115  -2.0519  -1.6150
    -1.4586  -1.2632  -1.2028  -0.9733  -0.2132  -0.1263   0.1698   0.4429
     0.5105   0.5800   0.7957   0.9682   1.0624   1.1596   1.1986   1.3272
     1.3598   1.4694   1.4902   1.6087   1.8510   2.1773   2.4893   3.9513
     4.1708   4.2279   4.3995   4.6621   4.7359   4.7997   4.8754   4.9593

          k = 0.2500 0.1223 0.0000 ( 40905 PWs)   bands (ev):

   -73.4770 -72.7685 -72.5316 -72.3679 -72.3495 -72.0651 -44.0294 -43.3746
   -43.0736 -42.8461 -42.8408 -42.6973 -42.6390 -42.6143 -42.6120 -42.4857
   -42.3928 -42.3108 -42.2939 -42.2696 -42.2281 -42.1577 -42.0564 -41.9110
   -18.3876 -18.2026 -18.0232 -18.0149 -17.7751 -17.6487 -17.5468 -17.5042
   -17.4657 -17.3984 -17.0548 -16.8728 -16.2231  -6.4724  -6.3360  -6.2695
    -6.2230  -5.9918  -5.8725  -5.8251  -5.6496  -5.5724  -5.3679  -5.1092
    -4.8044  -4.7352  -4.6668  -4.5068  -4.4542  -4.3572  -4.2348  -4.1412
    -3.9968  -3.5693  -3.5114  -3.3565  -3.2078  -3.1855  -3.0218  -2.9309
    -2.7737  -2.6605  -2.4412  -2.2594  -2.1712  -2.1205  -1.9362  -1.6066
    -1.4279  -1.2590  -1.1680  -1.0296  -0.2183   0.0994   0.4126   0.4587
     0.5754   0.8297   0.8901   0.9634   1.0518   1.1351   1.2012   1.2603
     1.3580   1.5249   1.5922   1.6541   1.7866   2.0573   2.6061   3.7049
     4.0317   4.1357   4.2347   4.3689   4.6625   4.7754   5.2034   5.3501

          k = 0.2500-0.2445 0.0000 ( 40892 PWs)   bands (ev):

   -73.4770 -72.7685 -72.5316 -72.3679 -72.3495 -72.0651 -44.0294 -43.3749
   -43.0722 -42.8472 -42.8407 -42.6972 -42.6390 -42.6143 -42.6119 -42.4857
   -42.3928 -42.3097 -42.2942 -42.2701 -42.2281 -42.1582 -42.0560 -41.9115
   -18.2090 -18.1629 -17.9736 -17.9259 -17.7765 -17.7547 -17.6979 -17.6287
   -17.5139 -17.3978 -17.0451 -16.8806 -16.2227  -6.2783  -6.0366  -5.9573
    -5.8472  -5.8026  -5.7912  -5.6693  -5.5587  -5.3249  -5.3012  -5.2293
    -5.0020  -4.9975  -4.9625  -4.7862  -4.5923  -4.4956  -4.2448  -4.0453
    -3.8297  -3.7505  -3.6422  -3.6063  -3.5286  -3.5080  -3.2891  -3.2747
    -2.9326  -2.7914  -2.3865  -2.2460  -1.9471  -1.8728  -1.6745  -1.6174
    -1.3412  -1.3056  -1.1406  -1.1193  -0.0053   0.0228   0.2621   0.5669
     0.5906   0.8618   1.0117   1.0879   1.1169   1.1380   1.2695   1.3767
     1.3942   1.5988   1.6488   1.7755   1.8108   1.9128   2.6981   3.3003
     3.7466   3.8320   4.0859   4.3587   4.6769   5.0675   5.3093   5.5855

          k = 0.2500-0.1223 0.0000 ( 40905 PWs)   bands (ev):

   -73.4770 -72.7685 -72.5316 -72.3679 -72.3495 -72.0651 -44.0294 -43.3746
   -43.0736 -42.8461 -42.8408 -42.6973 -42.6390 -42.6143 -42.6120 -42.4857
   -42.3928 -42.3108 -42.2939 -42.2696 -42.2281 -42.1577 -42.0564 -41.9110
   -18.3876 -18.2026 -18.0232 -18.0149 -17.7751 -17.6487 -17.5468 -17.5042
   -17.4657 -17.3984 -17.0548 -16.8728 -16.2231  -6.4724  -6.3360  -6.2695
    -6.2230  -5.9918  -5.8725  -5.8251  -5.6496  -5.5724  -5.3679  -5.1092
    -4.8044  -4.7352  -4.6668  -4.5068  -4.4542  -4.3572  -4.2348  -4.1412
    -3.9968  -3.5693  -3.5114  -3.3565  -3.2078  -3.1855  -3.0218  -2.9309
    -2.7737  -2.6605  -2.4412  -2.2594  -2.1712  -2.1205  -1.9362  -1.6066
    -1.4279  -1.2590  -1.1680  -1.0296  -0.2183   0.0994   0.4126   0.4587
     0.5754   0.8297   0.8901   0.9634   1.0518   1.1351   1.2012   1.2603
     1.3580   1.5249   1.5922   1.6541   1.7866   2.0573   2.6061   3.7049
     4.0317   4.1357   4.2347   4.3689   4.6625   4.7754   5.2034   5.3501

          k = 0.3750 0.0000 0.0000 ( 40852 PWs)   bands (ev):

   -73.4735 -72.7647 -72.5280 -72.3643 -72.3458 -72.0613 -44.0253 -43.4348
   -43.0623 -42.9082 -42.8426 -42.6925 -42.6293 -42.6089 -42.6072 -42.5460
   -42.3862 -42.3719 -42.3420 -42.2758 -42.2205 -42.1472 -42.1213 -41.8997
   -18.1231 -18.0026 -17.8747 -17.8473 -17.7499 -17.6403 -17.6049 -17.5312
   -17.4602 -17.4129 -17.0750 -16.8316 -16.1957  -6.3487  -6.1760  -6.0549
    -6.0302  -5.9086  -5.8519  -5.6544  -5.6237  -5.5029  -5.4048  -5.2078
    -5.0557  -4.8283  -4.7894  -4.5825  -4.4185  -4.3685  -4.2110  -3.9676
    -3.6567  -3.5021  -3.4150  -3.3828  -3.3293  -3.1637  -3.0936  -2.8164
    -2.6734  -2.6004  -2.4442  -2.2783  -2.2199  -2.0355  -1.9558  -1.5169
    -1.3889  -1.3849  -1.2365  -0.9761  -0.1541   0.0143   0.2684   0.4717
     0.5803   0.6603   0.7646   0.7708   0.8606   1.0265   1.1605   1.2103
     1.3754   1.5213   1.6510   1.7809   1.9614   2.1467   2.3634   3.4200
     3.8006   4.0568   4.2705   4.3777   4.4789   4.5400   4.7803   4.9378

          k = 0.3750 0.1223 0.0000 ( 40842 PWs)   bands (ev):

   -73.4735 -72.7647 -72.5280 -72.3643 -72.3458 -72.0613 -44.0253 -43.4353
   -43.0623 -42.9077 -42.8425 -42.6931 -42.6294 -42.6104 -42.6071 -42.5461
   -42.3857 -42.3705 -42.3425 -42.2759 -42.2205 -42.1470 -42.1206 -41.8997
   -18.1030 -18.0021 -17.9385 -17.8799 -17.8184 -17.6362 -17.5386 -17.4832
   -17.4518 -17.4000 -17.0741 -16.8355 -16.1959  -6.2196  -6.1275  -6.1005
    -6.0504  -5.9644  -5.7666  -5.6579  -5.6036  -5.5202  -5.4733  -5.3541
    -5.0428  -4.7794  -4.7081  -4.5394  -4.4603  -4.2879  -4.0399  -3.8558
    -3.6440  -3.5654  -3.3465  -3.3065  -3.2335  -3.1426  -3.0465  -2.8779
    -2.7366  -2.6088  -2.5038  -2.2869  -2.1850  -2.0627  -1.9402  -1.6240
    -1.5507  -1.4091  -1.2654  -1.1274  -0.1308  -0.0815   0.1987   0.2340
     0.5361   0.6011   0.6337   0.7564   0.8052   0.9218   0.9507   1.2180
     1.6697   1.7367   1.8257   1.8757   2.0302   2.0518   2.4740   3.1687
     3.4810   3.6481   3.7470   4.0978   4.2878   5.1298   5.4520   5.5713

          k = 0.3750-0.2445 0.0000 ( 40856 PWs)   bands (ev):

   -73.4735 -72.7647 -72.5280 -72.3643 -72.3458 -72.0613 -44.0253 -43.4358
   -43.0624 -42.9072 -42.8424 -42.6936 -42.6294 -42.6119 -42.6071 -42.5462
   -42.3853 -42.3691 -42.3430 -42.2759 -42.2205 -42.1468 -42.1198 -41.8997
   -18.0512 -18.0356 -17.9951 -17.9046 -17.8574 -17.6438 -17.4881 -17.4653
   -17.4275 -17.3874 -17.0729 -16.8396 -16.1961  -6.2551  -6.0815  -5.9321
    -5.9221  -5.8568  -5.8228  -5.7622  -5.6904  -5.6776  -5.5601  -5.4136
    -4.9411  -4.7933  -4.5524  -4.5032  -4.2943  -4.2016  -4.0685  -3.7348
    -3.5430  -3.4377  -3.4064  -3.2893  -3.2698  -3.1569  -3.1195  -2.9783
    -2.7736  -2.7369  -2.3605  -2.2251  -2.1471  -2.0336  -1.9012  -1.8526
    -1.5842  -1.4338  -1.2848  -1.2573  -0.3286  -0.2643  -0.1009   0.3138
     0.4363   0.5990   0.6738   0.7659   0.8167   0.8737   1.0059   1.2030
     1.5654   1.7952   1.9587   1.9833   2.1096   2.2045   2.5721   2.7576
     3.2113   3.3155   3.5138   4.1222   4.2902   5.5104   5.6006   5.8133

          k = 0.3750-0.1223 0.0000 ( 40842 PWs)   bands (ev):

   -73.4735 -72.7647 -72.5280 -72.3643 -72.3458 -72.0613 -44.0253 -43.4353
   -43.0623 -42.9077 -42.8425 -42.6931 -42.6294 -42.6104 -42.6071 -42.5461
   -42.3857 -42.3705 -42.3425 -42.2759 -42.2205 -42.1470 -42.1206 -41.8997
   -18.1030 -18.0021 -17.9385 -17.8799 -17.8184 -17.6362 -17.5386 -17.4832
   -17.4518 -17.4000 -17.0741 -16.8355 -16.1959  -6.2196  -6.1275  -6.1005
    -6.0504  -5.9644  -5.7666  -5.6579  -5.6036  -5.5202  -5.4733  -5.3541
    -5.0428  -4.7794  -4.7081  -4.5394  -4.4603  -4.2879  -4.0399  -3.8558
    -3.6440  -3.5654  -3.3465  -3.3065  -3.2335  -3.1426  -3.0465  -2.8779
    -2.7366  -2.6088  -2.5038  -2.2869  -2.1850  -2.0627  -1.9402  -1.6240
    -1.5507  -1.4091  -1.2654  -1.1274  -0.1308  -0.0815   0.1987   0.2340
     0.5361   0.6011   0.6337   0.7564   0.8052   0.9218   0.9507   1.2180
     1.6697   1.7367   1.8257   1.8757   2.0302   2.0518   2.4740   3.1687
     3.4810   3.6481   3.7470   4.0978   4.2878   5.1298   5.4520   5.5713

          k =-0.5000 0.0000 0.0000 ( 40876 PWs)   bands (ev):

   -73.4720 -72.7631 -72.5264 -72.3628 -72.3442 -72.0598 -44.0236 -43.4597
   -43.0570 -42.9357 -42.8418 -42.6905 -42.6267 -42.6066 -42.6050 -42.5698
   -42.4036 -42.3763 -42.3669 -42.2736 -42.2175 -42.1477 -42.1431 -41.8952
   -18.0038 -17.8589 -17.8335 -17.7881 -17.7145 -17.6998 -17.6734 -17.6037
   -17.4784 -17.4066 -17.0048 -16.8048 -16.1592  -6.3366  -6.1536  -5.9920
    -5.7935  -5.7664  -5.6991  -5.5914  -5.5466  -5.5280  -5.4274  -5.3178
    -5.1596  -5.0328  -4.9121  -4.7325  -4.5056  -4.0799  -3.8132  -3.7898
    -3.6894  -3.6843  -3.6834  -3.5647  -3.4173  -2.9682  -2.8600  -2.7134
    -2.6114  -2.4900  -2.4683  -2.3670  -2.1612  -1.9867  -1.8339  -1.7185
    -1.6150  -1.2529  -1.1193  -0.9061  -0.2088   0.0781   0.0817   0.4601
     0.5441   0.5682   0.6317   0.6629   0.7189   0.7858   1.0281   1.1549
     1.3147   1.5017   1.8447   1.9245   2.1436   2.2511   2.3193   3.2001
     3.6499   4.0143   4.2091   4.2460   4.3612   4.5493   4.7564   4.9077

          k =-0.5000 0.1223 0.0000 ( 40858 PWs)   bands (ev):

   -73.4720 -72.7631 -72.5264 -72.3628 -72.3442 -72.0598 -44.0236 -43.4603
   -43.0578 -42.9350 -42.8411 -42.6913 -42.6267 -42.6090 -42.6048 -42.5699
   -42.4015 -42.3761 -42.3674 -42.2736 -42.2174 -42.1468 -42.1426 -41.8950
   -17.9965 -17.9680 -17.9605 -17.9132 -17.8631 -17.5472 -17.4769 -17.4734
   -17.4301 -17.4078 -17.0062 -16.8075 -16.1587  -6.2770  -6.2393  -6.1169
    -6.1110  -6.0058  -5.7588  -5.6688  -5.6277  -5.6167  -5.4154  -5.1790
    -5.0966  -4.8374  -4.5877  -4.4126  -4.1197  -3.8721  -3.8306  -3.7976
    -3.7594  -3.6471  -3.6368  -3.6093  -3.0085  -2.9524  -2.8231  -2.6236
    -2.6039  -2.5203  -2.5035  -2.2760  -2.1863  -2.1356  -1.8407  -1.6605
    -1.6290  -1.5011  -1.3081  -1.0939  -0.2009  -0.0389   0.0295   0.0868
     0.2018   0.4444   0.4888   0.5624   0.5868   0.6323   0.7408   1.1702
     1.8243   1.8432   2.0019   2.0101   2.1779   2.1977   2.4006   3.0031
     3.2474   3.4492   3.5748   4.0429   4.2118   5.3267   5.5944   5.6415

          k =-0.5000-0.2445 0.0000 ( 40872 PWs)   bands (ev):

   -73.4720 -72.7631 -72.5264 -72.3628 -72.3442 -72.0598 -44.0236 -43.4608
   -43.0585 -42.9343 -42.8404 -42.6922 -42.6267 -42.6112 -42.6048 -42.5700
   -42.3994 -42.3760 -42.3678 -42.2736 -42.2174 -42.1459 -42.1421 -41.8949
   -18.0518 -18.0430 -18.0043 -17.9886 -17.8680 -17.4751 -17.4665 -17.4092
   -17.3738 -17.3323 -17.0075 -16.8102 -16.1582  -6.4830  -6.2807  -6.2053
    -6.1018  -6.0765  -5.7690  -5.6876  -5.6807  -5.6457  -5.5004  -5.1773
    -5.0553  -4.9600  -4.1863  -4.1221  -3.9058  -3.8785  -3.8185  -3.5972
    -3.5908  -3.5255  -3.4224  -3.2406  -3.2010  -2.8989  -2.8581  -2.8030
    -2.6736  -2.4157  -2.3120  -2.2051  -2.1553  -1.9308  -1.9210  -1.7980
    -1.7607  -1.7250  -1.5869  -1.2719  -0.5143  -0.2303  -0.1955   0.0004
     0.1103   0.1709   0.4517   0.4672   0.5969   0.6314   0.7551   1.2052
     1.7403   1.9147   2.0770   2.1155   2.3490   2.3648   2.4552   2.6080
     3.0654   3.1872   3.2835   4.0697   4.2138   5.7222   5.7810   5.8294

          k =-0.5000-0.1223 0.0000 ( 40858 PWs)   bands (ev):

   -73.4720 -72.7631 -72.5264 -72.3628 -72.3442 -72.0598 -44.0236 -43.4603
   -43.0578 -42.9350 -42.8411 -42.6913 -42.6267 -42.6090 -42.6048 -42.5699
   -42.4015 -42.3761 -42.3674 -42.2736 -42.2174 -42.1468 -42.1426 -41.8950
   -17.9965 -17.9680 -17.9605 -17.9132 -17.8631 -17.5472 -17.4769 -17.4734
   -17.4301 -17.4078 -17.0062 -16.8075 -16.1587  -6.2770  -6.2393  -6.1169
    -6.1110  -6.0058  -5.7588  -5.6688  -5.6277  -5.6167  -5.4154  -5.1790
    -5.0966  -4.8374  -4.5877  -4.4126  -4.1197  -3.8721  -3.8306  -3.7976
    -3.7594  -3.6471  -3.6368  -3.6093  -3.0085  -2.9524  -2.8231  -2.6236
    -2.6039  -2.5203  -2.5035  -2.2760  -2.1863  -2.1356  -1.8407  -1.6605
    -1.6290  -1.5011  -1.3081  -1.0939  -0.2009  -0.0389   0.0295   0.0868
     0.2018   0.4444   0.4888   0.5624   0.5868   0.6323   0.7408   1.1702
     1.8243   1.8432   2.0019   2.0101   2.1779   2.1977   2.4006   3.0031
     3.2474   3.4492   3.5748   4.0429   4.2118   5.3267   5.5944   5.6415

          k =-0.3750 0.0000 0.0000 ( 40852 PWs)   bands (ev):

   -73.4735 -72.7647 -72.5280 -72.3643 -72.3458 -72.0613 -44.0253 -43.4348
   -43.0623 -42.9082 -42.8426 -42.6925 -42.6293 -42.6089 -42.6072 -42.5460
   -42.3862 -42.3719 -42.3420 -42.2758 -42.2205 -42.1472 -42.1213 -41.8997
   -18.1231 -18.0026 -17.8747 -17.8473 -17.7499 -17.6403 -17.6049 -17.5312
   -17.4602 -17.4129 -17.0750 -16.8316 -16.1957  -6.3487  -6.1760  -6.0549
    -6.0302  -5.9086  -5.8519  -5.6544  -5.6237  -5.5029  -5.4048  -5.2078
    -5.0557  -4.8283  -4.7894  -4.5825  -4.4185  -4.3685  -4.2110  -3.9676
    -3.6567  -3.5021  -3.4150  -3.3828  -3.3293  -3.1637  -3.0936  -2.8164
    -2.6734  -2.6004  -2.4442  -2.2783  -2.2199  -2.0355  -1.9558  -1.5169
    -1.3889  -1.3849  -1.2365  -0.9761  -0.1541   0.0143   0.2684   0.4717
     0.5803   0.6603   0.7646   0.7708   0.8606   1.0265   1.1605   1.2103
     1.3754   1.5213   1.6510   1.7809   1.9614   2.1467   2.3634   3.4200
     3.8006   4.0568   4.2705   4.3777   4.4789   4.5400   4.7803   4.9378

          k =-0.3750 0.1223 0.0000 ( 40842 PWs)   bands (ev):

   -73.4735 -72.7647 -72.5280 -72.3643 -72.3458 -72.0613 -44.0253 -43.4353
   -43.0623 -42.9077 -42.8425 -42.6931 -42.6294 -42.6104 -42.6071 -42.5461
   -42.3857 -42.3705 -42.3425 -42.2759 -42.2205 -42.1470 -42.1206 -41.8997
   -18.1030 -18.0021 -17.9385 -17.8799 -17.8184 -17.6362 -17.5386 -17.4832
   -17.4518 -17.4000 -17.0741 -16.8355 -16.1959  -6.2196  -6.1275  -6.1005
    -6.0504  -5.9644  -5.7666  -5.6579  -5.6036  -5.5202  -5.4733  -5.3541
    -5.0428  -4.7794  -4.7081  -4.5394  -4.4603  -4.2879  -4.0399  -3.8558
    -3.6440  -3.5654  -3.3465  -3.3065  -3.2335  -3.1426  -3.0465  -2.8779
    -2.7366  -2.6088  -2.5038  -2.2869  -2.1850  -2.0627  -1.9402  -1.6240
    -1.5507  -1.4091  -1.2654  -1.1274  -0.1308  -0.0815   0.1987   0.2340
     0.5361   0.6011   0.6337   0.7564   0.8052   0.9218   0.9507   1.2180
     1.6697   1.7367   1.8257   1.8757   2.0302   2.0518   2.4740   3.1687
     3.4810   3.6481   3.7470   4.0978   4.2878   5.1298   5.4520   5.5713

          k =-0.3750-0.2445 0.0000 ( 40856 PWs)   bands (ev):

   -73.4735 -72.7647 -72.5280 -72.3643 -72.3458 -72.0613 -44.0253 -43.4358
   -43.0624 -42.9072 -42.8424 -42.6936 -42.6294 -42.6119 -42.6071 -42.5462
   -42.3853 -42.3691 -42.3430 -42.2759 -42.2205 -42.1468 -42.1198 -41.8997
   -18.0512 -18.0356 -17.9951 -17.9046 -17.8574 -17.6438 -17.4881 -17.4653
   -17.4275 -17.3874 -17.0729 -16.8396 -16.1961  -6.2551  -6.0815  -5.9321
    -5.9221  -5.8568  -5.8228  -5.7622  -5.6904  -5.6776  -5.5601  -5.4136
    -4.9411  -4.7933  -4.5524  -4.5032  -4.2943  -4.2016  -4.0685  -3.7348
    -3.5430  -3.4377  -3.4064  -3.2893  -3.2698  -3.1569  -3.1195  -2.9783
    -2.7736  -2.7369  -2.3605  -2.2251  -2.1471  -2.0336  -1.9012  -1.8526
    -1.5842  -1.4338  -1.2848  -1.2573  -0.3286  -0.2643  -0.1009   0.3138
     0.4363   0.5990   0.6738   0.7659   0.8167   0.8737   1.0059   1.2030
     1.5654   1.7952   1.9587   1.9833   2.1096   2.2045   2.5721   2.7576
     3.2113   3.3155   3.5138   4.1222   4.2902   5.5104   5.6006   5.8133

          k =-0.3750-0.1223 0.0000 ( 40842 PWs)   bands (ev):

   -73.4735 -72.7647 -72.5280 -72.3643 -72.3458 -72.0613 -44.0253 -43.4353
   -43.0623 -42.9077 -42.8425 -42.6931 -42.6294 -42.6104 -42.6071 -42.5461
   -42.3857 -42.3705 -42.3425 -42.2759 -42.2205 -42.1470 -42.1206 -41.8997
   -18.1030 -18.0021 -17.9385 -17.8799 -17.8184 -17.6362 -17.5386 -17.4832
   -17.4518 -17.4000 -17.0741 -16.8355 -16.1959  -6.2196  -6.1275  -6.1005
    -6.0504  -5.9644  -5.7666  -5.6579  -5.6036  -5.5202  -5.4733  -5.3541
    -5.0428  -4.7794  -4.7081  -4.5394  -4.4603  -4.2879  -4.0399  -3.8558
    -3.6440  -3.5654  -3.3465  -3.3065  -3.2335  -3.1426  -3.0465  -2.8779
    -2.7366  -2.6088  -2.5038  -2.2869  -2.1850  -2.0627  -1.9402  -1.6240
    -1.5507  -1.4091  -1.2654  -1.1274  -0.1308  -0.0815   0.1987   0.2340
     0.5361   0.6011   0.6337   0.7564   0.8052   0.9218   0.9507   1.2180
     1.6697   1.7367   1.8257   1.8757   2.0302   2.0518   2.4740   3.1687
     3.4810   3.6481   3.7470   4.0978   4.2878   5.1298   5.4520   5.5713

          k =-0.2500 0.0000 0.0000 ( 40947 PWs)   bands (ev):

   -73.4770 -72.7685 -72.5316 -72.3680 -72.3494 -72.0651 -44.0294 -43.3742
   -43.0749 -42.8448 -42.8410 -42.6975 -42.6390 -42.6143 -42.6121 -42.4856
   -42.3928 -42.3119 -42.2936 -42.2692 -42.2281 -42.1572 -42.0568 -41.9105
   -18.4748 -18.2982 -18.1177 -17.9756 -17.7858 -17.5673 -17.4673 -17.4345
   -17.4220 -17.3486 -17.0645 -16.8660 -16.2236  -6.7841  -6.6222  -6.5874
    -6.2571  -5.9985  -5.9818  -5.8611  -5.8125  -5.4772  -5.4466  -5.0496
    -4.9858  -4.6489  -4.5314  -4.5131  -4.3304  -4.1427  -4.0299  -3.9886
    -3.7543  -3.6754  -3.3387  -3.1985  -3.1256  -3.0097  -2.8562  -2.8045
    -2.6886  -2.4863  -2.4007  -2.2245  -2.2119  -2.1115  -2.0519  -1.6150
    -1.4586  -1.2632  -1.2028  -0.9733  -0.2132  -0.1263   0.1698   0.4429
     0.5105   0.5800   0.7957   0.9682   1.0624   1.1596   1.1986   1.3272
     1.3598   1.4694   1.4902   1.6087   1.8510   2.1773   2.4893   3.9513
     4.1708   4.2279   4.3995   4.6621   4.7359   4.7997   4.8754   4.9593

          k =-0.2500 0.1223 0.0000 ( 40905 PWs)   bands (ev):

   -73.4770 -72.7685 -72.5316 -72.3679 -72.3495 -72.0651 -44.0294 -43.3746
   -43.0736 -42.8461 -42.8408 -42.6973 -42.6390 -42.6143 -42.6120 -42.4857
   -42.3928 -42.3108 -42.2939 -42.2696 -42.2281 -42.1577 -42.0564 -41.9110
   -18.3876 -18.2026 -18.0232 -18.0149 -17.7751 -17.6487 -17.5468 -17.5042
   -17.4657 -17.3984 -17.0548 -16.8728 -16.2231  -6.4724  -6.3360  -6.2695
    -6.2230  -5.9918  -5.8725  -5.8251  -5.6496  -5.5724  -5.3679  -5.1092
    -4.8044  -4.7352  -4.6668  -4.5068  -4.4542  -4.3572  -4.2348  -4.1412
    -3.9968  -3.5693  -3.5114  -3.3565  -3.2078  -3.1855  -3.0218  -2.9309
    -2.7737  -2.6605  -2.4412  -2.2594  -2.1712  -2.1205  -1.9362  -1.6066
    -1.4279  -1.2590  -1.1680  -1.0296  -0.2183   0.0994   0.4126   0.4587
     0.5754   0.8297   0.8901   0.9634   1.0518   1.1351   1.2012   1.2603
     1.3580   1.5249   1.5922   1.6541   1.7866   2.0573   2.6061   3.7049
     4.0317   4.1357   4.2347   4.3689   4.6625   4.7754   5.2034   5.3501

          k =-0.2500-0.2445 0.0000 ( 40892 PWs)   bands (ev):

   -73.4770 -72.7685 -72.5316 -72.3679 -72.3495 -72.0651 -44.0294 -43.3749
   -43.0722 -42.8472 -42.8407 -42.6972 -42.6390 -42.6143 -42.6119 -42.4857
   -42.3928 -42.3097 -42.2942 -42.2701 -42.2281 -42.1582 -42.0560 -41.9115
   -18.2090 -18.1629 -17.9736 -17.9259 -17.7765 -17.7547 -17.6979 -17.6287
   -17.5139 -17.3978 -17.0451 -16.8806 -16.2227  -6.2783  -6.0366  -5.9573
    -5.8472  -5.8026  -5.7912  -5.6693  -5.5587  -5.3249  -5.3012  -5.2293
    -5.0020  -4.9975  -4.9625  -4.7862  -4.5923  -4.4956  -4.2448  -4.0453
    -3.8297  -3.7505  -3.6422  -3.6063  -3.5286  -3.5080  -3.2891  -3.2747
    -2.9326  -2.7914  -2.3865  -2.2460  -1.9471  -1.8728  -1.6745  -1.6174
    -1.3412  -1.3056  -1.1406  -1.1193  -0.0053   0.0228   0.2621   0.5669
     0.5906   0.8618   1.0117   1.0879   1.1169   1.1380   1.2695   1.3767
     1.3942   1.5988   1.6488   1.7755   1.8108   1.9128   2.6981   3.3003
     3.7466   3.8320   4.0859   4.3587   4.6769   5.0675   5.3093   5.5855

          k =-0.2500-0.1223 0.0000 ( 40905 PWs)   bands (ev):

   -73.4770 -72.7685 -72.5316 -72.3679 -72.3495 -72.0651 -44.0294 -43.3746
   -43.0736 -42.8461 -42.8408 -42.6973 -42.6390 -42.6143 -42.6120 -42.4857
   -42.3928 -42.3108 -42.2939 -42.2696 -42.2281 -42.1577 -42.0564 -41.9110
   -18.3876 -18.2026 -18.0232 -18.0149 -17.7751 -17.6487 -17.5468 -17.5042
   -17.4657 -17.3984 -17.0548 -16.8728 -16.2231  -6.4724  -6.3360  -6.2695
    -6.2230  -5.9918  -5.8725  -5.8251  -5.6496  -5.5724  -5.3679  -5.1092
    -4.8044  -4.7352  -4.6668  -4.5068  -4.4542  -4.3572  -4.2348  -4.1412
    -3.9968  -3.5693  -3.5114  -3.3565  -3.2078  -3.1855  -3.0218  -2.9309
    -2.7737  -2.6605  -2.4412  -2.2594  -2.1712  -2.1205  -1.9362  -1.6066
    -1.4279  -1.2590  -1.1680  -1.0296  -0.2183   0.0994   0.4126   0.4587
     0.5754   0.8297   0.8901   0.9634   1.0518   1.1351   1.2012   1.2603
     1.3580   1.5249   1.5922   1.6541   1.7866   2.0573   2.6061   3.7049
     4.0317   4.1357   4.2347   4.3689   4.6625   4.7754   5.2034   5.3501

          k =-0.1250 0.0000 0.0000 ( 40851 PWs)   bands (ev):

   -73.4806 -72.7724 -72.5352 -72.3716 -72.3531 -72.0688 -44.0336 -43.3131
   -43.0873 -42.8471 -42.7729 -42.7024 -42.6497 -42.6198 -42.6171 -42.4236
   -42.4027 -42.2945 -42.2478 -42.2356 -42.2129 -42.1671 -41.9913 -41.9212
   -18.8005 -18.5870 -18.3861 -18.1472 -17.9045 -17.7696 -17.4132 -17.2808
   -17.2473 -17.1597 -16.9469 -16.8261 -16.1722  -7.2533  -7.0696  -7.0571
    -6.4529  -6.4330  -6.0531  -5.8127  -5.7599  -5.6347  -5.5771  -5.4690
    -5.2083  -5.0427  -4.9779  -4.4220  -4.0914  -4.0332  -3.4399  -3.2780
    -3.2467  -3.1582  -3.0778  -3.0640  -2.9077  -2.7489  -2.7235  -2.5672
    -2.4769  -2.3329  -2.1804  -2.1538  -2.0683  -2.0613  -1.8704  -1.7216
    -1.5818  -1.1032  -1.0716  -0.6957  -0.4319  -0.2497   0.0159   0.0539
     0.1400   0.3247   0.4544   0.5157   0.6798   0.6942   1.1461   1.1981
     1.3303   1.4377   1.6333   1.8687   2.1401   2.3577   2.5585   3.7077
     4.3414   4.7573   4.7726   4.8899   5.0489   5.3526   5.3929   5.4535

          k =-0.1250 0.1223 0.0000 ( 40932 PWs)   bands (ev):

   -73.4806 -72.7724 -72.5352 -72.3716 -72.3531 -72.0688 -44.0336 -43.3132
   -43.0849 -42.8496 -42.7729 -42.7016 -42.6497 -42.6186 -42.6170 -42.4236
   -42.4027 -42.2945 -42.2472 -42.2356 -42.2137 -42.1684 -41.9912 -41.9222
   -18.6860 -18.4615 -18.2658 -18.1952 -17.9046 -17.8088 -17.4462 -17.3965
   -17.3458 -17.3284 -16.9267 -16.8388 -16.1698  -6.8525  -6.6526  -6.6170
    -6.4568  -6.4114  -5.9573  -5.7725  -5.6964  -5.6484  -5.5341  -5.2591
    -5.2058  -5.0442  -4.8531  -4.4587  -4.2160  -4.0217  -4.0010  -3.7026
    -3.4695  -3.4424  -3.3615  -3.3281  -3.1861  -3.1323  -3.0611  -2.8258
    -2.6362  -2.5259  -2.3337  -2.2094  -2.0737  -2.0003  -1.7496  -1.5611
    -1.4322  -1.0782  -0.9928  -0.7940  -0.0698   0.1670   0.1874   0.2627
     0.3736   0.4359   0.6626   0.7383   0.7906   0.8778   1.1386   1.2216
     1.3536   1.4634   1.6651   1.7117   1.9191   2.3091   2.5769   4.0220
     4.4027   4.7418   4.8316   4.8585   4.9965   5.1939   5.2564   5.3680

          k =-0.1250-0.2445 0.0000 ( 40974 PWs)   bands (ev):

   -73.4806 -72.7724 -72.5352 -72.3715 -72.3532 -72.0688 -44.0336 -43.3133
   -43.0823 -42.8521 -42.7729 -42.7009 -42.6497 -42.6176 -42.6167 -42.4236
   -42.4026 -42.2946 -42.2465 -42.2357 -42.2145 -42.1698 -41.9912 -41.9232
   -18.4486 -18.3991 -18.2301 -18.0347 -17.9816 -17.8921 -17.5698 -17.5480
   -17.4868 -17.3842 -16.8909 -16.8705 -16.1679  -6.4912  -6.4627  -6.1399
    -5.9394  -5.8407  -5.7695  -5.7586  -5.6871  -5.6524  -5.6409  -5.2443
    -5.0701  -4.8998  -4.7874  -4.6383  -4.4763  -4.3244  -4.1724  -4.1431
    -4.0995  -4.0055  -3.8762  -3.7913  -3.4741  -3.3728  -3.2800  -2.8601
    -2.7267  -2.6348  -2.3165  -2.2391  -1.9409  -1.7727  -1.5580  -1.4069
    -1.1582  -1.0962  -1.0132  -0.9918   0.1815   0.1917   0.2873   0.3911
     0.5282   0.5819   0.7832   1.1035   1.1238   1.1318   1.2009   1.2492
     1.3988   1.4223   1.5278   1.6475   1.9205   1.9935   2.7236   4.0786
     4.4315   4.5451   4.7160   4.8397   5.0705   5.1050   5.2956   5.4267

          k =-0.1250-0.1223 0.0000 ( 40932 PWs)   bands (ev):

   -73.4806 -72.7724 -72.5352 -72.3716 -72.3531 -72.0688 -44.0336 -43.3132
   -43.0849 -42.8496 -42.7729 -42.7016 -42.6497 -42.6186 -42.6170 -42.4236
   -42.4027 -42.2945 -42.2472 -42.2356 -42.2137 -42.1684 -41.9912 -41.9222
   -18.6860 -18.4615 -18.2658 -18.1952 -17.9046 -17.8088 -17.4462 -17.3965
   -17.3458 -17.3284 -16.9267 -16.8388 -16.1698  -6.8525  -6.6526  -6.6170
    -6.4568  -6.4114  -5.9573  -5.7725  -5.6964  -5.6484  -5.5341  -5.2591
    -5.2058  -5.0442  -4.8531  -4.4587  -4.2160  -4.0217  -4.0010  -3.7026
    -3.4695  -3.4424  -3.3615  -3.3281  -3.1861  -3.1323  -3.0611  -2.8258
    -2.6362  -2.5259  -2.3337  -2.2094  -2.0737  -2.0003  -1.7496  -1.5611
    -1.4322  -1.0782  -0.9928  -0.7940  -0.0698   0.1670   0.1874   0.2627
     0.3736   0.4359   0.6626   0.7383   0.7906   0.8778   1.1386   1.2216
     1.3536   1.4634   1.6651   1.7117   1.9191   2.3091   2.5769   4.0220
     4.4027   4.7418   4.8316   4.8585   4.9965   5.1939   5.2564   5.3680

     the Fermi energy is     1.1921 ev

!    total energy              =   -1672.25459992 Ry
     estimated scf accuracy    <          8.6E-09 Ry
     smearing contrib. (-TS)   =      -0.00196898 Ry
     internal energy E=F+TS    =   -1672.25263094 Ry

     The total energy is F=E-TS. E is the sum of the following terms:
     one-electron contribution =  -16962.63948111 Ry
     hartree contribution      =    8503.33192515 Ry
     xc contribution           =    -214.03693347 Ry
     ewald contribution        =    7124.87842802 Ry
     one-center paw contrib.   =    -123.78656953 Ry

     convergence has been achieved in   9 iterations

     negative rho (up, down):  1.096E-04 0.000E+00

     Forces acting on atoms (cartesian axes, Ry/au):

     atom    1 type  1   force =    -0.00000000   -0.00008841    0.07058068
     atom    2 type  1   force =     0.00000000    0.00085602   -0.09115253
     atom    3 type  1   force =     0.00000000   -0.00009504    0.00087060
     atom    4 type  1   force =    -0.00000006   -0.00037845   -0.00124989
     atom    5 type  1   force =    -0.00000002   -0.00018906    0.00224704
     atom    6 type  1   force =     0.00000001    0.00294144    0.00025788
     atom    7 type  2   force =    -0.00000000   -0.00219056    0.01719531
     atom    8 type  2   force =    -0.00000000    0.00005002    0.06200982
     atom    9 type  2   force =    -0.00000000    0.02374719   -0.02496559
     atom   10 type  2   force =     0.00000000   -0.02440836   -0.02445073
     atom   11 type  2   force =     0.00000002    0.00065733   -0.00084269
     atom   12 type  2   force =     0.00000003    0.00216216   -0.00924918
     atom   13 type  2   force =     0.00000004    0.00056669   -0.00174431
     atom   14 type  2   force =    -0.00000003    0.00005067    0.00166443
     atom   15 type  2   force =    -0.00000004    0.00199675   -0.00106402
     atom   16 type  2   force =    -0.00000001   -0.00086603    0.00099838
     atom   17 type  2   force =     0.00000003   -0.00174802   -0.00008577
     atom   18 type  2   force =     0.00000003   -0.00163755    0.00090780
     atom   19 type  2   force =     0.00000000   -0.00142676   -0.00192720

     Total force =     0.006538     Total SCF correction =     0.000503
     Energy error            =      6.3E-05 Ry
     Gradient error          =      2.9E-03 Ry/Bohr

     number of scf cycles    =  15
     number of bfgs steps    =  14

     energy             old  =   -1672.2545371410 Ry
     energy             new  =   -1672.2545999210 Ry

     CASE: energy            _new < energy            _old

     new trust radius        =       0.0275164203 bohr
     new conv_thr            =       0.0000000100 Ry


ATOMIC_POSITIONS (angstrom)
Ru               0.0000000000        1.5881618300        9.5289709800    0   0   0
Ru               1.5535000000        4.7644854900        9.5289709800    0   0   0
Ru               0.0000000012        4.7695907559       12.7171034591
Ru               1.5535000848        1.5892799005       12.7100804889
Ru              -0.0000000423        1.6321156508       16.0555388254
Ru               1.5535000336        4.8009703270       15.9457140362
O                0.0000000000        4.7644854900       10.7677372100    0   0   0
O                0.0000000000        4.7644854900        8.2902047600    0   0   0
O                1.5535000000        0.3493956000        9.5289709800    0   0   0
O                1.5535000000        2.8269280600        9.5289709800    0   0   0
O                0.0000000368        1.5772936416       13.9836107013
O                0.0000000000        1.5881618300       11.4665284200    0   0   0
O                1.5534999648        3.5329941536       12.7247979260
O                1.5535000540        6.0024355456       12.6858130057
O                0.0000001070        4.7613398947       17.0504755415
O               -0.0000000021        4.8102661225       14.6454870690
O                1.5534999353        0.4073374612       15.9087513808
O                1.5534999412        2.8443177231       15.8072071239
O               -0.0000001341        1.7282769762       17.7514068028



     Writing config-only to output data dir ./tmp_s0_O__1x1_off/s0_O__1x1_off.save/ :
     XML data file
     NEW-OLD atomic charge density approx. for the potential

     negative rho (up, down):  1.093E-04 0.000E+00

     total cpu time spent up to now is    19204.9 secs

     per-process dynamical memory:  1113.7 Mb

     Self-consistent Calculation

     iteration #  1     ecut=    80.00 Ry     beta= 0.30
     Davidson diagonalization with overlap
     ethr =  1.00E-06,  avg # of iterations =  4.0

     Threshold (ethr) on eigenvalues was too large:
     Diagonalizing with lowered threshold

     Davidson diagonalization with overlap
     ethr =  8.04E-08,  avg # of iterations =  2.2

     negative rho (up, down):  1.098E-04 0.000E+00

     total cpu time spent up to now is    19425.4 secs

     total energy              =   -1672.25466100 Ry
     estimated scf accuracy    <       0.00014257 Ry

     iteration #  2     ecut=    80.00 Ry     beta= 0.30
     Davidson diagonalization with overlap
     ethr =  8.19E-08,  avg # of iterations =  1.0

     negative rho (up, down):  1.094E-04 0.000E+00

     total cpu time spent up to now is    19505.3 secs

     total energy              =   -1672.25466031 Ry
     estimated scf accuracy    <       0.00009577 Ry

     iteration #  3     ecut=    80.00 Ry     beta= 0.30
     Davidson diagonalization with overlap
     ethr =  5.50E-08,  avg # of iterations =  1.0

     negative rho (up, down):  1.079E-04 0.000E+00

     total cpu time spent up to now is    19586.1 secs

     total energy              =   -1672.25465388 Ry
     estimated scf accuracy    <       0.00002837 Ry

     iteration #  4     ecut=    80.00 Ry     beta= 0.30
     Davidson diagonalization with overlap
     ethr =  1.63E-08,  avg # of iterations =  2.0

     negative rho (up, down):  1.074E-04 0.000E+00

     total cpu time spent up to now is    19675.1 secs

     total energy              =   -1672.25465489 Ry
     estimated scf accuracy    <       0.00000675 Ry

     iteration #  5     ecut=    80.00 Ry     beta= 0.30
     Davidson diagonalization with overlap
     ethr =  3.88E-09,  avg # of iterations =  3.9

     negative rho (up, down):  1.066E-04 0.000E+00

     total cpu time spent up to now is    19767.9 secs

     total energy              =   -1672.25465528 Ry
     estimated scf accuracy    <       0.00000114 Ry

     iteration #  6     ecut=    80.00 Ry     beta= 0.30
     Davidson diagonalization with overlap
     ethr =  6.55E-10,  avg # of iterations =  2.5

     negative rho (up, down):  1.062E-04 0.000E+00

     total cpu time spent up to now is    19857.3 secs

     total energy              =   -1672.25465531 Ry
     estimated scf accuracy    <       0.00000028 Ry

     iteration #  7     ecut=    80.00 Ry     beta= 0.30
     Davidson diagonalization with overlap
     ethr =  1.63E-10,  avg # of iterations =  2.8

     negative rho (up, down):  1.057E-04 0.000E+00

     total cpu time spent up to now is    19945.7 secs

     total energy              =   -1672.25465531 Ry
     estimated scf accuracy    <       0.00000014 Ry

     iteration #  8     ecut=    80.00 Ry     beta= 0.30
     Davidson diagonalization with overlap
     ethr =  8.30E-11,  avg # of iterations =  1.1

     negative rho (up, down):  1.054E-04 0.000E+00

     total cpu time spent up to now is    20027.3 secs

     total energy              =   -1672.25465532 Ry
     estimated scf accuracy    <       0.00000002 Ry

     iteration #  9     ecut=    80.00 Ry     beta= 0.30
     Davidson diagonalization with overlap
     ethr =  1.31E-11,  avg # of iterations =  2.7

     negative rho (up, down):  1.094E-04 0.000E+00

     total cpu time spent up to now is    20113.8 secs

     End of self-consistent calculation

          k = 0.0000 0.0000 0.0000 ( 40831 PWs)   bands (ev):

   -73.4851 -72.7738 -72.5360 -72.3721 -72.3539 -72.0700 -44.0401 -43.2903
   -43.0947 -42.8482 -42.7447 -42.7037 -42.6537 -42.6212 -42.6189 -42.4060
   -42.3970 -42.2967 -42.2376 -42.2203 -42.1856 -42.1705 -41.9635 -41.9253
   -18.9285 -18.7040 -18.4944 -18.2320 -17.9790 -17.8503 -17.4080 -17.2046
   -17.1698 -17.0787 -16.9070 -16.7732 -16.1311  -7.4382  -7.2452  -7.2351
    -6.6257  -6.4530  -6.0100  -5.7709  -5.7606  -5.7013  -5.6326  -5.5429
    -5.4826  -5.3185  -5.1933  -4.5922  -4.1749  -3.5783  -3.3964  -3.1910
    -3.0844  -2.9573  -2.9417  -2.7906  -2.7179  -2.6730  -2.6700  -2.5043
    -2.3701  -2.2649  -2.1855  -2.0021  -1.9478  -1.6772  -1.4711  -1.4269
    -1.2420  -1.1768  -0.7425  -0.7104  -0.5430  -0.5385  -0.2308  -0.2102
    -0.1475  -0.1448   0.2617   0.3311   0.4493   0.5249   0.9863   1.1116
     1.2208   1.4300   1.7566   2.0211   2.2247   2.2819   2.7014   3.5291
     4.2219   4.7080   5.0424   5.2014   5.4213   5.5033   5.7104   5.7678

          k = 0.0000 0.1223 0.0000 ( 40974 PWs)   bands (ev):

   -73.4851 -72.7738 -72.5360 -72.3720 -72.3540 -72.0700 -44.0401 -43.2902
   -43.0919 -42.8512 -42.7448 -42.7026 -42.6537 -42.6195 -42.6187 -42.4060
   -42.3969 -42.2968 -42.2376 -42.2198 -42.1861 -42.1725 -41.9636 -41.9264
   -18.8074 -18.5719 -18.3722 -18.2807 -17.9942 -17.8815 -17.4197 -17.3344
   -17.2979 -17.2600 -16.8865 -16.7840 -16.1281  -7.0234  -6.7997  -6.7729
    -6.6176  -6.4411  -5.9399  -5.7588  -5.6500  -5.6213  -5.5520  -5.4787
    -5.4637  -5.3175  -5.0023  -4.6324  -4.2336  -4.0366  -3.7727  -3.6230
    -3.5427  -3.4126  -3.2662  -2.9105  -2.8785  -2.8696  -2.7518  -2.6872
    -2.5820  -2.3844  -2.2118  -2.1633  -2.0952  -1.7208  -1.6519  -1.6133
    -1.3597  -1.1439  -0.9087  -0.7060  -0.0743  -0.0630   0.1300   0.2473
     0.3371   0.3760   0.4153   0.5041   0.5330   0.6052   0.9748   1.0672
     1.2891   1.4761   1.7549   1.8234   2.0217   2.3578   2.5772   3.9202
     4.6435   4.8035   4.8889   5.2016   5.4318   5.4530   5.4953   5.5365

          k = 0.0000-0.2445 0.0000 ( 41014 PWs)   bands (ev):

   -73.4851 -72.7738 -72.5360 -72.3719 -72.3540 -72.0700 -44.0401 -43.2902
   -43.0890 -42.8543 -42.7448 -42.7016 -42.6537 -42.6190 -42.6175 -42.4060
   -42.3969 -42.2968 -42.2376 -42.2192 -42.1867 -42.1744 -41.9636 -41.9276
   -18.5553 -18.5074 -18.3370 -18.1255 -18.0760 -17.9719 -17.5068 -17.4787
   -17.4399 -17.3821 -16.8590 -16.8071 -16.1258  -6.6728  -6.4806  -6.3590
    -6.0305  -5.9854  -5.8624  -5.7557  -5.6227  -5.5378  -5.4679  -5.4640
    -5.3109  -5.0677  -4.9406  -4.6206  -4.6082  -4.5001  -4.4892  -4.3426
    -4.2914  -3.6884  -3.4967  -3.3505  -3.1498  -3.1244  -2.9900  -2.7100
    -2.5862  -2.4742  -2.2290  -2.1308  -1.9677  -1.7182  -1.6496  -1.4112
    -1.1979  -1.0984  -0.9995  -0.9959   0.1831   0.1940   0.2701   0.3874
     0.5064   0.6613   0.7918   0.8087   0.8804   0.9105   1.0362   1.1065
     1.2023   1.5441   1.5555   1.5863   2.0056   2.1125   2.7060   4.3437
     4.5375   4.8313   5.1746   5.1790   5.2030   5.2448   5.5125   5.6676

          k = 0.0000-0.1223 0.0000 ( 40974 PWs)   bands (ev):

   -73.4851 -72.7738 -72.5360 -72.3720 -72.3540 -72.0700 -44.0401 -43.2902
   -43.0919 -42.8512 -42.7448 -42.7026 -42.6537 -42.6195 -42.6187 -42.4060
   -42.3969 -42.2968 -42.2376 -42.2198 -42.1861 -42.1725 -41.9636 -41.9264
   -18.8074 -18.5719 -18.3722 -18.2807 -17.9942 -17.8815 -17.4197 -17.3344
   -17.2979 -17.2600 -16.8865 -16.7840 -16.1281  -7.0234  -6.7997  -6.7729
    -6.6176  -6.4411  -5.9399  -5.7588  -5.6500  -5.6213  -5.5520  -5.4787
    -5.4637  -5.3175  -5.0023  -4.6324  -4.2336  -4.0366  -3.7727  -3.6230
    -3.5427  -3.4126  -3.2662  -2.9105  -2.8785  -2.8696  -2.7518  -2.6872
    -2.5820  -2.3844  -2.2118  -2.1633  -2.0952  -1.7208  -1.6519  -1.6133
    -1.3597  -1.1439  -0.9087  -0.7060  -0.0743  -0.0630   0.1300   0.2473
     0.3371   0.3760   0.4153   0.5041   0.5330   0.6052   0.9748   1.0672
     1.2891   1.4761   1.7549   1.8234   2.0217   2.3578   2.5772   3.9202
     4.6435   4.8035   4.8889   5.2016   5.4318   5.4530   5.4953   5.5365

          k = 0.1250 0.0000 0.0000 ( 40851 PWs)   bands (ev):

   -73.4836 -72.7722 -72.5345 -72.3706 -72.3524 -72.0684 -44.0384 -43.3157
   -43.0897 -42.8472 -42.7733 -42.7016 -42.6493 -42.6189 -42.6166 -42.4229
   -42.4019 -42.2940 -42.2470 -42.2347 -42.2113 -42.1664 -41.9909 -41.9208
   -18.8003 -18.5875 -18.3855 -18.1460 -17.9042 -17.7701 -17.4168 -17.2809
   -17.2470 -17.1592 -16.9463 -16.8268 -16.1717  -7.2552  -7.0688  -7.0564
    -6.4529  -6.4327  -6.0540  -5.8119  -5.7600  -5.6334  -5.5762  -5.4687
    -5.2090  -5.0428  -4.9782  -4.4245  -4.0961  -4.0338  -3.4395  -3.2779
    -3.2467  -3.1584  -3.0777  -3.0650  -2.9075  -2.7497  -2.7224  -2.5684
    -2.4785  -2.3321  -2.1803  -2.1532  -2.0693  -2.0588  -1.8696  -1.7236
    -1.5816  -1.1007  -1.0714  -0.6907  -0.4345  -0.2546   0.0162   0.0549
     0.1404   0.3248   0.4550   0.5163   0.6806   0.6946   1.1472   1.1975
     1.3318   1.4392   1.6331   1.8682   2.1403   2.3582   2.5590   3.7095
     4.3434   4.7570   4.7695   4.8889   5.0497   5.3539   5.3931   5.4540

          k = 0.1250 0.1223 0.0000 ( 40932 PWs)   bands (ev):

   -73.4836 -72.7722 -72.5345 -72.3705 -72.3524 -72.0684 -44.0384 -43.3158
   -43.0872 -42.8497 -42.7733 -42.7008 -42.6493 -42.6177 -42.6165 -42.4229
   -42.4019 -42.2940 -42.2464 -42.2347 -42.2121 -42.1677 -41.9908 -41.9218
   -18.6858 -18.4619 -18.2655 -18.1942 -17.9046 -17.8090 -17.4478 -17.3964
   -17.3473 -17.3283 -16.9261 -16.8394 -16.1693  -6.8543  -6.6518  -6.6164
    -6.4566  -6.4113  -5.9581  -5.7726  -5.6956  -5.6472  -5.5332  -5.2593
    -5.2061  -5.0442  -4.8538  -4.4613  -4.2187  -4.0229  -4.0025  -3.7018
    -3.4687  -3.4425  -3.3616  -3.3272  -3.1849  -3.1325  -3.0642  -2.8256
    -2.6355  -2.5262  -2.3339  -2.2091  -2.0729  -1.9997  -1.7497  -1.5640
    -1.4319  -1.0778  -0.9918  -0.7929  -0.0710   0.1667   0.1860   0.2630
     0.3738   0.4367   0.6635   0.7386   0.7910   0.8784   1.1391   1.2218
     1.3549   1.4653   1.6652   1.7115   1.9190   2.3097   2.5773   4.0237
     4.4011   4.7428   4.8316   4.8573   4.9969   5.1945   5.2566   5.3695

          k = 0.1250-0.2445 0.0000 ( 40974 PWs)   bands (ev):

   -73.4836 -72.7722 -72.5345 -72.3704 -72.3525 -72.0684 -44.0384 -43.3159
   -43.0847 -42.8522 -42.7733 -42.7001 -42.6492 -42.6169 -42.6159 -42.4229
   -42.4019 -42.2941 -42.2458 -42.2347 -42.2129 -42.1690 -41.9907 -41.9228
   -18.4473 -18.3995 -18.2309 -18.0352 -17.9806 -17.8916 -17.5696 -17.5470
   -17.4870 -17.3881 -16.8896 -16.8719 -16.1674  -6.4903  -6.4638  -6.1415
    -5.9390  -5.8402  -5.7689  -5.7585  -5.6861  -5.6510  -5.6403  -5.2453
    -5.0703  -4.9020  -4.7879  -4.6401  -4.4761  -4.3251  -4.1740  -4.1424
    -4.0976  -4.0060  -3.8756  -3.7908  -3.4775  -3.3719  -3.2816  -2.8595
    -2.7277  -2.6340  -2.3158  -2.2394  -1.9407  -1.7729  -1.5577  -1.4068
    -1.1597  -1.0969  -1.0129  -0.9914   0.1810   0.1911   0.2876   0.3913
     0.5293   0.5800   0.7835   1.1044   1.1235   1.1336   1.2011   1.2498
     1.3990   1.4232   1.5284   1.6492   1.9204   1.9943   2.7241   4.0762
     4.4327   4.5453   4.7167   4.8393   5.0714   5.1050   5.2966   5.4279

          k = 0.1250-0.1223 0.0000 ( 40932 PWs)   bands (ev):

   -73.4836 -72.7722 -72.5345 -72.3705 -72.3524 -72.0684 -44.0384 -43.3158
   -43.0872 -42.8497 -42.7733 -42.7008 -42.6493 -42.6177 -42.6165 -42.4229
   -42.4019 -42.2940 -42.2464 -42.2347 -42.2121 -42.1677 -41.9908 -41.9218
   -18.6858 -18.4619 -18.2655 -18.1942 -17.9046 -17.8090 -17.4478 -17.3964
   -17.3473 -17.3283 -16.9261 -16.8394 -16.1693  -6.8543  -6.6518  -6.6164
    -6.4566  -6.4113  -5.9581  -5.7726  -5.6956  -5.6472  -5.5332  -5.2593
    -5.2061  -5.0442  -4.8538  -4.4613  -4.2187  -4.0229  -4.0025  -3.7018
    -3.4687  -3.4425  -3.3616  -3.3272  -3.1849  -3.1325  -3.0642  -2.8256
    -2.6355  -2.5262  -2.3339  -2.2091  -2.0729  -1.9997  -1.7497  -1.5640
    -1.4319  -1.0778  -0.9918  -0.7929  -0.0710   0.1667   0.1860   0.2630
     0.3738   0.4367   0.6635   0.7386   0.7910   0.8784   1.1391   1.2218
     1.3549   1.4653   1.6652   1.7115   1.9190   2.3097   2.5773   4.0237
     4.4011   4.7428   4.8316   4.8573   4.9969   5.1945   5.2566   5.3695

          k = 0.2500 0.0000 0.0000 ( 40947 PWs)   bands (ev):

   -73.4800 -72.7684 -72.5308 -72.3669 -72.3487 -72.0647 -44.0342 -43.3768
   -43.0773 -42.8449 -42.8415 -42.6967 -42.6386 -42.6134 -42.6116 -42.4849
   -42.3920 -42.3111 -42.2928 -42.2679 -42.2271 -42.1565 -42.0563 -41.9101
   -18.4746 -18.2989 -18.1173 -17.9742 -17.7857 -17.5684 -17.4668 -17.4351
   -17.4238 -17.3481 -17.0637 -16.8675 -16.2231  -6.7864  -6.6215  -6.5867
    -6.2581  -6.0001  -5.9814  -5.8614  -5.8121  -5.4757  -5.4478  -5.0507
    -4.9854  -4.6492  -4.5319  -4.5139  -4.3312  -4.1434  -4.0293  -3.9881
    -3.7541  -3.6757  -3.3393  -3.1986  -3.1296  -3.0079  -2.8553  -2.8049
    -2.6865  -2.4860  -2.4012  -2.2253  -2.2118  -2.1117  -2.0508  -1.6148
    -1.4621  -1.2618  -1.2016  -0.9727  -0.2064  -0.1334   0.1679   0.4434
     0.5109   0.5803   0.7960   0.9688   1.0631   1.1593   1.2001   1.3283
     1.3592   1.4689   1.4916   1.6093   1.8510   2.1779   2.4897   3.9526
     4.1718   4.2265   4.3996   4.6629   4.7370   4.7999   4.8759   4.9598

          k = 0.2500 0.1223 0.0000 ( 40905 PWs)   bands (ev):

   -73.4800 -72.7684 -72.5308 -72.3669 -72.3488 -72.0647 -44.0342 -43.3772
   -43.0759 -42.8461 -42.8412 -42.6965 -42.6386 -42.6134 -42.6115 -42.4850
   -42.3920 -42.3100 -42.2931 -42.2683 -42.2271 -42.1570 -42.0559 -41.9106
   -18.3873 -18.2033 -18.0223 -18.0146 -17.7748 -17.6494 -17.5465 -17.5040
   -17.4651 -17.4012 -17.0541 -16.8742 -16.2226  -6.4741  -6.3360  -6.2689
    -6.2233  -5.9914  -5.8739  -5.8261  -5.6491  -5.5726  -5.3672  -5.1100
    -4.8043  -4.7355  -4.6671  -4.5067  -4.4535  -4.3573  -4.2362  -4.1418
    -3.9965  -3.5700  -3.5120  -3.3563  -3.2094  -3.1854  -3.0213  -2.9305
    -2.7732  -2.6616  -2.4405  -2.2582  -2.1698  -2.1219  -1.9357  -1.6070
    -1.4306  -1.2582  -1.1678  -1.0289  -0.2180   0.0979   0.4116   0.4589
     0.5760   0.8302   0.8904   0.9639   1.0525   1.1344   1.2016   1.2614
     1.3595   1.5262   1.5930   1.6539   1.7863   2.0578   2.6065   3.7043
     4.0328   4.1361   4.2351   4.3690   4.6638   4.7759   5.2046   5.3504

          k = 0.2500-0.2445 0.0000 ( 40892 PWs)   bands (ev):

   -73.4800 -72.7684 -72.5308 -72.3668 -72.3488 -72.0647 -44.0342 -43.3775
   -43.0746 -42.8472 -42.8411 -42.6964 -42.6386 -42.6134 -42.6114 -42.4851
   -42.3920 -42.3089 -42.2934 -42.2688 -42.2271 -42.1575 -42.0556 -41.9111
   -18.2073 -18.1633 -17.9767 -17.9248 -17.7760 -17.7538 -17.6968 -17.6284
   -17.5141 -17.4007 -17.0444 -16.8819 -16.2221  -6.2793  -6.0372  -5.9577
    -5.8477  -5.8027  -5.7902  -5.6691  -5.5600  -5.3238  -5.3015  -5.2293
    -5.0011  -4.9970  -4.9621  -4.7878  -4.5938  -4.4971  -4.2466  -4.0454
    -3.8301  -3.7494  -3.6397  -3.6023  -3.5325  -3.5105  -3.2873  -3.2743
    -2.9366  -2.7910  -2.3859  -2.2462  -1.9453  -1.8719  -1.6758  -1.6175
    -1.3419  -1.3049  -1.1428  -1.1181  -0.0064   0.0235   0.2610   0.5673
     0.5909   0.8619   1.0121   1.0845   1.1178   1.1422   1.2692   1.3768
     1.3957   1.6002   1.6495   1.7764   1.8109   1.9128   2.6985   3.2993
     3.7470   3.8325   4.0871   4.3586   4.6780   5.0685   5.3104   5.5863

          k = 0.2500-0.1223 0.0000 ( 40905 PWs)   bands (ev):

   -73.4800 -72.7684 -72.5308 -72.3669 -72.3488 -72.0647 -44.0342 -43.3772
   -43.0759 -42.8461 -42.8412 -42.6965 -42.6386 -42.6134 -42.6115 -42.4850
   -42.3920 -42.3100 -42.2931 -42.2683 -42.2271 -42.1570 -42.0559 -41.9106
   -18.3873 -18.2033 -18.0223 -18.0146 -17.7748 -17.6494 -17.5465 -17.5040
   -17.4651 -17.4012 -17.0541 -16.8742 -16.2226  -6.4741  -6.3360  -6.2689
    -6.2233  -5.9914  -5.8739  -5.8261  -5.6491  -5.5726  -5.3672  -5.1100
    -4.8043  -4.7355  -4.6671  -4.5067  -4.4535  -4.3573  -4.2362  -4.1418
    -3.9965  -3.5700  -3.5120  -3.3563  -3.2094  -3.1854  -3.0213  -2.9305
    -2.7732  -2.6616  -2.4405  -2.2582  -2.1698  -2.1219  -1.9357  -1.6070
    -1.4306  -1.2582  -1.1678  -1.0289  -0.2180   0.0979   0.4116   0.4589
     0.5760   0.8302   0.8904   0.9639   1.0525   1.1344   1.2016   1.2614
     1.3595   1.5262   1.5930   1.6539   1.7863   2.0578   2.6065   3.7043
     4.0328   4.1361   4.2351   4.3690   4.6638   4.7759   5.2046   5.3504

          k = 0.3750 0.0000 0.0000 ( 40852 PWs)   bands (ev):

   -73.4765 -72.7645 -72.5272 -72.3632 -72.3451 -72.0609 -44.0301 -43.4374
   -43.0647 -42.9087 -42.8427 -42.6917 -42.6289 -42.6079 -42.6068 -42.5453
   -42.3854 -42.3711 -42.3404 -42.2754 -42.2195 -42.1465 -42.1209 -41.8993
   -18.1223 -18.0038 -17.8743 -17.8472 -17.7497 -17.6397 -17.6043 -17.5305
   -17.4606 -17.4156 -17.0745 -16.8333 -16.1951  -6.3522  -6.1761  -6.0554
    -6.0301  -5.9090  -5.8532  -5.6530  -5.6259  -5.5026  -5.4042  -5.2070
    -5.0548  -4.8278  -4.7896  -4.5838  -4.4187  -4.3696  -4.2107  -3.9681
    -3.6583  -3.5016  -3.4147  -3.3832  -3.3299  -3.1626  -3.0943  -2.8158
    -2.6714  -2.6022  -2.4439  -2.2775  -2.2194  -2.0358  -1.9573  -1.5165
    -1.3885  -1.3847  -1.2380  -0.9756  -0.1543   0.0143   0.2682   0.4723
     0.5802   0.6610   0.7662   0.7702   0.8611   1.0275   1.1627   1.2091
     1.3752   1.5218   1.6519   1.7810   1.9618   2.1477   2.3637   3.4209
     3.7992   4.0570   4.2715   4.3781   4.4794   4.5408   4.7812   4.9383

          k = 0.3750 0.1223 0.0000 ( 40842 PWs)   bands (ev):

   -73.4765 -72.7645 -72.5272 -72.3632 -72.3451 -72.0609 -44.0301 -43.4379
   -43.0647 -42.9082 -42.8425 -42.6923 -42.6289 -42.6095 -42.6066 -42.5454
   -42.3849 -42.3697 -42.3408 -42.2754 -42.2195 -42.1463 -42.1202 -41.8993
   -18.1021 -18.0031 -17.9376 -17.8796 -17.8186 -17.6362 -17.5380 -17.4827
   -17.4520 -17.4026 -17.0735 -16.8372 -16.1953  -6.2208  -6.1304  -6.1009
    -6.0499  -5.9645  -5.7670  -5.6569  -5.6032  -5.5211  -5.4727  -5.3533
    -5.0441  -4.7808  -4.7085  -4.5394  -4.4605  -4.2873  -4.0416  -3.8559
    -3.6448  -3.5652  -3.3473  -3.3068  -3.2333  -3.1428  -3.0465  -2.8776
    -2.7357  -2.6076  -2.5055  -2.2870  -2.1845  -2.0635  -1.9397  -1.6235
    -1.5503  -1.4102  -1.2653  -1.1271  -0.1303  -0.0827   0.2015   0.2318
     0.5367   0.6015   0.6342   0.7574   0.8057   0.9224   0.9514   1.2187
     1.6715   1.7363   1.8257   1.8761   2.0317   2.0513   2.4744   3.1682
     3.4815   3.6486   3.7475   4.0980   4.2887   5.1306   5.4525   5.5723

          k = 0.3750-0.2445 0.0000 ( 40856 PWs)   bands (ev):

   -73.4765 -72.7645 -72.5272 -72.3632 -72.3451 -72.0609 -44.0301 -43.4384
   -43.0647 -42.9077 -42.8424 -42.6928 -42.6289 -42.6109 -42.6066 -42.5456
   -42.3845 -42.3683 -42.3413 -42.2754 -42.2195 -42.1461 -42.1194 -41.8994
   -18.0494 -18.0358 -17.9959 -17.9034 -17.8581 -17.6445 -17.4876 -17.4654
   -17.4271 -17.3899 -17.0724 -16.8413 -16.1955  -6.2571  -6.0817  -5.9316
    -5.9219  -5.8565  -5.8212  -5.7621  -5.6917  -5.6788  -5.5594  -5.4130
    -4.9435  -4.7936  -4.5532  -4.5040  -4.2939  -4.2061  -4.0688  -3.7342
    -3.5419  -3.4359  -3.4076  -3.2889  -3.2701  -3.1563  -3.1217  -2.9777
    -2.7731  -2.7379  -2.3605  -2.2256  -2.1451  -2.0331  -1.9029  -1.8534
    -1.5848  -1.4334  -1.2842  -1.2568  -0.3276  -0.2637  -0.1027   0.3148
     0.4370   0.5984   0.6754   0.7674   0.8167   0.8743   1.0065   1.2032
     1.5665   1.7957   1.9605   1.9832   2.1101   2.2045   2.5724   2.7559
     3.2120   3.3160   3.5145   4.1224   4.2910   5.5114   5.6023   5.8142

          k = 0.3750-0.1223 0.0000 ( 40842 PWs)   bands (ev):

   -73.4765 -72.7645 -72.5272 -72.3632 -72.3451 -72.0609 -44.0301 -43.4379
   -43.0647 -42.9082 -42.8425 -42.6923 -42.6289 -42.6095 -42.6066 -42.5454
   -42.3849 -42.3697 -42.3408 -42.2754 -42.2195 -42.1463 -42.1202 -41.8993
   -18.1021 -18.0031 -17.9376 -17.8796 -17.8186 -17.6362 -17.5380 -17.4827
   -17.4520 -17.4026 -17.0735 -16.8372 -16.1953  -6.2208  -6.1304  -6.1009
    -6.0499  -5.9645  -5.7670  -5.6569  -5.6032  -5.5211  -5.4727  -5.3533
    -5.0441  -4.7808  -4.7085  -4.5394  -4.4605  -4.2873  -4.0416  -3.8559
    -3.6448  -3.5652  -3.3473  -3.3068  -3.2333  -3.1428  -3.0465  -2.8776
    -2.7357  -2.6076  -2.5055  -2.2870  -2.1845  -2.0635  -1.9397  -1.6235
    -1.5503  -1.4102  -1.2653  -1.1271  -0.1303  -0.0827   0.2015   0.2318
     0.5367   0.6015   0.6342   0.7574   0.8057   0.9224   0.9514   1.2187
     1.6715   1.7363   1.8257   1.8761   2.0317   2.0513   2.4744   3.1682
     3.4815   3.6486   3.7475   4.0980   4.2887   5.1306   5.4525   5.5723

          k =-0.5000 0.0000 0.0000 ( 40876 PWs)   bands (ev):

   -73.4750 -72.7629 -72.5257 -72.3617 -72.3435 -72.0594 -44.0283 -43.4623
   -43.0594 -42.9362 -42.8418 -42.6897 -42.6263 -42.6057 -42.6045 -42.5691
   -42.4029 -42.3755 -42.3652 -42.2732 -42.2164 -42.1473 -42.1424 -41.8948
   -18.0017 -17.8594 -17.8370 -17.7881 -17.7140 -17.6979 -17.6722 -17.6029
   -17.4788 -17.4094 -17.0045 -16.8065 -16.1586  -6.3404  -6.1535  -5.9928
    -5.7939  -5.7664  -5.6990  -5.5925  -5.5460  -5.5281  -5.4274  -5.3176
    -5.1591  -5.0315  -4.9136  -4.7325  -4.5060  -4.0821  -3.8184  -3.7895
    -3.6889  -3.6841  -3.6827  -3.5637  -3.4163  -2.9666  -2.8606  -2.7135
    -2.6101  -2.4894  -2.4691  -2.3660  -2.1622  -1.9871  -1.8333  -1.7190
    -1.6161  -1.2517  -1.1203  -0.9054  -0.2112   0.0790   0.0809   0.4607
     0.5446   0.5689   0.6338   0.6638   0.7194   0.7867   1.0290   1.1566
     1.3139   1.5017   1.8452   1.9250   2.1440   2.2514   2.3204   3.2005
     3.6482   4.0144   4.2099   4.2465   4.3617   4.5502   4.7574   4.9082

          k =-0.5000 0.1223 0.0000 ( 40858 PWs)   bands (ev):

   -73.4750 -72.7629 -72.5257 -72.3617 -72.3435 -72.0594 -44.0283 -43.4628
   -43.0602 -42.9355 -42.8411 -42.6905 -42.6263 -42.6081 -42.6043 -42.5693
   -42.4007 -42.3753 -42.3657 -42.2732 -42.2164 -42.1463 -42.1419 -41.8947
   -17.9943 -17.9692 -17.9601 -17.9127 -17.8636 -17.5473 -17.4771 -17.4729
   -17.4294 -17.4108 -17.0057 -16.8093 -16.1581  -6.2777  -6.2417  -6.1169
    -6.1102  -6.0054  -5.7590  -5.6683  -5.6282  -5.6169  -5.4153  -5.1779
    -5.0999  -4.8376  -4.5899  -4.4122  -4.1207  -3.8720  -3.8307  -3.7976
    -3.7627  -3.6470  -3.6368  -3.6080  -3.0090  -2.9519  -2.8236  -2.6228
    -2.6023  -2.5217  -2.5031  -2.2767  -2.1873  -2.1348  -1.8403  -1.6601
    -1.6297  -1.5004  -1.3086  -1.0935  -0.2031  -0.0379   0.0303   0.0862
     0.2027   0.4449   0.4895   0.5633   0.5875   0.6347   0.7413   1.1714
     1.8248   1.8439   2.0021   2.0106   2.1787   2.1982   2.4011   3.0013
     3.2480   3.4499   3.5754   4.0431   4.2126   5.3271   5.5946   5.6435

          k =-0.5000-0.2445 0.0000 ( 40872 PWs)   bands (ev):

   -73.4750 -72.7629 -72.5257 -72.3617 -72.3435 -72.0594 -44.0283 -43.4634
   -43.0609 -42.9348 -42.8404 -42.6914 -42.6263 -42.6103 -42.6043 -42.5694
   -42.3986 -42.3752 -42.3661 -42.2732 -42.2164 -42.1454 -42.1414 -41.8945
   -18.0513 -18.0439 -18.0038 -17.9862 -17.8686 -17.4751 -17.4671 -17.4124
   -17.3732 -17.3317 -17.0069 -16.8120 -16.1576  -6.4836  -6.2796  -6.2048
    -6.1020  -6.0763  -5.7693  -5.6882  -5.6807  -5.6475  -5.5001  -5.1759
    -5.0592  -4.9604  -4.1865  -4.1267  -3.9050  -3.8793  -3.8210  -3.5978
    -3.5888  -3.5254  -3.4221  -3.2412  -3.2004  -2.8997  -2.8582  -2.8016
    -2.6753  -2.4146  -2.3110  -2.2045  -2.1607  -1.9303  -1.9184  -1.7977
    -1.7616  -1.7246  -1.5861  -1.2714  -0.5135  -0.2286  -0.1976   0.0008
     0.1091   0.1732   0.4527   0.4679   0.5977   0.6339   0.7555   1.2056
     1.7416   1.9143   2.0810   2.1163   2.3480   2.3657   2.4556   2.6036
     3.0663   3.1878   3.2841   4.0698   4.2146   5.7242   5.7813   5.8312

          k =-0.5000-0.1223 0.0000 ( 40858 PWs)   bands (ev):

   -73.4750 -72.7629 -72.5257 -72.3617 -72.3435 -72.0594 -44.0283 -43.4628
   -43.0602 -42.9355 -42.8411 -42.6905 -42.6263 -42.6081 -42.6043 -42.5693
   -42.4007 -42.3753 -42.3657 -42.2732 -42.2164 -42.1463 -42.1419 -41.8947
   -17.9943 -17.9692 -17.9601 -17.9127 -17.8636 -17.5473 -17.4771 -17.4729
   -17.4294 -17.4108 -17.0057 -16.8093 -16.1581  -6.2777  -6.2417  -6.1169
    -6.1102  -6.0054  -5.7590  -5.6683  -5.6282  -5.6169  -5.4153  -5.1779
    -5.0999  -4.8376  -4.5899  -4.4122  -4.1207  -3.8720  -3.8307  -3.7976
    -3.7627  -3.6470  -3.6368  -3.6080  -3.0090  -2.9519  -2.8236  -2.6228
    -2.6023  -2.5217  -2.5031  -2.2767  -2.1873  -2.1348  -1.8403  -1.6601
    -1.6297  -1.5004  -1.3086  -1.0935  -0.2031  -0.0379   0.0303   0.0862
     0.2027   0.4449   0.4895   0.5633   0.5875   0.6347   0.7413   1.1714
     1.8248   1.8439   2.0021   2.0106   2.1787   2.1982   2.4011   3.0013
     3.2480   3.4499   3.5754   4.0431   4.2126   5.3271   5.5946   5.6435

          k =-0.3750 0.0000 0.0000 ( 40852 PWs)   bands (ev):

   -73.4765 -72.7645 -72.5272 -72.3632 -72.3451 -72.0609 -44.0301 -43.4374
   -43.0647 -42.9087 -42.8427 -42.6917 -42.6289 -42.6079 -42.6068 -42.5453
   -42.3854 -42.3711 -42.3404 -42.2754 -42.2195 -42.1465 -42.1209 -41.8993
   -18.1223 -18.0038 -17.8743 -17.8472 -17.7497 -17.6397 -17.6043 -17.5305
   -17.4606 -17.4156 -17.0745 -16.8333 -16.1951  -6.3522  -6.1761  -6.0554
    -6.0301  -5.9090  -5.8532  -5.6530  -5.6259  -5.5026  -5.4042  -5.2070
    -5.0548  -4.8278  -4.7896  -4.5838  -4.4187  -4.3696  -4.2107  -3.9681
    -3.6583  -3.5016  -3.4147  -3.3832  -3.3299  -3.1626  -3.0943  -2.8158
    -2.6714  -2.6022  -2.4439  -2.2775  -2.2194  -2.0358  -1.9573  -1.5165
    -1.3885  -1.3847  -1.2380  -0.9756  -0.1543   0.0143   0.2682   0.4723
     0.5802   0.6610   0.7662   0.7702   0.8611   1.0275   1.1627   1.2091
     1.3752   1.5218   1.6519   1.7810   1.9618   2.1477   2.3637   3.4209
     3.7992   4.0570   4.2715   4.3781   4.4794   4.5408   4.7812   4.9383

          k =-0.3750 0.1223 0.0000 ( 40842 PWs)   bands (ev):

   -73.4765 -72.7645 -72.5272 -72.3632 -72.3451 -72.0609 -44.0301 -43.4379
   -43.0647 -42.9082 -42.8425 -42.6923 -42.6289 -42.6095 -42.6066 -42.5454
   -42.3849 -42.3697 -42.3408 -42.2754 -42.2195 -42.1463 -42.1202 -41.8993
   -18.1021 -18.0031 -17.9376 -17.8796 -17.8186 -17.6362 -17.5380 -17.4827
   -17.4520 -17.4026 -17.0735 -16.8372 -16.1953  -6.2208  -6.1304  -6.1009
    -6.0499  -5.9645  -5.7670  -5.6569  -5.6032  -5.5211  -5.4727  -5.3533
    -5.0441  -4.7808  -4.7085  -4.5394  -4.4605  -4.2873  -4.0416  -3.8559
    -3.6448  -3.5652  -3.3473  -3.3068  -3.2333  -3.1428  -3.0465  -2.8776
    -2.7357  -2.6076  -2.5055  -2.2870  -2.1845  -2.0635  -1.9397  -1.6235
    -1.5503  -1.4102  -1.2653  -1.1271  -0.1303  -0.0827   0.2015   0.2318
     0.5367   0.6015   0.6342   0.7574   0.8057   0.9224   0.9514   1.2187
     1.6715   1.7363   1.8257   1.8761   2.0317   2.0513   2.4744   3.1682
     3.4815   3.6486   3.7475   4.0980   4.2887   5.1306   5.4525   5.5723

          k =-0.3750-0.2445 0.0000 ( 40856 PWs)   bands (ev):

   -73.4765 -72.7645 -72.5272 -72.3632 -72.3451 -72.0609 -44.0301 -43.4384
   -43.0647 -42.9077 -42.8424 -42.6928 -42.6289 -42.6109 -42.6066 -42.5456
   -42.3845 -42.3683 -42.3413 -42.2754 -42.2195 -42.1461 -42.1194 -41.8994
   -18.0494 -18.0358 -17.9959 -17.9034 -17.8581 -17.6445 -17.4876 -17.4654
   -17.4271 -17.3899 -17.0724 -16.8413 -16.1955  -6.2571  -6.0817  -5.9316
    -5.9219  -5.8565  -5.8212  -5.7621  -5.6917  -5.6788  -5.5594  -5.4130
    -4.9435  -4.7936  -4.5532  -4.5040  -4.2939  -4.2061  -4.0688  -3.7342
    -3.5419  -3.4359  -3.4076  -3.2889  -3.2701  -3.1563  -3.1217  -2.9777
    -2.7731  -2.7379  -2.3605  -2.2256  -2.1451  -2.0331  -1.9029  -1.8534
    -1.5848  -1.4334  -1.2842  -1.2568  -0.3276  -0.2637  -0.1027   0.3148
     0.4370   0.5984   0.6754   0.7674   0.8167   0.8743   1.0065   1.2032
     1.5665   1.7957   1.9605   1.9832   2.1101   2.2045   2.5724   2.7559
     3.2120   3.3160   3.5145   4.1224   4.2910   5.5114   5.6023   5.8142

          k =-0.3750-0.1223 0.0000 ( 40842 PWs)   bands (ev):

   -73.4765 -72.7645 -72.5272 -72.3632 -72.3451 -72.0609 -44.0301 -43.4379
   -43.0647 -42.9082 -42.8425 -42.6923 -42.6289 -42.6095 -42.6066 -42.5454
   -42.3849 -42.3697 -42.3408 -42.2754 -42.2195 -42.1463 -42.1202 -41.8993
   -18.1021 -18.0031 -17.9376 -17.8796 -17.8186 -17.6362 -17.5380 -17.4827
   -17.4520 -17.4026 -17.0735 -16.8372 -16.1953  -6.2208  -6.1304  -6.1009
    -6.0499  -5.9645  -5.7670  -5.6569  -5.6032  -5.5211  -5.4727  -5.3533
    -5.0441  -4.7808  -4.7085  -4.5394  -4.4605  -4.2873  -4.0416  -3.8559
    -3.6448  -3.5652  -3.3473  -3.3068  -3.2333  -3.1428  -3.0465  -2.8776
    -2.7357  -2.6076  -2.5055  -2.2870  -2.1845  -2.0635  -1.9397  -1.6235
    -1.5503  -1.4102  -1.2653  -1.1271  -0.1303  -0.0827   0.2015   0.2318
     0.5367   0.6015   0.6342   0.7574   0.8057   0.9224   0.9514   1.2187
     1.6715   1.7363   1.8257   1.8761   2.0317   2.0513   2.4744   3.1682
     3.4815   3.6486   3.7475   4.0980   4.2887   5.1306   5.4525   5.5723

          k =-0.2500 0.0000 0.0000 ( 40947 PWs)   bands (ev):

   -73.4800 -72.7684 -72.5308 -72.3669 -72.3487 -72.0647 -44.0342 -43.3768
   -43.0773 -42.8449 -42.8415 -42.6967 -42.6386 -42.6134 -42.6116 -42.4849
   -42.3920 -42.3111 -42.2928 -42.2679 -42.2271 -42.1565 -42.0563 -41.9101
   -18.4746 -18.2989 -18.1173 -17.9742 -17.7857 -17.5684 -17.4668 -17.4351
   -17.4238 -17.3481 -17.0637 -16.8675 -16.2231  -6.7864  -6.6215  -6.5867
    -6.2581  -6.0001  -5.9814  -5.8614  -5.8121  -5.4757  -5.4478  -5.0507
    -4.9854  -4.6492  -4.5319  -4.5139  -4.3312  -4.1434  -4.0293  -3.9881
    -3.7541  -3.6757  -3.3393  -3.1986  -3.1296  -3.0079  -2.8553  -2.8049
    -2.6865  -2.4860  -2.4012  -2.2253  -2.2118  -2.1117  -2.0508  -1.6148
    -1.4621  -1.2618  -1.2016  -0.9727  -0.2064  -0.1334   0.1679   0.4434
     0.5109   0.5803   0.7960   0.9688   1.0631   1.1593   1.2001   1.3283
     1.3592   1.4689   1.4916   1.6093   1.8510   2.1779   2.4897   3.9526
     4.1718   4.2265   4.3996   4.6629   4.7370   4.7999   4.8759   4.9598

          k =-0.2500 0.1223 0.0000 ( 40905 PWs)   bands (ev):

   -73.4800 -72.7684 -72.5308 -72.3669 -72.3488 -72.0647 -44.0342 -43.3772
   -43.0759 -42.8461 -42.8412 -42.6965 -42.6386 -42.6134 -42.6115 -42.4850
   -42.3920 -42.3100 -42.2931 -42.2683 -42.2271 -42.1570 -42.0559 -41.9106
   -18.3873 -18.2033 -18.0223 -18.0146 -17.7748 -17.6494 -17.5465 -17.5040
   -17.4651 -17.4012 -17.0541 -16.8742 -16.2226  -6.4741  -6.3360  -6.2689
    -6.2233  -5.9914  -5.8739  -5.8261  -5.6491  -5.5726  -5.3672  -5.1100
    -4.8043  -4.7355  -4.6671  -4.5067  -4.4535  -4.3573  -4.2362  -4.1418
    -3.9965  -3.5700  -3.5120  -3.3563  -3.2094  -3.1854  -3.0213  -2.9305
    -2.7732  -2.6616  -2.4405  -2.2582  -2.1698  -2.1219  -1.9357  -1.6070
    -1.4306  -1.2582  -1.1678  -1.0289  -0.2180   0.0979   0.4116   0.4589
     0.5760   0.8302   0.8904   0.9639   1.0525   1.1344   1.2016   1.2614
     1.3595   1.5262   1.5930   1.6539   1.7863   2.0578   2.6065   3.7043
     4.0328   4.1361   4.2351   4.3690   4.6638   4.7759   5.2046   5.3504

          k =-0.2500-0.2445 0.0000 ( 40892 PWs)   bands (ev):

   -73.4800 -72.7684 -72.5308 -72.3668 -72.3488 -72.0647 -44.0342 -43.3775
   -43.0746 -42.8472 -42.8411 -42.6964 -42.6386 -42.6134 -42.6114 -42.4851
   -42.3920 -42.3089 -42.2934 -42.2688 -42.2271 -42.1575 -42.0556 -41.9111
   -18.2073 -18.1633 -17.9767 -17.9248 -17.7760 -17.7538 -17.6968 -17.6284
   -17.5141 -17.4007 -17.0444 -16.8819 -16.2221  -6.2793  -6.0372  -5.9577
    -5.8477  -5.8027  -5.7902  -5.6691  -5.5600  -5.3238  -5.3015  -5.2293
    -5.0011  -4.9970  -4.9621  -4.7878  -4.5938  -4.4971  -4.2466  -4.0454
    -3.8301  -3.7494  -3.6397  -3.6023  -3.5325  -3.5105  -3.2873  -3.2743
    -2.9366  -2.7910  -2.3859  -2.2462  -1.9453  -1.8719  -1.6758  -1.6175
    -1.3419  -1.3049  -1.1428  -1.1181  -0.0064   0.0235   0.2610   0.5673
     0.5909   0.8619   1.0121   1.0845   1.1178   1.1422   1.2692   1.3768
     1.3957   1.6002   1.6495   1.7764   1.8109   1.9128   2.6985   3.2993
     3.7470   3.8325   4.0871   4.3586   4.6780   5.0685   5.3104   5.5863

          k =-0.2500-0.1223 0.0000 ( 40905 PWs)   bands (ev):

   -73.4800 -72.7684 -72.5308 -72.3669 -72.3488 -72.0647 -44.0342 -43.3772
   -43.0759 -42.8461 -42.8412 -42.6965 -42.6386 -42.6134 -42.6115 -42.4850
   -42.3920 -42.3100 -42.2931 -42.2683 -42.2271 -42.1570 -42.0559 -41.9106
   -18.3873 -18.2033 -18.0223 -18.0146 -17.7748 -17.6494 -17.5465 -17.5040
   -17.4651 -17.4012 -17.0541 -16.8742 -16.2226  -6.4741  -6.3360  -6.2689
    -6.2233  -5.9914  -5.8739  -5.8261  -5.6491  -5.5726  -5.3672  -5.1100
    -4.8043  -4.7355  -4.6671  -4.5067  -4.4535  -4.3573  -4.2362  -4.1418
    -3.9965  -3.5700  -3.5120  -3.3563  -3.2094  -3.1854  -3.0213  -2.9305
    -2.7732  -2.6616  -2.4405  -2.2582  -2.1698  -2.1219  -1.9357  -1.6070
    -1.4306  -1.2582  -1.1678  -1.0289  -0.2180   0.0979   0.4116   0.4589
     0.5760   0.8302   0.8904   0.9639   1.0525   1.1344   1.2016   1.2614
     1.3595   1.5262   1.5930   1.6539   1.7863   2.0578   2.6065   3.7043
     4.0328   4.1361   4.2351   4.3690   4.6638   4.7759   5.2046   5.3504

          k =-0.1250 0.0000 0.0000 ( 40851 PWs)   bands (ev):

   -73.4836 -72.7722 -72.5345 -72.3706 -72.3524 -72.0684 -44.0384 -43.3157
   -43.0897 -42.8472 -42.7733 -42.7016 -42.6493 -42.6189 -42.6166 -42.4229
   -42.4019 -42.2940 -42.2470 -42.2347 -42.2113 -42.1664 -41.9909 -41.9208
   -18.8003 -18.5875 -18.3855 -18.1460 -17.9042 -17.7701 -17.4168 -17.2809
   -17.2470 -17.1592 -16.9463 -16.8268 -16.1717  -7.2552  -7.0688  -7.0564
    -6.4529  -6.4327  -6.0540  -5.8119  -5.7600  -5.6334  -5.5762  -5.4687
    -5.2090  -5.0428  -4.9782  -4.4245  -4.0961  -4.0338  -3.4395  -3.2779
    -3.2467  -3.1584  -3.0777  -3.0650  -2.9075  -2.7497  -2.7224  -2.5684
    -2.4785  -2.3321  -2.1803  -2.1532  -2.0693  -2.0588  -1.8696  -1.7236
    -1.5816  -1.1007  -1.0714  -0.6907  -0.4345  -0.2546   0.0162   0.0549
     0.1404   0.3248   0.4550   0.5163   0.6806   0.6946   1.1472   1.1975
     1.3318   1.4392   1.6331   1.8682   2.1403   2.3582   2.5590   3.7095
     4.3434   4.7570   4.7695   4.8889   5.0497   5.3539   5.3931   5.4540

          k =-0.1250 0.1223 0.0000 ( 40932 PWs)   bands (ev):

   -73.4836 -72.7722 -72.5345 -72.3705 -72.3524 -72.0684 -44.0384 -43.3158
   -43.0872 -42.8497 -42.7733 -42.7008 -42.6493 -42.6177 -42.6165 -42.4229
   -42.4019 -42.2940 -42.2464 -42.2347 -42.2121 -42.1677 -41.9908 -41.9218
   -18.6858 -18.4619 -18.2655 -18.1942 -17.9046 -17.8090 -17.4478 -17.3964
   -17.3473 -17.3283 -16.9261 -16.8394 -16.1693  -6.8543  -6.6518  -6.6164
    -6.4566  -6.4113  -5.9581  -5.7726  -5.6956  -5.6472  -5.5332  -5.2593
    -5.2061  -5.0442  -4.8538  -4.4613  -4.2187  -4.0229  -4.0025  -3.7018
    -3.4687  -3.4425  -3.3616  -3.3272  -3.1849  -3.1325  -3.0642  -2.8256
    -2.6355  -2.5262  -2.3339  -2.2091  -2.0729  -1.9997  -1.7497  -1.5640
    -1.4319  -1.0778  -0.9918  -0.7929  -0.0710   0.1667   0.1860   0.2630
     0.3738   0.4367   0.6635   0.7386   0.7910   0.8784   1.1391   1.2218
     1.3549   1.4653   1.6652   1.7115   1.9190   2.3097   2.5773   4.0237
     4.4011   4.7428   4.8316   4.8573   4.9969   5.1945   5.2566   5.3695

          k =-0.1250-0.2445 0.0000 ( 40974 PWs)   bands (ev):

   -73.4836 -72.7722 -72.5345 -72.3704 -72.3525 -72.0684 -44.0384 -43.3159
   -43.0847 -42.8522 -42.7733 -42.7001 -42.6492 -42.6169 -42.6159 -42.4229
   -42.4019 -42.2941 -42.2458 -42.2347 -42.2129 -42.1690 -41.9907 -41.9228
   -18.4473 -18.3995 -18.2309 -18.0352 -17.9806 -17.8916 -17.5696 -17.5470
   -17.4870 -17.3881 -16.8896 -16.8719 -16.1674  -6.4903  -6.4638  -6.1415
    -5.9390  -5.8402  -5.7689  -5.7585  -5.6861  -5.6510  -5.6403  -5.2453
    -5.0703  -4.9020  -4.7879  -4.6401  -4.4761  -4.3251  -4.1740  -4.1424
    -4.0976  -4.0060  -3.8756  -3.7908  -3.4775  -3.3719  -3.2816  -2.8595
    -2.7277  -2.6340  -2.3158  -2.2394  -1.9407  -1.7729  -1.5577  -1.4068
    -1.1597  -1.0969  -1.0129  -0.9914   0.1810   0.1911   0.2876   0.3913
     0.5293   0.5800   0.7835   1.1044   1.1235   1.1336   1.2011   1.2498
     1.3990   1.4232   1.5284   1.6492   1.9204   1.9943   2.7241   4.0762
     4.4327   4.5453   4.7167   4.8393   5.0714   5.1050   5.2966   5.4279

          k =-0.1250-0.1223 0.0000 ( 40932 PWs)   bands (ev):

   -73.4836 -72.7722 -72.5345 -72.3705 -72.3524 -72.0684 -44.0384 -43.3158
   -43.0872 -42.8497 -42.7733 -42.7008 -42.6493 -42.6177 -42.6165 -42.4229
   -42.4019 -42.2940 -42.2464 -42.2347 -42.2121 -42.1677 -41.9908 -41.9218
   -18.6858 -18.4619 -18.2655 -18.1942 -17.9046 -17.8090 -17.4478 -17.3964
   -17.3473 -17.3283 -16.9261 -16.8394 -16.1693  -6.8543  -6.6518  -6.6164
    -6.4566  -6.4113  -5.9581  -5.7726  -5.6956  -5.6472  -5.5332  -5.2593
    -5.2061  -5.0442  -4.8538  -4.4613  -4.2187  -4.0229  -4.0025  -3.7018
    -3.4687  -3.4425  -3.3616  -3.3272  -3.1849  -3.1325  -3.0642  -2.8256
    -2.6355  -2.5262  -2.3339  -2.2091  -2.0729  -1.9997  -1.7497  -1.5640
    -1.4319  -1.0778  -0.9918  -0.7929  -0.0710   0.1667   0.1860   0.2630
     0.3738   0.4367   0.6635   0.7386   0.7910   0.8784   1.1391   1.2218
     1.3549   1.4653   1.6652   1.7115   1.9190   2.3097   2.5773   4.0237
     4.4011   4.7428   4.8316   4.8573   4.9969   5.1945   5.2566   5.3695

     the Fermi energy is     1.1926 ev

!    total energy              =   -1672.25465531 Ry
     estimated scf accuracy    <          8.3E-09 Ry
     smearing contrib. (-TS)   =      -0.00196878 Ry
     internal energy E=F+TS    =   -1672.25268654 Ry

     The total energy is F=E-TS. E is the sum of the following terms:
     one-electron contribution =  -16963.49553679 Ry
     hartree contribution      =    8503.76348129 Ry
     xc contribution           =    -214.03786518 Ry
     ewald contribution        =    7125.30377139 Ry
     one-center paw contrib.   =    -123.78653725 Ry

     convergence has been achieved in   9 iterations

     negative rho (up, down):  1.094E-04 0.000E+00

     Forces acting on atoms (cartesian axes, Ry/au):

     atom    1 type  1   force =    -0.00000000   -0.00006402    0.07062909
     atom    2 type  1   force =     0.00000000    0.00088105   -0.09123445
     atom    3 type  1   force =     0.00000001   -0.00005220    0.00082553
     atom    4 type  1   force =    -0.00000005   -0.00004734   -0.00129330
     atom    5 type  1   force =    -0.00000002   -0.00027870    0.00100804
     atom    6 type  1   force =     0.00000000    0.00094905   -0.00002579
     atom    7 type  2   force =     0.00000000   -0.00221264    0.01708556
     atom    8 type  2   force =    -0.00000000    0.00000182    0.06203910
     atom    9 type  2   force =    -0.00000000    0.02374742   -0.02492108
     atom   10 type  2   force =     0.00000000   -0.02439930   -0.02451754
     atom   11 type  2   force =    -0.00000000    0.00019694   -0.00148283
     atom   12 type  2   force =     0.00000003    0.00225244   -0.00905126
     atom   13 type  2   force =     0.00000003    0.00027977   -0.00229395
     atom   14 type  2   force =    -0.00000002   -0.00024746    0.00240303
     atom   15 type  2   force =    -0.00000004    0.00176112   -0.00085791
     atom   16 type  2   force =     0.00000000    0.00016621    0.00088783
     atom   17 type  2   force =     0.00000003   -0.00079661    0.00016723
     atom   18 type  2   force =     0.00000003   -0.00106910    0.00168888
     atom   19 type  2   force =     0.00000001   -0.00106844   -0.00105620

     Total force =     0.005416     Total SCF correction =     0.000396
     Energy error            =      5.5E-05 Ry
     Gradient error          =      2.4E-03 Ry/Bohr

     number of scf cycles    =  16
     number of bfgs steps    =  15

     energy             old  =   -1672.2545999210 Ry
     energy             new  =   -1672.2546553135 Ry

     CASE: energy            _new < energy            _old

     new trust radius        =       0.0269733741 bohr
     new conv_thr            =       0.0000000100 Ry


ATOMIC_POSITIONS (angstrom)
Ru               0.0000000000        1.5881618300        9.5289709800    0   0   0
Ru               1.5535000000        4.7644854900        9.5289709800    0   0   0
Ru               0.0000000109        4.7690542615       12.7173174316
Ru               1.5535000615        1.5889858351       12.7095128692
Ru              -0.0000000418        1.6337945596       16.0559665389
Ru               1.5535000383        4.8067591002       15.9450762120
O                0.0000000000        4.7644854900       10.7677372100    0   0   0
O                0.0000000000        4.7644854900        8.2902047600    0   0   0
O                1.5535000000        0.3493956000        9.5289709800    0   0   0
O                1.5535000000        2.8269280600        9.5289709800    0   0   0
O                0.0000000665        1.5804027518       13.9832417021
O                0.0000000000        1.5881618300       11.4665284200    0   0   0
O                1.5535000135        3.5332876031       12.7243693132
O                1.5535000309        6.0024490595       12.6856735574
O                0.0000000906        4.7648483397       17.0491518718
O               -0.0000000123        4.8070933728       14.6457758970
O                1.5534999598        0.4084235410       15.9025309551
O                1.5534999679        2.8453149284       15.8124392246
O               -0.0000001775        1.7140100864       17.7518475070



     Writing config-only to output data dir ./tmp_s0_O__1x1_off/s0_O__1x1_off.save/ :
     XML data file
     NEW-OLD atomic charge density approx. for the potential

     negative rho (up, down):  1.092E-04 0.000E+00

     total cpu time spent up to now is    20132.1 secs

     per-process dynamical memory:  1113.7 Mb

     Self-consistent Calculation

     iteration #  1     ecut=    80.00 Ry     beta= 0.30
     Davidson diagonalization with overlap
     ethr =  1.00E-06,  avg # of iterations =  4.0

     Threshold (ethr) on eigenvalues was too large:
     Diagonalizing with lowered threshold

     Davidson diagonalization with overlap
     ethr =  4.93E-08,  avg # of iterations =  2.7

     negative rho (up, down):  1.091E-04 0.000E+00

     total cpu time spent up to now is    20356.4 secs

     total energy              =   -1672.25471131 Ry
     estimated scf accuracy    <       0.00008894 Ry

     iteration #  2     ecut=    80.00 Ry     beta= 0.30
     Davidson diagonalization with overlap
     ethr =  5.11E-08,  avg # of iterations =  1.0

     negative rho (up, down):  1.075E-04 0.000E+00

     total cpu time spent up to now is    20437.1 secs

     total energy              =   -1672.25470596 Ry
     estimated scf accuracy    <       0.00003676 Ry

     iteration #  3     ecut=    80.00 Ry     beta= 0.30
     Davidson diagonalization with overlap
     ethr =  2.11E-08,  avg # of iterations =  1.7

     negative rho (up, down):  1.060E-04 0.000E+00

     total cpu time spent up to now is    20523.0 secs

     total energy              =   -1672.25470427 Ry
     estimated scf accuracy    <       0.00002031 Ry

     iteration #  4     ecut=    80.00 Ry     beta= 0.30
     Davidson diagonalization with overlap
     ethr =  1.17E-08,  avg # of iterations =  1.8

     negative rho (up, down):  1.049E-04 0.000E+00

     total cpu time spent up to now is    20610.0 secs

     total energy              =   -1672.25470461 Ry
     estimated scf accuracy    <       0.00000325 Ry

     iteration #  5     ecut=    80.00 Ry     beta= 0.30
     Davidson diagonalization with overlap
     ethr =  1.87E-09,  avg # of iterations =  3.7

     negative rho (up, down):  1.043E-04 0.000E+00

     total cpu time spent up to now is    20704.0 secs

     total energy              =   -1672.25470480 Ry
     estimated scf accuracy    <       0.00000114 Ry

     iteration #  6     ecut=    80.00 Ry     beta= 0.30
     Davidson diagonalization with overlap
     ethr =  6.55E-10,  avg # of iterations =  1.5

     negative rho (up, down):  1.036E-04 0.000E+00

     total cpu time spent up to now is    20789.9 secs

     total energy              =   -1672.25470479 Ry
     estimated scf accuracy    <       0.00000061 Ry

     iteration #  7     ecut=    80.00 Ry     beta= 0.30
     Davidson diagonalization with overlap
     ethr =  3.53E-10,  avg # of iterations =  1.4

     negative rho (up, down):  1.032E-04 0.000E+00

     total cpu time spent up to now is    20874.5 secs

     total energy              =   -1672.25470479 Ry
     estimated scf accuracy    <       0.00000028 Ry

     iteration #  8     ecut=    80.00 Ry     beta= 0.30
     Davidson diagonalization with overlap
     ethr =  1.59E-10,  avg # of iterations =  1.8

     negative rho (up, down):  1.031E-04 0.000E+00

     total cpu time spent up to now is    20960.2 secs

     total energy              =   -1672.25470480 Ry
     estimated scf accuracy    <       0.00000006 Ry

     iteration #  9     ecut=    80.00 Ry     beta= 0.30
     Davidson diagonalization with overlap
     ethr =  3.32E-11,  avg # of iterations =  2.6

     negative rho (up, down):  1.033E-04 0.000E+00

     total cpu time spent up to now is    21049.9 secs

     total energy              =   -1672.25470480 Ry
     estimated scf accuracy    <       0.00000004 Ry

     iteration # 10     ecut=    80.00 Ry     beta= 0.30
     Davidson diagonalization with overlap
     ethr =  2.35E-11,  avg # of iterations =  1.0

     negative rho (up, down):  1.035E-04 0.000E+00

     total cpu time spent up to now is    21131.1 secs

     total energy              =   -1672.25470480 Ry
     estimated scf accuracy    <       0.00000001 Ry

     iteration # 11     ecut=    80.00 Ry     beta= 0.30
     Davidson diagonalization with overlap
     ethr =  6.70E-12,  avg # of iterations =  1.1

     negative rho (up, down):  1.093E-04 0.000E+00

     total cpu time spent up to now is    21210.2 secs

     End of self-consistent calculation

          k = 0.0000 0.0000 0.0000 ( 40831 PWs)   bands (ev):

   -73.4873 -72.7734 -72.5348 -72.3707 -72.3520 -72.0681 -44.0442 -43.2923
   -43.0965 -42.8478 -42.7457 -42.7024 -42.6524 -42.6197 -42.6175 -42.4048
   -42.3958 -42.2949 -42.2358 -42.2188 -42.1845 -42.1687 -41.9618 -41.9235
   -18.9283 -18.7043 -18.4935 -18.2325 -17.9807 -17.8491 -17.4108 -17.2039
   -17.1687 -17.0774 -16.9056 -16.7731 -16.1297  -7.4404  -7.2438  -7.2337
    -6.6250  -6.4536  -6.0112  -5.7697  -5.7651  -5.7004  -5.6312  -5.5438
    -5.4827  -5.3168  -5.1938  -4.5951  -4.1752  -3.5841  -3.3963  -3.1901
    -3.0843  -2.9551  -2.9418  -2.7920  -2.7166  -2.6730  -2.6724  -2.5035
    -2.3690  -2.2639  -2.1868  -2.0009  -1.9470  -1.6752  -1.4706  -1.4273
    -1.2378  -1.1746  -0.7406  -0.7050  -0.5498  -0.5375  -0.2290  -0.2088
    -0.1463  -0.1432   0.2632   0.3335   0.4505   0.5262   0.9879   1.1146
     1.2210   1.4319   1.7570   2.0224   2.2266   2.2833   2.7030   3.5313
     4.2240   4.7094   5.0415   5.2050   5.4231   5.5064   5.7130   5.7694

          k = 0.0000 0.1223 0.0000 ( 40974 PWs)   bands (ev):

   -73.4873 -72.7734 -72.5348 -72.3706 -72.3521 -72.0681 -44.0442 -43.2923
   -43.0936 -42.8508 -42.7457 -42.7013 -42.6524 -42.6181 -42.6173 -42.4048
   -42.3958 -42.2949 -42.2358 -42.2182 -42.1850 -42.1706 -41.9618 -41.9247
   -18.8072 -18.5723 -18.3715 -18.2808 -17.9963 -17.8798 -17.4218 -17.3334
   -17.2980 -17.2588 -16.8851 -16.7838 -16.1267  -7.0254  -6.7985  -6.7715
    -6.6169  -6.4417  -5.9410  -5.7633  -5.6495  -5.6205  -5.5505  -5.4787
    -5.4639  -5.3158  -5.0029  -4.6351  -4.2345  -4.0358  -3.7719  -3.6288
    -3.5415  -3.4133  -3.2651  -2.9108  -2.8791  -2.8682  -2.7508  -2.6851
    -2.5823  -2.3849  -2.2115  -2.1619  -2.0937  -1.7204  -1.6509  -1.6145
    -1.3584  -1.1423  -0.9076  -0.7043  -0.0746  -0.0640   0.1319   0.2488
     0.3384   0.3780   0.4160   0.5060   0.5347   0.6066   0.9764   1.0696
     1.2901   1.4783   1.7559   1.8244   2.0231   2.3595   2.5788   3.9227
     4.6458   4.8027   4.8907   5.2052   5.4336   5.4557   5.4977   5.5386

          k = 0.0000-0.2445 0.0000 ( 41014 PWs)   bands (ev):

   -73.4873 -72.7734 -72.5348 -72.3705 -72.3522 -72.0681 -44.0442 -43.2922
   -43.0907 -42.8538 -42.7457 -42.7003 -42.6524 -42.6176 -42.6160 -42.4047
   -42.3957 -42.2950 -42.2359 -42.2177 -42.1856 -42.1726 -41.9619 -41.9259
   -18.5552 -18.5076 -18.3378 -18.1268 -18.0751 -17.9705 -17.5054 -17.4773
   -17.4398 -17.3850 -16.8575 -16.8070 -16.1244  -6.6725  -6.4811  -6.3604
    -6.0298  -5.9839  -5.8635  -5.7602  -5.6230  -5.5373  -5.4668  -5.4634
    -5.3092  -5.0678  -4.9405  -4.6211  -4.6087  -4.4986  -4.4888  -4.3429
    -4.2921  -3.6942  -3.4965  -3.3495  -3.1484  -3.1229  -2.9930  -2.7072
    -2.5853  -2.4742  -2.2279  -2.1308  -1.9675  -1.7170  -1.6488  -1.4109
    -1.1986  -1.0992  -0.9982  -0.9939   0.1836   0.1960   0.2700   0.3859
     0.5092   0.6634   0.7937   0.8100   0.8811   0.9120   1.0388   1.1078
     1.2039   1.5455   1.5582   1.5872   2.0064   2.1142   2.7077   4.3459
     4.5366   4.8338   5.1776   5.1818   5.2065   5.2465   5.5154   5.6691

          k = 0.0000-0.1223 0.0000 ( 40974 PWs)   bands (ev):

   -73.4873 -72.7734 -72.5348 -72.3706 -72.3521 -72.0681 -44.0442 -43.2923
   -43.0936 -42.8508 -42.7457 -42.7013 -42.6524 -42.6181 -42.6173 -42.4048
   -42.3958 -42.2949 -42.2358 -42.2182 -42.1850 -42.1706 -41.9618 -41.9247
   -18.8072 -18.5723 -18.3715 -18.2808 -17.9963 -17.8798 -17.4218 -17.3334
   -17.2980 -17.2588 -16.8851 -16.7838 -16.1267  -7.0254  -6.7985  -6.7715
    -6.6169  -6.4417  -5.9410  -5.7633  -5.6495  -5.6205  -5.5505  -5.4787
    -5.4639  -5.3158  -5.0029  -4.6351  -4.2345  -4.0358  -3.7719  -3.6288
    -3.5415  -3.4133  -3.2651  -2.9108  -2.8791  -2.8682  -2.7508  -2.6851
    -2.5823  -2.3849  -2.2115  -2.1619  -2.0937  -1.7204  -1.6509  -1.6145
    -1.3584  -1.1423  -0.9076  -0.7043  -0.0746  -0.0640   0.1319   0.2488
     0.3384   0.3780   0.4160   0.5060   0.5347   0.6066   0.9764   1.0696
     1.2901   1.4783   1.7559   1.8244   2.0231   2.3595   2.5788   3.9227
     4.6458   4.8027   4.8907   5.2052   5.4336   5.4557   5.4977   5.5386

          k = 0.1250 0.0000 0.0000 ( 40851 PWs)   bands (ev):

   -73.4859 -72.7718 -72.5333 -72.3691 -72.3505 -72.0666 -44.0425 -43.3178
   -43.0914 -42.8468 -42.7743 -42.7003 -42.6479 -42.6174 -42.6153 -42.4218
   -42.4007 -42.2921 -42.2455 -42.2329 -42.2102 -42.1646 -41.9891 -41.9191
   -18.8001 -18.5878 -18.3846 -18.1464 -17.9052 -17.7697 -17.4189 -17.2802
   -17.2459 -17.1579 -16.9453 -16.8270 -16.1703  -7.2574  -7.0674  -7.0550
    -6.4532  -6.4327  -6.0553  -5.8109  -5.7607  -5.6320  -5.5766  -5.4679
    -5.2116  -5.0415  -4.9787  -4.4283  -4.0990  -4.0340  -3.4393  -3.2780
    -3.2466  -3.1577  -3.0771  -3.0650  -2.9067  -2.7500  -2.7202  -2.5713
    -2.4804  -2.3311  -2.1795  -2.1516  -2.0748  -2.0510  -1.8683  -1.7244
    -1.5797  -1.0984  -1.0697  -0.6855  -0.4376  -0.2564   0.0176   0.0569
     0.1420   0.3270   0.4564   0.5176   0.6817   0.6963   1.1490   1.1978
     1.3343   1.4414   1.6332   1.8692   2.1416   2.3601   2.5605   3.7116
     4.3455   4.7590   4.7691   4.8916   5.0527   5.3577   5.3956   5.4556

          k = 0.1250 0.1223 0.0000 ( 40932 PWs)   bands (ev):

   -73.4859 -72.7718 -72.5333 -72.3691 -72.3506 -72.0666 -44.0425 -43.3179
   -43.0890 -42.8493 -42.7743 -42.6995 -42.6479 -42.6162 -42.6152 -42.4218
   -42.4007 -42.2922 -42.2449 -42.2329 -42.2110 -42.1659 -41.9890 -41.9200
   -18.6855 -18.4624 -18.2648 -18.1941 -17.9064 -17.8076 -17.4486 -17.3952
   -17.3481 -17.3272 -16.9252 -16.8395 -16.1679  -6.8564  -6.6506  -6.6149
    -6.4567  -6.4114  -5.9592  -5.7732  -5.6949  -5.6470  -5.5319  -5.2605
    -5.2071  -5.0428  -4.8546  -4.4651  -4.2204  -4.0240  -4.0026  -3.7004
    -3.4681  -3.4427  -3.3610  -3.3255  -3.1844  -3.1321  -3.0667  -2.8249
    -2.6341  -2.5258  -2.3331  -2.2078  -2.0721  -1.9992  -1.7496  -1.5661
    -1.4305  -1.0763  -0.9905  -0.7916  -0.0705   0.1674   0.1860   0.2647
     0.3752   0.4381   0.6649   0.7404   0.7925   0.8799   1.1406   1.2226
     1.3572   1.4676   1.6663   1.7123   1.9200   2.3113   2.5790   4.0259
     4.4015   4.7446   4.8337   4.8602   4.9995   5.1967   5.2587   5.3737

          k = 0.1250-0.2445 0.0000 ( 40974 PWs)   bands (ev):

   -73.4859 -72.7718 -72.5333 -72.3690 -72.3506 -72.0666 -44.0425 -43.3180
   -43.0865 -42.8517 -42.7743 -42.6988 -42.6479 -42.6156 -42.6145 -42.4218
   -42.4006 -42.2922 -42.2442 -42.2329 -42.2118 -42.1672 -41.9890 -41.9210
   -18.4473 -18.3994 -18.2321 -18.0360 -17.9796 -17.8904 -17.5683 -17.5456
   -17.4869 -17.3905 -16.8882 -16.8724 -16.1660  -6.4900  -6.4647  -6.1438
    -5.9392  -5.8402  -5.7675  -5.7583  -5.6855  -5.6504  -5.6388  -5.2482
    -5.0691  -4.9027  -4.7869  -4.6434  -4.4767  -4.3258  -4.1746  -4.1410
    -4.0977  -4.0049  -3.8741  -3.7905  -3.4811  -3.3703  -3.2821  -2.8590
    -2.7285  -2.6320  -2.3143  -2.2386  -1.9403  -1.7726  -1.5575  -1.4064
    -1.1610  -1.0970  -1.0113  -0.9903   0.1816   0.1925   0.2892   0.3928
     0.5309   0.5792   0.7851   1.1056   1.1236   1.1364   1.2030   1.2514
     1.4004   1.4248   1.5299   1.6514   1.9211   1.9958   2.7258   4.0764
     4.4346   4.5477   4.7185   4.8425   5.0745   5.1075   5.2990   5.4317

          k = 0.1250-0.1223 0.0000 ( 40932 PWs)   bands (ev):

   -73.4859 -72.7718 -72.5333 -72.3691 -72.3506 -72.0666 -44.0425 -43.3179
   -43.0890 -42.8493 -42.7743 -42.6995 -42.6479 -42.6162 -42.6152 -42.4218
   -42.4007 -42.2922 -42.2449 -42.2329 -42.2110 -42.1659 -41.9890 -41.9200
   -18.6855 -18.4624 -18.2648 -18.1941 -17.9064 -17.8076 -17.4486 -17.3952
   -17.3481 -17.3272 -16.9252 -16.8395 -16.1679  -6.8564  -6.6506  -6.6149
    -6.4567  -6.4114  -5.9592  -5.7732  -5.6949  -5.6470  -5.5319  -5.2605
    -5.2071  -5.0428  -4.8546  -4.4651  -4.2204  -4.0240  -4.0026  -3.7004
    -3.4681  -3.4427  -3.3610  -3.3255  -3.1844  -3.1321  -3.0667  -2.8249
    -2.6341  -2.5258  -2.3331  -2.2078  -2.0721  -1.9992  -1.7496  -1.5661
    -1.4305  -1.0763  -0.9905  -0.7916  -0.0705   0.1674   0.1860   0.2647
     0.3752   0.4381   0.6649   0.7404   0.7925   0.8799   1.1406   1.2226
     1.3572   1.4676   1.6663   1.7123   1.9200   2.3113   2.5790   4.0259
     4.4015   4.7446   4.8337   4.8602   4.9995   5.1967   5.2587   5.3737

          k = 0.2500 0.0000 0.0000 ( 40947 PWs)   bands (ev):

   -73.4823 -72.7680 -72.5296 -72.3655 -72.3468 -72.0628 -44.0383 -43.3789
   -43.0790 -42.8445 -42.8425 -42.6954 -42.6370 -42.6119 -42.6105 -42.4838
   -42.3908 -42.3096 -42.2912 -42.2665 -42.2254 -42.1546 -42.0546 -41.9083
   -18.4742 -18.2996 -18.1163 -17.9744 -17.7851 -17.5700 -17.4658 -17.4347
   -17.4236 -17.3469 -17.0635 -16.8684 -16.2217  -6.7888  -6.6201  -6.5852
    -6.2586  -6.0015  -5.9810  -5.8614  -5.8113  -5.4738  -5.4485  -5.0519
    -4.9849  -4.6487  -4.5327  -4.5154  -4.3331  -4.1434  -4.0285  -3.9872
    -3.7538  -3.6756  -3.3406  -3.1990  -3.1304  -3.0079  -2.8545  -2.8037
    -2.6859  -2.4844  -2.4008  -2.2275  -2.2100  -2.1113  -2.0495  -1.6136
    -1.4646  -1.2597  -1.1992  -0.9709  -0.1991  -0.1403   0.1679   0.4452
     0.5130   0.5819   0.7974   0.9704   1.0645   1.1599   1.2029   1.3302
     1.3597   1.4663   1.4959   1.6107   1.8518   2.1793   2.4916   3.9549
     4.1743   4.2271   4.4022   4.6649   4.7390   4.8021   4.8775   4.9612

          k = 0.2500 0.1223 0.0000 ( 40905 PWs)   bands (ev):

   -73.4823 -72.7680 -72.5296 -72.3654 -72.3469 -72.0628 -44.0383 -43.3792
   -43.0777 -42.8458 -42.8422 -42.6952 -42.6370 -42.6119 -42.6103 -42.4838
   -42.3908 -42.3085 -42.2915 -42.2670 -42.2254 -42.1551 -42.0542 -41.9088
   -18.3869 -18.2042 -18.0212 -18.0147 -17.7745 -17.6492 -17.5460 -17.5034
   -17.4638 -17.4021 -17.0540 -16.8749 -16.2212  -6.4761  -6.3352  -6.2675
    -6.2232  -5.9910  -5.8748  -5.8268  -5.6484  -5.5723  -5.3663  -5.1110
    -4.8041  -4.7368  -4.6661  -4.5067  -4.4527  -4.3577  -4.2373  -4.1426
    -3.9967  -3.5707  -3.5122  -3.3565  -3.2097  -3.1845  -3.0201  -2.9291
    -2.7737  -2.6618  -2.4397  -2.2576  -2.1685  -2.1230  -1.9343  -1.6062
    -1.4325  -1.2564  -1.1670  -1.0271  -0.2168   0.0976   0.4116   0.4607
     0.5779   0.8318   0.8920   0.9655   1.0541   1.1342   1.2030   1.2628
     1.3622   1.5278   1.5945   1.6548   1.7868   2.0591   2.6083   3.7051
     4.0350   4.1383   4.2368   4.3715   4.6667   4.7780   5.2065   5.3520

          k = 0.2500-0.2445 0.0000 ( 40892 PWs)   bands (ev):

   -73.4823 -72.7680 -72.5296 -72.3654 -72.3469 -72.0628 -44.0383 -43.3795
   -43.0764 -42.8468 -42.8422 -42.6951 -42.6370 -42.6119 -42.6102 -42.4839
   -42.3908 -42.3074 -42.2918 -42.2675 -42.2254 -42.1557 -42.0538 -41.9093
   -18.2074 -18.1628 -17.9804 -17.9226 -17.7750 -17.7519 -17.6959 -17.6273
   -17.5147 -17.4016 -17.0445 -16.8826 -16.2208  -6.2799  -6.0376  -5.9589
    -5.8482  -5.8012  -5.7889  -5.6686  -5.5609  -5.3228  -5.3026  -5.2286
    -5.0011  -4.9958  -4.9615  -4.7879  -4.5944  -4.4970  -4.2490  -4.0458
    -3.8314  -3.7489  -3.6370  -3.5988  -3.5380  -3.5109  -3.2857  -3.2732
    -2.9392  -2.7897  -2.3846  -2.2455  -1.9444  -1.8716  -1.6762  -1.6166
    -1.3419  -1.3036  -1.1446  -1.1160  -0.0059   0.0256   0.2614   0.5690
     0.5926   0.8621   1.0131   1.0814   1.1195   1.1476   1.2705   1.3780
     1.3982   1.6017   1.6507   1.7780   1.8122   1.9136   2.7003   3.2999
     3.7491   3.8341   4.0896   4.3615   4.6808   5.0706   5.3123   5.5883

          k = 0.2500-0.1223 0.0000 ( 40905 PWs)   bands (ev):

   -73.4823 -72.7680 -72.5296 -72.3654 -72.3469 -72.0628 -44.0383 -43.3792
   -43.0777 -42.8458 -42.8422 -42.6952 -42.6370 -42.6119 -42.6103 -42.4838
   -42.3908 -42.3085 -42.2915 -42.2670 -42.2254 -42.1551 -42.0542 -41.9088
   -18.3869 -18.2042 -18.0212 -18.0147 -17.7745 -17.6492 -17.5460 -17.5034
   -17.4638 -17.4021 -17.0540 -16.8749 -16.2212  -6.4761  -6.3352  -6.2675
    -6.2232  -5.9910  -5.8748  -5.8268  -5.6484  -5.5723  -5.3663  -5.1110
    -4.8041  -4.7368  -4.6661  -4.5067  -4.4527  -4.3577  -4.2373  -4.1426
    -3.9967  -3.5707  -3.5122  -3.3565  -3.2097  -3.1845  -3.0201  -2.9291
    -2.7737  -2.6618  -2.4397  -2.2576  -2.1685  -2.1230  -1.9343  -1.6062
    -1.4325  -1.2564  -1.1670  -1.0271  -0.2168   0.0976   0.4116   0.4607
     0.5779   0.8318   0.8920   0.9655   1.0541   1.1342   1.2030   1.2628
     1.3622   1.5278   1.5945   1.6548   1.7868   2.0591   2.6083   3.7051
     4.0350   4.1383   4.2368   4.3715   4.6667   4.7780   5.2065   5.3520

          k = 0.3750 0.0000 0.0000 ( 40852 PWs)   bands (ev):

   -73.4788 -72.7641 -72.5260 -72.3618 -72.3432 -72.0591 -44.0342 -43.4394
   -43.0665 -42.9098 -42.8422 -42.6904 -42.6271 -42.6065 -42.6059 -42.5441
   -42.3841 -42.3696 -42.3393 -42.2735 -42.2178 -42.1446 -42.1192 -41.8976
   -18.1219 -18.0054 -17.8745 -17.8464 -17.7484 -17.6384 -17.6029 -17.5292
   -17.4609 -17.4163 -17.0749 -16.8345 -16.1938  -6.3542  -6.1753  -6.0549
    -6.0293  -5.9084  -5.8545  -5.6519  -5.6275  -5.5025  -5.4038  -5.2061
    -5.0554  -4.8268  -4.7895  -4.5835  -4.4186  -4.3708  -4.2097  -3.9678
    -3.6587  -3.5009  -3.4133  -3.3828  -3.3316  -3.1614  -3.0952  -2.8148
    -2.6706  -2.6037  -2.4435  -2.2768  -2.2178  -2.0357  -1.9581  -1.5158
    -1.3872  -1.3832  -1.2391  -0.9741  -0.1545   0.0150   0.2688   0.4735
     0.5801   0.6622   0.7677   0.7712   0.8626   1.0289   1.1659   1.2095
     1.3762   1.5231   1.6537   1.7817   1.9639   2.1492   2.3657   3.4230
     3.7988   4.0590   4.2735   4.3802   4.4810   4.5426   4.7826   4.9396

          k = 0.3750 0.1223 0.0000 ( 40842 PWs)   bands (ev):

   -73.4788 -72.7641 -72.5260 -72.3618 -72.3432 -72.0591 -44.0342 -43.4399
   -43.0665 -42.9093 -42.8421 -42.6910 -42.6271 -42.6081 -42.6057 -42.5443
   -42.3836 -42.3682 -42.3398 -42.2735 -42.2178 -42.1444 -42.1184 -41.8976
   -18.1017 -18.0047 -17.9366 -17.8794 -17.8175 -17.6353 -17.5366 -17.4813
   -17.4526 -17.4031 -17.0739 -16.8384 -16.1940  -6.2221  -6.1319  -6.1001
    -6.0487  -5.9637  -5.7667  -5.6557  -5.6024  -5.5223  -5.4723  -5.3532
    -5.0451  -4.7804  -4.7081  -4.5390  -4.4603  -4.2861  -4.0434  -3.8558
    -3.6446  -3.5646  -3.3488  -3.3061  -3.2327  -3.1432  -3.0461  -2.8768
    -2.7348  -2.6070  -2.5075  -2.2873  -2.1835  -2.0637  -1.9387  -1.6228
    -1.5485  -1.4105  -1.2644  -1.1260  -0.1294  -0.0830   0.2041   0.2310
     0.5378   0.6022   0.6347   0.7587   0.8071   0.9238   0.9526   1.2206
     1.6739   1.7377   1.8269   1.8775   2.0340   2.0520   2.4763   3.1685
     3.4832   3.6504   3.7491   4.1000   4.2906   5.1327   5.4541   5.5737

          k = 0.3750-0.2445 0.0000 ( 40856 PWs)   bands (ev):

   -73.4788 -72.7641 -72.5260 -72.3618 -72.3432 -72.0591 -44.0342 -43.4404
   -43.0665 -42.9088 -42.8420 -42.6915 -42.6271 -42.6095 -42.6057 -42.5444
   -42.3832 -42.3668 -42.3403 -42.2736 -42.2178 -42.1443 -42.1176 -41.8976
   -18.0495 -18.0352 -17.9966 -17.9025 -17.8575 -17.6437 -17.4861 -17.4652
   -17.4267 -17.3905 -17.0728 -16.8425 -16.1942  -6.2593  -6.0808  -5.9299
    -5.9217  -5.8559  -5.8199  -5.7614  -5.6925  -5.6793  -5.5585  -5.4128
    -4.9443  -4.7936  -4.5525  -4.5040  -4.2924  -4.2086  -4.0691  -3.7340
    -3.5411  -3.4344  -3.4101  -3.2883  -3.2704  -3.1557  -3.1235  -2.9766
    -2.7732  -2.7377  -2.3608  -2.2252  -2.1439  -2.0326  -1.9038  -1.8529
    -1.5843  -1.4327  -1.2826  -1.2551  -0.3259  -0.2629  -0.1033   0.3166
     0.4371   0.5973   0.6768   0.7694   0.8175   0.8758   1.0081   1.2046
     1.5688   1.7971   1.9632   1.9846   2.1116   2.2058   2.5744   2.7552
     3.2140   3.3176   3.5165   4.1244   4.2929   5.5135   5.6038   5.8160

          k = 0.3750-0.1223 0.0000 ( 40842 PWs)   bands (ev):

   -73.4788 -72.7641 -72.5260 -72.3618 -72.3432 -72.0591 -44.0342 -43.4399
   -43.0665 -42.9093 -42.8421 -42.6910 -42.6271 -42.6081 -42.6057 -42.5443
   -42.3836 -42.3682 -42.3398 -42.2735 -42.2178 -42.1444 -42.1184 -41.8976
   -18.1017 -18.0047 -17.9366 -17.8794 -17.8175 -17.6353 -17.5366 -17.4813
   -17.4526 -17.4031 -17.0739 -16.8384 -16.1940  -6.2221  -6.1319  -6.1001
    -6.0487  -5.9637  -5.7667  -5.6557  -5.6024  -5.5223  -5.4723  -5.3532
    -5.0451  -4.7804  -4.7081  -4.5390  -4.4603  -4.2861  -4.0434  -3.8558
    -3.6446  -3.5646  -3.3488  -3.3061  -3.2327  -3.1432  -3.0461  -2.8768
    -2.7348  -2.6070  -2.5075  -2.2873  -2.1835  -2.0637  -1.9387  -1.6228
    -1.5485  -1.4105  -1.2644  -1.1260  -0.1294  -0.0830   0.2041   0.2310
     0.5378   0.6022   0.6347   0.7587   0.8071   0.9238   0.9526   1.2206
     1.6739   1.7377   1.8269   1.8775   2.0340   2.0520   2.4763   3.1685
     3.4832   3.6504   3.7491   4.1000   4.2906   5.1327   5.4541   5.5737

          k =-0.5000 0.0000 0.0000 ( 40876 PWs)   bands (ev):

   -73.4773 -72.7625 -72.5245 -72.3603 -72.3417 -72.0575 -44.0324 -43.4643
   -43.0612 -42.9374 -42.8414 -42.6884 -42.6243 -42.6042 -42.6038 -42.5679
   -42.4013 -42.3742 -42.3642 -42.2713 -42.2147 -42.1455 -42.1405 -41.8931
   -18.0022 -17.8586 -17.8410 -17.7873 -17.7126 -17.6951 -17.6702 -17.6015
   -17.4791 -17.4100 -17.0051 -16.8077 -16.1573  -6.3420  -6.1528  -5.9923
    -5.7935  -5.7670  -5.6980  -5.5936  -5.5469  -5.5276  -5.4268  -5.3187
    -5.1580  -5.0303  -4.9126  -4.7326  -4.5057  -4.0817  -3.8232  -3.7894
    -3.6873  -3.6824  -3.6816  -3.5631  -3.4147  -2.9652  -2.8597  -2.7128
    -2.6102  -2.4881  -2.4701  -2.3658  -2.1630  -1.9870  -1.8321  -1.7189
    -1.6166  -1.2493  -1.1213  -0.9039  -0.2132   0.0786   0.0804   0.4620
     0.5468   0.5701   0.6346   0.6646   0.7210   0.7880   1.0303   1.1593
     1.3151   1.5032   1.8469   1.9261   2.1463   2.2536   2.3223   3.2023
     3.6473   4.0159   4.2116   4.2486   4.3633   4.5519   4.7590   4.9093

          k =-0.5000 0.1223 0.0000 ( 40858 PWs)   bands (ev):

   -73.4773 -72.7625 -72.5245 -72.3603 -72.3417 -72.0575 -44.0324 -43.4649
   -43.0619 -42.9367 -42.8407 -42.6892 -42.6244 -42.6067 -42.6036 -42.5680
   -42.3992 -42.3741 -42.3646 -42.2713 -42.2147 -42.1446 -42.1400 -41.8929
   -17.9949 -17.9707 -17.9588 -17.9113 -17.8627 -17.5467 -17.4774 -17.4714
   -17.4282 -17.4115 -17.0063 -16.8105 -16.1568  -6.2795  -6.2425  -6.1162
    -6.1090  -6.0039  -5.7584  -5.6668  -5.6297  -5.6161  -5.4162  -5.1772
    -5.1006  -4.8376  -4.5902  -4.4112  -4.1198  -3.8713  -3.8311  -3.7973
    -3.7655  -3.6463  -3.6365  -3.6066  -3.0095  -2.9510  -2.8227  -2.6228
    -2.6012  -2.5233  -2.5018  -2.2773  -2.1881  -2.1339  -1.8393  -1.6594
    -1.6295  -1.4987  -1.3085  -1.0919  -0.2051  -0.0368   0.0317   0.0843
     0.2042   0.4462   0.4906   0.5643   0.5887   0.6358   0.7429   1.1737
     1.8272   1.8455   2.0040   2.0122   2.1808   2.1999   2.4031   3.0000
     3.2497   3.4517   3.5769   4.0445   4.2142   5.3293   5.5960   5.6452

          k =-0.5000-0.2445 0.0000 ( 40872 PWs)   bands (ev):

   -73.4773 -72.7625 -72.5245 -72.3603 -72.3417 -72.0575 -44.0324 -43.4655
   -43.0626 -42.9360 -42.8400 -42.6901 -42.6244 -42.6088 -42.6035 -42.5682
   -42.3971 -42.3739 -42.3651 -42.2713 -42.2147 -42.1437 -42.1395 -41.8928
   -18.0499 -18.0451 -18.0024 -17.9869 -17.8676 -17.4754 -17.4670 -17.4132
   -17.3718 -17.3305 -17.0075 -16.8133 -16.1563  -6.4855  -6.2783  -6.2032
    -6.1005  -6.0769  -5.7695  -5.6874  -5.6796  -5.6491  -5.4995  -5.1752
    -5.0593  -4.9605  -4.1855  -4.1287  -3.9036  -3.8799  -3.8225  -3.5978
    -3.5874  -3.5250  -3.4221  -3.2402  -3.2022  -2.8998  -2.8582  -2.8015
    -2.6756  -2.4133  -2.3114  -2.2027  -2.1673  -1.9300  -1.9133  -1.7965
    -1.7612  -1.7232  -1.5844  -1.2699  -0.5121  -0.2275  -0.1995   0.0022
     0.1065   0.1752   0.4539   0.4691   0.5990   0.6349   0.7572   1.2072
     1.7445   1.9152   2.0866   2.1183   2.3489   2.3674   2.4577   2.6000
     3.0683   3.1893   3.2859   4.0713   4.2162   5.7258   5.7840   5.8323

          k =-0.5000-0.1223 0.0000 ( 40858 PWs)   bands (ev):

   -73.4773 -72.7625 -72.5245 -72.3603 -72.3417 -72.0575 -44.0324 -43.4649
   -43.0619 -42.9367 -42.8407 -42.6892 -42.6244 -42.6067 -42.6036 -42.5680
   -42.3992 -42.3741 -42.3646 -42.2713 -42.2147 -42.1446 -42.1400 -41.8929
   -17.9949 -17.9707 -17.9588 -17.9113 -17.8627 -17.5467 -17.4774 -17.4714
   -17.4282 -17.4115 -17.0063 -16.8105 -16.1568  -6.2795  -6.2425  -6.1162
    -6.1090  -6.0039  -5.7584  -5.6668  -5.6297  -5.6161  -5.4162  -5.1772
    -5.1006  -4.8376  -4.5902  -4.4112  -4.1198  -3.8713  -3.8311  -3.7973
    -3.7655  -3.6463  -3.6365  -3.6066  -3.0095  -2.9510  -2.8227  -2.6228
    -2.6012  -2.5233  -2.5018  -2.2773  -2.1881  -2.1339  -1.8393  -1.6594
    -1.6295  -1.4987  -1.3085  -1.0919  -0.2051  -0.0368   0.0317   0.0843
     0.2042   0.4462   0.4906   0.5643   0.5887   0.6358   0.7429   1.1737
     1.8272   1.8455   2.0040   2.0122   2.1808   2.1999   2.4031   3.0000
     3.2497   3.4517   3.5769   4.0445   4.2142   5.3293   5.5960   5.6452

          k =-0.3750 0.0000 0.0000 ( 40852 PWs)   bands (ev):

   -73.4788 -72.7641 -72.5260 -72.3618 -72.3432 -72.0591 -44.0342 -43.4394
   -43.0665 -42.9098 -42.8422 -42.6904 -42.6271 -42.6065 -42.6059 -42.5441
   -42.3841 -42.3696 -42.3393 -42.2735 -42.2178 -42.1446 -42.1192 -41.8976
   -18.1219 -18.0054 -17.8745 -17.8464 -17.7484 -17.6384 -17.6029 -17.5292
   -17.4609 -17.4163 -17.0749 -16.8345 -16.1938  -6.3542  -6.1753  -6.0549
    -6.0293  -5.9084  -5.8545  -5.6519  -5.6275  -5.5025  -5.4038  -5.2061
    -5.0554  -4.8268  -4.7895  -4.5835  -4.4186  -4.3708  -4.2097  -3.9678
    -3.6587  -3.5009  -3.4133  -3.3828  -3.3316  -3.1614  -3.0952  -2.8148
    -2.6706  -2.6037  -2.4435  -2.2768  -2.2178  -2.0357  -1.9581  -1.5158
    -1.3872  -1.3832  -1.2391  -0.9741  -0.1545   0.0150   0.2688   0.4735
     0.5801   0.6622   0.7677   0.7712   0.8626   1.0289   1.1659   1.2095
     1.3762   1.5231   1.6537   1.7817   1.9639   2.1492   2.3657   3.4230
     3.7988   4.0590   4.2735   4.3802   4.4810   4.5426   4.7826   4.9396

          k =-0.3750 0.1223 0.0000 ( 40842 PWs)   bands (ev):

   -73.4788 -72.7641 -72.5260 -72.3618 -72.3432 -72.0591 -44.0342 -43.4399
   -43.0665 -42.9093 -42.8421 -42.6910 -42.6271 -42.6081 -42.6057 -42.5443
   -42.3836 -42.3682 -42.3398 -42.2735 -42.2178 -42.1444 -42.1184 -41.8976
   -18.1017 -18.0047 -17.9366 -17.8794 -17.8175 -17.6353 -17.5366 -17.4813
   -17.4526 -17.4031 -17.0739 -16.8384 -16.1940  -6.2221  -6.1319  -6.1001
    -6.0487  -5.9637  -5.7667  -5.6557  -5.6024  -5.5223  -5.4723  -5.3532
    -5.0451  -4.7804  -4.7081  -4.5390  -4.4603  -4.2861  -4.0434  -3.8558
    -3.6446  -3.5646  -3.3488  -3.3061  -3.2327  -3.1432  -3.0461  -2.8768
    -2.7348  -2.6070  -2.5075  -2.2873  -2.1835  -2.0637  -1.9387  -1.6228
    -1.5485  -1.4105  -1.2644  -1.1260  -0.1294  -0.0830   0.2041   0.2310
     0.5378   0.6022   0.6347   0.7587   0.8071   0.9238   0.9526   1.2206
     1.6739   1.7377   1.8269   1.8775   2.0340   2.0520   2.4763   3.1685
     3.4832   3.6504   3.7491   4.1000   4.2906   5.1327   5.4541   5.5737

          k =-0.3750-0.2445 0.0000 ( 40856 PWs)   bands (ev):

   -73.4788 -72.7641 -72.5260 -72.3618 -72.3432 -72.0591 -44.0342 -43.4404
   -43.0665 -42.9088 -42.8420 -42.6915 -42.6271 -42.6095 -42.6057 -42.5444
   -42.3832 -42.3668 -42.3403 -42.2736 -42.2178 -42.1443 -42.1176 -41.8976
   -18.0495 -18.0352 -17.9966 -17.9025 -17.8575 -17.6437 -17.4861 -17.4652
   -17.4267 -17.3905 -17.0728 -16.8425 -16.1942  -6.2593  -6.0808  -5.9299
    -5.9217  -5.8559  -5.8199  -5.7614  -5.6925  -5.6793  -5.5585  -5.4128
    -4.9443  -4.7936  -4.5525  -4.5040  -4.2924  -4.2086  -4.0691  -3.7340
    -3.5411  -3.4344  -3.4101  -3.2883  -3.2704  -3.1557  -3.1235  -2.9766
    -2.7732  -2.7377  -2.3608  -2.2252  -2.1439  -2.0326  -1.9038  -1.8529
    -1.5843  -1.4327  -1.2826  -1.2551  -0.3259  -0.2629  -0.1033   0.3166
     0.4371   0.5973   0.6768   0.7694   0.8175   0.8758   1.0081   1.2046
     1.5688   1.7971   1.9632   1.9846   2.1116   2.2058   2.5744   2.7552
     3.2140   3.3176   3.5165   4.1244   4.2929   5.5135   5.6038   5.8160

          k =-0.3750-0.1223 0.0000 ( 40842 PWs)   bands (ev):

   -73.4788 -72.7641 -72.5260 -72.3618 -72.3432 -72.0591 -44.0342 -43.4399
   -43.0665 -42.9093 -42.8421 -42.6910 -42.6271 -42.6081 -42.6057 -42.5443
   -42.3836 -42.3682 -42.3398 -42.2735 -42.2178 -42.1444 -42.1184 -41.8976
   -18.1017 -18.0047 -17.9366 -17.8794 -17.8175 -17.6353 -17.5366 -17.4813
   -17.4526 -17.4031 -17.0739 -16.8384 -16.1940  -6.2221  -6.1319  -6.1001
    -6.0487  -5.9637  -5.7667  -5.6557  -5.6024  -5.5223  -5.4723  -5.3532
    -5.0451  -4.7804  -4.7081  -4.5390  -4.4603  -4.2861  -4.0434  -3.8558
    -3.6446  -3.5646  -3.3488  -3.3061  -3.2327  -3.1432  -3.0461  -2.8768
    -2.7348  -2.6070  -2.5075  -2.2873  -2.1835  -2.0637  -1.9387  -1.6228
    -1.5485  -1.4105  -1.2644  -1.1260  -0.1294  -0.0830   0.2041   0.2310
     0.5378   0.6022   0.6347   0.7587   0.8071   0.9238   0.9526   1.2206
     1.6739   1.7377   1.8269   1.8775   2.0340   2.0520   2.4763   3.1685
     3.4832   3.6504   3.7491   4.1000   4.2906   5.1327   5.4541   5.5737

          k =-0.2500 0.0000 0.0000 ( 40947 PWs)   bands (ev):

   -73.4823 -72.7680 -72.5296 -72.3655 -72.3468 -72.0628 -44.0383 -43.3789
   -43.0790 -42.8445 -42.8425 -42.6954 -42.6370 -42.6119 -42.6105 -42.4838
   -42.3908 -42.3096 -42.2912 -42.2665 -42.2254 -42.1546 -42.0546 -41.9083
   -18.4742 -18.2996 -18.1163 -17.9744 -17.7851 -17.5700 -17.4658 -17.4347
   -17.4236 -17.3469 -17.0635 -16.8684 -16.2217  -6.7888  -6.6201  -6.5852
    -6.2586  -6.0015  -5.9810  -5.8614  -5.8113  -5.4738  -5.4485  -5.0519
    -4.9849  -4.6487  -4.5327  -4.5154  -4.3331  -4.1434  -4.0285  -3.9872
    -3.7538  -3.6756  -3.3406  -3.1990  -3.1304  -3.0079  -2.8545  -2.8037
    -2.6859  -2.4844  -2.4008  -2.2275  -2.2100  -2.1113  -2.0495  -1.6136
    -1.4646  -1.2597  -1.1992  -0.9709  -0.1991  -0.1403   0.1679   0.4452
     0.5130   0.5819   0.7974   0.9704   1.0645   1.1599   1.2029   1.3302
     1.3597   1.4663   1.4959   1.6107   1.8518   2.1793   2.4916   3.9549
     4.1743   4.2271   4.4022   4.6649   4.7390   4.8021   4.8775   4.9612

          k =-0.2500 0.1223 0.0000 ( 40905 PWs)   bands (ev):

   -73.4823 -72.7680 -72.5296 -72.3654 -72.3469 -72.0628 -44.0383 -43.3792
   -43.0777 -42.8458 -42.8422 -42.6952 -42.6370 -42.6119 -42.6103 -42.4838
   -42.3908 -42.3085 -42.2915 -42.2670 -42.2254 -42.1551 -42.0542 -41.9088
   -18.3869 -18.2042 -18.0212 -18.0147 -17.7745 -17.6492 -17.5460 -17.5034
   -17.4638 -17.4021 -17.0540 -16.8749 -16.2212  -6.4761  -6.3352  -6.2675
    -6.2232  -5.9910  -5.8748  -5.8268  -5.6484  -5.5723  -5.3663  -5.1110
    -4.8041  -4.7368  -4.6661  -4.5067  -4.4527  -4.3577  -4.2373  -4.1426
    -3.9967  -3.5707  -3.5122  -3.3565  -3.2097  -3.1845  -3.0201  -2.9291
    -2.7737  -2.6618  -2.4397  -2.2576  -2.1685  -2.1230  -1.9343  -1.6062
    -1.4325  -1.2564  -1.1670  -1.0271  -0.2168   0.0976   0.4116   0.4607
     0.5779   0.8318   0.8920   0.9655   1.0541   1.1342   1.2030   1.2628
     1.3622   1.5278   1.5945   1.6548   1.7868   2.0591   2.6083   3.7051
     4.0350   4.1383   4.2368   4.3715   4.6667   4.7780   5.2065   5.3520

          k =-0.2500-0.2445 0.0000 ( 40892 PWs)   bands (ev):

   -73.4823 -72.7680 -72.5296 -72.3654 -72.3469 -72.0628 -44.0383 -43.3795
   -43.0764 -42.8468 -42.8422 -42.6951 -42.6370 -42.6119 -42.6102 -42.4839
   -42.3908 -42.3074 -42.2918 -42.2675 -42.2254 -42.1557 -42.0538 -41.9093
   -18.2074 -18.1628 -17.9804 -17.9226 -17.7750 -17.7519 -17.6959 -17.6273
   -17.5147 -17.4016 -17.0445 -16.8826 -16.2208  -6.2799  -6.0376  -5.9589
    -5.8482  -5.8012  -5.7889  -5.6686  -5.5609  -5.3228  -5.3026  -5.2286
    -5.0011  -4.9958  -4.9615  -4.7879  -4.5944  -4.4970  -4.2490  -4.0458
    -3.8314  -3.7489  -3.6370  -3.5988  -3.5380  -3.5109  -3.2857  -3.2732
    -2.9392  -2.7897  -2.3846  -2.2455  -1.9444  -1.8716  -1.6762  -1.6166
    -1.3419  -1.3036  -1.1446  -1.1160  -0.0059   0.0256   0.2614   0.5690
     0.5926   0.8621   1.0131   1.0814   1.1195   1.1476   1.2705   1.3780
     1.3982   1.6017   1.6507   1.7780   1.8122   1.9136   2.7003   3.2999
     3.7491   3.8341   4.0896   4.3615   4.6808   5.0706   5.3123   5.5883

          k =-0.2500-0.1223 0.0000 ( 40905 PWs)   bands (ev):

   -73.4823 -72.7680 -72.5296 -72.3654 -72.3469 -72.0628 -44.0383 -43.3792
   -43.0777 -42.8458 -42.8422 -42.6952 -42.6370 -42.6119 -42.6103 -42.4838
   -42.3908 -42.3085 -42.2915 -42.2670 -42.2254 -42.1551 -42.0542 -41.9088
   -18.3869 -18.2042 -18.0212 -18.0147 -17.7745 -17.6492 -17.5460 -17.5034
   -17.4638 -17.4021 -17.0540 -16.8749 -16.2212  -6.4761  -6.3352  -6.2675
    -6.2232  -5.9910  -5.8748  -5.8268  -5.6484  -5.5723  -5.3663  -5.1110
    -4.8041  -4.7368  -4.6661  -4.5067  -4.4527  -4.3577  -4.2373  -4.1426
    -3.9967  -3.5707  -3.5122  -3.3565  -3.2097  -3.1845  -3.0201  -2.9291
    -2.7737  -2.6618  -2.4397  -2.2576  -2.1685  -2.1230  -1.9343  -1.6062
    -1.4325  -1.2564  -1.1670  -1.0271  -0.2168   0.0976   0.4116   0.4607
     0.5779   0.8318   0.8920   0.9655   1.0541   1.1342   1.2030   1.2628
     1.3622   1.5278   1.5945   1.6548   1.7868   2.0591   2.6083   3.7051
     4.0350   4.1383   4.2368   4.3715   4.6667   4.7780   5.2065   5.3520

          k =-0.1250 0.0000 0.0000 ( 40851 PWs)   bands (ev):

   -73.4859 -72.7718 -72.5333 -72.3691 -72.3505 -72.0666 -44.0425 -43.3178
   -43.0914 -42.8468 -42.7743 -42.7003 -42.6479 -42.6174 -42.6153 -42.4218
   -42.4007 -42.2921 -42.2455 -42.2329 -42.2102 -42.1646 -41.9891 -41.9191
   -18.8001 -18.5878 -18.3846 -18.1464 -17.9052 -17.7697 -17.4189 -17.2802
   -17.2459 -17.1579 -16.9453 -16.8270 -16.1703  -7.2574  -7.0674  -7.0550
    -6.4532  -6.4327  -6.0553  -5.8109  -5.7607  -5.6320  -5.5766  -5.4679
    -5.2116  -5.0415  -4.9787  -4.4283  -4.0990  -4.0340  -3.4393  -3.2780
    -3.2466  -3.1577  -3.0771  -3.0650  -2.9067  -2.7500  -2.7202  -2.5713
    -2.4804  -2.3311  -2.1795  -2.1516  -2.0748  -2.0510  -1.8683  -1.7244
    -1.5797  -1.0984  -1.0697  -0.6855  -0.4376  -0.2564   0.0176   0.0569
     0.1420   0.3270   0.4564   0.5176   0.6817   0.6963   1.1490   1.1978
     1.3343   1.4414   1.6332   1.8692   2.1416   2.3601   2.5605   3.7116
     4.3455   4.7590   4.7691   4.8916   5.0527   5.3577   5.3956   5.4556

          k =-0.1250 0.1223 0.0000 ( 40932 PWs)   bands (ev):

   -73.4859 -72.7718 -72.5333 -72.3691 -72.3506 -72.0666 -44.0425 -43.3179
   -43.0890 -42.8493 -42.7743 -42.6995 -42.6479 -42.6162 -42.6152 -42.4218
   -42.4007 -42.2922 -42.2449 -42.2329 -42.2110 -42.1659 -41.9890 -41.9200
   -18.6855 -18.4624 -18.2648 -18.1941 -17.9064 -17.8076 -17.4486 -17.3952
   -17.3481 -17.3272 -16.9252 -16.8395 -16.1679  -6.8564  -6.6506  -6.6149
    -6.4567  -6.4114  -5.9592  -5.7732  -5.6949  -5.6470  -5.5319  -5.2605
    -5.2071  -5.0428  -4.8546  -4.4651  -4.2204  -4.0240  -4.0026  -3.7004
    -3.4681  -3.4427  -3.3610  -3.3255  -3.1844  -3.1321  -3.0667  -2.8249
    -2.6341  -2.5258  -2.3331  -2.2078  -2.0721  -1.9992  -1.7496  -1.5661
    -1.4305  -1.0763  -0.9905  -0.7916  -0.0705   0.1674   0.1860   0.2647
     0.3752   0.4381   0.6649   0.7404   0.7925   0.8799   1.1406   1.2226
     1.3572   1.4676   1.6663   1.7123   1.9200   2.3113   2.5790   4.0259
     4.4015   4.7446   4.8337   4.8602   4.9995   5.1967   5.2587   5.3737

          k =-0.1250-0.2445 0.0000 ( 40974 PWs)   bands (ev):

   -73.4859 -72.7718 -72.5333 -72.3690 -72.3506 -72.0666 -44.0425 -43.3180
   -43.0865 -42.8517 -42.7743 -42.6988 -42.6479 -42.6156 -42.6145 -42.4218
   -42.4006 -42.2922 -42.2442 -42.2329 -42.2118 -42.1672 -41.9890 -41.9210
   -18.4473 -18.3994 -18.2321 -18.0360 -17.9796 -17.8904 -17.5683 -17.5456
   -17.4869 -17.3905 -16.8882 -16.8724 -16.1660  -6.4900  -6.4647  -6.1438
    -5.9392  -5.8402  -5.7675  -5.7583  -5.6855  -5.6504  -5.6388  -5.2482
    -5.0691  -4.9027  -4.7869  -4.6434  -4.4767  -4.3258  -4.1746  -4.1410
    -4.0977  -4.0049  -3.8741  -3.7905  -3.4811  -3.3703  -3.2821  -2.8590
    -2.7285  -2.6320  -2.3143  -2.2386  -1.9403  -1.7726  -1.5575  -1.4064
    -1.1610  -1.0970  -1.0113  -0.9903   0.1816   0.1925   0.2892   0.3928
     0.5309   0.5792   0.7851   1.1056   1.1236   1.1364   1.2030   1.2514
     1.4004   1.4248   1.5299   1.6514   1.9211   1.9958   2.7258   4.0764
     4.4346   4.5477   4.7185   4.8425   5.0745   5.1075   5.2990   5.4317

          k =-0.1250-0.1223 0.0000 ( 40932 PWs)   bands (ev):

   -73.4859 -72.7718 -72.5333 -72.3691 -72.3506 -72.0666 -44.0425 -43.3179
   -43.0890 -42.8493 -42.7743 -42.6995 -42.6479 -42.6162 -42.6152 -42.4218
   -42.4007 -42.2922 -42.2449 -42.2329 -42.2110 -42.1659 -41.9890 -41.9200
   -18.6855 -18.4624 -18.2648 -18.1941 -17.9064 -17.8076 -17.4486 -17.3952
   -17.3481 -17.3272 -16.9252 -16.8395 -16.1679  -6.8564  -6.6506  -6.6149
    -6.4567  -6.4114  -5.9592  -5.7732  -5.6949  -5.6470  -5.5319  -5.2605
    -5.2071  -5.0428  -4.8546  -4.4651  -4.2204  -4.0240  -4.0026  -3.7004
    -3.4681  -3.4427  -3.3610  -3.3255  -3.1844  -3.1321  -3.0667  -2.8249
    -2.6341  -2.5258  -2.3331  -2.2078  -2.0721  -1.9992  -1.7496  -1.5661
    -1.4305  -1.0763  -0.9905  -0.7916  -0.0705   0.1674   0.1860   0.2647
     0.3752   0.4381   0.6649   0.7404   0.7925   0.8799   1.1406   1.2226
     1.3572   1.4676   1.6663   1.7123   1.9200   2.3113   2.5790   4.0259
     4.4015   4.7446   4.8337   4.8602   4.9995   5.1967   5.2587   5.3737

     the Fermi energy is     1.1941 ev

!    total energy              =   -1672.25470479 Ry
     estimated scf accuracy    <          7.1E-09 Ry
     smearing contrib. (-TS)   =      -0.00196292 Ry
     internal energy E=F+TS    =   -1672.25274188 Ry

     The total energy is F=E-TS. E is the sum of the following terms:
     one-electron contribution =  -16964.28980210 Ry
     hartree contribution      =    8504.16342875 Ry
     xc contribution           =    -214.03992101 Ry
     ewald contribution        =    7125.70000065 Ry
     one-center paw contrib.   =    -123.78644816 Ry

     convergence has been achieved in  11 iterations

     negative rho (up, down):  1.093E-04 0.000E+00

     Forces acting on atoms (cartesian axes, Ry/au):

     atom    1 type  1   force =    -0.00000000   -0.00003471    0.07051572
     atom    2 type  1   force =     0.00000000    0.00089633   -0.09118693
     atom    3 type  1   force =     0.00000001    0.00001872    0.00045336
     atom    4 type  1   force =    -0.00000002    0.00027895   -0.00089201
     atom    5 type  1   force =    -0.00000000   -0.00032899   -0.00049060
     atom    6 type  1   force =    -0.00000001   -0.00142511   -0.00021459
     atom    7 type  2   force =     0.00000000   -0.00211634    0.01711583
     atom    8 type  2   force =     0.00000000   -0.00005144    0.06202818
     atom    9 type  2   force =     0.00000000    0.02373918   -0.02485037
     atom   10 type  2   force =     0.00000000   -0.02437222   -0.02456299
     atom   11 type  2   force =    -0.00000002   -0.00006530   -0.00154521
     atom   12 type  2   force =     0.00000002    0.00220113   -0.00924539
     atom   13 type  2   force =     0.00000000   -0.00008116   -0.00234179
     atom   14 type  2   force =    -0.00000001   -0.00038875    0.00273423
     atom   15 type  2   force =    -0.00000003    0.00139057   -0.00035400
     atom   16 type  2   force =     0.00000001    0.00073129    0.00041669
     atom   17 type  2   force =     0.00000001    0.00047150    0.00026955
     atom   18 type  2   force =     0.00000001   -0.00007176    0.00207138
     atom   19 type  2   force =     0.00000002   -0.00079190    0.00007896

     Total force =     0.005197     Total SCF correction =     0.000518
     Energy error            =      4.9E-05 Ry
     Gradient error          =      2.7E-03 Ry/Bohr

     number of scf cycles    =  17
     number of bfgs steps    =  16

     energy             old  =   -1672.2546553135 Ry
     energy             new  =   -1672.2547047913 Ry

     CASE: energy            _new < energy            _old

     new trust radius        =       0.0282223077 bohr
     new conv_thr            =       0.0000000100 Ry


ATOMIC_POSITIONS (angstrom)
Ru               0.0000000000        1.5881618300        9.5289709800    0   0   0
Ru               1.5535000000        4.7644854900        9.5289709800    0   0   0
Ru               0.0000000245        4.7685137582       12.7178820430
Ru               1.5535000197        1.5887891077       12.7081963708
Ru              -0.0000000409        1.6351491352       16.0562659400
Ru               1.5535000398        4.8117397670       15.9443469041
O                0.0000000000        4.7644854900       10.7677372100    0   0   0
O                0.0000000000        4.7644854900        8.2902047600    0   0   0
O                1.5535000000        0.3493956000        9.5289709800    0   0   0
O                1.5535000000        2.8269280600        9.5289709800    0   0   0
O                0.0000000806        1.5835849098       13.9817238319
O                0.0000000000        1.5881618300       11.4665284200    0   0   0
O                1.5535000665        3.5335404268       12.7221673054
O                1.5535000018        6.0021893017       12.6876185628
O                0.0000000525        4.7694917091       17.0474904025
O               -0.0000000122        4.8044170010       14.6463846393
O                1.5534999925        0.4096957988       15.8961778995
O                1.5534999999        2.8461776464       15.8195619217
O               -0.0000002074        1.6990786560       17.7521552841



     Writing config-only to output data dir ./tmp_s0_O__1x1_off/s0_O__1x1_off.save/ :
     XML data file
     NEW-OLD atomic charge density approx. for the potential

     negative rho (up, down):  1.093E-04 0.000E+00

     total cpu time spent up to now is    21228.6 secs

     per-process dynamical memory:  1113.7 Mb

     Self-consistent Calculation

     iteration #  1     ecut=    80.00 Ry     beta= 0.30
     Davidson diagonalization with overlap
     ethr =  1.00E-06,  avg # of iterations =  4.0

     Threshold (ethr) on eigenvalues was too large:
     Diagonalizing with lowered threshold

     Davidson diagonalization with overlap
     ethr =  8.39E-08,  avg # of iterations =  2.1

     negative rho (up, down):  1.092E-04 0.000E+00

     total cpu time spent up to now is    21451.2 secs

     total energy              =   -1672.25476312 Ry
     estimated scf accuracy    <       0.00014923 Ry

     iteration #  2     ecut=    80.00 Ry     beta= 0.30
     Davidson diagonalization with overlap
     ethr =  8.58E-08,  avg # of iterations =  1.0

     negative rho (up, down):  1.086E-04 0.000E+00

     total cpu time spent up to now is    21532.6 secs

     total energy              =   -1672.25476362 Ry
     estimated scf accuracy    <       0.00011984 Ry

     iteration #  3     ecut=    80.00 Ry     beta= 0.30
     Davidson diagonalization with overlap
     ethr =  6.89E-08,  avg # of iterations =  1.0

     negative rho (up, down):  1.056E-04 0.000E+00

     total cpu time spent up to now is    21613.9 secs

     total energy              =   -1672.25475713 Ry
     estimated scf accuracy    <       0.00002878 Ry

     iteration #  4     ecut=    80.00 Ry     beta= 0.30
     Davidson diagonalization with overlap
     ethr =  1.65E-08,  avg # of iterations =  2.2

     negative rho (up, down):  1.043E-04 0.000E+00

     total cpu time spent up to now is    21704.0 secs

     total energy              =   -1672.25475788 Ry
     estimated scf accuracy    <       0.00000583 Ry

     iteration #  5     ecut=    80.00 Ry     beta= 0.30
     Davidson diagonalization with overlap
     ethr =  3.35E-09,  avg # of iterations =  4.1

     negative rho (up, down):  1.033E-04 0.000E+00

     total cpu time spent up to now is    21797.5 secs

     total energy              =   -1672.25475829 Ry
     estimated scf accuracy    <       0.00000101 Ry

     iteration #  6     ecut=    80.00 Ry     beta= 0.30
     Davidson diagonalization with overlap
     ethr =  5.80E-10,  avg # of iterations =  2.8

     negative rho (up, down):  1.028E-04 0.000E+00

     total cpu time spent up to now is    21889.9 secs

     total energy              =   -1672.25475834 Ry
     estimated scf accuracy    <       0.00000037 Ry

     iteration #  7     ecut=    80.00 Ry     beta= 0.30
     Davidson diagonalization with overlap
     ethr =  2.12E-10,  avg # of iterations =  2.1

     negative rho (up, down):  1.022E-04 0.000E+00

     total cpu time spent up to now is    21977.0 secs

     total energy              =   -1672.25475833 Ry
     estimated scf accuracy    <       0.00000017 Ry

     iteration #  8     ecut=    80.00 Ry     beta= 0.30
     Davidson diagonalization with overlap
     ethr =  9.93E-11,  avg # of iterations =  1.6

     negative rho (up, down):  1.021E-04 0.000E+00

     total cpu time spent up to now is    22062.6 secs

     total energy              =   -1672.25475833 Ry
     estimated scf accuracy    <       0.00000003 Ry

     iteration #  9     ecut=    80.00 Ry     beta= 0.30
     Davidson diagonalization with overlap
     ethr =  1.57E-11,  avg # of iterations =  2.9

     negative rho (up, down):  1.093E-04 0.000E+00

     total cpu time spent up to now is    22149.5 secs

     End of self-consistent calculation

          k = 0.0000 0.0000 0.0000 ( 40831 PWs)   bands (ev):

   -73.4892 -72.7736 -72.5340 -72.3699 -72.3502 -72.0660 -44.0472 -43.2942
   -43.0979 -42.8477 -42.7477 -42.7014 -42.6515 -42.6188 -42.6163 -42.4040
   -42.3950 -42.2929 -42.2344 -42.2175 -42.1848 -42.1668 -41.9599 -41.9215
   -18.9290 -18.7053 -18.4931 -18.2352 -17.9846 -17.8478 -17.4118 -17.2035
   -17.1679 -17.0764 -16.9042 -16.7736 -16.1282  -7.4439  -7.2430  -7.2326
    -6.6261  -6.4548  -6.0148  -5.7728  -5.7689  -5.7003  -5.6299  -5.5455
    -5.4869  -5.3149  -5.1947  -4.5965  -4.1758  -3.5871  -3.3965  -3.1886
    -3.0847  -2.9535  -2.9422  -2.7945  -2.7154  -2.6779  -2.6723  -2.5029
    -2.3685  -2.2632  -2.1890  -2.0003  -1.9463  -1.6732  -1.4702  -1.4271
    -1.2345  -1.1722  -0.7410  -0.6969  -0.5567  -0.5372  -0.2275  -0.2077
    -0.1463  -0.1416   0.2646   0.3374   0.4512   0.5268   0.9895   1.1179
     1.2210   1.4326   1.7569   2.0242   2.2288   2.2846   2.7047   3.5329
     4.2253   4.7111   5.0444   5.2128   5.4254   5.5100   5.7164   5.7710

          k = 0.0000 0.1223 0.0000 ( 40974 PWs)   bands (ev):

   -73.4892 -72.7736 -72.5340 -72.3698 -72.3502 -72.0660 -44.0472 -43.2941
   -43.0951 -42.8507 -42.7477 -42.7004 -42.6515 -42.6172 -42.6162 -42.4040
   -42.3949 -42.2929 -42.2344 -42.2169 -42.1853 -42.1687 -41.9599 -41.9227
   -18.8080 -18.5736 -18.3715 -18.2826 -18.0008 -17.8778 -17.4224 -17.3326
   -17.2983 -17.2581 -16.8837 -16.7843 -16.1253  -7.0285  -6.7981  -6.7701
    -6.6180  -6.4429  -5.9447  -5.7710  -5.6499  -5.6206  -5.5492  -5.4829
    -5.4647  -5.3139  -5.0038  -4.6363  -4.2350  -4.0352  -3.7711  -3.6318
    -3.5410  -3.4158  -3.2644  -2.9116  -2.8804  -2.8667  -2.7505  -2.6832
    -2.5822  -2.3868  -2.2123  -2.1612  -2.0923  -1.7205  -1.6498  -1.6153
    -1.3576  -1.1404  -0.9072  -0.7033  -0.0754  -0.0639   0.1345   0.2501
     0.3392   0.3802   0.4154   0.5087   0.5359   0.6077   0.9780   1.0724
     1.2909   1.4791   1.7574   1.8249   2.0246   2.3611   2.5805   3.9246
     4.6474   4.8057   4.8930   5.2130   5.4356   5.4595   5.5005   5.5410

          k = 0.0000-0.2445 0.0000 ( 41014 PWs)   bands (ev):

   -73.4891 -72.7736 -72.5340 -72.3698 -72.3503 -72.0660 -44.0472 -43.2941
   -43.0922 -42.8537 -42.7477 -42.6994 -42.6515 -42.6165 -42.6151 -42.4040
   -42.3949 -42.2930 -42.2344 -42.2163 -42.1859 -42.1707 -41.9599 -41.9239
   -18.5568 -18.5087 -18.3398 -18.1292 -18.0753 -17.9692 -17.5041 -17.4766
   -17.4400 -17.3867 -16.8556 -16.8078 -16.1230  -6.6736  -6.4822  -6.3631
    -6.0301  -5.9825  -5.8672  -5.7679  -5.6243  -5.5383  -5.4692  -5.4631
    -5.3072  -5.0669  -4.9406  -4.6207  -4.6093  -4.4972  -4.4886  -4.3457
    -4.2927  -3.6973  -3.4964  -3.3486  -3.1471  -3.1216  -2.9971  -2.7048
    -2.5840  -2.4755  -2.2275  -2.1314  -1.9682  -1.7158  -1.6483  -1.4112
    -1.1997  -1.0999  -0.9972  -0.9919   0.1842   0.1990   0.2710   0.3840
     0.5111   0.6658   0.7960   0.8111   0.8805   0.9133   1.0417   1.1095
     1.2056   1.5477   1.5591   1.5876   2.0073   2.1155   2.7096   4.3479
     4.5397   4.8363   5.1819   5.1846   5.2142   5.2482   5.5188   5.6704

          k = 0.0000-0.1223 0.0000 ( 40974 PWs)   bands (ev):

   -73.4892 -72.7736 -72.5340 -72.3698 -72.3502 -72.0660 -44.0472 -43.2941
   -43.0951 -42.8507 -42.7477 -42.7004 -42.6515 -42.6172 -42.6162 -42.4040
   -42.3949 -42.2929 -42.2344 -42.2169 -42.1853 -42.1687 -41.9599 -41.9227
   -18.8080 -18.5736 -18.3715 -18.2826 -18.0008 -17.8778 -17.4224 -17.3326
   -17.2983 -17.2581 -16.8837 -16.7843 -16.1253  -7.0285  -6.7981  -6.7701
    -6.6180  -6.4429  -5.9447  -5.7710  -5.6499  -5.6206  -5.5492  -5.4829
    -5.4647  -5.3139  -5.0038  -4.6363  -4.2350  -4.0352  -3.7711  -3.6318
    -3.5410  -3.4158  -3.2644  -2.9116  -2.8804  -2.8667  -2.7505  -2.6832
    -2.5822  -2.3868  -2.2123  -2.1612  -2.0923  -1.7205  -1.6498  -1.6153
    -1.3576  -1.1404  -0.9072  -0.7033  -0.0754  -0.0639   0.1345   0.2501
     0.3392   0.3802   0.4154   0.5087   0.5359   0.6077   0.9780   1.0724
     1.2909   1.4791   1.7574   1.8249   2.0246   2.3611   2.5805   3.9246
     4.6474   4.8057   4.8930   5.2130   5.4356   5.4595   5.5005   5.5410

          k = 0.1250 0.0000 0.0000 ( 40851 PWs)   bands (ev):

   -73.4877 -72.7720 -72.5325 -72.3684 -72.3487 -72.0645 -44.0455 -43.3197
   -43.0928 -42.8467 -42.7764 -42.6994 -42.6468 -42.6166 -42.6142 -42.4210
   -42.3999 -42.2901 -42.2442 -42.2315 -42.2105 -42.1627 -41.9872 -41.9171
   -18.8006 -18.5889 -18.3841 -18.1489 -17.9081 -17.7695 -17.4193 -17.2800
   -17.2451 -17.1570 -16.9447 -16.8276 -16.1689  -7.2609  -7.0665  -7.0539
    -6.4546  -6.4341  -6.0579  -5.8105  -5.7628  -5.6315  -5.5788  -5.4677
    -5.2162  -5.0400  -4.9796  -4.4326  -4.1000  -4.0346  -3.4400  -3.2784
    -3.2475  -3.1573  -3.0769  -3.0646  -2.9062  -2.7507  -2.7183  -2.5758
    -2.4827  -2.3309  -2.1792  -2.1502  -2.0793  -2.0452  -1.8677  -1.7243
    -1.5776  -1.0969  -1.0679  -0.6808  -0.4418  -0.2560   0.0190   0.0588
     0.1435   0.3300   0.4574   0.5189   0.6822   0.6984   1.1504   1.1980
     1.3363   1.4432   1.6327   1.8706   2.1430   2.3621   2.5621   3.7131
     4.3467   4.7620   4.7717   4.8967   5.0565   5.3624   5.3988   5.4572

          k = 0.1250 0.1223 0.0000 ( 40932 PWs)   bands (ev):

   -73.4877 -72.7720 -72.5325 -72.3683 -72.3487 -72.0645 -44.0455 -43.3198
   -43.0904 -42.8492 -42.7763 -42.6986 -42.6468 -42.6153 -42.6141 -42.4210
   -42.3999 -42.2902 -42.2436 -42.2315 -42.2113 -42.1640 -41.9871 -41.9181
   -18.6862 -18.4637 -18.2648 -18.1957 -17.9103 -17.8060 -17.4485 -17.3942
   -17.3489 -17.3264 -16.9247 -16.8399 -16.1666  -6.8595  -6.6501  -6.6137
    -6.4581  -6.4127  -5.9620  -5.7749  -5.6950  -5.6483  -5.5312  -5.2634
    -5.2093  -5.0412  -4.8557  -4.4693  -4.2211  -4.0253  -4.0025  -3.6995
    -3.4684  -3.4434  -3.3607  -3.3244  -3.1856  -3.1319  -3.0684  -2.8249
    -2.6331  -2.5256  -2.3323  -2.2069  -2.0722  -1.9996  -1.7501  -1.5675
    -1.4292  -1.0749  -0.9897  -0.7908  -0.0693   0.1681   0.1869   0.2662
     0.3765   0.4392   0.6659   0.7425   0.7942   0.8814   1.1420   1.2230
     1.3594   1.4691   1.6675   1.7128   1.9211   2.3128   2.5810   4.0278
     4.4039   4.7464   4.8365   4.8655   5.0029   5.1993   5.2614   5.3790

          k = 0.1250-0.2445 0.0000 ( 40974 PWs)   bands (ev):

   -73.4877 -72.7720 -72.5325 -72.3683 -72.3488 -72.0645 -44.0455 -43.3199
   -43.0880 -42.8516 -42.7763 -42.6978 -42.6468 -42.6145 -42.6136 -42.4209
   -42.3998 -42.2902 -42.2429 -42.2316 -42.2121 -42.1654 -41.9870 -41.9191
   -18.4490 -18.4001 -18.2341 -18.0377 -17.9795 -17.8896 -17.5671 -17.5450
   -17.4873 -17.3915 -16.8879 -16.8726 -16.1647  -6.4911  -6.4664  -6.1472
    -5.9415  -5.8414  -5.7663  -5.7588  -5.6863  -5.6514  -5.6375  -5.2530
    -5.0675  -4.9023  -4.7858  -4.6481  -4.4784  -4.3268  -4.1750  -4.1398
    -4.0998  -4.0038  -3.8728  -3.7910  -3.4846  -3.3694  -3.2819  -2.8595
    -2.7295  -2.6300  -2.3130  -2.2379  -1.9405  -1.7726  -1.5579  -1.4068
    -1.1623  -1.0973  -1.0096  -0.9897   0.1825   0.1949   0.2911   0.3943
     0.5322   0.5789   0.7868   1.1062   1.1236   1.1389   1.2054   1.2529
     1.4020   1.4260   1.5312   1.6526   1.9217   1.9969   2.7278   4.0790
     4.4365   4.5509   4.7205   4.8477   5.0783   5.1114   5.3015   5.4364

          k = 0.1250-0.1223 0.0000 ( 40932 PWs)   bands (ev):

   -73.4877 -72.7720 -72.5325 -72.3683 -72.3487 -72.0645 -44.0455 -43.3198
   -43.0904 -42.8492 -42.7763 -42.6986 -42.6468 -42.6153 -42.6141 -42.4210
   -42.3999 -42.2902 -42.2436 -42.2315 -42.2113 -42.1640 -41.9871 -41.9181
   -18.6862 -18.4637 -18.2648 -18.1957 -17.9103 -17.8060 -17.4485 -17.3942
   -17.3489 -17.3264 -16.9247 -16.8399 -16.1666  -6.8595  -6.6501  -6.6137
    -6.4581  -6.4127  -5.9620  -5.7749  -5.6950  -5.6483  -5.5312  -5.2634
    -5.2093  -5.0412  -4.8557  -4.4693  -4.2211  -4.0253  -4.0025  -3.6995
    -3.4684  -3.4434  -3.3607  -3.3244  -3.1856  -3.1319  -3.0684  -2.8249
    -2.6331  -2.5256  -2.3323  -2.2069  -2.0722  -1.9996  -1.7501  -1.5675
    -1.4292  -1.0749  -0.9897  -0.7908  -0.0693   0.1681   0.1869   0.2662
     0.3765   0.4392   0.6659   0.7425   0.7942   0.8814   1.1420   1.2230
     1.3594   1.4691   1.6675   1.7128   1.9211   2.3128   2.5810   4.0278
     4.4039   4.7464   4.8365   4.8655   5.0029   5.1993   5.2614   5.3790

          k = 0.2500 0.0000 0.0000 ( 40947 PWs)   bands (ev):

   -73.4841 -72.7681 -72.5288 -72.3647 -72.3450 -72.0607 -44.0413 -43.3808
   -43.0805 -42.8449 -42.8442 -42.6944 -42.6356 -42.6111 -42.6096 -42.4830
   -42.3900 -42.3083 -42.2899 -42.2661 -42.2240 -42.1528 -42.0527 -41.9064
   -18.4745 -18.3008 -18.1157 -17.9768 -17.7851 -17.5723 -17.4650 -17.4335
   -17.4234 -17.3461 -17.0644 -16.8690 -16.2205  -6.7920  -6.6192  -6.5841
    -6.2596  -6.0034  -5.9815  -5.8618  -5.8112  -5.4724  -5.4494  -5.0539
    -4.9852  -4.6483  -4.5338  -4.5185  -4.3363  -4.1435  -4.0285  -3.9869
    -3.7542  -3.6759  -3.3428  -3.1999  -3.1288  -3.0102  -2.8547  -2.8020
    -2.6874  -2.4827  -2.4006  -2.2306  -2.2085  -2.1112  -2.0493  -1.6124
    -1.4659  -1.2577  -1.1971  -0.9692  -0.1922  -0.1474   0.1688   0.4469
     0.5155   0.5838   0.7989   0.9720   1.0656   1.1605   1.2056   1.3321
     1.3603   1.4633   1.4993   1.6115   1.8524   2.1806   2.4938   3.9570
     4.1768   4.2294   4.4060   4.6671   4.7410   4.8048   4.8791   4.9626

          k = 0.2500 0.1223 0.0000 ( 40905 PWs)   bands (ev):

   -73.4841 -72.7681 -72.5288 -72.3647 -72.3450 -72.0607 -44.0413 -43.3811
   -43.0792 -42.8459 -42.8442 -42.6943 -42.6356 -42.6111 -42.6095 -42.4830
   -42.3900 -42.3072 -42.2902 -42.2666 -42.2240 -42.1533 -42.0523 -41.9069
   -18.3874 -18.2058 -18.0209 -18.0159 -17.7753 -17.6492 -17.5461 -17.5032
   -17.4629 -17.4021 -17.0551 -16.8754 -16.2200  -6.4791  -6.3349  -6.2663
    -6.2236  -5.9915  -5.8759  -5.8283  -5.6482  -5.5724  -5.3659  -5.1128
    -4.8043  -4.7396  -4.6651  -4.5075  -4.4526  -4.3589  -4.2383  -4.1440
    -3.9980  -3.5719  -3.5126  -3.3575  -3.2094  -3.1838  -3.0192  -2.9277
    -2.7756  -2.6620  -2.4396  -2.2582  -2.1683  -2.1245  -1.9333  -1.6054
    -1.4337  -1.2548  -1.1665  -1.0255  -0.2156   0.0980   0.4117   0.4628
     0.5799   0.8333   0.8937   0.9671   1.0557   1.1339   1.2047   1.2635
     1.3646   1.5288   1.5955   1.6556   1.7873   2.0603   2.6105   3.7069
     4.0373   4.1411   4.2386   4.3751   4.6699   4.7804   5.2082   5.3538

          k = 0.2500-0.2445 0.0000 ( 40892 PWs)   bands (ev):

   -73.4841 -72.7681 -72.5288 -72.3647 -72.3451 -72.0607 -44.0413 -43.3815
   -43.0779 -42.8467 -42.8443 -42.6941 -42.6356 -42.6111 -42.6094 -42.4831
   -42.3900 -42.3061 -42.2905 -42.2670 -42.2240 -42.1538 -42.0519 -41.9074
   -18.2097 -18.1628 -17.9837 -17.9213 -17.7740 -17.7508 -17.6960 -17.6264
   -17.5163 -17.4014 -17.0458 -16.8829 -16.2196  -6.2810  -6.0383  -5.9615
    -5.8496  -5.7992  -5.7884  -5.6687  -5.5625  -5.3229  -5.3048  -5.2282
    -5.0024  -4.9953  -4.9613  -4.7875  -4.5949  -4.4961  -4.2520  -4.0470
    -3.8338  -3.7497  -3.6351  -3.5976  -3.5439  -3.5109  -3.2852  -3.2724
    -2.9404  -2.7886  -2.3836  -2.2451  -1.9450  -1.8726  -1.6764  -1.6156
    -1.3417  -1.3028  -1.1462  -1.1146  -0.0047   0.0278   0.2627   0.5709
     0.5944   0.8617   1.0139   1.0790   1.1209   1.1520   1.2720   1.3791
     1.4002   1.6024   1.6517   1.7792   1.8135   1.9143   2.7025   3.3016
     3.7518   3.8356   4.0923   4.3661   4.6839   5.0729   5.3141   5.5905

          k = 0.2500-0.1223 0.0000 ( 40905 PWs)   bands (ev):

   -73.4841 -72.7681 -72.5288 -72.3647 -72.3450 -72.0607 -44.0413 -43.3811
   -43.0792 -42.8459 -42.8442 -42.6943 -42.6356 -42.6111 -42.6095 -42.4830
   -42.3900 -42.3072 -42.2902 -42.2666 -42.2240 -42.1533 -42.0523 -41.9069
   -18.3874 -18.2058 -18.0209 -18.0159 -17.7753 -17.6492 -17.5461 -17.5032
   -17.4629 -17.4021 -17.0551 -16.8754 -16.2200  -6.4791  -6.3349  -6.2663
    -6.2236  -5.9915  -5.8759  -5.8283  -5.6482  -5.5724  -5.3659  -5.1128
    -4.8043  -4.7396  -4.6651  -4.5075  -4.4526  -4.3589  -4.2383  -4.1440
    -3.9980  -3.5719  -3.5126  -3.3575  -3.2094  -3.1838  -3.0192  -2.9277
    -2.7756  -2.6620  -2.4396  -2.2582  -2.1683  -2.1245  -1.9333  -1.6054
    -1.4337  -1.2548  -1.1665  -1.0255  -0.2156   0.0980   0.4117   0.4628
     0.5799   0.8333   0.8937   0.9671   1.0557   1.1339   1.2047   1.2635
     1.3646   1.5288   1.5955   1.6556   1.7873   2.0603   2.6105   3.7069
     4.0373   4.1411   4.2386   4.3751   4.6699   4.7804   5.2082   5.3538

          k = 0.3750 0.0000 0.0000 ( 40852 PWs)   bands (ev):

   -73.4806 -72.7643 -72.5252 -72.3610 -72.3413 -72.0570 -44.0372 -43.4414
   -43.0679 -42.9121 -42.8421 -42.6895 -42.6252 -42.6057 -42.6056 -42.5433
   -42.3832 -42.3685 -42.3397 -42.2714 -42.2165 -42.1428 -42.1172 -41.8956
   -18.1228 -18.0076 -17.8759 -17.8457 -17.7472 -17.6383 -17.6019 -17.5285
   -17.4620 -17.4157 -17.0767 -16.8354 -16.1926  -6.3555  -6.1746  -6.0546
    -6.0289  -5.9081  -5.8563  -5.6516  -5.6291  -5.5034  -5.4043  -5.2059
    -5.0581  -4.8262  -4.7900  -4.5827  -4.4188  -4.3719  -4.2093  -3.9675
    -3.6582  -3.5010  -3.4119  -3.3822  -3.3346  -3.1608  -3.0967  -2.8142
    -2.6713  -2.6056  -2.4438  -2.2771  -2.2165  -2.0358  -1.9589  -1.5154
    -1.3862  -1.3818  -1.2403  -0.9727  -0.1553   0.0154   0.2694   0.4743
     0.5792   0.6629   0.7681   0.7728   0.8640   1.0296   1.1691   1.2104
     1.3776   1.5242   1.6552   1.7820   1.9663   2.1505   2.3682   3.4251
     3.7995   4.0617   4.2753   4.3826   4.4827   4.5441   4.7835   4.9407

          k = 0.3750 0.1223 0.0000 ( 40842 PWs)   bands (ev):

   -73.4806 -72.7643 -72.5252 -72.3610 -72.3413 -72.0570 -44.0372 -43.4419
   -43.0680 -42.9116 -42.8420 -42.6900 -42.6252 -42.6073 -42.6054 -42.5434
   -42.3827 -42.3671 -42.3402 -42.2714 -42.2165 -42.1426 -42.1165 -41.8956
   -18.1026 -18.0070 -17.9364 -17.8799 -17.8165 -17.6352 -17.5354 -17.4803
   -17.4544 -17.4025 -17.0758 -16.8393 -16.1929  -6.2244  -6.1328  -6.0995
    -6.0479  -5.9629  -5.7669  -5.6556  -5.6022  -5.5244  -5.4727  -5.3543
    -5.0464  -4.7792  -4.7077  -4.5392  -4.4604  -4.2855  -4.0452  -3.8563
    -3.6444  -3.5645  -3.3510  -3.3053  -3.2326  -3.1443  -3.0459  -2.8764
    -2.7349  -2.6075  -2.5100  -2.2883  -2.1829  -2.0642  -1.9379  -1.6225
    -1.5470  -1.4107  -1.2637  -1.1250  -0.1288  -0.0833   0.2055   0.2305
     0.5383   0.6025   0.6343   0.7593   0.8083   0.9252   0.9533   1.2226
     1.6756   1.7400   1.8282   1.8788   2.0362   2.0527   2.4787   3.1690
     3.4849   3.6523   3.7506   4.1027   4.2925   5.1350   5.4557   5.5746

          k = 0.3750-0.2445 0.0000 ( 40856 PWs)   bands (ev):

   -73.4806 -72.7643 -72.5252 -72.3610 -72.3414 -72.0570 -44.0372 -43.4424
   -43.0680 -42.9111 -42.8419 -42.6906 -42.6252 -42.6087 -42.6054 -42.5435
   -42.3824 -42.3657 -42.3407 -42.2715 -42.2165 -42.1424 -42.1157 -41.8956
   -18.0516 -18.0349 -17.9974 -17.9028 -17.8569 -17.6434 -17.4849 -17.4658
   -17.4271 -17.3900 -17.0747 -16.8433 -16.1931  -6.2620  -6.0803  -5.9283
    -5.9224  -5.8559  -5.8198  -5.7609  -5.6933  -5.6801  -5.5583  -5.4138
    -4.9441  -4.7942  -4.5520  -4.5040  -4.2910  -4.2090  -4.0699  -3.7348
    -3.5413  -3.4337  -3.4142  -3.2883  -3.2714  -3.1560  -3.1252  -2.9759
    -2.7745  -2.7373  -2.3613  -2.2253  -2.1440  -2.0330  -1.9043  -1.8522
    -1.5835  -1.4328  -1.2811  -1.2534  -0.3245  -0.2630  -0.1033   0.3183
     0.4356   0.5953   0.6770   0.7709   0.8181   0.8771   1.0097   1.2059
     1.5713   1.7982   1.9657   1.9867   2.1131   2.2073   2.5767   2.7548
     3.2160   3.3191   3.5185   4.1271   4.2948   5.5159   5.6046   5.8177

          k = 0.3750-0.1223 0.0000 ( 40842 PWs)   bands (ev):

   -73.4806 -72.7643 -72.5252 -72.3610 -72.3413 -72.0570 -44.0372 -43.4419
   -43.0680 -42.9116 -42.8420 -42.6900 -42.6252 -42.6073 -42.6054 -42.5434
   -42.3827 -42.3671 -42.3402 -42.2714 -42.2165 -42.1426 -42.1165 -41.8956
   -18.1026 -18.0070 -17.9364 -17.8799 -17.8165 -17.6352 -17.5354 -17.4803
   -17.4544 -17.4025 -17.0758 -16.8393 -16.1929  -6.2244  -6.1328  -6.0995
    -6.0479  -5.9629  -5.7669  -5.6556  -5.6022  -5.5244  -5.4727  -5.3543
    -5.0464  -4.7792  -4.7077  -4.5392  -4.4604  -4.2855  -4.0452  -3.8563
    -3.6444  -3.5645  -3.3510  -3.3053  -3.2326  -3.1443  -3.0459  -2.8764
    -2.7349  -2.6075  -2.5100  -2.2883  -2.1829  -2.0642  -1.9379  -1.6225
    -1.5470  -1.4107  -1.2637  -1.1250  -0.1288  -0.0833   0.2055   0.2305
     0.5383   0.6025   0.6343   0.7593   0.8083   0.9252   0.9533   1.2226
     1.6756   1.7400   1.8282   1.8788   2.0362   2.0527   2.4787   3.1690
     3.4849   3.6523   3.7506   4.1027   4.2925   5.1350   5.4557   5.5746

          k =-0.5000 0.0000 0.0000 ( 40876 PWs)   bands (ev):

   -73.4791 -72.7627 -72.5237 -72.3595 -72.3398 -72.0554 -44.0354 -43.4663
   -43.0627 -42.9397 -42.8412 -42.6875 -42.6222 -42.6038 -42.6034 -42.5670
   -42.4001 -42.3734 -42.3647 -42.2691 -42.2135 -42.1436 -42.1386 -41.8911
   -18.0054 -17.8580 -17.8445 -17.7863 -17.7117 -17.6934 -17.6690 -17.6008
   -17.4800 -17.4091 -17.0071 -16.8085 -16.1561  -6.3423  -6.1525  -5.9920
    -5.7937  -5.7688  -5.6970  -5.5952  -5.5498  -5.5275  -5.4266  -5.3214
    -5.1574  -5.0302  -4.9104  -4.7338  -4.5053  -4.0794  -3.8260  -3.7903
    -3.6857  -3.6811  -3.6805  -3.5638  -3.4139  -2.9649  -2.8589  -2.7123
    -2.6122  -2.4872  -2.4713  -2.3669  -2.1641  -1.9877  -1.8310  -1.7189
    -1.6174  -1.2473  -1.1228  -0.9026  -0.2156   0.0746   0.0812   0.4629
     0.5493   0.5708   0.6332   0.6647   0.7227   0.7886   1.0312   1.1618
     1.3172   1.5052   1.8485   1.9268   2.1491   2.2565   2.3239   3.2040
     3.6472   4.0178   4.2132   4.2509   4.3650   4.5532   4.7600   4.9103

          k =-0.5000 0.1223 0.0000 ( 40858 PWs)   bands (ev):

   -73.4791 -72.7627 -72.5237 -72.3595 -72.3398 -72.0554 -44.0354 -43.4669
   -43.0634 -42.9390 -42.8406 -42.6883 -42.6222 -42.6059 -42.6035 -42.5671
   -42.3980 -42.3733 -42.3651 -42.2691 -42.2134 -42.1427 -42.1381 -41.8909
   -17.9983 -17.9727 -17.9576 -17.9102 -17.8619 -17.5471 -17.4785 -17.4701
   -17.4275 -17.4104 -17.0083 -16.8113 -16.1556  -6.2828  -6.2426  -6.1160
    -6.1086  -6.0025  -5.7582  -5.6654  -5.6325  -5.6155  -5.4183  -5.1774
    -5.0997  -4.8383  -4.5897  -4.4105  -4.1182  -3.8710  -3.8319  -3.7975
    -3.7674  -3.6458  -3.6366  -3.6061  -3.0103  -2.9507  -2.8219  -2.6241
    -2.6017  -2.5252  -2.5007  -2.2782  -2.1892  -2.1340  -1.8385  -1.6592
    -1.6292  -1.4976  -1.3086  -1.0903  -0.2074  -0.0365   0.0327   0.0809
     0.2051   0.4471   0.4913   0.5647   0.5894   0.6345   0.7446   1.1757
     1.8304   1.8468   2.0064   2.0139   2.1830   2.2015   2.4055   2.9987
     3.2515   3.4534   3.5785   4.0464   4.2158   5.3320   5.5976   5.6458

          k =-0.5000-0.2445 0.0000 ( 40872 PWs)   bands (ev):

   -73.4791 -72.7627 -72.5237 -72.3595 -72.3398 -72.0554 -44.0354 -43.4674
   -43.0641 -42.9383 -42.8399 -42.6891 -42.6222 -42.6080 -42.6035 -42.5673
   -42.3959 -42.3731 -42.3655 -42.2691 -42.2134 -42.1418 -42.1377 -41.8908
   -18.0489 -18.0466 -18.0013 -17.9906 -17.8665 -17.4767 -17.4677 -17.4120
   -17.3704 -17.3298 -17.0095 -16.8141 -16.1552  -6.4891  -6.2780  -6.2017
    -6.0985  -6.0788  -5.7700  -5.6865  -5.6785  -5.6515  -5.4993  -5.1760
    -5.0565  -4.9611  -4.1846  -4.1283  -3.9024  -3.8814  -3.8229  -3.5980
    -3.5875  -3.5253  -3.4231  -3.2390  -3.2060  -2.8999  -2.8587  -2.8031
    -2.6760  -2.4126  -2.3131  -2.2011  -2.1730  -1.9303  -1.9088  -1.7958
    -1.7607  -1.7222  -1.5830  -1.2686  -0.5113  -0.2278  -0.2017   0.0033
     0.1024   0.1753   0.4546   0.4701   0.5998   0.6337   0.7589   1.2086
     1.7475   1.9163   2.0928   2.1206   2.3506   2.3686   2.4603   2.5966
     3.0699   3.1908   3.2877   4.0731   4.2178   5.7262   5.7877   5.8325

          k =-0.5000-0.1223 0.0000 ( 40858 PWs)   bands (ev):

   -73.4791 -72.7627 -72.5237 -72.3595 -72.3398 -72.0554 -44.0354 -43.4669
   -43.0634 -42.9390 -42.8406 -42.6883 -42.6222 -42.6059 -42.6035 -42.5671
   -42.3980 -42.3733 -42.3651 -42.2691 -42.2134 -42.1427 -42.1381 -41.8909
   -17.9983 -17.9727 -17.9576 -17.9102 -17.8619 -17.5471 -17.4785 -17.4701
   -17.4275 -17.4104 -17.0083 -16.8113 -16.1556  -6.2828  -6.2426  -6.1160
    -6.1086  -6.0025  -5.7582  -5.6654  -5.6325  -5.6155  -5.4183  -5.1774
    -5.0997  -4.8383  -4.5897  -4.4105  -4.1182  -3.8710  -3.8319  -3.7975
    -3.7674  -3.6458  -3.6366  -3.6061  -3.0103  -2.9507  -2.8219  -2.6241
    -2.6017  -2.5252  -2.5007  -2.2782  -2.1892  -2.1340  -1.8385  -1.6592
    -1.6292  -1.4976  -1.3086  -1.0903  -0.2074  -0.0365   0.0327   0.0809
     0.2051   0.4471   0.4913   0.5647   0.5894   0.6345   0.7446   1.1757
     1.8304   1.8468   2.0064   2.0139   2.1830   2.2015   2.4055   2.9987
     3.2515   3.4534   3.5785   4.0464   4.2158   5.3320   5.5976   5.6458

          k =-0.3750 0.0000 0.0000 ( 40852 PWs)   bands (ev):

   -73.4806 -72.7643 -72.5252 -72.3610 -72.3413 -72.0570 -44.0372 -43.4414
   -43.0679 -42.9121 -42.8421 -42.6895 -42.6252 -42.6057 -42.6056 -42.5433
   -42.3832 -42.3685 -42.3397 -42.2714 -42.2165 -42.1428 -42.1172 -41.8956
   -18.1228 -18.0076 -17.8759 -17.8457 -17.7472 -17.6383 -17.6019 -17.5285
   -17.4620 -17.4157 -17.0767 -16.8354 -16.1926  -6.3555  -6.1746  -6.0546
    -6.0289  -5.9081  -5.8563  -5.6516  -5.6291  -5.5034  -5.4043  -5.2059
    -5.0581  -4.8262  -4.7900  -4.5827  -4.4188  -4.3719  -4.2093  -3.9675
    -3.6582  -3.5010  -3.4119  -3.3822  -3.3346  -3.1608  -3.0967  -2.8142
    -2.6713  -2.6056  -2.4438  -2.2771  -2.2165  -2.0358  -1.9589  -1.5154
    -1.3862  -1.3818  -1.2403  -0.9727  -0.1553   0.0154   0.2694   0.4743
     0.5792   0.6629   0.7681   0.7728   0.8640   1.0296   1.1691   1.2104
     1.3776   1.5242   1.6552   1.7820   1.9663   2.1505   2.3682   3.4251
     3.7995   4.0617   4.2753   4.3826   4.4827   4.5441   4.7835   4.9407

          k =-0.3750 0.1223 0.0000 ( 40842 PWs)   bands (ev):

   -73.4806 -72.7643 -72.5252 -72.3610 -72.3413 -72.0570 -44.0372 -43.4419
   -43.0680 -42.9116 -42.8420 -42.6900 -42.6252 -42.6073 -42.6054 -42.5434
   -42.3827 -42.3671 -42.3402 -42.2714 -42.2165 -42.1426 -42.1165 -41.8956
   -18.1026 -18.0070 -17.9364 -17.8799 -17.8165 -17.6352 -17.5354 -17.4803
   -17.4544 -17.4025 -17.0758 -16.8393 -16.1929  -6.2244  -6.1328  -6.0995
    -6.0479  -5.9629  -5.7669  -5.6556  -5.6022  -5.5244  -5.4727  -5.3543
    -5.0464  -4.7792  -4.7077  -4.5392  -4.4604  -4.2855  -4.0452  -3.8563
    -3.6444  -3.5645  -3.3510  -3.3053  -3.2326  -3.1443  -3.0459  -2.8764
    -2.7349  -2.6075  -2.5100  -2.2883  -2.1829  -2.0642  -1.9379  -1.6225
    -1.5470  -1.4107  -1.2637  -1.1250  -0.1288  -0.0833   0.2055   0.2305
     0.5383   0.6025   0.6343   0.7593   0.8083   0.9252   0.9533   1.2226
     1.6756   1.7400   1.8282   1.8788   2.0362   2.0527   2.4787   3.1690
     3.4849   3.6523   3.7506   4.1027   4.2925   5.1350   5.4557   5.5746

          k =-0.3750-0.2445 0.0000 ( 40856 PWs)   bands (ev):

   -73.4806 -72.7643 -72.5252 -72.3610 -72.3414 -72.0570 -44.0372 -43.4424
   -43.0680 -42.9111 -42.8419 -42.6906 -42.6252 -42.6087 -42.6054 -42.5435
   -42.3824 -42.3657 -42.3407 -42.2715 -42.2165 -42.1424 -42.1157 -41.8956
   -18.0516 -18.0349 -17.9974 -17.9028 -17.8569 -17.6434 -17.4849 -17.4658
   -17.4271 -17.3900 -17.0747 -16.8433 -16.1931  -6.2620  -6.0803  -5.9283
    -5.9224  -5.8559  -5.8198  -5.7609  -5.6933  -5.6801  -5.5583  -5.4138
    -4.9441  -4.7942  -4.5520  -4.5040  -4.2910  -4.2090  -4.0699  -3.7348
    -3.5413  -3.4337  -3.4142  -3.2883  -3.2714  -3.1560  -3.1252  -2.9759
    -2.7745  -2.7373  -2.3613  -2.2253  -2.1440  -2.0330  -1.9043  -1.8522
    -1.5835  -1.4328  -1.2811  -1.2534  -0.3245  -0.2630  -0.1033   0.3183
     0.4356   0.5953   0.6770   0.7709   0.8181   0.8771   1.0097   1.2059
     1.5713   1.7982   1.9657   1.9867   2.1131   2.2073   2.5767   2.7548
     3.2160   3.3191   3.5185   4.1271   4.2948   5.5159   5.6046   5.8177

          k =-0.3750-0.1223 0.0000 ( 40842 PWs)   bands (ev):

   -73.4806 -72.7643 -72.5252 -72.3610 -72.3413 -72.0570 -44.0372 -43.4419
   -43.0680 -42.9116 -42.8420 -42.6900 -42.6252 -42.6073 -42.6054 -42.5434
   -42.3827 -42.3671 -42.3402 -42.2714 -42.2165 -42.1426 -42.1165 -41.8956
   -18.1026 -18.0070 -17.9364 -17.8799 -17.8165 -17.6352 -17.5354 -17.4803
   -17.4544 -17.4025 -17.0758 -16.8393 -16.1929  -6.2244  -6.1328  -6.0995
    -6.0479  -5.9629  -5.7669  -5.6556  -5.6022  -5.5244  -5.4727  -5.3543
    -5.0464  -4.7792  -4.7077  -4.5392  -4.4604  -4.2855  -4.0452  -3.8563
    -3.6444  -3.5645  -3.3510  -3.3053  -3.2326  -3.1443  -3.0459  -2.8764
    -2.7349  -2.6075  -2.5100  -2.2883  -2.1829  -2.0642  -1.9379  -1.6225
    -1.5470  -1.4107  -1.2637  -1.1250  -0.1288  -0.0833   0.2055   0.2305
     0.5383   0.6025   0.6343   0.7593   0.8083   0.9252   0.9533   1.2226
     1.6756   1.7400   1.8282   1.8788   2.0362   2.0527   2.4787   3.1690
     3.4849   3.6523   3.7506   4.1027   4.2925   5.1350   5.4557   5.5746

          k =-0.2500 0.0000 0.0000 ( 40947 PWs)   bands (ev):

   -73.4841 -72.7681 -72.5288 -72.3647 -72.3450 -72.0607 -44.0413 -43.3808
   -43.0805 -42.8449 -42.8442 -42.6944 -42.6356 -42.6111 -42.6096 -42.4830
   -42.3900 -42.3083 -42.2899 -42.2661 -42.2240 -42.1528 -42.0527 -41.9064
   -18.4745 -18.3008 -18.1157 -17.9768 -17.7851 -17.5723 -17.4650 -17.4335
   -17.4234 -17.3461 -17.0644 -16.8690 -16.2205  -6.7920  -6.6192  -6.5841
    -6.2596  -6.0034  -5.9815  -5.8618  -5.8112  -5.4724  -5.4494  -5.0539
    -4.9852  -4.6483  -4.5338  -4.5185  -4.3363  -4.1435  -4.0285  -3.9869
    -3.7542  -3.6759  -3.3428  -3.1999  -3.1288  -3.0102  -2.8547  -2.8020
    -2.6874  -2.4827  -2.4006  -2.2306  -2.2085  -2.1112  -2.0493  -1.6124
    -1.4659  -1.2577  -1.1971  -0.9692  -0.1922  -0.1474   0.1688   0.4469
     0.5155   0.5838   0.7989   0.9720   1.0656   1.1605   1.2056   1.3321
     1.3603   1.4633   1.4993   1.6115   1.8524   2.1806   2.4938   3.9570
     4.1768   4.2294   4.4060   4.6671   4.7410   4.8048   4.8791   4.9626

          k =-0.2500 0.1223 0.0000 ( 40905 PWs)   bands (ev):

   -73.4841 -72.7681 -72.5288 -72.3647 -72.3450 -72.0607 -44.0413 -43.3811
   -43.0792 -42.8459 -42.8442 -42.6943 -42.6356 -42.6111 -42.6095 -42.4830
   -42.3900 -42.3072 -42.2902 -42.2666 -42.2240 -42.1533 -42.0523 -41.9069
   -18.3874 -18.2058 -18.0209 -18.0159 -17.7753 -17.6492 -17.5461 -17.5032
   -17.4629 -17.4021 -17.0551 -16.8754 -16.2200  -6.4791  -6.3349  -6.2663
    -6.2236  -5.9915  -5.8759  -5.8283  -5.6482  -5.5724  -5.3659  -5.1128
    -4.8043  -4.7396  -4.6651  -4.5075  -4.4526  -4.3589  -4.2383  -4.1440
    -3.9980  -3.5719  -3.5126  -3.3575  -3.2094  -3.1838  -3.0192  -2.9277
    -2.7756  -2.6620  -2.4396  -2.2582  -2.1683  -2.1245  -1.9333  -1.6054
    -1.4337  -1.2548  -1.1665  -1.0255  -0.2156   0.0980   0.4117   0.4628
     0.5799   0.8333   0.8937   0.9671   1.0557   1.1339   1.2047   1.2635
     1.3646   1.5288   1.5955   1.6556   1.7873   2.0603   2.6105   3.7069
     4.0373   4.1411   4.2386   4.3751   4.6699   4.7804   5.2082   5.3538

          k =-0.2500-0.2445 0.0000 ( 40892 PWs)   bands (ev):

   -73.4841 -72.7681 -72.5288 -72.3647 -72.3451 -72.0607 -44.0413 -43.3815
   -43.0779 -42.8467 -42.8443 -42.6941 -42.6356 -42.6111 -42.6094 -42.4831
   -42.3900 -42.3061 -42.2905 -42.2670 -42.2240 -42.1538 -42.0519 -41.9074
   -18.2097 -18.1628 -17.9837 -17.9213 -17.7740 -17.7508 -17.6960 -17.6264
   -17.5163 -17.4014 -17.0458 -16.8829 -16.2196  -6.2810  -6.0383  -5.9615
    -5.8496  -5.7992  -5.7884  -5.6687  -5.5625  -5.3229  -5.3048  -5.2282
    -5.0024  -4.9953  -4.9613  -4.7875  -4.5949  -4.4961  -4.2520  -4.0470
    -3.8338  -3.7497  -3.6351  -3.5976  -3.5439  -3.5109  -3.2852  -3.2724
    -2.9404  -2.7886  -2.3836  -2.2451  -1.9450  -1.8726  -1.6764  -1.6156
    -1.3417  -1.3028  -1.1462  -1.1146  -0.0047   0.0278   0.2627   0.5709
     0.5944   0.8617   1.0139   1.0790   1.1209   1.1520   1.2720   1.3791
     1.4002   1.6024   1.6517   1.7792   1.8135   1.9143   2.7025   3.3016
     3.7518   3.8356   4.0923   4.3661   4.6839   5.0729   5.3141   5.5905

          k =-0.2500-0.1223 0.0000 ( 40905 PWs)   bands (ev):

   -73.4841 -72.7681 -72.5288 -72.3647 -72.3450 -72.0607 -44.0413 -43.3811
   -43.0792 -42.8459 -42.8442 -42.6943 -42.6356 -42.6111 -42.6095 -42.4830
   -42.3900 -42.3072 -42.2902 -42.2666 -42.2240 -42.1533 -42.0523 -41.9069
   -18.3874 -18.2058 -18.0209 -18.0159 -17.7753 -17.6492 -17.5461 -17.5032
   -17.4629 -17.4021 -17.0551 -16.8754 -16.2200  -6.4791  -6.3349  -6.2663
    -6.2236  -5.9915  -5.8759  -5.8283  -5.6482  -5.5724  -5.3659  -5.1128
    -4.8043  -4.7396  -4.6651  -4.5075  -4.4526  -4.3589  -4.2383  -4.1440
    -3.9980  -3.5719  -3.5126  -3.3575  -3.2094  -3.1838  -3.0192  -2.9277
    -2.7756  -2.6620  -2.4396  -2.2582  -2.1683  -2.1245  -1.9333  -1.6054
    -1.4337  -1.2548  -1.1665  -1.0255  -0.2156   0.0980   0.4117   0.4628
     0.5799   0.8333   0.8937   0.9671   1.0557   1.1339   1.2047   1.2635
     1.3646   1.5288   1.5955   1.6556   1.7873   2.0603   2.6105   3.7069
     4.0373   4.1411   4.2386   4.3751   4.6699   4.7804   5.2082   5.3538

          k =-0.1250 0.0000 0.0000 ( 40851 PWs)   bands (ev):

   -73.4877 -72.7720 -72.5325 -72.3684 -72.3487 -72.0645 -44.0455 -43.3197
   -43.0928 -42.8467 -42.7764 -42.6994 -42.6468 -42.6166 -42.6142 -42.4210
   -42.3999 -42.2901 -42.2442 -42.2315 -42.2105 -42.1627 -41.9872 -41.9171
   -18.8006 -18.5889 -18.3841 -18.1489 -17.9081 -17.7695 -17.4193 -17.2800
   -17.2451 -17.1570 -16.9447 -16.8276 -16.1689  -7.2609  -7.0665  -7.0539
    -6.4546  -6.4341  -6.0579  -5.8105  -5.7628  -5.6315  -5.5788  -5.4677
    -5.2162  -5.0400  -4.9796  -4.4326  -4.1000  -4.0346  -3.4400  -3.2784
    -3.2475  -3.1573  -3.0769  -3.0646  -2.9062  -2.7507  -2.7183  -2.5758
    -2.4827  -2.3309  -2.1792  -2.1502  -2.0793  -2.0452  -1.8677  -1.7243
    -1.5776  -1.0969  -1.0679  -0.6808  -0.4418  -0.2560   0.0190   0.0588
     0.1435   0.3300   0.4574   0.5189   0.6822   0.6984   1.1504   1.1980
     1.3363   1.4432   1.6327   1.8706   2.1430   2.3621   2.5621   3.7131
     4.3467   4.7620   4.7717   4.8967   5.0565   5.3624   5.3988   5.4572

          k =-0.1250 0.1223 0.0000 ( 40932 PWs)   bands (ev):

   -73.4877 -72.7720 -72.5325 -72.3683 -72.3487 -72.0645 -44.0455 -43.3198
   -43.0904 -42.8492 -42.7763 -42.6986 -42.6468 -42.6153 -42.6141 -42.4210
   -42.3999 -42.2902 -42.2436 -42.2315 -42.2113 -42.1640 -41.9871 -41.9181
   -18.6862 -18.4637 -18.2648 -18.1957 -17.9103 -17.8060 -17.4485 -17.3942
   -17.3489 -17.3264 -16.9247 -16.8399 -16.1666  -6.8595  -6.6501  -6.6137
    -6.4581  -6.4127  -5.9620  -5.7749  -5.6950  -5.6483  -5.5312  -5.2634
    -5.2093  -5.0412  -4.8557  -4.4693  -4.2211  -4.0253  -4.0025  -3.6995
    -3.4684  -3.4434  -3.3607  -3.3244  -3.1856  -3.1319  -3.0684  -2.8249
    -2.6331  -2.5256  -2.3323  -2.2069  -2.0722  -1.9996  -1.7501  -1.5675
    -1.4292  -1.0749  -0.9897  -0.7908  -0.0693   0.1681   0.1869   0.2662
     0.3765   0.4392   0.6659   0.7425   0.7942   0.8814   1.1420   1.2230
     1.3594   1.4691   1.6675   1.7128   1.9211   2.3128   2.5810   4.0278
     4.4039   4.7464   4.8365   4.8655   5.0029   5.1993   5.2614   5.3790

          k =-0.1250-0.2445 0.0000 ( 40974 PWs)   bands (ev):

   -73.4877 -72.7720 -72.5325 -72.3683 -72.3488 -72.0645 -44.0455 -43.3199
   -43.0880 -42.8516 -42.7763 -42.6978 -42.6468 -42.6145 -42.6136 -42.4209
   -42.3998 -42.2902 -42.2429 -42.2316 -42.2121 -42.1654 -41.9870 -41.9191
   -18.4490 -18.4001 -18.2341 -18.0377 -17.9795 -17.8896 -17.5671 -17.5450
   -17.4873 -17.3915 -16.8879 -16.8726 -16.1647  -6.4911  -6.4664  -6.1472
    -5.9415  -5.8414  -5.7663  -5.7588  -5.6863  -5.6514  -5.6375  -5.2530
    -5.0675  -4.9023  -4.7858  -4.6481  -4.4784  -4.3268  -4.1750  -4.1398
    -4.0998  -4.0038  -3.8728  -3.7910  -3.4846  -3.3694  -3.2819  -2.8595
    -2.7295  -2.6300  -2.3130  -2.2379  -1.9405  -1.7726  -1.5579  -1.4068
    -1.1623  -1.0973  -1.0096  -0.9897   0.1825   0.1949   0.2911   0.3943
     0.5322   0.5789   0.7868   1.1062   1.1236   1.1389   1.2054   1.2529
     1.4020   1.4260   1.5312   1.6526   1.9217   1.9969   2.7278   4.0790
     4.4365   4.5509   4.7205   4.8477   5.0783   5.1114   5.3015   5.4364

          k =-0.1250-0.1223 0.0000 ( 40932 PWs)   bands (ev):

   -73.4877 -72.7720 -72.5325 -72.3683 -72.3487 -72.0645 -44.0455 -43.3198
   -43.0904 -42.8492 -42.7763 -42.6986 -42.6468 -42.6153 -42.6141 -42.4210
   -42.3999 -42.2902 -42.2436 -42.2315 -42.2113 -42.1640 -41.9871 -41.9181
   -18.6862 -18.4637 -18.2648 -18.1957 -17.9103 -17.8060 -17.4485 -17.3942
   -17.3489 -17.3264 -16.9247 -16.8399 -16.1666  -6.8595  -6.6501  -6.6137
    -6.4581  -6.4127  -5.9620  -5.7749  -5.6950  -5.6483  -5.5312  -5.2634
    -5.2093  -5.0412  -4.8557  -4.4693  -4.2211  -4.0253  -4.0025  -3.6995
    -3.4684  -3.4434  -3.3607  -3.3244  -3.1856  -3.1319  -3.0684  -2.8249
    -2.6331  -2.5256  -2.3323  -2.2069  -2.0722  -1.9996  -1.7501  -1.5675
    -1.4292  -1.0749  -0.9897  -0.7908  -0.0693   0.1681   0.1869   0.2662
     0.3765   0.4392   0.6659   0.7425   0.7942   0.8814   1.1420   1.2230
     1.3594   1.4691   1.6675   1.7128   1.9211   2.3128   2.5810   4.0278
     4.4039   4.7464   4.8365   4.8655   5.0029   5.1993   5.2614   5.3790

     the Fermi energy is     1.1955 ev

!    total energy              =   -1672.25475833 Ry
     estimated scf accuracy    <          8.1E-09 Ry
     smearing contrib. (-TS)   =      -0.00195757 Ry
     internal energy E=F+TS    =   -1672.25280075 Ry

     The total energy is F=E-TS. E is the sum of the following terms:
     one-electron contribution =  -16965.06934499 Ry
     hartree contribution      =    8504.55697992 Ry
     xc contribution           =    -214.04284676 Ry
     ewald contribution        =    7126.08871541 Ry
     one-center paw contrib.   =    -123.78630434 Ry

     convergence has been achieved in   9 iterations

     negative rho (up, down):  1.093E-04 0.000E+00

     Forces acting on atoms (cartesian axes, Ry/au):

     atom    1 type  1   force =    -0.00000000   -0.00000255    0.07027743
     atom    2 type  1   force =    -0.00000000    0.00088742   -0.09107932
     atom    3 type  1   force =     0.00000001    0.00009858   -0.00004704
     atom    4 type  1   force =     0.00000002    0.00048009   -0.00020790
     atom    5 type  1   force =     0.00000002   -0.00043219   -0.00172111
     atom    6 type  1   force =    -0.00000001   -0.00326731   -0.00026791
     atom    7 type  2   force =     0.00000000   -0.00187674    0.01720919
     atom    8 type  2   force =     0.00000000   -0.00010293    0.06205863
     atom    9 type  2   force =     0.00000000    0.02373308   -0.02477373
     atom   10 type  2   force =     0.00000000   -0.02432208   -0.02460224
     atom   11 type  2   force =    -0.00000004   -0.00008739   -0.00104054
     atom   12 type  2   force =     0.00000001    0.00199123   -0.00977462
     atom   13 type  2   force =    -0.00000003   -0.00037944   -0.00198164
     atom   14 type  2   force =     0.00000001   -0.00033979    0.00254568
     atom   15 type  2   force =    -0.00000001    0.00100200    0.00037438
     atom   16 type  2   force =     0.00000002    0.00090718   -0.00027415
     atom   17 type  2   force =    -0.00000001    0.00138784    0.00021470
     atom   18 type  2   force =    -0.00000002    0.00093411    0.00196009
     atom   19 type  2   force =     0.00000003   -0.00061110    0.00113010

     Total force =     0.006026     Total SCF correction =     0.000413
     Energy error            =      5.4E-05 Ry
     Gradient error          =      3.3E-03 Ry/Bohr

     number of scf cycles    =  18
     number of bfgs steps    =  17

     energy             old  =   -1672.2547047913 Ry
     energy             new  =   -1672.2547583276 Ry

     CASE: energy            _new < energy            _old

     new trust radius        =       0.0310445385 bohr
     new conv_thr            =       0.0000000100 Ry


ATOMIC_POSITIONS (angstrom)
Ru               0.0000000000        1.5881618300        9.5289709800    0   0   0
Ru               1.5535000000        4.7644854900        9.5289709800    0   0   0
Ru               0.0000000397        4.7679542553       12.7184559116
Ru               1.5534999858        1.5887845915       12.7066623361
Ru              -0.0000000278        1.6364060366       16.0562854230
Ru               1.5535000311        4.8154233488       15.9435608025
O                0.0000000000        4.7644854900       10.7677372100    0   0   0
O                0.0000000000        4.7644854900        8.2902047600    0   0   0
O                1.5535000000        0.3493956000        9.5289709800    0   0   0
O                1.5535000000        2.8269280600        9.5289709800    0   0   0
O                0.0000000810        1.5872710164       13.9796470993
O                0.0000000000        1.5881618300       11.4665284200    0   0   0
O                1.5535001070        3.5336279202       12.7186251606
O                1.5534999812        6.0017701543       12.6912687899
O                0.0000000054        4.7753575256       17.0459223051
O               -0.0000000064        4.8015239273       14.6468541187
O                1.5535000229        0.4116214465       15.8889375297
O                1.5535000266        2.8475316589       15.8287283909
O               -0.0000002225        1.6826562787       17.7525874341



     Writing config-only to output data dir ./tmp_s0_O__1x1_off/s0_O__1x1_off.save/ :
     XML data file
     NEW-OLD atomic charge density approx. for the potential

     negative rho (up, down):  1.094E-04 0.000E+00

     total cpu time spent up to now is    22168.1 secs

     per-process dynamical memory:  1113.7 Mb

     Self-consistent Calculation

     iteration #  1     ecut=    80.00 Ry     beta= 0.30
     Davidson diagonalization with overlap
     ethr =  1.00E-06,  avg # of iterations =  4.0

     Threshold (ethr) on eigenvalues was too large:
     Diagonalizing with lowered threshold

     Davidson diagonalization with overlap
     ethr =  7.38E-08,  avg # of iterations =  2.7

     negative rho (up, down):  1.119E-04 0.000E+00

     total cpu time spent up to now is    22393.8 secs

     total energy              =   -1672.25482428 Ry
     estimated scf accuracy    <       0.00013324 Ry

     iteration #  2     ecut=    80.00 Ry     beta= 0.30
     Davidson diagonalization with overlap
     ethr =  7.66E-08,  avg # of iterations =  1.0

     negative rho (up, down):  1.115E-04 0.000E+00

     total cpu time spent up to now is    22475.7 secs

     total energy              =   -1672.25482301 Ry
     estimated scf accuracy    <       0.00008548 Ry

     iteration #  3     ecut=    80.00 Ry     beta= 0.30
     Davidson diagonalization with overlap
     ethr =  4.91E-08,  avg # of iterations =  1.0

     negative rho (up, down):  1.112E-04 0.000E+00

     total cpu time spent up to now is    22557.0 secs

     total energy              =   -1672.25481487 Ry
     estimated scf accuracy    <       0.00003416 Ry

     iteration #  4     ecut=    80.00 Ry     beta= 0.30
     Davidson diagonalization with overlap
     ethr =  1.96E-08,  avg # of iterations =  2.0

     negative rho (up, down):  1.118E-04 0.000E+00

     total cpu time spent up to now is    22646.3 secs

     total energy              =   -1672.25481501 Ry
     estimated scf accuracy    <       0.00001001 Ry

     iteration #  5     ecut=    80.00 Ry     beta= 0.30
     Davidson diagonalization with overlap
     ethr =  5.75E-09,  avg # of iterations =  3.1

     negative rho (up, down):  1.117E-04 0.000E+00

     total cpu time spent up to now is    22739.9 secs

     total energy              =   -1672.25481563 Ry
     estimated scf accuracy    <       0.00000160 Ry

     iteration #  6     ecut=    80.00 Ry     beta= 0.30
     Davidson diagonalization with overlap
     ethr =  9.21E-10,  avg # of iterations =  3.9

     negative rho (up, down):  1.116E-04 0.000E+00

     total cpu time spent up to now is    22834.5 secs

     total energy              =   -1672.25481571 Ry
     estimated scf accuracy    <       0.00000063 Ry

     iteration #  7     ecut=    80.00 Ry     beta= 0.30
     Davidson diagonalization with overlap
     ethr =  3.64E-10,  avg # of iterations =  1.5

     negative rho (up, down):  1.116E-04 0.000E+00

     total cpu time spent up to now is    22918.9 secs

     total energy              =   -1672.25481569 Ry
     estimated scf accuracy    <       0.00000025 Ry

     iteration #  8     ecut=    80.00 Ry     beta= 0.30
     Davidson diagonalization with overlap
     ethr =  1.46E-10,  avg # of iterations =  1.7

     negative rho (up, down):  1.116E-04 0.000E+00

     total cpu time spent up to now is    23005.5 secs

     total energy              =   -1672.25481569 Ry
     estimated scf accuracy    <       0.00000004 Ry

     iteration #  9     ecut=    80.00 Ry     beta= 0.30
     Davidson diagonalization with overlap
     ethr =  2.33E-11,  avg # of iterations =  3.4

     negative rho (up, down):  1.095E-04 0.000E+00

     total cpu time spent up to now is    23096.2 secs

     End of self-consistent calculation

          k = 0.0000 0.0000 0.0000 ( 40831 PWs)   bands (ev):

   -73.4895 -72.7740 -72.5336 -72.3700 -72.3489 -72.0642 -44.0473 -43.2950
   -43.0982 -42.8477 -42.7497 -42.7009 -42.6511 -42.6187 -42.6156 -42.4037
   -42.3946 -42.2913 -42.2337 -42.2168 -42.1861 -42.1655 -41.9582 -41.9198
   -18.9301 -18.7067 -18.4931 -18.2390 -17.9891 -17.8467 -17.4097 -17.2034
   -17.1674 -17.0759 -16.9028 -16.7744 -16.1272  -7.4476  -7.2428  -7.2319
    -6.6283  -6.4565  -6.0196  -5.7805  -5.7684  -5.7008  -5.6290  -5.5473
    -5.4936  -5.3135  -5.1949  -4.5952  -4.1763  -3.5856  -3.3963  -3.1861
    -3.0854  -2.9527  -2.9430  -2.7966  -2.7145  -2.6828  -2.6725  -2.5022
    -2.3687  -2.2626  -2.1909  -2.0002  -1.9455  -1.6712  -1.4699  -1.4262
    -1.2321  -1.1702  -0.7421  -0.6878  -0.5635  -0.5376  -0.2267  -0.2071
    -0.1474  -0.1404   0.2656   0.3416   0.4513   0.5269   0.9906   1.1206
     1.2205   1.4323   1.7565   2.0261   2.2306   2.2858   2.7061   3.5336
     4.2257   4.7125   5.0508   5.2223   5.4278   5.5130   5.7195   5.7723

          k = 0.0000 0.1223 0.0000 ( 40974 PWs)   bands (ev):

   -73.4895 -72.7740 -72.5336 -72.3699 -72.3490 -72.0642 -44.0473 -43.2949
   -43.0954 -42.8506 -42.7497 -42.6999 -42.6511 -42.6171 -42.6155 -42.4037
   -42.3945 -42.2913 -42.2337 -42.2162 -42.1868 -42.1675 -41.9583 -41.9210
   -18.8094 -18.5751 -18.3720 -18.2854 -18.0056 -17.8762 -17.4203 -17.3322
   -17.2985 -17.2578 -16.8822 -16.7850 -16.1242  -7.0316  -6.7984  -6.7693
    -6.6201  -6.4445  -5.9495  -5.7788  -5.6505  -5.6212  -5.5482  -5.4896
    -5.4656  -5.3124  -5.0040  -4.6349  -4.2348  -4.0349  -3.7702  -3.6304
    -3.5413  -3.4185  -3.2642  -2.9121  -2.8816  -2.8654  -2.7507  -2.6820
    -2.5813  -2.3890  -2.2134  -2.1612  -2.0913  -1.7210  -1.6491  -1.6151
    -1.3572  -1.1389  -0.9073  -0.7027  -0.0762  -0.0625   0.1371   0.2509
     0.3396   0.3821   0.4142   0.5113   0.5363   0.6083   0.9792   1.0748
     1.2913   1.4786   1.7592   1.8249   2.0260   2.3623   2.5820   3.9259
     4.6481   4.8121   4.8953   5.2224   5.4372   5.4629   5.5027   5.5430

          k = 0.0000-0.2445 0.0000 ( 41014 PWs)   bands (ev):

   -73.4895 -72.7740 -72.5336 -72.3698 -72.3490 -72.0642 -44.0473 -43.2949
   -43.0925 -42.8536 -42.7497 -42.6989 -42.6511 -42.6159 -42.6149 -42.4036
   -42.3945 -42.2914 -42.2337 -42.2156 -42.1874 -42.1694 -41.9583 -41.9222
   -18.5593 -18.5102 -18.3418 -18.1317 -18.0763 -17.9684 -17.5029 -17.4765
   -17.4402 -17.3859 -16.8536 -16.8091 -16.1219  -6.6756  -6.4838  -6.3660
    -6.0310  -5.9815  -5.8720  -5.7758  -5.6258  -5.5401  -5.4745  -5.4623
    -5.3057  -5.0644  -4.9410  -4.6189  -4.6099  -4.4961  -4.4887  -4.3488
    -4.2931  -3.6963  -3.4966  -3.3478  -3.1462  -3.1210  -2.9998  -2.7030
    -2.5821  -2.4777  -2.2276  -2.1327  -1.9692  -1.7150  -1.6478  -1.4119
    -1.2006  -1.1000  -0.9966  -0.9906   0.1849   0.2020   0.2731   0.3825
     0.5118   0.6678   0.7980   0.8118   0.8789   0.9141   1.0443   1.1110
     1.2072   1.5506   1.5582   1.5868   2.0079   2.1163   2.7112   4.3498
     4.5462   4.8383   5.1858   5.1868   5.2235   5.2495   5.5217   5.6715

          k = 0.0000-0.1223 0.0000 ( 40974 PWs)   bands (ev):

   -73.4895 -72.7740 -72.5336 -72.3699 -72.3490 -72.0642 -44.0473 -43.2949
   -43.0954 -42.8506 -42.7497 -42.6999 -42.6511 -42.6171 -42.6155 -42.4037
   -42.3945 -42.2913 -42.2337 -42.2162 -42.1868 -42.1675 -41.9583 -41.9210
   -18.8094 -18.5751 -18.3720 -18.2854 -18.0056 -17.8762 -17.4203 -17.3322
   -17.2985 -17.2578 -16.8822 -16.7850 -16.1242  -7.0316  -6.7984  -6.7693
    -6.6201  -6.4445  -5.9495  -5.7788  -5.6505  -5.6212  -5.5482  -5.4896
    -5.4656  -5.3124  -5.0040  -4.6349  -4.2348  -4.0349  -3.7702  -3.6304
    -3.5413  -3.4185  -3.2642  -2.9121  -2.8816  -2.8654  -2.7507  -2.6820
    -2.5813  -2.3890  -2.2134  -2.1612  -2.0913  -1.7210  -1.6491  -1.6151
    -1.3572  -1.1389  -0.9073  -0.7027  -0.0762  -0.0625   0.1371   0.2509
     0.3396   0.3821   0.4142   0.5113   0.5363   0.6083   0.9792   1.0748
     1.2913   1.4786   1.7592   1.8249   2.0260   2.3623   2.5820   3.9259
     4.6481   4.8121   4.8953   5.2224   5.4372   5.4629   5.5027   5.5430

          k = 0.1250 0.0000 0.0000 ( 40851 PWs)   bands (ev):

   -73.4880 -72.7724 -72.5321 -72.3685 -72.3474 -72.0626 -44.0456 -43.3205
   -43.0931 -42.8466 -42.7784 -42.6989 -42.6463 -42.6165 -42.6135 -42.4206
   -42.3996 -42.2885 -42.2436 -42.2308 -42.2119 -42.1614 -41.9856 -41.9154
   -18.8016 -18.5901 -18.3841 -18.1525 -17.9115 -17.7693 -17.4166 -17.2803
   -17.2446 -17.1565 -16.9442 -16.8280 -16.1680  -7.2645  -7.0663  -7.0532
    -6.4567  -6.4364  -6.0609  -5.8106  -5.7652  -5.6318  -5.5819  -5.4678
    -5.2209  -5.0387  -4.9799  -4.4351  -4.0982  -4.0349  -3.4411  -3.2786
    -3.2487  -3.1571  -3.0769  -3.0636  -2.9058  -2.7514  -2.7169  -2.5802
    -2.4842  -2.3314  -2.1791  -2.1491  -2.0819  -2.0421  -1.8677  -1.7232
    -1.5756  -1.0959  -1.0664  -0.6766  -0.4460  -0.2543   0.0200   0.0599
     0.1448   0.3327   0.4578   0.5198   0.6820   0.7004   1.1512   1.1979
     1.3375   1.4443   1.6317   1.8721   2.1442   2.3638   2.5634   3.7138
     4.3471   4.7651   4.7770   4.9024   5.0598   5.3667   5.4016   5.4585

          k = 0.1250 0.1223 0.0000 ( 40932 PWs)   bands (ev):

   -73.4880 -72.7724 -72.5321 -72.3684 -72.3474 -72.0626 -44.0456 -43.3206
   -43.0907 -42.8491 -42.7784 -42.6981 -42.6463 -42.6152 -42.6135 -42.4206
   -42.3995 -42.2885 -42.2429 -42.2309 -42.2127 -42.1628 -41.9855 -41.9164
   -18.6874 -18.4652 -18.2651 -18.1982 -17.9147 -17.8047 -17.4467 -17.3934
   -17.3494 -17.3260 -16.9243 -16.8401 -16.1656  -6.8627  -6.6503  -6.6129
    -6.4603  -6.4148  -5.9653  -5.7770  -5.6959  -5.6504  -5.5312  -5.2667
    -5.2115  -5.0399  -4.8561  -4.4717  -4.2201  -4.0257  -4.0024  -3.6990
    -3.4688  -3.4444  -3.3604  -3.3240  -3.1876  -3.1319  -3.0685  -2.8252
    -2.6324  -2.5256  -2.3314  -2.2066  -2.0727  -2.0004  -1.7509  -1.5673
    -1.4281  -1.0738  -0.9895  -0.7904  -0.0673   0.1688   0.1883   0.2671
     0.3776   0.4396   0.6663   0.7443   0.7954   0.8824   1.1431   1.2229
     1.3610   1.4696   1.6686   1.7127   1.9220   2.3139   2.5826   4.0290
     4.4080   4.7480   4.8393   4.8715   5.0062   5.2014   5.2639   5.3838

          k = 0.1250-0.2445 0.0000 ( 40974 PWs)   bands (ev):

   -73.4880 -72.7724 -72.5321 -72.3683 -72.3475 -72.0626 -44.0456 -43.3207
   -43.0883 -42.8515 -42.7784 -42.6973 -42.6463 -42.6142 -42.6132 -42.4205
   -42.3995 -42.2886 -42.2422 -42.2309 -42.2135 -42.1641 -41.9854 -41.9174
   -18.4516 -18.4014 -18.2359 -18.0396 -17.9801 -17.8892 -17.5661 -17.5452
   -17.4879 -17.3900 -16.8883 -16.8720 -16.1637  -6.4929  -6.4686  -6.1501
    -5.9453  -5.8429  -5.7656  -5.7597  -5.6880  -5.6531  -5.6365  -5.2578
    -5.0661  -4.8999  -4.7850  -4.6520  -4.4802  -4.3274  -4.1744  -4.1391
    -4.1023  -4.0036  -3.8720  -3.7915  -3.4861  -3.3695  -3.2810  -2.8605
    -2.7298  -2.6284  -2.3120  -2.2375  -1.9411  -1.7724  -1.5584  -1.4077
    -1.1626  -1.0977  -1.0082  -0.9897   0.1840   0.1974   0.2928   0.3954
     0.5327   0.5793   0.7882   1.1061   1.1238   1.1403   1.2075   1.2541
     1.4034   1.4267   1.5320   1.6527   1.9220   1.9976   2.7295   4.0837
     4.4384   4.5537   4.7221   4.8531   5.0816   5.1154   5.3036   5.4407

          k = 0.1250-0.1223 0.0000 ( 40932 PWs)   bands (ev):

   -73.4880 -72.7724 -72.5321 -72.3684 -72.3474 -72.0626 -44.0456 -43.3206
   -43.0907 -42.8491 -42.7784 -42.6981 -42.6463 -42.6152 -42.6135 -42.4206
   -42.3995 -42.2885 -42.2429 -42.2309 -42.2127 -42.1628 -41.9855 -41.9164
   -18.6874 -18.4652 -18.2651 -18.1982 -17.9147 -17.8047 -17.4467 -17.3934
   -17.3494 -17.3260 -16.9243 -16.8401 -16.1656  -6.8627  -6.6503  -6.6129
    -6.4603  -6.4148  -5.9653  -5.7770  -5.6959  -5.6504  -5.5312  -5.2667
    -5.2115  -5.0399  -4.8561  -4.4717  -4.2201  -4.0257  -4.0024  -3.6990
    -3.4688  -3.4444  -3.3604  -3.3240  -3.1876  -3.1319  -3.0685  -2.8252
    -2.6324  -2.5256  -2.3314  -2.2066  -2.0727  -2.0004  -1.7509  -1.5673
    -1.4281  -1.0738  -0.9895  -0.7904  -0.0673   0.1688   0.1883   0.2671
     0.3776   0.4396   0.6663   0.7443   0.7954   0.8824   1.1431   1.2229
     1.3610   1.4696   1.6686   1.7127   1.9220   2.3139   2.5826   4.0290
     4.4080   4.7480   4.8393   4.8715   5.0062   5.2014   5.2639   5.3838

          k = 0.2500 0.0000 0.0000 ( 40947 PWs)   bands (ev):

   -73.4844 -72.7685 -72.5285 -72.3648 -72.3437 -72.0589 -44.0414 -43.3817
   -43.0807 -42.8469 -42.8442 -42.6939 -42.6349 -42.6110 -42.6092 -42.4825
   -42.3897 -42.3077 -42.2894 -42.2664 -42.2234 -42.1515 -42.0511 -41.9047
   -18.4753 -18.3019 -18.1155 -17.9802 -17.7857 -17.5743 -17.4641 -17.4312
   -17.4238 -17.3458 -17.0656 -16.8687 -16.2197  -6.7950  -6.6189  -6.5835
    -6.2612  -6.0052  -5.9825  -5.8623  -5.8115  -5.4719  -5.4504  -5.0553
    -4.9855  -4.6483  -4.5342  -4.5216  -4.3390  -4.1434  -4.0290  -3.9869
    -3.7547  -3.6761  -3.3442  -3.2008  -3.1251  -3.0138  -2.8555  -2.8004
    -2.6900  -2.4813  -2.4002  -2.2331  -2.2077  -2.1113  -2.0499  -1.6111
    -1.4650  -1.2564  -1.1958  -0.9678  -0.1855  -0.1540   0.1700   0.4481
     0.5176   0.5854   0.8000   0.9733   1.0661   1.1611   1.2077   1.3339
     1.3608   1.4608   1.5009   1.6115   1.8528   2.1816   2.4958   3.9588
     4.1789   4.2335   4.4099   4.6687   4.7424   4.8071   4.8804   4.9637

          k = 0.2500 0.1223 0.0000 ( 40905 PWs)   bands (ev):

   -73.4844 -72.7685 -72.5285 -72.3647 -72.3438 -72.0589 -44.0414 -43.3820
   -43.0794 -42.8470 -42.8451 -42.6938 -42.6349 -42.6110 -42.6091 -42.4826
   -42.3897 -42.3066 -42.2897 -42.2668 -42.2234 -42.1520 -42.0507 -41.9052
   -18.3883 -18.2072 -18.0217 -18.0170 -17.7768 -17.6492 -17.5466 -17.5033
   -17.4627 -17.4005 -17.0565 -16.8750 -16.2192  -6.4818  -6.3352  -6.2655
    -6.2245  -5.9923  -5.8767  -5.8300  -5.6486  -5.5728  -5.3661  -5.1143
    -4.8045  -4.7421  -4.6644  -4.5086  -4.4531  -4.3604  -4.2382  -4.1450
    -3.9994  -3.5726  -3.5129  -3.3589  -3.2082  -3.1834  -3.0187  -2.9267
    -2.7777  -2.6619  -2.4400  -2.2596  -2.1687  -2.1258  -1.9326  -1.6044
    -1.4333  -1.2536  -1.1664  -1.0245  -0.2145   0.0993   0.4118   0.4647
     0.5814   0.8344   0.8951   0.9683   1.0569   1.1337   1.2061   1.2633
     1.3661   1.5289   1.5962   1.6560   1.7877   2.0611   2.6124   3.7095
     4.0393   4.1436   4.2401   4.3788   4.6726   4.7826   5.2096   5.3554

          k = 0.2500-0.2445 0.0000 ( 40892 PWs)   bands (ev):

   -73.4844 -72.7685 -72.5285 -72.3647 -72.3438 -72.0589 -44.0414 -43.3824
   -43.0781 -42.8468 -42.8462 -42.6937 -42.6349 -42.6110 -42.6090 -42.4827
   -42.3897 -42.3054 -42.2902 -42.2672 -42.2234 -42.1526 -42.0503 -41.9057
   -18.2129 -18.1632 -17.9844 -17.9219 -17.7731 -17.7511 -17.6969 -17.6261
   -17.5181 -17.3993 -17.0475 -16.8822 -16.2188  -6.2826  -6.0386  -5.9640
    -5.8509  -5.7971  -5.7887  -5.6692  -5.5646  -5.3240  -5.3070  -5.2281
    -5.0039  -4.9955  -4.9611  -4.7867  -4.5949  -4.4944  -4.2542  -4.0483
    -3.8359  -3.7510  -3.6342  -3.5982  -3.5478  -3.5109  -3.2858  -3.2720
    -2.9396  -2.7878  -2.3826  -2.2451  -1.9463  -1.8740  -1.6760  -1.6146
    -1.3413  -1.3026  -1.1467  -1.1141  -0.0031   0.0295   0.2645   0.5725
     0.5959   0.8609   1.0143   1.0779   1.1217   1.1545   1.2733   1.3800
     1.4013   1.6025   1.6522   1.7798   1.8146   1.9147   2.7044   3.3043
     3.7539   3.8368   4.0946   4.3708   4.6865   5.0752   5.3153   5.5926

          k = 0.2500-0.1223 0.0000 ( 40905 PWs)   bands (ev):

   -73.4844 -72.7685 -72.5285 -72.3647 -72.3438 -72.0589 -44.0414 -43.3820
   -43.0794 -42.8470 -42.8451 -42.6938 -42.6349 -42.6110 -42.6091 -42.4826
   -42.3897 -42.3066 -42.2897 -42.2668 -42.2234 -42.1520 -42.0507 -41.9052
   -18.3883 -18.2072 -18.0217 -18.0170 -17.7768 -17.6492 -17.5466 -17.5033
   -17.4627 -17.4005 -17.0565 -16.8750 -16.2192  -6.4818  -6.3352  -6.2655
    -6.2245  -5.9923  -5.8767  -5.8300  -5.6486  -5.5728  -5.3661  -5.1143
    -4.8045  -4.7421  -4.6644  -4.5086  -4.4531  -4.3604  -4.2382  -4.1450
    -3.9994  -3.5726  -3.5129  -3.3589  -3.2082  -3.1834  -3.0187  -2.9267
    -2.7777  -2.6619  -2.4400  -2.2596  -2.1687  -2.1258  -1.9326  -1.6044
    -1.4333  -1.2536  -1.1664  -1.0245  -0.2145   0.0993   0.4118   0.4647
     0.5814   0.8344   0.8951   0.9683   1.0569   1.1337   1.2061   1.2633
     1.3661   1.5289   1.5962   1.6560   1.7877   2.0611   2.6124   3.7095
     4.0393   4.1436   4.2401   4.3788   4.6726   4.7826   5.2096   5.3554

          k = 0.3750 0.0000 0.0000 ( 40852 PWs)   bands (ev):

   -73.4809 -72.7646 -72.5249 -72.3611 -72.3401 -72.0551 -44.0373 -43.4423
   -43.0682 -42.9143 -42.8420 -42.6890 -42.6240 -42.6058 -42.6055 -42.5429
   -42.3828 -42.3679 -42.3412 -42.2697 -42.2160 -42.1415 -42.1156 -41.8939
   -18.1244 -18.0091 -17.8776 -17.8451 -17.7465 -17.6393 -17.6014 -17.5284
   -17.4636 -17.4133 -17.0786 -16.8350 -16.1919  -6.3558  -6.1742  -6.0546
    -6.0290  -5.9081  -5.8580  -5.6520  -5.6301  -5.5048  -5.4053  -5.2062
    -5.0615  -4.8259  -4.7906  -4.5813  -4.4190  -4.3717  -4.2093  -3.9672
    -3.6565  -3.5016  -3.4108  -3.3815  -3.3373  -3.1606  -3.0980  -2.8139
    -2.6727  -2.6068  -2.4444  -2.2782  -2.2155  -2.0358  -1.9595  -1.5150
    -1.3855  -1.3808  -1.2411  -0.9718  -0.1557   0.0154   0.2700   0.4745
     0.5780   0.6632   0.7679   0.7741   0.8649   1.0296   1.1717   1.2115
     1.3789   1.5249   1.6561   1.7816   1.9684   2.1512   2.3704   3.4269
     3.8018   4.0642   4.2767   4.3846   4.4840   4.5451   4.7838   4.9414

          k = 0.3750 0.1223 0.0000 ( 40842 PWs)   bands (ev):

   -73.4809 -72.7646 -72.5249 -72.3611 -72.3401 -72.0551 -44.0373 -43.4428
   -43.0682 -42.9138 -42.8419 -42.6895 -42.6240 -42.6072 -42.6055 -42.5430
   -42.3823 -42.3665 -42.3417 -42.2697 -42.2160 -42.1413 -42.1149 -41.8939
   -18.1043 -18.0086 -17.9368 -17.8805 -17.8159 -17.6361 -17.5346 -17.4798
   -17.4566 -17.4002 -17.0778 -16.8388 -16.1921  -6.2264  -6.1326  -6.0992
    -6.0476  -5.9626  -5.7677  -5.6563  -5.6023  -5.5262  -5.4735  -5.3560
    -5.0475  -4.7776  -4.7072  -4.5396  -4.4605  -4.2852  -4.0454  -3.8567
    -3.6440  -3.5647  -3.3527  -3.3047  -3.2327  -3.1452  -3.0459  -2.8765
    -2.7355  -2.6085  -2.5116  -2.2894  -2.1827  -2.0645  -1.9375  -1.6221
    -1.5461  -1.4107  -1.2632  -1.1244  -0.1285  -0.0831   0.2059   0.2301
     0.5384   0.6024   0.6333   0.7593   0.8092   0.9261   0.9535   1.2242
     1.6764   1.7426   1.8292   1.8799   2.0378   2.0531   2.4808   3.1699
     3.4865   3.6538   3.7518   4.1052   4.2939   5.1372   5.4573   5.5749

          k = 0.3750-0.2445 0.0000 ( 40856 PWs)   bands (ev):

   -73.4809 -72.7646 -72.5249 -72.3611 -72.3401 -72.0551 -44.0373 -43.4433
   -43.0683 -42.9133 -42.8418 -42.6901 -42.6240 -42.6086 -42.6055 -42.5431
   -42.3820 -42.3651 -42.3422 -42.2697 -42.2160 -42.1411 -42.1141 -41.8939
   -18.0548 -18.0348 -17.9977 -17.9037 -17.8565 -17.6437 -17.4841 -17.4670
   -17.4278 -17.3881 -17.0768 -16.8428 -16.1923  -6.2639  -6.0806  -5.9269
    -5.9238  -5.8561  -5.8203  -5.7605  -5.6937  -5.6814  -5.5586  -5.4153
    -4.9426  -4.7952  -4.5517  -4.5039  -4.2900  -4.2067  -4.0706  -3.7360
    -3.5420  -3.4332  -3.4180  -3.2883  -3.2728  -3.1565  -3.1264  -2.9757
    -2.7763  -2.7366  -2.3612  -2.2257  -2.1443  -2.0338  -1.9037  -1.8517
    -1.5826  -1.4337  -1.2801  -1.2523  -0.3237  -0.2635  -0.1025   0.3196
     0.4331   0.5934   0.6762   0.7717   0.8182   0.8778   1.0109   1.2067
     1.5732   1.7990   1.9676   1.9893   2.1142   2.2085   2.5788   2.7548
     3.2173   3.3202   3.5202   4.1297   4.2962   5.5183   5.6045   5.8197

          k = 0.3750-0.1223 0.0000 ( 40842 PWs)   bands (ev):

   -73.4809 -72.7646 -72.5249 -72.3611 -72.3401 -72.0551 -44.0373 -43.4428
   -43.0682 -42.9138 -42.8419 -42.6895 -42.6240 -42.6072 -42.6055 -42.5430
   -42.3823 -42.3665 -42.3417 -42.2697 -42.2160 -42.1413 -42.1149 -41.8939
   -18.1043 -18.0086 -17.9368 -17.8805 -17.8159 -17.6361 -17.5346 -17.4798
   -17.4566 -17.4002 -17.0778 -16.8388 -16.1921  -6.2264  -6.1326  -6.0992
    -6.0476  -5.9626  -5.7677  -5.6563  -5.6023  -5.5262  -5.4735  -5.3560
    -5.0475  -4.7776  -4.7072  -4.5396  -4.4605  -4.2852  -4.0454  -3.8567
    -3.6440  -3.5647  -3.3527  -3.3047  -3.2327  -3.1452  -3.0459  -2.8765
    -2.7355  -2.6085  -2.5116  -2.2894  -2.1827  -2.0645  -1.9375  -1.6221
    -1.5461  -1.4107  -1.2632  -1.1244  -0.1285  -0.0831   0.2059   0.2301
     0.5384   0.6024   0.6333   0.7593   0.8092   0.9261   0.9535   1.2242
     1.6764   1.7426   1.8292   1.8799   2.0378   2.0531   2.4808   3.1699
     3.4865   3.6538   3.7518   4.1052   4.2939   5.1372   5.4573   5.5749

          k =-0.5000 0.0000 0.0000 ( 40876 PWs)   bands (ev):

   -73.4794 -72.7630 -72.5233 -72.3596 -72.3385 -72.0536 -44.0355 -43.4672
   -43.0629 -42.9420 -42.8411 -42.6870 -42.6207 -42.6042 -42.6033 -42.5665
   -42.3995 -42.3731 -42.3663 -42.2673 -42.2130 -42.1420 -42.1373 -41.8894
   -18.0098 -17.8581 -17.8448 -17.7854 -17.7117 -17.6934 -17.6693 -17.6010
   -17.4813 -17.4061 -17.0093 -16.8080 -16.1554  -6.3411  -6.1527  -5.9921
    -5.7944  -5.7707  -5.6962  -5.5959  -5.5531  -5.5282  -5.4269  -5.3239
    -5.1572  -5.0309  -4.9078  -4.7353  -4.5048  -4.0758  -3.8243  -3.7913
    -3.6845  -3.6812  -3.6788  -3.5654  -3.4140  -2.9657  -2.8588  -2.7119
    -2.6153  -2.4860  -2.4715  -2.3686  -2.1648  -1.9889  -1.8304  -1.7186
    -1.6181  -1.2460  -1.1240  -0.9017  -0.2174   0.0707   0.0815   0.4634
     0.5520   0.5709   0.6303   0.6645   0.7241   0.7888   1.0317   1.1634
     1.3193   1.5070   1.8498   1.9268   2.1517   2.2590   2.3251   3.2054
     3.6487   4.0195   4.2144   4.2527   4.3663   4.5540   4.7603   4.9110

          k =-0.5000 0.1223 0.0000 ( 40858 PWs)   bands (ev):

   -73.4794 -72.7630 -72.5233 -72.3596 -72.3385 -72.0536 -44.0355 -43.4678
   -43.0637 -42.9413 -42.8405 -42.6878 -42.6207 -42.6059 -42.6038 -42.5666
   -42.3973 -42.3729 -42.3668 -42.2673 -42.2130 -42.1411 -42.1369 -41.8892
   -18.0030 -17.9738 -17.9567 -17.9095 -17.8618 -17.5487 -17.4800 -17.4691
   -17.4274 -17.4073 -17.0105 -16.8108 -16.1549  -6.2859  -6.2418  -6.1163
    -6.1090  -6.0015  -5.7582  -5.6645  -5.6354  -5.6156  -5.4203  -5.1784
    -5.0971  -4.8394  -4.5886  -4.4100  -4.1162  -3.8711  -3.8323  -3.7979
    -3.7666  -3.6455  -3.6366  -3.6065  -3.0111  -2.9505  -2.8219  -2.6257
    -2.6032  -2.5264  -2.5001  -2.2784  -2.1899  -2.1347  -1.8381  -1.6594
    -1.6287  -1.4973  -1.3087  -1.0892  -0.2091  -0.0368   0.0332   0.0775
     0.2053   0.4477   0.4915   0.5647   0.5896   0.6317   0.7460   1.1770
     1.8339   1.8474   2.0086   2.0153   2.1849   2.2028   2.4075   2.9981
     3.2529   3.4547   3.5796   4.0481   4.2170   5.3348   5.5992   5.6454

          k =-0.5000-0.2445 0.0000 ( 40872 PWs)   bands (ev):

   -73.4794 -72.7630 -72.5233 -72.3596 -72.3385 -72.0536 -44.0355 -43.4684
   -43.0644 -42.9405 -42.8398 -42.6886 -42.6207 -42.6080 -42.6039 -42.5668
   -42.3953 -42.3728 -42.3672 -42.2673 -42.2129 -42.1402 -42.1364 -41.8891
   -18.0490 -18.0468 -18.0006 -17.9956 -17.8660 -17.4784 -17.4691 -17.4086
   -17.3695 -17.3297 -17.0116 -16.8136 -16.1544  -6.4926  -6.2788  -6.2007
    -6.0964  -6.0815  -5.7700  -5.6864  -5.6772  -5.6541  -5.4994  -5.1776
    -5.0516  -4.9620  -4.1839  -4.1257  -3.9014  -3.8834  -3.8211  -3.5982
    -3.5886  -3.5260  -3.4243  -3.2382  -3.2093  -2.8999  -2.8590  -2.8055
    -2.6767  -2.4126  -2.3148  -2.1997  -2.1743  -1.9308  -1.9068  -1.7956
    -1.7602  -1.7218  -1.5826  -1.2677  -0.5110  -0.2288  -0.2033   0.0041
     0.0987   0.1738   0.4547   0.4706   0.6000   0.6308   0.7603   1.2093
     1.7501   1.9172   2.0994   2.1225   2.3524   2.3692   2.4625   2.5940
     3.0708   3.1920   3.2891   4.0748   4.2190   5.7255   5.7919   5.8327

          k =-0.5000-0.1223 0.0000 ( 40858 PWs)   bands (ev):

   -73.4794 -72.7630 -72.5233 -72.3596 -72.3385 -72.0536 -44.0355 -43.4678
   -43.0637 -42.9413 -42.8405 -42.6878 -42.6207 -42.6059 -42.6038 -42.5666
   -42.3973 -42.3729 -42.3668 -42.2673 -42.2130 -42.1411 -42.1369 -41.8892
   -18.0030 -17.9738 -17.9567 -17.9095 -17.8618 -17.5487 -17.4800 -17.4691
   -17.4274 -17.4073 -17.0105 -16.8108 -16.1549  -6.2859  -6.2418  -6.1163
    -6.1090  -6.0015  -5.7582  -5.6645  -5.6354  -5.6156  -5.4203  -5.1784
    -5.0971  -4.8394  -4.5886  -4.4100  -4.1162  -3.8711  -3.8323  -3.7979
    -3.7666  -3.6455  -3.6366  -3.6065  -3.0111  -2.9505  -2.8219  -2.6257
    -2.6032  -2.5264  -2.5001  -2.2784  -2.1899  -2.1347  -1.8381  -1.6594
    -1.6287  -1.4973  -1.3087  -1.0892  -0.2091  -0.0368   0.0332   0.0775
     0.2053   0.4477   0.4915   0.5647   0.5896   0.6317   0.7460   1.1770
     1.8339   1.8474   2.0086   2.0153   2.1849   2.2028   2.4075   2.9981
     3.2529   3.4547   3.5796   4.0481   4.2170   5.3348   5.5992   5.6454

          k =-0.3750 0.0000 0.0000 ( 40852 PWs)   bands (ev):

   -73.4809 -72.7646 -72.5249 -72.3611 -72.3401 -72.0551 -44.0373 -43.4423
   -43.0682 -42.9143 -42.8420 -42.6890 -42.6240 -42.6058 -42.6055 -42.5429
   -42.3828 -42.3679 -42.3412 -42.2697 -42.2160 -42.1415 -42.1156 -41.8939
   -18.1244 -18.0091 -17.8776 -17.8451 -17.7465 -17.6393 -17.6014 -17.5284
   -17.4636 -17.4133 -17.0786 -16.8350 -16.1919  -6.3558  -6.1742  -6.0546
    -6.0290  -5.9081  -5.8580  -5.6520  -5.6301  -5.5048  -5.4053  -5.2062
    -5.0615  -4.8259  -4.7906  -4.5813  -4.4190  -4.3717  -4.2093  -3.9672
    -3.6565  -3.5016  -3.4108  -3.3815  -3.3373  -3.1606  -3.0980  -2.8139
    -2.6727  -2.6068  -2.4444  -2.2782  -2.2155  -2.0358  -1.9595  -1.5150
    -1.3855  -1.3808  -1.2411  -0.9718  -0.1557   0.0154   0.2700   0.4745
     0.5780   0.6632   0.7679   0.7741   0.8649   1.0296   1.1717   1.2115
     1.3789   1.5249   1.6561   1.7816   1.9684   2.1512   2.3704   3.4269
     3.8018   4.0642   4.2767   4.3846   4.4840   4.5451   4.7838   4.9414

          k =-0.3750 0.1223 0.0000 ( 40842 PWs)   bands (ev):

   -73.4809 -72.7646 -72.5249 -72.3611 -72.3401 -72.0551 -44.0373 -43.4428
   -43.0682 -42.9138 -42.8419 -42.6895 -42.6240 -42.6072 -42.6055 -42.5430
   -42.3823 -42.3665 -42.3417 -42.2697 -42.2160 -42.1413 -42.1149 -41.8939
   -18.1043 -18.0086 -17.9368 -17.8805 -17.8159 -17.6361 -17.5346 -17.4798
   -17.4566 -17.4002 -17.0778 -16.8388 -16.1921  -6.2264  -6.1326  -6.0992
    -6.0476  -5.9626  -5.7677  -5.6563  -5.6023  -5.5262  -5.4735  -5.3560
    -5.0475  -4.7776  -4.7072  -4.5396  -4.4605  -4.2852  -4.0454  -3.8567
    -3.6440  -3.5647  -3.3527  -3.3047  -3.2327  -3.1452  -3.0459  -2.8765
    -2.7355  -2.6085  -2.5116  -2.2894  -2.1827  -2.0645  -1.9375  -1.6221
    -1.5461  -1.4107  -1.2632  -1.1244  -0.1285  -0.0831   0.2059   0.2301
     0.5384   0.6024   0.6333   0.7593   0.8092   0.9261   0.9535   1.2242
     1.6764   1.7426   1.8292   1.8799   2.0378   2.0531   2.4808   3.1699
     3.4865   3.6538   3.7518   4.1052   4.2939   5.1372   5.4573   5.5749

          k =-0.3750-0.2445 0.0000 ( 40856 PWs)   bands (ev):

   -73.4809 -72.7646 -72.5249 -72.3611 -72.3401 -72.0551 -44.0373 -43.4433
   -43.0683 -42.9133 -42.8418 -42.6901 -42.6240 -42.6086 -42.6055 -42.5431
   -42.3820 -42.3651 -42.3422 -42.2697 -42.2160 -42.1411 -42.1141 -41.8939
   -18.0548 -18.0348 -17.9977 -17.9037 -17.8565 -17.6437 -17.4841 -17.4670
   -17.4278 -17.3881 -17.0768 -16.8428 -16.1923  -6.2639  -6.0806  -5.9269
    -5.9238  -5.8561  -5.8203  -5.7605  -5.6937  -5.6814  -5.5586  -5.4153
    -4.9426  -4.7952  -4.5517  -4.5039  -4.2900  -4.2067  -4.0706  -3.7360
    -3.5420  -3.4332  -3.4180  -3.2883  -3.2728  -3.1565  -3.1264  -2.9757
    -2.7763  -2.7366  -2.3612  -2.2257  -2.1443  -2.0338  -1.9037  -1.8517
    -1.5826  -1.4337  -1.2801  -1.2523  -0.3237  -0.2635  -0.1025   0.3196
     0.4331   0.5934   0.6762   0.7717   0.8182   0.8778   1.0109   1.2067
     1.5732   1.7990   1.9676   1.9893   2.1142   2.2085   2.5788   2.7548
     3.2173   3.3202   3.5202   4.1297   4.2962   5.5183   5.6045   5.8197

          k =-0.3750-0.1223 0.0000 ( 40842 PWs)   bands (ev):

   -73.4809 -72.7646 -72.5249 -72.3611 -72.3401 -72.0551 -44.0373 -43.4428
   -43.0682 -42.9138 -42.8419 -42.6895 -42.6240 -42.6072 -42.6055 -42.5430
   -42.3823 -42.3665 -42.3417 -42.2697 -42.2160 -42.1413 -42.1149 -41.8939
   -18.1043 -18.0086 -17.9368 -17.8805 -17.8159 -17.6361 -17.5346 -17.4798
   -17.4566 -17.4002 -17.0778 -16.8388 -16.1921  -6.2264  -6.1326  -6.0992
    -6.0476  -5.9626  -5.7677  -5.6563  -5.6023  -5.5262  -5.4735  -5.3560
    -5.0475  -4.7776  -4.7072  -4.5396  -4.4605  -4.2852  -4.0454  -3.8567
    -3.6440  -3.5647  -3.3527  -3.3047  -3.2327  -3.1452  -3.0459  -2.8765
    -2.7355  -2.6085  -2.5116  -2.2894  -2.1827  -2.0645  -1.9375  -1.6221
    -1.5461  -1.4107  -1.2632  -1.1244  -0.1285  -0.0831   0.2059   0.2301
     0.5384   0.6024   0.6333   0.7593   0.8092   0.9261   0.9535   1.2242
     1.6764   1.7426   1.8292   1.8799   2.0378   2.0531   2.4808   3.1699
     3.4865   3.6538   3.7518   4.1052   4.2939   5.1372   5.4573   5.5749

          k =-0.2500 0.0000 0.0000 ( 40947 PWs)   bands (ev):

   -73.4844 -72.7685 -72.5285 -72.3648 -72.3437 -72.0589 -44.0414 -43.3817
   -43.0807 -42.8469 -42.8442 -42.6939 -42.6349 -42.6110 -42.6092 -42.4825
   -42.3897 -42.3077 -42.2894 -42.2664 -42.2234 -42.1515 -42.0511 -41.9047
   -18.4753 -18.3019 -18.1155 -17.9802 -17.7857 -17.5743 -17.4641 -17.4312
   -17.4238 -17.3458 -17.0656 -16.8687 -16.2197  -6.7950  -6.6189  -6.5835
    -6.2612  -6.0052  -5.9825  -5.8623  -5.8115  -5.4719  -5.4504  -5.0553
    -4.9855  -4.6483  -4.5342  -4.5216  -4.3390  -4.1434  -4.0290  -3.9869
    -3.7547  -3.6761  -3.3442  -3.2008  -3.1251  -3.0138  -2.8555  -2.8004
    -2.6900  -2.4813  -2.4002  -2.2331  -2.2077  -2.1113  -2.0499  -1.6111
    -1.4650  -1.2564  -1.1958  -0.9678  -0.1855  -0.1540   0.1700   0.4481
     0.5176   0.5854   0.8000   0.9733   1.0661   1.1611   1.2077   1.3339
     1.3608   1.4608   1.5009   1.6115   1.8528   2.1816   2.4958   3.9588
     4.1789   4.2335   4.4099   4.6687   4.7424   4.8071   4.8804   4.9637

          k =-0.2500 0.1223 0.0000 ( 40905 PWs)   bands (ev):

   -73.4844 -72.7685 -72.5285 -72.3647 -72.3438 -72.0589 -44.0414 -43.3820
   -43.0794 -42.8470 -42.8451 -42.6938 -42.6349 -42.6110 -42.6091 -42.4826
   -42.3897 -42.3066 -42.2897 -42.2668 -42.2234 -42.1520 -42.0507 -41.9052
   -18.3883 -18.2072 -18.0217 -18.0170 -17.7768 -17.6492 -17.5466 -17.5033
   -17.4627 -17.4005 -17.0565 -16.8750 -16.2192  -6.4818  -6.3352  -6.2655
    -6.2245  -5.9923  -5.8767  -5.8300  -5.6486  -5.5728  -5.3661  -5.1143
    -4.8045  -4.7421  -4.6644  -4.5086  -4.4531  -4.3604  -4.2382  -4.1450
    -3.9994  -3.5726  -3.5129  -3.3589  -3.2082  -3.1834  -3.0187  -2.9267
    -2.7777  -2.6619  -2.4400  -2.2596  -2.1687  -2.1258  -1.9326  -1.6044
    -1.4333  -1.2536  -1.1664  -1.0245  -0.2145   0.0993   0.4118   0.4647
     0.5814   0.8344   0.8951   0.9683   1.0569   1.1337   1.2061   1.2633
     1.3661   1.5289   1.5962   1.6560   1.7877   2.0611   2.6124   3.7095
     4.0393   4.1436   4.2401   4.3788   4.6726   4.7826   5.2096   5.3554

          k =-0.2500-0.2445 0.0000 ( 40892 PWs)   bands (ev):

   -73.4844 -72.7685 -72.5285 -72.3647 -72.3438 -72.0589 -44.0414 -43.3824
   -43.0781 -42.8468 -42.8462 -42.6937 -42.6349 -42.6110 -42.6090 -42.4827
   -42.3897 -42.3054 -42.2902 -42.2672 -42.2234 -42.1526 -42.0503 -41.9057
   -18.2129 -18.1632 -17.9844 -17.9219 -17.7731 -17.7511 -17.6969 -17.6261
   -17.5181 -17.3993 -17.0475 -16.8822 -16.2188  -6.2826  -6.0386  -5.9640
    -5.8509  -5.7971  -5.7887  -5.6692  -5.5646  -5.3240  -5.3070  -5.2281
    -5.0039  -4.9955  -4.9611  -4.7867  -4.5949  -4.4944  -4.2542  -4.0483
    -3.8359  -3.7510  -3.6342  -3.5982  -3.5478  -3.5109  -3.2858  -3.2720
    -2.9396  -2.7878  -2.3826  -2.2451  -1.9463  -1.8740  -1.6760  -1.6146
    -1.3413  -1.3026  -1.1467  -1.1141  -0.0031   0.0295   0.2645   0.5725
     0.5959   0.8609   1.0143   1.0779   1.1217   1.1545   1.2733   1.3800
     1.4013   1.6025   1.6522   1.7798   1.8146   1.9147   2.7044   3.3043
     3.7539   3.8368   4.0946   4.3708   4.6865   5.0752   5.3153   5.5926

          k =-0.2500-0.1223 0.0000 ( 40905 PWs)   bands (ev):

   -73.4844 -72.7685 -72.5285 -72.3647 -72.3438 -72.0589 -44.0414 -43.3820
   -43.0794 -42.8470 -42.8451 -42.6938 -42.6349 -42.6110 -42.6091 -42.4826
   -42.3897 -42.3066 -42.2897 -42.2668 -42.2234 -42.1520 -42.0507 -41.9052
   -18.3883 -18.2072 -18.0217 -18.0170 -17.7768 -17.6492 -17.5466 -17.5033
   -17.4627 -17.4005 -17.0565 -16.8750 -16.2192  -6.4818  -6.3352  -6.2655
    -6.2245  -5.9923  -5.8767  -5.8300  -5.6486  -5.5728  -5.3661  -5.1143
    -4.8045  -4.7421  -4.6644  -4.5086  -4.4531  -4.3604  -4.2382  -4.1450
    -3.9994  -3.5726  -3.5129  -3.3589  -3.2082  -3.1834  -3.0187  -2.9267
    -2.7777  -2.6619  -2.4400  -2.2596  -2.1687  -2.1258  -1.9326  -1.6044
    -1.4333  -1.2536  -1.1664  -1.0245  -0.2145   0.0993   0.4118   0.4647
     0.5814   0.8344   0.8951   0.9683   1.0569   1.1337   1.2061   1.2633
     1.3661   1.5289   1.5962   1.6560   1.7877   2.0611   2.6124   3.7095
     4.0393   4.1436   4.2401   4.3788   4.6726   4.7826   5.2096   5.3554

          k =-0.1250 0.0000 0.0000 ( 40851 PWs)   bands (ev):

   -73.4880 -72.7724 -72.5321 -72.3685 -72.3474 -72.0626 -44.0456 -43.3205
   -43.0931 -42.8466 -42.7784 -42.6989 -42.6463 -42.6165 -42.6135 -42.4206
   -42.3996 -42.2885 -42.2436 -42.2308 -42.2119 -42.1614 -41.9856 -41.9154
   -18.8016 -18.5901 -18.3841 -18.1525 -17.9115 -17.7693 -17.4166 -17.2803
   -17.2446 -17.1565 -16.9442 -16.8280 -16.1680  -7.2645  -7.0663  -7.0532
    -6.4567  -6.4364  -6.0609  -5.8106  -5.7652  -5.6318  -5.5819  -5.4678
    -5.2209  -5.0387  -4.9799  -4.4351  -4.0982  -4.0349  -3.4411  -3.2786
    -3.2487  -3.1571  -3.0769  -3.0636  -2.9058  -2.7514  -2.7169  -2.5802
    -2.4842  -2.3314  -2.1791  -2.1491  -2.0819  -2.0421  -1.8677  -1.7232
    -1.5756  -1.0959  -1.0664  -0.6766  -0.4460  -0.2543   0.0200   0.0599
     0.1448   0.3327   0.4578   0.5198   0.6820   0.7004   1.1512   1.1979
     1.3375   1.4443   1.6317   1.8721   2.1442   2.3638   2.5634   3.7138
     4.3471   4.7651   4.7770   4.9024   5.0598   5.3667   5.4016   5.4585

          k =-0.1250 0.1223 0.0000 ( 40932 PWs)   bands (ev):

   -73.4880 -72.7724 -72.5321 -72.3684 -72.3474 -72.0626 -44.0456 -43.3206
   -43.0907 -42.8491 -42.7784 -42.6981 -42.6463 -42.6152 -42.6135 -42.4206
   -42.3995 -42.2885 -42.2429 -42.2309 -42.2127 -42.1628 -41.9855 -41.9164
   -18.6874 -18.4652 -18.2651 -18.1982 -17.9147 -17.8047 -17.4467 -17.3934
   -17.3494 -17.3260 -16.9243 -16.8401 -16.1656  -6.8627  -6.6503  -6.6129
    -6.4603  -6.4148  -5.9653  -5.7770  -5.6959  -5.6504  -5.5312  -5.2667
    -5.2115  -5.0399  -4.8561  -4.4717  -4.2201  -4.0257  -4.0024  -3.6990
    -3.4688  -3.4444  -3.3604  -3.3240  -3.1876  -3.1319  -3.0685  -2.8252
    -2.6324  -2.5256  -2.3314  -2.2066  -2.0727  -2.0004  -1.7509  -1.5673
    -1.4281  -1.0738  -0.9895  -0.7904  -0.0673   0.1688   0.1883   0.2671
     0.3776   0.4396   0.6663   0.7443   0.7954   0.8824   1.1431   1.2229
     1.3610   1.4696   1.6686   1.7127   1.9220   2.3139   2.5826   4.0290
     4.4080   4.7480   4.8393   4.8715   5.0062   5.2014   5.2639   5.3838

          k =-0.1250-0.2445 0.0000 ( 40974 PWs)   bands (ev):

   -73.4880 -72.7724 -72.5321 -72.3683 -72.3475 -72.0626 -44.0456 -43.3207
   -43.0883 -42.8515 -42.7784 -42.6973 -42.6463 -42.6142 -42.6132 -42.4205
   -42.3995 -42.2886 -42.2422 -42.2309 -42.2135 -42.1641 -41.9854 -41.9174
   -18.4516 -18.4014 -18.2359 -18.0396 -17.9801 -17.8892 -17.5661 -17.5452
   -17.4879 -17.3900 -16.8883 -16.8720 -16.1637  -6.4929  -6.4686  -6.1501
    -5.9453  -5.8429  -5.7656  -5.7597  -5.6880  -5.6531  -5.6365  -5.2578
    -5.0661  -4.8999  -4.7850  -4.6520  -4.4802  -4.3274  -4.1744  -4.1391
    -4.1023  -4.0036  -3.8720  -3.7915  -3.4861  -3.3695  -3.2810  -2.8605
    -2.7298  -2.6284  -2.3120  -2.2375  -1.9411  -1.7724  -1.5584  -1.4077
    -1.1626  -1.0977  -1.0082  -0.9897   0.1840   0.1974   0.2928   0.3954
     0.5327   0.5793   0.7882   1.1061   1.1238   1.1403   1.2075   1.2541
     1.4034   1.4267   1.5320   1.6527   1.9220   1.9976   2.7295   4.0837
     4.4384   4.5537   4.7221   4.8531   5.0816   5.1154   5.3036   5.4407

          k =-0.1250-0.1223 0.0000 ( 40932 PWs)   bands (ev):

   -73.4880 -72.7724 -72.5321 -72.3684 -72.3474 -72.0626 -44.0456 -43.3206
   -43.0907 -42.8491 -42.7784 -42.6981 -42.6463 -42.6152 -42.6135 -42.4206
   -42.3995 -42.2885 -42.2429 -42.2309 -42.2127 -42.1628 -41.9855 -41.9164
   -18.6874 -18.4652 -18.2651 -18.1982 -17.9147 -17.8047 -17.4467 -17.3934
   -17.3494 -17.3260 -16.9243 -16.8401 -16.1656  -6.8627  -6.6503  -6.6129
    -6.4603  -6.4148  -5.9653  -5.7770  -5.6959  -5.6504  -5.5312  -5.2667
    -5.2115  -5.0399  -4.8561  -4.4717  -4.2201  -4.0257  -4.0024  -3.6990
    -3.4688  -3.4444  -3.3604  -3.3240  -3.1876  -3.1319  -3.0685  -2.8252
    -2.6324  -2.5256  -2.3314  -2.2066  -2.0727  -2.0004  -1.7509  -1.5673
    -1.4281  -1.0738  -0.9895  -0.7904  -0.0673   0.1688   0.1883   0.2671
     0.3776   0.4396   0.6663   0.7443   0.7954   0.8824   1.1431   1.2229
     1.3610   1.4696   1.6686   1.7127   1.9220   2.3139   2.5826   4.0290
     4.4080   4.7480   4.8393   4.8715   5.0062   5.2014   5.2639   5.3838

     the Fermi energy is     1.1965 ev

!    total energy              =   -1672.25481569 Ry
     estimated scf accuracy    <          8.0E-09 Ry
     smearing contrib. (-TS)   =      -0.00195670 Ry
     internal energy E=F+TS    =   -1672.25285899 Ry

     The total energy is F=E-TS. E is the sum of the following terms:
     one-electron contribution =  -16965.77882016 Ry
     hartree contribution      =    8504.90753322 Ry
     xc contribution           =    -214.04556131 Ry
     ewald contribution        =    7126.45013389 Ry
     one-center paw contrib.   =    -123.78614464 Ry

     convergence has been achieved in   9 iterations

     negative rho (up, down):  1.095E-04 0.000E+00

     Forces acting on atoms (cartesian axes, Ry/au):

     atom    1 type  1   force =     0.00000000    0.00002476    0.07000475
     atom    2 type  1   force =    -0.00000000    0.00083990   -0.09096486
     atom    3 type  1   force =    -0.00000000    0.00017671   -0.00046283
     atom    4 type  1   force =     0.00000005    0.00050163    0.00047861
     atom    5 type  1   force =     0.00000003   -0.00053248   -0.00203301
     atom    6 type  1   force =    -0.00000002   -0.00398280   -0.00014687
     atom    7 type  2   force =     0.00000000   -0.00151381    0.01729835
     atom    8 type  2   force =     0.00000000   -0.00014799    0.06207710
     atom    9 type  2   force =     0.00000000    0.02374055   -0.02468845
     atom   10 type  2   force =    -0.00000000   -0.02425589   -0.02462393
     atom   11 type  2   force =    -0.00000004    0.00005566   -0.00019411
     atom   12 type  2   force =    -0.00000001    0.00164932   -0.01041345
     atom   13 type  2   force =    -0.00000005   -0.00051214   -0.00138199
     atom   14 type  2   force =     0.00000003   -0.00014239    0.00193506
     atom   15 type  2   force =     0.00000001    0.00069427    0.00098803
     atom   16 type  2   force =     0.00000002    0.00090949   -0.00086026
     atom   17 type  2   force =    -0.00000003    0.00149058    0.00009746
     atom   18 type  2   force =    -0.00000003    0.00147314    0.00145194
     atom   19 type  2   force =     0.00000003   -0.00046852    0.00143845

     Total force =     0.006231     Total SCF correction =     0.000356
     Energy error            =      5.7E-05 Ry
     Gradient error          =      4.0E-03 Ry/Bohr

     number of scf cycles    =  19
     number of bfgs steps    =  18

     energy             old  =   -1672.2547583276 Ry
     energy             new  =   -1672.2548156931 Ry

     CASE: energy            _new < energy            _old

     new trust radius        =       0.0374302092 bohr
     new conv_thr            =       0.0000000100 Ry


ATOMIC_POSITIONS (angstrom)
Ru               0.0000000000        1.5881618300        9.5289709800    0   0   0
Ru               1.5535000000        4.7644854900        9.5289709800    0   0   0
Ru               0.0000000553        4.7673525243       12.7189462928
Ru               1.5534999727        1.5891168339       12.7050879858
Ru               0.0000000123        1.6375317569       16.0560550373
Ru               1.5535000030        4.8173227848       15.9427722625
O                0.0000000000        4.7644854900       10.7677372100    0   0   0
O                0.0000000000        4.7644854900        8.2902047600    0   0   0
O                1.5535000000        0.3493956000        9.5289709800    0   0   0
O                1.5535000000        2.8269280600        9.5289709800    0   0   0
O                0.0000000615        1.5923476633       13.9771450568
O                0.0000000000        1.5881618300       11.4665284200    0   0   0
O                1.5535001249        3.5334888174       12.7129168937
O                1.5534999776        6.0012578376       12.6976510179
O               -0.0000000510        4.7837989694       17.0447122500
O                0.0000000023        4.7974692729       14.6469395162
O                1.5535000452        0.4144098548       15.8796820765
O                1.5535000424        2.8497847778       15.8413567237
O               -0.0000002118        1.6628575735       17.7531679418



     Writing config-only to output data dir ./tmp_s0_O__1x1_off/s0_O__1x1_off.save/ :
     XML data file
     NEW-OLD atomic charge density approx. for the potential

     negative rho (up, down):  1.094E-04 0.000E+00

     total cpu time spent up to now is    23114.7 secs

     per-process dynamical memory:  1113.7 Mb

     Self-consistent Calculation

     iteration #  1     ecut=    80.00 Ry     beta= 0.30
     Davidson diagonalization with overlap
     ethr =  1.00E-06,  avg # of iterations =  4.1

     negative rho (up, down):  1.129E-04 0.000E+00

     total cpu time spent up to now is    23257.9 secs

     total energy              =   -1672.25488750 Ry
     estimated scf accuracy    <       0.00027089 Ry

     iteration #  2     ecut=    80.00 Ry     beta= 0.30
     Davidson diagonalization with overlap
     ethr =  1.56E-07,  avg # of iterations =  2.0

     negative rho (up, down):  1.128E-04 0.000E+00

     total cpu time spent up to now is    23345.8 secs

     total energy              =   -1672.25489014 Ry
     estimated scf accuracy    <       0.00015650 Ry

     iteration #  3     ecut=    80.00 Ry     beta= 0.30
     Davidson diagonalization with overlap
     ethr =  8.99E-08,  avg # of iterations =  1.0

     negative rho (up, down):  1.130E-04 0.000E+00

     total cpu time spent up to now is    23427.1 secs

     total energy              =   -1672.25487453 Ry
     estimated scf accuracy    <       0.00006024 Ry

     iteration #  4     ecut=    80.00 Ry     beta= 0.30
     Davidson diagonalization with overlap
     ethr =  3.46E-08,  avg # of iterations =  2.2

     negative rho (up, down):  1.147E-04 0.000E+00

     total cpu time spent up to now is    23516.9 secs

     total energy              =   -1672.25487446 Ry
     estimated scf accuracy    <       0.00002252 Ry

     iteration #  5     ecut=    80.00 Ry     beta= 0.30
     Davidson diagonalization with overlap
     ethr =  1.29E-08,  avg # of iterations =  2.3

     negative rho (up, down):  1.149E-04 0.000E+00

     total cpu time spent up to now is    23607.7 secs

     total energy              =   -1672.25487567 Ry
     estimated scf accuracy    <       0.00000344 Ry

     iteration #  6     ecut=    80.00 Ry     beta= 0.30
     Davidson diagonalization with overlap
     ethr =  1.98E-09,  avg # of iterations =  4.6

     negative rho (up, down):  1.150E-04 0.000E+00

     total cpu time spent up to now is    23705.0 secs

     total energy              =   -1672.25487589 Ry
     estimated scf accuracy    <       0.00000125 Ry

     iteration #  7     ecut=    80.00 Ry     beta= 0.30
     Davidson diagonalization with overlap
     ethr =  7.18E-10,  avg # of iterations =  1.5

     negative rho (up, down):  1.155E-04 0.000E+00

     total cpu time spent up to now is    23790.5 secs

     total energy              =   -1672.25487586 Ry
     estimated scf accuracy    <       0.00000046 Ry

     iteration #  8     ecut=    80.00 Ry     beta= 0.30
     Davidson diagonalization with overlap
     ethr =  2.66E-10,  avg # of iterations =  1.9

     negative rho (up, down):  1.156E-04 0.000E+00

     total cpu time spent up to now is    23878.2 secs

     total energy              =   -1672.25487586 Ry
     estimated scf accuracy    <       0.00000014 Ry

     iteration #  9     ecut=    80.00 Ry     beta= 0.30
     Davidson diagonalization with overlap
     ethr =  8.17E-11,  avg # of iterations =  1.8

     negative rho (up, down):  1.153E-04 0.000E+00

     total cpu time spent up to now is    23965.1 secs

     total energy              =   -1672.25487587 Ry
     estimated scf accuracy    <       0.00000003 Ry

     iteration # 10     ecut=    80.00 Ry     beta= 0.30
     Davidson diagonalization with overlap
     ethr =  1.50E-11,  avg # of iterations =  2.5

     negative rho (up, down):  1.097E-04 0.000E+00

     total cpu time spent up to now is    24050.5 secs

     End of self-consistent calculation

          k = 0.0000 0.0000 0.0000 ( 40831 PWs)   bands (ev):

   -73.4889 -72.7751 -72.5346 -72.3718 -72.3493 -72.0637 -44.0452 -43.2952
   -43.0980 -42.8482 -42.7518 -42.7017 -42.6521 -42.6205 -42.6163 -42.4047
   -42.3954 -42.2911 -42.2347 -42.2177 -42.1895 -42.1659 -41.9580 -41.9194
   -18.9323 -18.7087 -18.4944 -18.2442 -17.9942 -17.8468 -17.4052 -17.2045
   -17.1681 -17.0767 -16.9025 -16.7761 -16.1274  -7.4521  -7.2441  -7.2326
    -6.6324  -6.4593  -6.0255  -5.7876  -5.7691  -5.7023  -5.6294  -5.5497
    -5.5029  -5.3135  -5.1953  -4.5916  -4.1773  -3.5800  -3.3966  -3.1833
    -3.0873  -2.9549  -2.9437  -2.7993  -2.7144  -2.6891  -2.6737  -2.5025
    -2.3703  -2.2633  -2.1931  -2.0013  -1.9457  -1.6699  -1.4704  -1.4252
    -1.2310  -1.1698  -0.7439  -0.6799  -0.5712  -0.5398  -0.2278  -0.2077
    -0.1503  -0.1405   0.2653   0.3449   0.4497   0.5258   0.9905   1.1214
     1.2188   1.4299   1.7548   2.0272   2.2310   2.2859   2.7065   3.5326
     4.2246   4.7129   5.0595   5.2317   5.4295   5.5141   5.7207   5.7722

          k = 0.0000 0.1223 0.0000 ( 40974 PWs)   bands (ev):

   -73.4889 -72.7751 -72.5346 -72.3718 -72.3493 -72.0637 -44.0452 -43.2952
   -43.0952 -42.8512 -42.7519 -42.7007 -42.6521 -42.6188 -42.6163 -42.4046
   -42.3954 -42.2911 -42.2347 -42.2170 -42.1902 -42.1678 -41.9580 -41.9206
   -18.8118 -18.5773 -18.3736 -18.2897 -18.0106 -17.8761 -17.4163 -17.3330
   -17.2994 -17.2589 -16.8819 -16.7868 -16.1245  -7.0352  -6.8003  -6.7697
    -6.6240  -6.4473  -5.9555  -5.7859  -5.6520  -5.6229  -5.5485  -5.4990
    -5.4673  -5.3124  -5.0042  -4.6315  -4.2344  -4.0356  -3.7700  -3.6250
    -3.5431  -3.4222  -3.2657  -2.9129  -2.8835  -2.8652  -2.7523  -2.6826
    -2.5805  -2.3922  -2.2155  -2.1629  -2.0914  -1.7228  -1.6495  -1.6147
    -1.3577  -1.1386  -0.9086  -0.7032  -0.0775  -0.0611   0.1385   0.2503
     0.3387   0.3824   0.4116   0.5126   0.5351   0.6076   0.9790   1.0758
     1.2903   1.4758   1.7602   1.8233   2.0262   2.3622   2.5823   3.9257
     4.6472   4.8205   4.8966   5.2318   5.4377   5.4644   5.5032   5.5435

          k = 0.0000-0.2445 0.0000 ( 41014 PWs)   bands (ev):

   -73.4889 -72.7751 -72.5346 -72.3717 -72.3494 -72.0637 -44.0452 -43.2952
   -43.0923 -42.8542 -42.7519 -42.6997 -42.6521 -42.6172 -42.6161 -42.4046
   -42.3953 -42.2912 -42.2347 -42.2163 -42.1909 -42.1698 -41.9580 -41.9218
   -18.5631 -18.5129 -18.3441 -18.1346 -18.0786 -17.9690 -17.5029 -17.4779
   -17.4416 -17.3829 -16.8526 -16.8115 -16.1222  -6.6791  -6.4866  -6.3692
    -6.0329  -5.9819  -5.8781  -5.7831  -5.6278  -5.5435  -5.4822  -5.4626
    -5.3056  -5.0610  -4.9431  -4.6160  -4.6112  -4.4965  -4.4900  -4.3530
    -4.2944  -3.6914  -3.4979  -3.3481  -3.1465  -3.1219  -3.0018  -2.7033
    -2.5808  -2.4814  -2.2294  -2.1353  -1.9711  -1.7153  -1.6479  -1.4135
    -1.2016  -1.1002  -0.9972  -0.9909   0.1851   0.2041   0.2751   0.3814
     0.5103   0.6680   0.7987   0.8113   0.8758   0.9135   1.0453   1.1113
     1.2077   1.5535   1.5547   1.5837   2.0072   2.1157   2.7115   4.3508
     4.5546   4.8387   5.1874   5.1877   5.2328   5.2495   5.5226   5.6714

          k = 0.0000-0.1223 0.0000 ( 40974 PWs)   bands (ev):

   -73.4889 -72.7751 -72.5346 -72.3718 -72.3493 -72.0637 -44.0452 -43.2952
   -43.0952 -42.8512 -42.7519 -42.7007 -42.6521 -42.6188 -42.6163 -42.4046
   -42.3954 -42.2911 -42.2347 -42.2170 -42.1902 -42.1678 -41.9580 -41.9206
   -18.8118 -18.5773 -18.3736 -18.2897 -18.0106 -17.8761 -17.4163 -17.3330
   -17.2994 -17.2589 -16.8819 -16.7868 -16.1245  -7.0352  -6.8003  -6.7697
    -6.6240  -6.4473  -5.9555  -5.7859  -5.6520  -5.6229  -5.5485  -5.4990
    -5.4673  -5.3124  -5.0042  -4.6315  -4.2344  -4.0356  -3.7700  -3.6250
    -3.5431  -3.4222  -3.2657  -2.9129  -2.8835  -2.8652  -2.7523  -2.6826
    -2.5805  -2.3922  -2.2155  -2.1629  -2.0914  -1.7228  -1.6495  -1.6147
    -1.3577  -1.1386  -0.9086  -0.7032  -0.0775  -0.0611   0.1385   0.2503
     0.3387   0.3824   0.4116   0.5126   0.5351   0.6076   0.9790   1.0758
     1.2903   1.4758   1.7602   1.8233   2.0262   2.3622   2.5823   3.9257
     4.6472   4.8205   4.8966   5.2318   5.4377   5.4644   5.5032   5.5435

          k = 0.1250 0.0000 0.0000 ( 40851 PWs)   bands (ev):

   -73.4875 -72.7735 -72.5331 -72.3703 -72.3477 -72.0621 -44.0435 -43.3208
   -43.0929 -42.8472 -42.7806 -42.6997 -42.6474 -42.6182 -42.6143 -42.4214
   -42.4005 -42.2883 -42.2444 -42.2319 -42.2153 -42.1618 -41.9853 -41.9150
   -18.8037 -18.5920 -18.3852 -18.1577 -17.9158 -17.7700 -17.4120 -17.2819
   -17.2455 -17.1574 -16.9446 -16.8291 -16.1682  -7.2688  -7.0675  -7.0539
    -6.4601  -6.4403  -6.0645  -5.8120  -5.7685  -5.6337  -5.5862  -5.4692
    -5.2255  -5.0386  -4.9804  -4.4360  -4.0943  -4.0359  -3.4434  -3.2792
    -3.2511  -3.1576  -3.0778  -3.0626  -2.9063  -2.7526  -2.7171  -2.5851
    -2.4853  -2.3334  -2.1800  -2.1495  -2.0828  -2.0433  -1.8695  -1.7216
    -1.5748  -1.0960  -1.0663  -0.6737  -0.4499  -0.2531   0.0197   0.0591
     0.1447   0.3340   0.4568   0.5195   0.6803   0.7012   1.1507   1.1967
     1.3365   1.4435   1.6293   1.8728   2.1443   2.3641   2.5636   3.7128
     4.3460   4.7672   4.7842   4.9075   5.0613   5.3689   5.4026   5.4584

          k = 0.1250 0.1223 0.0000 ( 40932 PWs)   bands (ev):

   -73.4875 -72.7735 -72.5331 -72.3703 -72.3478 -72.0621 -44.0435 -43.3209
   -43.0905 -42.8496 -42.7806 -42.6989 -42.6474 -42.6170 -42.6143 -42.4214
   -42.4005 -42.2883 -42.2437 -42.2319 -42.2161 -42.1631 -41.9852 -41.9159
   -18.6897 -18.4672 -18.2666 -18.2022 -17.9194 -17.8047 -17.4443 -17.3938
   -17.3502 -17.3267 -16.9250 -16.8410 -16.1659  -6.8662  -6.6519  -6.6134
    -6.4638  -6.4182  -5.9694  -5.7798  -5.6981  -5.6538  -5.5325  -5.2703
    -5.2142  -5.0399  -4.8566  -4.4724  -4.2183  -4.0257  -4.0032  -3.6997
    -3.4695  -3.4463  -3.3614  -3.3254  -3.1910  -3.1334  -3.0677  -2.8270
    -2.6329  -2.5265  -2.3315  -2.2077  -2.0742  -2.0022  -1.7529  -1.5658
    -1.4283  -1.0740  -0.9905  -0.7909  -0.0655   0.1690   0.1894   0.2662
     0.3775   0.4385   0.6651   0.7448   0.7954   0.8821   1.1428   1.2214
     1.3607   1.4680   1.6688   1.7113   1.9220   2.3138   2.5829   4.0289
     4.4127   4.7486   4.8409   4.8770   5.0081   5.2021   5.2651   5.3864

          k = 0.1250-0.2445 0.0000 ( 40974 PWs)   bands (ev):

   -73.4875 -72.7735 -72.5330 -72.3702 -72.3478 -72.0621 -44.0435 -43.3210
   -43.0881 -42.8521 -42.7806 -42.6981 -42.6474 -42.6158 -42.6142 -42.4214
   -42.4005 -42.2883 -42.2429 -42.2320 -42.2170 -42.1645 -41.9852 -41.9169
   -18.4555 -18.4039 -18.2377 -18.0420 -17.9820 -17.8901 -17.5664 -17.5471
   -17.4898 -17.3868 -16.8902 -16.8718 -16.1640  -6.4962  -6.4719  -6.1523
    -5.9513  -5.8452  -5.7663  -5.7614  -5.6912  -5.6563  -5.6368  -5.2622
    -5.0656  -4.8961  -4.7857  -4.6556  -4.4826  -4.3284  -4.1732  -4.1399
    -4.1058  -4.0055  -3.8726  -3.7930  -3.4866  -3.3716  -3.2803  -2.8629
    -2.7305  -2.6283  -2.3124  -2.2383  -1.9429  -1.7727  -1.5593  -1.4096
    -1.1623  -1.0987  -1.0081  -0.9910   0.1852   0.1989   0.2934   0.3952
     0.5315   0.5801   0.7882   1.1044   1.1233   1.1397   1.2081   1.2539
     1.4037   1.4259   1.5313   1.6507   1.9211   1.9970   2.7299   4.0891
     4.4396   4.5550   4.7225   4.8573   5.0831   5.1183   5.3044   5.4430

          k = 0.1250-0.1223 0.0000 ( 40932 PWs)   bands (ev):

   -73.4875 -72.7735 -72.5331 -72.3703 -72.3478 -72.0621 -44.0435 -43.3209
   -43.0905 -42.8496 -42.7806 -42.6989 -42.6474 -42.6170 -42.6143 -42.4214
   -42.4005 -42.2883 -42.2437 -42.2319 -42.2161 -42.1631 -41.9852 -41.9159
   -18.6897 -18.4672 -18.2666 -18.2022 -17.9194 -17.8047 -17.4443 -17.3938
   -17.3502 -17.3267 -16.9250 -16.8410 -16.1659  -6.8662  -6.6519  -6.6134
    -6.4638  -6.4182  -5.9694  -5.7798  -5.6981  -5.6538  -5.5325  -5.2703
    -5.2142  -5.0399  -4.8566  -4.4724  -4.2183  -4.0257  -4.0032  -3.6997
    -3.4695  -3.4463  -3.3614  -3.3254  -3.1910  -3.1334  -3.0677  -2.8270
    -2.6329  -2.5265  -2.3315  -2.2077  -2.0742  -2.0022  -1.7529  -1.5658
    -1.4283  -1.0740  -0.9905  -0.7909  -0.0655   0.1690   0.1894   0.2662
     0.3775   0.4385   0.6651   0.7448   0.7954   0.8821   1.1428   1.2214
     1.3607   1.4680   1.6688   1.7113   1.9220   2.3138   2.5829   4.0289
     4.4127   4.7486   4.8409   4.8770   5.0081   5.2021   5.2651   5.3864

          k = 0.2500 0.0000 0.0000 ( 40947 PWs)   bands (ev):

   -73.4839 -72.7696 -72.5294 -72.3666 -72.3441 -72.0584 -44.0393 -43.3820
   -43.0806 -42.8491 -42.8448 -42.6947 -42.6358 -42.6128 -42.6102 -42.4834
   -42.3907 -42.3085 -42.2908 -42.2682 -42.2246 -42.1518 -42.0508 -41.9042
   -18.4771 -18.3034 -18.1164 -17.9850 -17.7877 -17.5764 -17.4649 -17.4281
   -17.4254 -17.3469 -17.0674 -16.8685 -16.2202  -6.7983  -6.6201  -6.5843
    -6.2640  -6.0074  -5.9846  -5.8634  -5.8131  -5.4732  -5.4517  -5.0567
    -4.9869  -4.6493  -4.5347  -4.5250  -4.3416  -4.1437  -4.0306  -3.9881
    -3.7560  -3.6772  -3.3455  -3.2021  -3.1204  -3.0191  -2.8574  -2.7998
    -2.6943  -2.4812  -2.4003  -2.2358  -2.2088  -2.1124  -2.0523  -1.6106
    -1.4624  -1.2565  -1.1965  -0.9679  -0.1795  -0.1609   0.1704   0.4476
     0.5182   0.5857   0.7999   0.9733   1.0653   1.1611   1.2081   1.3346
     1.3603   1.4587   1.4991   1.6099   1.8523   2.1814   2.4964   3.9594
     4.1793   4.2381   4.4128   4.6689   4.7425   4.8077   4.8804   4.9636

          k = 0.2500 0.1223 0.0000 ( 40905 PWs)   bands (ev):

   -73.4839 -72.7696 -72.5294 -72.3666 -72.3441 -72.0584 -44.0393 -43.3824
   -43.0792 -42.8491 -42.8458 -42.6946 -42.6358 -42.6127 -42.6101 -42.4834
   -42.3907 -42.3074 -42.2912 -42.2686 -42.2246 -42.1524 -42.0504 -41.9047
   -18.3905 -18.2089 -18.0246 -18.0184 -17.7795 -17.6499 -17.5484 -17.5044
   -17.4641 -17.3983 -17.0586 -16.8746 -16.2197  -6.4849  -6.3369  -6.2662
    -6.2269  -5.9944  -5.8775  -5.8322  -5.6503  -5.5741  -5.3676  -5.1160
    -4.8056  -4.7449  -4.6648  -4.5105  -4.4547  -4.3625  -4.2376  -4.1465
    -4.0016  -3.5737  -3.5139  -3.3609  -3.2070  -3.1842  -3.0195  -2.9270
    -2.7811  -2.6623  -2.4415  -2.2622  -2.1705  -2.1276  -1.9331  -1.6041
    -1.4318  -1.2538  -1.1676  -1.0249  -0.2143   0.1006   0.4110   0.4651
     0.5815   0.8341   0.8951   0.9683   1.0568   1.1330   1.2066   1.2612
     1.3656   1.5274   1.5955   1.6553   1.7870   2.0609   2.6130   3.7119
     4.0400   4.1445   4.2402   4.3812   4.6735   4.7839   5.2099   5.3560

          k = 0.2500-0.2445 0.0000 ( 40892 PWs)   bands (ev):

   -73.4839 -72.7696 -72.5294 -72.3666 -72.3441 -72.0584 -44.0393 -43.3827
   -43.0779 -42.8488 -42.8471 -42.6944 -42.6358 -42.6127 -42.6100 -42.4835
   -42.3906 -42.3062 -42.2917 -42.2689 -42.2246 -42.1529 -42.0500 -41.9052
   -18.2175 -18.1649 -17.9820 -17.9257 -17.7732 -17.7536 -17.6993 -17.6272
   -17.5209 -17.3964 -17.0498 -16.8817 -16.2192  -6.2857  -6.0390  -5.9669
    -5.8529  -5.7958  -5.7911  -5.6710  -5.5676  -5.3266  -5.3096  -5.2292
    -5.0063  -4.9972  -4.9618  -4.7864  -4.5948  -4.4928  -4.2556  -4.0504
    -3.8385  -3.7536  -3.6352  -3.6017  -3.5501  -3.5121  -3.2886  -3.2728
    -2.9375  -2.7882  -2.3827  -2.2464  -1.9487  -1.8767  -1.6754  -1.6146
    -1.3411  -1.3038  -1.1467  -1.1156  -0.0019   0.0297   0.2660   0.5728
     0.5959   0.8591   1.0135   1.0782   1.1212   1.1533   1.2736   1.3798
     1.4004   1.6012   1.6516   1.7789   1.8147   1.9140   2.7051   3.3065
     3.7545   3.8367   4.0954   4.3743   4.6872   5.0767   5.3152   5.5941

          k = 0.2500-0.1223 0.0000 ( 40905 PWs)   bands (ev):

   -73.4839 -72.7696 -72.5294 -72.3666 -72.3441 -72.0584 -44.0393 -43.3824
   -43.0792 -42.8491 -42.8458 -42.6946 -42.6358 -42.6127 -42.6101 -42.4834
   -42.3907 -42.3074 -42.2912 -42.2686 -42.2246 -42.1524 -42.0504 -41.9047
   -18.3905 -18.2089 -18.0246 -18.0184 -17.7795 -17.6499 -17.5484 -17.5044
   -17.4641 -17.3983 -17.0586 -16.8746 -16.2197  -6.4849  -6.3369  -6.2662
    -6.2269  -5.9944  -5.8775  -5.8322  -5.6503  -5.5741  -5.3676  -5.1160
    -4.8056  -4.7449  -4.6648  -4.5105  -4.4547  -4.3625  -4.2376  -4.1465
    -4.0016  -3.5737  -3.5139  -3.3609  -3.2070  -3.1842  -3.0195  -2.9270
    -2.7811  -2.6623  -2.4415  -2.2622  -2.1705  -2.1276  -1.9331  -1.6041
    -1.4318  -1.2538  -1.1676  -1.0249  -0.2143   0.1006   0.4110   0.4651
     0.5815   0.8341   0.8951   0.9683   1.0568   1.1330   1.2066   1.2612
     1.3656   1.5274   1.5955   1.6553   1.7870   2.0609   2.6130   3.7119
     4.0400   4.1445   4.2402   4.3812   4.6735   4.7839   5.2099   5.3560

          k = 0.3750 0.0000 0.0000 ( 40852 PWs)   bands (ev):

   -73.4803 -72.7657 -72.5258 -72.3630 -72.3404 -72.0546 -44.0352 -43.4427
   -43.0680 -42.9167 -42.8425 -42.6898 -42.6245 -42.6073 -42.6070 -42.5437
   -42.3837 -42.3688 -42.3448 -42.2693 -42.2173 -42.1418 -42.1154 -41.8935
   -18.1275 -18.0102 -17.8801 -17.8456 -17.7474 -17.6427 -17.6024 -17.5297
   -17.4664 -17.4099 -17.0808 -16.8344 -16.1924  -6.3556  -6.1749  -6.0558
    -6.0306  -5.9091  -5.8598  -5.6536  -5.6313  -5.5075  -5.4073  -5.2078
    -5.0663  -4.8269  -4.7921  -4.5802  -4.4198  -4.3707  -4.2106  -3.9680
    -3.6547  -3.5038  -3.4108  -3.3816  -3.3400  -3.1617  -3.0999  -2.8147
    -2.6758  -2.6078  -2.4460  -2.2810  -2.2158  -2.0363  -1.9605  -1.5151
    -1.3863  -1.3809  -1.2420  -0.9721  -0.1563   0.0143   0.2698   0.4735
     0.5760   0.6619   0.7665   0.7742   0.8644   1.0281   1.1730   1.2117
     1.3792   1.5244   1.6555   1.7797   1.9692   2.1507   2.3713   3.4272
     3.8046   4.0656   4.2765   4.3848   4.4840   4.5449   4.7830   4.9411

          k = 0.3750 0.1223 0.0000 ( 40842 PWs)   bands (ev):

   -73.4803 -72.7657 -72.5258 -72.3630 -72.3404 -72.0546 -44.0352 -43.4432
   -43.0680 -42.9162 -42.8424 -42.6903 -42.6245 -42.6089 -42.6068 -42.5438
   -42.3833 -42.3674 -42.3453 -42.2693 -42.2173 -42.1416 -42.1146 -41.8935
   -18.1073 -18.0099 -17.9385 -17.8820 -17.8169 -17.6390 -17.5351 -17.4807
   -17.4598 -17.3973 -17.0800 -16.8383 -16.1926  -6.2287  -6.1319  -6.1002
    -6.0487  -5.9636  -5.7698  -5.6588  -5.6035  -5.5280  -5.4755  -5.3589
    -5.0490  -4.7767  -4.7072  -4.5410  -4.4612  -4.2861  -4.0449  -3.8579
    -3.6441  -3.5660  -3.3540  -3.3054  -3.2340  -3.1467  -3.0470  -2.8779
    -2.7374  -2.6106  -2.5130  -2.2912  -2.1836  -2.0652  -1.9380  -1.6223
    -1.5470  -1.4112  -1.2637  -1.1252  -0.1291  -0.0828   0.2046   0.2287
     0.5374   0.6013   0.6308   0.7577   0.8088   0.9256   0.9523   1.2244
     1.6753   1.7445   1.8290   1.8797   2.0380   2.0525   2.4816   3.1701
     3.4868   3.6537   3.7516   4.1066   4.2939   5.1387   5.4582   5.5738

          k = 0.3750-0.2445 0.0000 ( 40856 PWs)   bands (ev):

   -73.4803 -72.7657 -72.5258 -72.3629 -72.3404 -72.0546 -44.0352 -43.4438
   -43.0681 -42.9156 -42.8423 -42.6909 -42.6245 -42.6103 -42.6067 -42.5439
   -42.3829 -42.3659 -42.3458 -42.2694 -42.2173 -42.1415 -42.1139 -41.8935
   -18.0595 -18.0354 -17.9980 -17.9060 -17.8573 -17.6458 -17.4845 -17.4694
   -17.4295 -17.3856 -17.0791 -16.8422 -16.1928  -6.2653  -6.0827  -5.9270
    -5.9265  -5.8571  -5.8223  -5.7614  -5.6941  -5.6839  -5.5601  -5.4181
    -4.9408  -4.7972  -4.5524  -4.5042  -4.2903  -4.2024  -4.0717  -3.7385
    -3.5441  -3.4336  -3.4222  -3.2887  -3.2761  -3.1579  -3.1279  -2.9767
    -2.7789  -2.7363  -2.3613  -2.2268  -2.1457  -2.0357  -1.9026  -1.8523
    -1.5821  -1.4362  -1.2805  -1.2527  -0.3242  -0.2654  -0.1016   0.3194
     0.4287   0.5915   0.6733   0.7709   0.8171   0.8772   1.0108   1.2061
     1.5735   1.7985   1.9682   1.9916   2.1140   2.2084   2.5795   2.7540
     3.2171   3.3201   3.5204   4.1312   4.2962   5.5204   5.6026   5.8216

          k = 0.3750-0.1223 0.0000 ( 40842 PWs)   bands (ev):

   -73.4803 -72.7657 -72.5258 -72.3630 -72.3404 -72.0546 -44.0352 -43.4432
   -43.0680 -42.9162 -42.8424 -42.6903 -42.6245 -42.6089 -42.6068 -42.5438
   -42.3833 -42.3674 -42.3453 -42.2693 -42.2173 -42.1416 -42.1146 -41.8935
   -18.1073 -18.0099 -17.9385 -17.8820 -17.8169 -17.6390 -17.5351 -17.4807
   -17.4598 -17.3973 -17.0800 -16.8383 -16.1926  -6.2287  -6.1319  -6.1002
    -6.0487  -5.9636  -5.7698  -5.6588  -5.6035  -5.5280  -5.4755  -5.3589
    -5.0490  -4.7767  -4.7072  -4.5410  -4.4612  -4.2861  -4.0449  -3.8579
    -3.6441  -3.5660  -3.3540  -3.3054  -3.2340  -3.1467  -3.0470  -2.8779
    -2.7374  -2.6106  -2.5130  -2.2912  -2.1836  -2.0652  -1.9380  -1.6223
    -1.5470  -1.4112  -1.2637  -1.1252  -0.1291  -0.0828   0.2046   0.2287
     0.5374   0.6013   0.6308   0.7577   0.8088   0.9256   0.9523   1.2244
     1.6753   1.7445   1.8290   1.8797   2.0380   2.0525   2.4816   3.1701
     3.4868   3.6537   3.7516   4.1066   4.2939   5.1387   5.4582   5.5738

          k =-0.5000 0.0000 0.0000 ( 40876 PWs)   bands (ev):

   -73.4789 -72.7641 -72.5243 -72.3614 -72.3389 -72.0531 -44.0334 -43.4677
   -43.0627 -42.9444 -42.8417 -42.6878 -42.6211 -42.6056 -42.6051 -42.5673
   -42.4003 -42.3741 -42.3700 -42.2668 -42.2143 -42.1417 -42.1376 -41.8890
   -18.0158 -17.8599 -17.8413 -17.7853 -17.7143 -17.6964 -17.6718 -17.6029
   -17.4837 -17.4021 -17.0118 -16.8074 -16.1558  -6.3392  -6.1541  -5.9938
    -5.7967  -5.7729  -5.6965  -5.5964  -5.5574  -5.5307  -5.4283  -5.3269
    -5.1584  -5.0332  -4.9060  -4.7376  -4.5049  -4.0719  -3.8187  -3.7932
    -3.6848  -3.6826  -3.6784  -3.5685  -3.4160  -2.9685  -2.8606  -2.7125
    -2.6205  -2.4851  -2.4714  -2.3714  -2.1656  -1.9913  -1.8308  -1.7189
    -1.6192  -1.2465  -1.1255  -0.9022  -0.2189   0.0670   0.0803   0.4626
     0.5540   0.5696   0.6251   0.6634   0.7241   0.7877   1.0309   1.1631
     1.3204   1.5077   1.8496   1.9253   2.1529   2.2601   2.3250   3.2055
     3.6508   4.0202   4.2142   4.2529   4.3664   4.5536   4.7594   4.9106

          k =-0.5000 0.1223 0.0000 ( 40858 PWs)   bands (ev):

   -73.4789 -72.7641 -72.5243 -72.3614 -72.3389 -72.0531 -44.0334 -43.4683
   -43.0635 -42.9436 -42.8410 -42.6886 -42.6211 -42.6076 -42.6053 -42.5674
   -42.3982 -42.3739 -42.3705 -42.2668 -42.2143 -42.1408 -42.1372 -41.8888
   -18.0092 -17.9741 -17.9570 -17.9102 -17.8633 -17.5522 -17.4826 -17.4695
   -17.4285 -17.4031 -17.0129 -16.8102 -16.1553  -6.2893  -6.2408  -6.1179
    -6.1114  -6.0018  -5.7595  -5.6648  -5.6389  -5.6175  -5.4229  -5.1808
    -5.0935  -4.8414  -4.5879  -4.4105  -4.1148  -3.8723  -3.8329  -3.7993
    -3.7637  -3.6463  -3.6374  -3.6086  -3.0125  -2.9515  -2.8240  -2.6282
    -2.6065  -2.5276  -2.5008  -2.2784  -2.1900  -2.1371  -1.8387  -1.6607
    -1.6287  -1.4987  -1.3096  -1.0895  -0.2104  -0.0384   0.0323   0.0741
     0.2041   0.4470   0.4905   0.5633   0.5887   0.6264   0.7461   1.1765
     1.8368   1.8465   2.0096   2.0154   2.1854   2.2028   2.4082   2.9973
     3.2529   3.4544   3.5795   4.0488   4.2168   5.3373   5.6000   5.6432

          k =-0.5000-0.2445 0.0000 ( 40872 PWs)   bands (ev):

   -73.4789 -72.7641 -72.5243 -72.3614 -72.3389 -72.0531 -44.0334 -43.4689
   -43.0642 -42.9429 -42.8403 -42.6894 -42.6211 -42.6097 -42.6053 -42.5676
   -42.3961 -42.3737 -42.3709 -42.2668 -42.2143 -42.1399 -42.1367 -41.8887
   -18.0499 -18.0472 -18.0021 -18.0012 -17.8673 -17.4812 -17.4720 -17.4043
   -17.3698 -17.3309 -17.0140 -16.8130 -16.1548  -6.4963  -6.2814  -6.2009
    -6.0949  -6.0857  -5.7702  -5.6883  -5.6767  -5.6575  -5.5006  -5.1808
    -5.0457  -4.9639  -4.1843  -4.1216  -3.9014  -3.8864  -3.8179  -3.5993
    -3.5914  -3.5276  -3.4265  -3.2387  -3.2129  -2.9007  -2.8597  -2.8091
    -2.6786  -2.4142  -2.3169  -2.1993  -2.1704  -1.9320  -1.9090  -1.7970
    -1.7606  -1.7229  -1.5840  -1.2682  -0.5121  -0.2311  -0.2045   0.0036
     0.0954   0.1695   0.4537   0.4699   0.5989   0.6255   0.7604   1.2083
     1.7508   1.9169   2.1052   2.1230   2.3530   2.3683   2.4634   2.5914
     3.0700   3.1919   3.2891   4.0756   4.2187   5.7229   5.7961   5.8326

          k =-0.5000-0.1223 0.0000 ( 40858 PWs)   bands (ev):

   -73.4789 -72.7641 -72.5243 -72.3614 -72.3389 -72.0531 -44.0334 -43.4683
   -43.0635 -42.9436 -42.8410 -42.6886 -42.6211 -42.6076 -42.6053 -42.5674
   -42.3982 -42.3739 -42.3705 -42.2668 -42.2143 -42.1408 -42.1372 -41.8888
   -18.0092 -17.9741 -17.9570 -17.9102 -17.8633 -17.5522 -17.4826 -17.4695
   -17.4285 -17.4031 -17.0129 -16.8102 -16.1553  -6.2893  -6.2408  -6.1179
    -6.1114  -6.0018  -5.7595  -5.6648  -5.6389  -5.6175  -5.4229  -5.1808
    -5.0935  -4.8414  -4.5879  -4.4105  -4.1148  -3.8723  -3.8329  -3.7993
    -3.7637  -3.6463  -3.6374  -3.6086  -3.0125  -2.9515  -2.8240  -2.6282
    -2.6065  -2.5276  -2.5008  -2.2784  -2.1900  -2.1371  -1.8387  -1.6607
    -1.6287  -1.4987  -1.3096  -1.0895  -0.2104  -0.0384   0.0323   0.0741
     0.2041   0.4470   0.4905   0.5633   0.5887   0.6264   0.7461   1.1765
     1.8368   1.8465   2.0096   2.0154   2.1854   2.2028   2.4082   2.9973
     3.2529   3.4544   3.5795   4.0488   4.2168   5.3373   5.6000   5.6432

          k =-0.3750 0.0000 0.0000 ( 40852 PWs)   bands (ev):

   -73.4803 -72.7657 -72.5258 -72.3630 -72.3404 -72.0546 -44.0352 -43.4427
   -43.0680 -42.9167 -42.8425 -42.6898 -42.6245 -42.6073 -42.6070 -42.5437
   -42.3837 -42.3688 -42.3448 -42.2693 -42.2173 -42.1418 -42.1154 -41.8935
   -18.1275 -18.0102 -17.8801 -17.8456 -17.7474 -17.6427 -17.6024 -17.5297
   -17.4664 -17.4099 -17.0808 -16.8344 -16.1924  -6.3556  -6.1749  -6.0558
    -6.0306  -5.9091  -5.8598  -5.6536  -5.6313  -5.5075  -5.4073  -5.2078
    -5.0663  -4.8269  -4.7921  -4.5802  -4.4198  -4.3707  -4.2106  -3.9680
    -3.6547  -3.5038  -3.4108  -3.3816  -3.3400  -3.1617  -3.0999  -2.8147
    -2.6758  -2.6078  -2.4460  -2.2810  -2.2158  -2.0363  -1.9605  -1.5151
    -1.3863  -1.3809  -1.2420  -0.9721  -0.1563   0.0143   0.2698   0.4735
     0.5760   0.6619   0.7665   0.7742   0.8644   1.0281   1.1730   1.2117
     1.3792   1.5244   1.6555   1.7797   1.9692   2.1507   2.3713   3.4272
     3.8046   4.0656   4.2765   4.3848   4.4840   4.5449   4.7830   4.9411

          k =-0.3750 0.1223 0.0000 ( 40842 PWs)   bands (ev):

   -73.4803 -72.7657 -72.5258 -72.3630 -72.3404 -72.0546 -44.0352 -43.4432
   -43.0680 -42.9162 -42.8424 -42.6903 -42.6245 -42.6089 -42.6068 -42.5438
   -42.3833 -42.3674 -42.3453 -42.2693 -42.2173 -42.1416 -42.1146 -41.8935
   -18.1073 -18.0099 -17.9385 -17.8820 -17.8169 -17.6390 -17.5351 -17.4807
   -17.4598 -17.3973 -17.0800 -16.8383 -16.1926  -6.2287  -6.1319  -6.1002
    -6.0487  -5.9636  -5.7698  -5.6588  -5.6035  -5.5280  -5.4755  -5.3589
    -5.0490  -4.7767  -4.7072  -4.5410  -4.4612  -4.2861  -4.0449  -3.8579
    -3.6441  -3.5660  -3.3540  -3.3054  -3.2340  -3.1467  -3.0470  -2.8779
    -2.7374  -2.6106  -2.5130  -2.2912  -2.1836  -2.0652  -1.9380  -1.6223
    -1.5470  -1.4112  -1.2637  -1.1252  -0.1291  -0.0828   0.2046   0.2287
     0.5374   0.6013   0.6308   0.7577   0.8088   0.9256   0.9523   1.2244
     1.6753   1.7445   1.8290   1.8797   2.0380   2.0525   2.4816   3.1701
     3.4868   3.6537   3.7516   4.1066   4.2939   5.1387   5.4582   5.5738

          k =-0.3750-0.2445 0.0000 ( 40856 PWs)   bands (ev):

   -73.4803 -72.7657 -72.5258 -72.3629 -72.3404 -72.0546 -44.0352 -43.4438
   -43.0681 -42.9156 -42.8423 -42.6909 -42.6245 -42.6103 -42.6067 -42.5439
   -42.3829 -42.3659 -42.3458 -42.2694 -42.2173 -42.1415 -42.1139 -41.8935
   -18.0595 -18.0354 -17.9980 -17.9060 -17.8573 -17.6458 -17.4845 -17.4694
   -17.4295 -17.3856 -17.0791 -16.8422 -16.1928  -6.2653  -6.0827  -5.9270
    -5.9265  -5.8571  -5.8223  -5.7614  -5.6941  -5.6839  -5.5601  -5.4181
    -4.9408  -4.7972  -4.5524  -4.5042  -4.2903  -4.2024  -4.0717  -3.7385
    -3.5441  -3.4336  -3.4222  -3.2887  -3.2761  -3.1579  -3.1279  -2.9767
    -2.7789  -2.7363  -2.3613  -2.2268  -2.1457  -2.0357  -1.9026  -1.8523
    -1.5821  -1.4362  -1.2805  -1.2527  -0.3242  -0.2654  -0.1016   0.3194
     0.4287   0.5915   0.6733   0.7709   0.8171   0.8772   1.0108   1.2061
     1.5735   1.7985   1.9682   1.9916   2.1140   2.2084   2.5795   2.7540
     3.2171   3.3201   3.5204   4.1312   4.2962   5.5204   5.6026   5.8216

          k =-0.3750-0.1223 0.0000 ( 40842 PWs)   bands (ev):

   -73.4803 -72.7657 -72.5258 -72.3630 -72.3404 -72.0546 -44.0352 -43.4432
   -43.0680 -42.9162 -42.8424 -42.6903 -42.6245 -42.6089 -42.6068 -42.5438
   -42.3833 -42.3674 -42.3453 -42.2693 -42.2173 -42.1416 -42.1146 -41.8935
   -18.1073 -18.0099 -17.9385 -17.8820 -17.8169 -17.6390 -17.5351 -17.4807
   -17.4598 -17.3973 -17.0800 -16.8383 -16.1926  -6.2287  -6.1319  -6.1002
    -6.0487  -5.9636  -5.7698  -5.6588  -5.6035  -5.5280  -5.4755  -5.3589
    -5.0490  -4.7767  -4.7072  -4.5410  -4.4612  -4.2861  -4.0449  -3.8579
    -3.6441  -3.5660  -3.3540  -3.3054  -3.2340  -3.1467  -3.0470  -2.8779
    -2.7374  -2.6106  -2.5130  -2.2912  -2.1836  -2.0652  -1.9380  -1.6223
    -1.5470  -1.4112  -1.2637  -1.1252  -0.1291  -0.0828   0.2046   0.2287
     0.5374   0.6013   0.6308   0.7577   0.8088   0.9256   0.9523   1.2244
     1.6753   1.7445   1.8290   1.8797   2.0380   2.0525   2.4816   3.1701
     3.4868   3.6537   3.7516   4.1066   4.2939   5.1387   5.4582   5.5738

          k =-0.2500 0.0000 0.0000 ( 40947 PWs)   bands (ev):

   -73.4839 -72.7696 -72.5294 -72.3666 -72.3441 -72.0584 -44.0393 -43.3820
   -43.0806 -42.8491 -42.8448 -42.6947 -42.6358 -42.6128 -42.6102 -42.4834
   -42.3907 -42.3085 -42.2908 -42.2682 -42.2246 -42.1518 -42.0508 -41.9042
   -18.4771 -18.3034 -18.1164 -17.9850 -17.7877 -17.5764 -17.4649 -17.4281
   -17.4254 -17.3469 -17.0674 -16.8685 -16.2202  -6.7983  -6.6201  -6.5843
    -6.2640  -6.0074  -5.9846  -5.8634  -5.8131  -5.4732  -5.4517  -5.0567
    -4.9869  -4.6493  -4.5347  -4.5250  -4.3416  -4.1437  -4.0306  -3.9881
    -3.7560  -3.6772  -3.3455  -3.2021  -3.1204  -3.0191  -2.8574  -2.7998
    -2.6943  -2.4812  -2.4003  -2.2358  -2.2088  -2.1124  -2.0523  -1.6106
    -1.4624  -1.2565  -1.1965  -0.9679  -0.1795  -0.1609   0.1704   0.4476
     0.5182   0.5857   0.7999   0.9733   1.0653   1.1611   1.2081   1.3346
     1.3603   1.4587   1.4991   1.6099   1.8523   2.1814   2.4964   3.9594
     4.1793   4.2381   4.4128   4.6689   4.7425   4.8077   4.8804   4.9636

          k =-0.2500 0.1223 0.0000 ( 40905 PWs)   bands (ev):

   -73.4839 -72.7696 -72.5294 -72.3666 -72.3441 -72.0584 -44.0393 -43.3824
   -43.0792 -42.8491 -42.8458 -42.6946 -42.6358 -42.6127 -42.6101 -42.4834
   -42.3907 -42.3074 -42.2912 -42.2686 -42.2246 -42.1524 -42.0504 -41.9047
   -18.3905 -18.2089 -18.0246 -18.0184 -17.7795 -17.6499 -17.5484 -17.5044
   -17.4641 -17.3983 -17.0586 -16.8746 -16.2197  -6.4849  -6.3369  -6.2662
    -6.2269  -5.9944  -5.8775  -5.8322  -5.6503  -5.5741  -5.3676  -5.1160
    -4.8056  -4.7449  -4.6648  -4.5105  -4.4547  -4.3625  -4.2376  -4.1465
    -4.0016  -3.5737  -3.5139  -3.3609  -3.2070  -3.1842  -3.0195  -2.9270
    -2.7811  -2.6623  -2.4415  -2.2622  -2.1705  -2.1276  -1.9331  -1.6041
    -1.4318  -1.2538  -1.1676  -1.0249  -0.2143   0.1006   0.4110   0.4651
     0.5815   0.8341   0.8951   0.9683   1.0568   1.1330   1.2066   1.2612
     1.3656   1.5274   1.5955   1.6553   1.7870   2.0609   2.6130   3.7119
     4.0400   4.1445   4.2402   4.3812   4.6735   4.7839   5.2099   5.3560

          k =-0.2500-0.2445 0.0000 ( 40892 PWs)   bands (ev):

   -73.4839 -72.7696 -72.5294 -72.3666 -72.3441 -72.0584 -44.0393 -43.3827
   -43.0779 -42.8488 -42.8471 -42.6944 -42.6358 -42.6127 -42.6100 -42.4835
   -42.3906 -42.3062 -42.2917 -42.2689 -42.2246 -42.1529 -42.0500 -41.9052
   -18.2175 -18.1649 -17.9820 -17.9257 -17.7732 -17.7536 -17.6993 -17.6272
   -17.5209 -17.3964 -17.0498 -16.8817 -16.2192  -6.2857  -6.0390  -5.9669
    -5.8529  -5.7958  -5.7911  -5.6710  -5.5676  -5.3266  -5.3096  -5.2292
    -5.0063  -4.9972  -4.9618  -4.7864  -4.5948  -4.4928  -4.2556  -4.0504
    -3.8385  -3.7536  -3.6352  -3.6017  -3.5501  -3.5121  -3.2886  -3.2728
    -2.9375  -2.7882  -2.3827  -2.2464  -1.9487  -1.8767  -1.6754  -1.6146
    -1.3411  -1.3038  -1.1467  -1.1156  -0.0019   0.0297   0.2660   0.5728
     0.5959   0.8591   1.0135   1.0782   1.1212   1.1533   1.2736   1.3798
     1.4004   1.6012   1.6516   1.7789   1.8147   1.9140   2.7051   3.3065
     3.7545   3.8367   4.0954   4.3743   4.6872   5.0767   5.3152   5.5941

          k =-0.2500-0.1223 0.0000 ( 40905 PWs)   bands (ev):

   -73.4839 -72.7696 -72.5294 -72.3666 -72.3441 -72.0584 -44.0393 -43.3824
   -43.0792 -42.8491 -42.8458 -42.6946 -42.6358 -42.6127 -42.6101 -42.4834
   -42.3907 -42.3074 -42.2912 -42.2686 -42.2246 -42.1524 -42.0504 -41.9047
   -18.3905 -18.2089 -18.0246 -18.0184 -17.7795 -17.6499 -17.5484 -17.5044
   -17.4641 -17.3983 -17.0586 -16.8746 -16.2197  -6.4849  -6.3369  -6.2662
    -6.2269  -5.9944  -5.8775  -5.8322  -5.6503  -5.5741  -5.3676  -5.1160
    -4.8056  -4.7449  -4.6648  -4.5105  -4.4547  -4.3625  -4.2376  -4.1465
    -4.0016  -3.5737  -3.5139  -3.3609  -3.2070  -3.1842  -3.0195  -2.9270
    -2.7811  -2.6623  -2.4415  -2.2622  -2.1705  -2.1276  -1.9331  -1.6041
    -1.4318  -1.2538  -1.1676  -1.0249  -0.2143   0.1006   0.4110   0.4651
     0.5815   0.8341   0.8951   0.9683   1.0568   1.1330   1.2066   1.2612
     1.3656   1.5274   1.5955   1.6553   1.7870   2.0609   2.6130   3.7119
     4.0400   4.1445   4.2402   4.3812   4.6735   4.7839   5.2099   5.3560

          k =-0.1250 0.0000 0.0000 ( 40851 PWs)   bands (ev):

   -73.4875 -72.7735 -72.5331 -72.3703 -72.3477 -72.0621 -44.0435 -43.3208
   -43.0929 -42.8472 -42.7806 -42.6997 -42.6474 -42.6182 -42.6143 -42.4214
   -42.4005 -42.2883 -42.2444 -42.2319 -42.2153 -42.1618 -41.9853 -41.9150
   -18.8037 -18.5920 -18.3852 -18.1577 -17.9158 -17.7700 -17.4120 -17.2819
   -17.2455 -17.1574 -16.9446 -16.8291 -16.1682  -7.2688  -7.0675  -7.0539
    -6.4601  -6.4403  -6.0645  -5.8120  -5.7685  -5.6337  -5.5862  -5.4692
    -5.2255  -5.0386  -4.9804  -4.4360  -4.0943  -4.0359  -3.4434  -3.2792
    -3.2511  -3.1576  -3.0778  -3.0626  -2.9063  -2.7526  -2.7171  -2.5851
    -2.4853  -2.3334  -2.1800  -2.1495  -2.0828  -2.0433  -1.8695  -1.7216
    -1.5748  -1.0960  -1.0663  -0.6737  -0.4499  -0.2531   0.0197   0.0591
     0.1447   0.3340   0.4568   0.5195   0.6803   0.7012   1.1507   1.1967
     1.3365   1.4435   1.6293   1.8728   2.1443   2.3641   2.5636   3.7128
     4.3460   4.7672   4.7842   4.9075   5.0613   5.3689   5.4026   5.4584

          k =-0.1250 0.1223 0.0000 ( 40932 PWs)   bands (ev):

   -73.4875 -72.7735 -72.5331 -72.3703 -72.3478 -72.0621 -44.0435 -43.3209
   -43.0905 -42.8496 -42.7806 -42.6989 -42.6474 -42.6170 -42.6143 -42.4214
   -42.4005 -42.2883 -42.2437 -42.2319 -42.2161 -42.1631 -41.9852 -41.9159
   -18.6897 -18.4672 -18.2666 -18.2022 -17.9194 -17.8047 -17.4443 -17.3938
   -17.3502 -17.3267 -16.9250 -16.8410 -16.1659  -6.8662  -6.6519  -6.6134
    -6.4638  -6.4182  -5.9694  -5.7798  -5.6981  -5.6538  -5.5325  -5.2703
    -5.2142  -5.0399  -4.8566  -4.4724  -4.2183  -4.0257  -4.0032  -3.6997
    -3.4695  -3.4463  -3.3614  -3.3254  -3.1910  -3.1334  -3.0677  -2.8270
    -2.6329  -2.5265  -2.3315  -2.2077  -2.0742  -2.0022  -1.7529  -1.5658
    -1.4283  -1.0740  -0.9905  -0.7909  -0.0655   0.1690   0.1894   0.2662
     0.3775   0.4385   0.6651   0.7448   0.7954   0.8821   1.1428   1.2214
     1.3607   1.4680   1.6688   1.7113   1.9220   2.3138   2.5829   4.0289
     4.4127   4.7486   4.8409   4.8770   5.0081   5.2021   5.2651   5.3864

          k =-0.1250-0.2445 0.0000 ( 40974 PWs)   bands (ev):

   -73.4875 -72.7735 -72.5330 -72.3702 -72.3478 -72.0621 -44.0435 -43.3210
   -43.0881 -42.8521 -42.7806 -42.6981 -42.6474 -42.6158 -42.6142 -42.4214
   -42.4005 -42.2883 -42.2429 -42.2320 -42.2170 -42.1645 -41.9852 -41.9169
   -18.4555 -18.4039 -18.2377 -18.0420 -17.9820 -17.8901 -17.5664 -17.5471
   -17.4898 -17.3868 -16.8902 -16.8718 -16.1640  -6.4962  -6.4719  -6.1523
    -5.9513  -5.8452  -5.7663  -5.7614  -5.6912  -5.6563  -5.6368  -5.2622
    -5.0656  -4.8961  -4.7857  -4.6556  -4.4826  -4.3284  -4.1732  -4.1399
    -4.1058  -4.0055  -3.8726  -3.7930  -3.4866  -3.3716  -3.2803  -2.8629
    -2.7305  -2.6283  -2.3124  -2.2383  -1.9429  -1.7727  -1.5593  -1.4096
    -1.1623  -1.0987  -1.0081  -0.9910   0.1852   0.1989   0.2934   0.3952
     0.5315   0.5801   0.7882   1.1044   1.1233   1.1397   1.2081   1.2539
     1.4037   1.4259   1.5313   1.6507   1.9211   1.9970   2.7299   4.0891
     4.4396   4.5550   4.7225   4.8573   5.0831   5.1183   5.3044   5.4430

          k =-0.1250-0.1223 0.0000 ( 40932 PWs)   bands (ev):

   -73.4875 -72.7735 -72.5331 -72.3703 -72.3478 -72.0621 -44.0435 -43.3209
   -43.0905 -42.8496 -42.7806 -42.6989 -42.6474 -42.6170 -42.6143 -42.4214
   -42.4005 -42.2883 -42.2437 -42.2319 -42.2161 -42.1631 -41.9852 -41.9159
   -18.6897 -18.4672 -18.2666 -18.2022 -17.9194 -17.8047 -17.4443 -17.3938
   -17.3502 -17.3267 -16.9250 -16.8410 -16.1659  -6.8662  -6.6519  -6.6134
    -6.4638  -6.4182  -5.9694  -5.7798  -5.6981  -5.6538  -5.5325  -5.2703
    -5.2142  -5.0399  -4.8566  -4.4724  -4.2183  -4.0257  -4.0032  -3.6997
    -3.4695  -3.4463  -3.3614  -3.3254  -3.1910  -3.1334  -3.0677  -2.8270
    -2.6329  -2.5265  -2.3315  -2.2077  -2.0742  -2.0022  -1.7529  -1.5658
    -1.4283  -1.0740  -0.9905  -0.7909  -0.0655   0.1690   0.1894   0.2662
     0.3775   0.4385   0.6651   0.7448   0.7954   0.8821   1.1428   1.2214
     1.3607   1.4680   1.6688   1.7113   1.9220   2.3138   2.5829   4.0289
     4.4127   4.7486   4.8409   4.8770   5.0081   5.2021   5.2651   5.3864

     the Fermi energy is     1.1962 ev

!    total energy              =   -1672.25487587 Ry
     estimated scf accuracy    <          5.5E-09 Ry
     smearing contrib. (-TS)   =      -0.00196551 Ry
     internal energy E=F+TS    =   -1672.25291035 Ry

     The total energy is F=E-TS. E is the sum of the following terms:
     one-electron contribution =  -16966.20645757 Ry
     hartree contribution      =    8505.11561268 Ry
     xc contribution           =    -214.04783222 Ry
     ewald contribution        =    7126.67174679 Ry
     one-center paw contrib.   =    -123.78598003 Ry

     convergence has been achieved in  10 iterations

     negative rho (up, down):  1.097E-04 0.000E+00

     Forces acting on atoms (cartesian axes, Ry/au):

     atom    1 type  1   force =     0.00000000    0.00004529    0.06972828
     atom    2 type  1   force =    -0.00000000    0.00071635   -0.09087816
     atom    3 type  1   force =    -0.00000001    0.00024138   -0.00071200
     atom    4 type  1   force =     0.00000005    0.00033515    0.00107042
     atom    5 type  1   force =     0.00000003   -0.00066197   -0.00135636
     atom    6 type  1   force =    -0.00000002   -0.00311030    0.00017315
     atom    7 type  2   force =     0.00000001   -0.00092620    0.01734212
     atom    8 type  2   force =     0.00000000   -0.00018447    0.06209746
     atom    9 type  2   force =     0.00000000    0.02377704   -0.02460092
     atom   10 type  2   force =    -0.00000000   -0.02415686   -0.02464364
     atom   11 type  2   force =    -0.00000004    0.00034381    0.00100732
     atom   12 type  2   force =    -0.00000001    0.00109167   -0.01110530
     atom   13 type  2   force =    -0.00000005   -0.00038090   -0.00046346
     atom   14 type  2   force =     0.00000003    0.00020526    0.00069985
     atom   15 type  2   force =     0.00000003    0.00045406    0.00136749
     atom   16 type  2   force =     0.00000001    0.00079990   -0.00112939
     atom   17 type  2   force =    -0.00000004    0.00054170   -0.00006803
     atom   18 type  2   force =    -0.00000004    0.00121281    0.00048096
     atom   19 type  2   force =     0.00000003   -0.00034371    0.00099021

     Total force =     0.004788     Total SCF correction =     0.000347
     Energy error            =      6.0E-05 Ry
     Gradient error          =      3.1E-03 Ry/Bohr

     number of scf cycles    =  20
     number of bfgs steps    =  19

     energy             old  =   -1672.2548156931 Ry
     energy             new  =   -1672.2548758656 Ry

     CASE: energy            _new < energy            _old

     new trust radius        =       0.0113254513 bohr
     new conv_thr            =       0.0000000100 Ry


ATOMIC_POSITIONS (angstrom)
Ru               0.0000000000        1.5881618300        9.5289709800    0   0   0
Ru               1.5535000000        4.7644854900        9.5289709800    0   0   0
Ru               0.0000000530        4.7672880965       12.7188126572
Ru               1.5534999969        1.5895350357       12.7051274267
Ru               0.0000000468        1.6373690762       16.0558299671
Ru               1.5534999791        4.8156658664       15.9428061937
O                0.0000000000        4.7644854900       10.7677372100    0   0   0
O                0.0000000000        4.7644854900        8.2902047600    0   0   0
O                1.5535000000        0.3493956000        9.5289709800    0   0   0
O                1.5535000000        2.8269280600        9.5289709800    0   0   0
O                0.0000000357        1.5946014945       13.9768663172
O                0.0000000000        1.5881618300       11.4665284200    0   0   0
O                1.5535000979        3.5332760538       12.7100281275
O                1.5534999989        6.0012375258       12.7011271813
O               -0.0000000620        4.7876898264       17.0451959473
O                0.0000000040        4.7957431070       14.6464262859
O                1.5535000361        0.4153115359       15.8764660929
O                1.5535000306        2.8509233286       15.8462737118
O               -0.0000001794        1.6568676242       17.7533644157



     Writing config-only to output data dir ./tmp_s0_O__1x1_off/s0_O__1x1_off.save/ :
     XML data file
     NEW-OLD atomic charge density approx. for the potential

     negative rho (up, down):  1.096E-04 0.000E+00

     total cpu time spent up to now is    24068.9 secs

     per-process dynamical memory:  1113.7 Mb

     Self-consistent Calculation

     iteration #  1     ecut=    80.00 Ry     beta= 0.30
     Davidson diagonalization with overlap
     ethr =  1.00E-06,  avg # of iterations =  3.0

     Threshold (ethr) on eigenvalues was too large:
     Diagonalizing with lowered threshold

     Davidson diagonalization with overlap
     ethr =  1.89E-08,  avg # of iterations =  4.8

     negative rho (up, down):  1.114E-04 0.000E+00

     total cpu time spent up to now is    24284.7 secs

     total energy              =   -1672.25490341 Ry
     estimated scf accuracy    <       0.00003437 Ry

     iteration #  2     ecut=    80.00 Ry     beta= 0.30
     Davidson diagonalization with overlap
     ethr =  1.98E-08,  avg # of iterations =  1.0

     negative rho (up, down):  1.123E-04 0.000E+00

     total cpu time spent up to now is    24366.1 secs

     total energy              =   -1672.25490163 Ry
     estimated scf accuracy    <       0.00001513 Ry

     iteration #  3     ecut=    80.00 Ry     beta= 0.30
     Davidson diagonalization with overlap
     ethr =  8.70E-09,  avg # of iterations =  1.2

     negative rho (up, down):  1.144E-04 0.000E+00

     total cpu time spent up to now is    24450.3 secs

     total energy              =   -1672.25490009 Ry
     estimated scf accuracy    <       0.00000784 Ry

     iteration #  4     ecut=    80.00 Ry     beta= 0.30
     Davidson diagonalization with overlap
     ethr =  4.51E-09,  avg # of iterations =  2.0

     negative rho (up, down):  1.153E-04 0.000E+00

     total cpu time spent up to now is    24539.2 secs

     total energy              =   -1672.25490046 Ry
     estimated scf accuracy    <       0.00000167 Ry

     iteration #  5     ecut=    80.00 Ry     beta= 0.30
     Davidson diagonalization with overlap
     ethr =  9.60E-10,  avg # of iterations =  2.5

     negative rho (up, down):  1.162E-04 0.000E+00

     total cpu time spent up to now is    24629.1 secs

     total energy              =   -1672.25490047 Ry
     estimated scf accuracy    <       0.00000039 Ry

     iteration #  6     ecut=    80.00 Ry     beta= 0.30
     Davidson diagonalization with overlap
     ethr =  2.22E-10,  avg # of iterations =  2.7

     negative rho (up, down):  1.166E-04 0.000E+00

     total cpu time spent up to now is    24720.8 secs

     total energy              =   -1672.25490048 Ry
     estimated scf accuracy    <       0.00000019 Ry

     iteration #  7     ecut=    80.00 Ry     beta= 0.30
     Davidson diagonalization with overlap
     ethr =  1.10E-10,  avg # of iterations =  1.3

     negative rho (up, down):  1.170E-04 0.000E+00

     total cpu time spent up to now is    24806.5 secs

     total energy              =   -1672.25490048 Ry
     estimated scf accuracy    <       0.00000007 Ry

     iteration #  8     ecut=    80.00 Ry     beta= 0.30
     Davidson diagonalization with overlap
     ethr =  3.84E-11,  avg # of iterations =  2.4

     negative rho (up, down):  1.169E-04 0.000E+00

     total cpu time spent up to now is    24895.7 secs

     total energy              =   -1672.25490048 Ry
     estimated scf accuracy    <       0.00000002 Ry

     iteration #  9     ecut=    80.00 Ry     beta= 0.30
     Davidson diagonalization with overlap
     ethr =  1.41E-11,  avg # of iterations =  2.1

     negative rho (up, down):  1.097E-04 0.000E+00

     total cpu time spent up to now is    24979.4 secs

     End of self-consistent calculation

          k = 0.0000 0.0000 0.0000 ( 40831 PWs)   bands (ev):

   -73.4883 -72.7754 -72.5354 -72.3732 -72.3505 -72.0646 -44.0437 -43.2947
   -43.0977 -42.8486 -42.7514 -42.7026 -42.6532 -42.6219 -42.6175 -42.4056
   -42.3962 -42.2921 -42.2360 -42.2188 -42.1909 -42.1672 -41.9589 -41.9203
   -18.9330 -18.7091 -18.4953 -18.2451 -17.9941 -17.8477 -17.4036 -17.2054
   -17.1691 -17.0777 -16.9032 -16.7769 -16.1283  -7.4534  -7.2452  -7.2336
    -6.6336  -6.4600  -6.0266  -5.7859  -5.7702  -5.7028  -5.6302  -5.5496
    -5.5047  -5.3147  -5.1955  -4.5898  -4.1777  -3.5764  -3.3965  -3.1825
    -3.0883  -2.9571  -2.9439  -2.8000  -2.7149  -2.6911  -2.6744  -2.5031
    -2.3714  -2.2641  -2.1932  -2.0022  -1.9465  -1.6702  -1.4707  -1.4252
    -1.2312  -1.1712  -0.7444  -0.6797  -0.5733  -0.5413  -0.2296  -0.2086
    -0.1518  -0.1414   0.2644   0.3444   0.4483   0.5250   0.9895   1.1200
     1.2175   1.4284   1.7539   2.0269   2.2301   2.2853   2.7058   3.5315
     4.2237   4.7123   5.0620   5.2315   5.4296   5.5123   5.7191   5.7713

          k = 0.0000 0.1223 0.0000 ( 40974 PWs)   bands (ev):

   -73.4883 -72.7754 -72.5354 -72.3731 -72.3506 -72.0646 -44.0437 -43.2946
   -43.0948 -42.8516 -42.7515 -42.7016 -42.6532 -42.6202 -42.6175 -42.4055
   -42.3962 -42.2921 -42.2360 -42.2181 -42.1916 -42.1691 -41.9589 -41.9214
   -18.8124 -18.5777 -18.3743 -18.2906 -18.0101 -17.8773 -17.4151 -17.3339
   -17.3000 -17.2600 -16.8827 -16.7875 -16.1254  -7.0360  -6.8014  -6.7706
    -6.6252  -6.4480  -5.9566  -5.7842  -5.6524  -5.6235  -5.5494  -5.5008
    -5.4680  -5.3135  -5.0044  -4.6297  -4.2342  -4.0364  -3.7706  -3.6214
    -3.5443  -3.4234  -3.2671  -2.9132  -2.8843  -2.8662  -2.7535  -2.6843
    -2.5805  -2.3930  -2.2160  -2.1643  -2.0923  -1.7237  -1.6502  -1.6144
    -1.3582  -1.1397  -0.9095  -0.7037  -0.0774  -0.0615   0.1377   0.2494
     0.3378   0.3811   0.4107   0.5117   0.5341   0.6064   0.9781   1.0746
     1.2890   1.4740   1.7600   1.8220   2.0255   2.3613   2.5816   3.9250
     4.6465   4.8227   4.8962   5.2317   5.4374   5.4627   5.5018   5.5422

          k = 0.0000-0.2445 0.0000 ( 41014 PWs)   bands (ev):

   -73.4883 -72.7754 -72.5354 -72.3730 -72.3507 -72.0646 -44.0437 -43.2946
   -43.0919 -42.8546 -42.7515 -42.7006 -42.6532 -42.6186 -42.6174 -42.4055
   -42.3961 -42.2922 -42.2360 -42.2174 -42.1923 -42.1710 -41.9590 -41.9226
   -18.5638 -18.5134 -18.3441 -18.1343 -18.0796 -17.9700 -17.5038 -17.4790
   -17.4426 -17.3817 -16.8535 -16.8122 -16.1231  -6.6801  -6.4873  -6.3693
    -6.0335  -5.9828  -5.8790  -5.7814  -5.6278  -5.5442  -5.4838  -5.4636
    -5.3067  -5.0601  -4.9445  -4.6150  -4.6119  -4.4976  -4.4911  -4.3548
    -4.2952  -3.6879  -3.4991  -3.3489  -3.1474  -3.1232  -3.0020  -2.7050
    -2.5811  -2.4827  -2.2309  -2.1363  -1.9717  -1.7161  -1.6482  -1.4140
    -1.2013  -1.1002  -0.9982  -0.9924   0.1851   0.2035   0.2749   0.3825
     0.5086   0.6667   0.7977   0.8104   0.8747   0.9125   1.0441   1.1103
     1.2069   1.5526   1.5541   1.5813   2.0064   2.1147   2.7106   4.3507
     4.5564   4.8381   5.1858   5.1867   5.2326   5.2486   5.5209   5.6714

          k = 0.0000-0.1223 0.0000 ( 40974 PWs)   bands (ev):

   -73.4883 -72.7754 -72.5354 -72.3731 -72.3506 -72.0646 -44.0437 -43.2946
   -43.0948 -42.8516 -42.7515 -42.7016 -42.6532 -42.6202 -42.6175 -42.4055
   -42.3962 -42.2921 -42.2360 -42.2181 -42.1916 -42.1691 -41.9589 -41.9214
   -18.8124 -18.5777 -18.3743 -18.2906 -18.0101 -17.8773 -17.4151 -17.3339
   -17.3000 -17.2600 -16.8827 -16.7875 -16.1254  -7.0360  -6.8014  -6.7706
    -6.6252  -6.4480  -5.9566  -5.7842  -5.6524  -5.6235  -5.5494  -5.5008
    -5.4680  -5.3135  -5.0044  -4.6297  -4.2342  -4.0364  -3.7706  -3.6214
    -3.5443  -3.4234  -3.2671  -2.9132  -2.8843  -2.8662  -2.7535  -2.6843
    -2.5805  -2.3930  -2.2160  -2.1643  -2.0923  -1.7237  -1.6502  -1.6144
    -1.3582  -1.1397  -0.9095  -0.7037  -0.0774  -0.0615   0.1377   0.2494
     0.3378   0.3811   0.4107   0.5117   0.5341   0.6064   0.9781   1.0746
     1.2890   1.4740   1.7600   1.8220   2.0255   2.3613   2.5816   3.9250
     4.6465   4.8227   4.8962   5.2317   5.4374   5.4627   5.5018   5.5422

          k = 0.1250 0.0000 0.0000 ( 40851 PWs)   bands (ev):

   -73.4868 -72.7738 -72.5339 -72.3716 -72.3490 -72.0630 -44.0419 -43.3202
   -43.0926 -42.8476 -42.7802 -42.7005 -42.6485 -42.6197 -42.6155 -42.4222
   -42.4015 -42.2893 -42.2455 -42.2332 -42.2167 -42.1631 -41.9862 -41.9158
   -18.8043 -18.5924 -18.3862 -18.1586 -17.9160 -17.7705 -17.4107 -17.2829
   -17.2464 -17.1585 -16.9451 -16.8298 -16.1691  -7.2700  -7.0687  -7.0549
    -6.4609  -6.4412  -6.0650  -5.8127  -5.7686  -5.6350  -5.5868  -5.4703
    -5.2247  -5.0395  -4.9807  -4.4344  -4.0927  -4.0363  -3.4443  -3.2792
    -3.2522  -3.1580  -3.0784  -3.0623  -2.9067  -2.7526  -2.7186  -2.5860
    -2.4854  -2.3347  -2.1808  -2.1505  -2.0809  -2.0473  -1.8711  -1.7211
    -1.5757  -1.0965  -1.0674  -0.6735  -0.4504  -0.2539   0.0186   0.0576
     0.1438   0.3327   0.4556   0.5187   0.6793   0.7005   1.1498   1.1956
     1.3350   1.4420   1.6282   1.8725   2.1438   2.3632   2.5629   3.7120
     4.3452   4.7666   4.7861   4.9070   5.0596   5.3667   5.4011   5.4575

          k = 0.1250 0.1223 0.0000 ( 40932 PWs)   bands (ev):

   -73.4868 -72.7738 -72.5339 -72.3716 -72.3491 -72.0630 -44.0419 -43.3203
   -43.0901 -42.8500 -42.7802 -42.6998 -42.6485 -42.6184 -42.6155 -42.4222
   -42.4014 -42.2893 -42.2448 -42.2332 -42.2175 -42.1644 -41.9861 -41.9168
   -18.6904 -18.4675 -18.2674 -18.2032 -17.9191 -17.8057 -17.4438 -17.3947
   -17.3508 -17.3276 -16.9256 -16.8417 -16.1668  -6.8669  -6.6531  -6.6144
    -6.4647  -6.4191  -5.9700  -5.7799  -5.6989  -5.6546  -5.5336  -5.2699
    -5.2147  -5.0408  -4.8566  -4.4708  -4.2178  -4.0251  -4.0038  -3.7005
    -3.4695  -3.4475  -3.3623  -3.3267  -3.1922  -3.1347  -3.0673  -2.8282
    -2.6341  -2.5274  -2.3323  -2.2088  -2.0748  -2.0028  -1.7537  -1.5646
    -1.4293  -1.0749  -0.9913  -0.7913  -0.0655   0.1688   0.1891   0.2648
     0.3767   0.4374   0.6639   0.7439   0.7944   0.8812   1.1420   1.2202
     1.3594   1.4663   1.6682   1.7102   1.9214   2.3130   2.5821   4.0283
     4.4135   4.7482   4.8405   4.8765   5.0068   5.2009   5.2643   5.3840

          k = 0.1250-0.2445 0.0000 ( 40974 PWs)   bands (ev):

   -73.4868 -72.7738 -72.5339 -72.3715 -72.3491 -72.0630 -44.0419 -43.3204
   -43.0877 -42.8525 -42.7801 -42.6990 -42.6485 -42.6172 -42.6154 -42.4222
   -42.4014 -42.2893 -42.2440 -42.2333 -42.2184 -42.1658 -41.9861 -41.9178
   -18.4562 -18.4045 -18.2374 -18.0420 -17.9830 -17.8911 -17.5673 -17.5484
   -17.4907 -17.3858 -16.8906 -16.8727 -16.1649  -6.4971  -6.4725  -6.1516
    -5.9532  -5.8454  -5.7673  -5.7617  -5.6922  -5.6575  -5.6378  -5.2610
    -5.0662  -4.8947  -4.7870  -4.6553  -4.4830  -4.3290  -4.1726  -4.1411
    -4.1073  -4.0072  -3.8737  -3.7937  -3.4863  -3.3735  -3.2805  -2.8640
    -2.7308  -2.6296  -2.3134  -2.2394  -1.9435  -1.7730  -1.5594  -1.4102
    -1.1614  -1.0993  -1.0091  -0.9920   0.1851   0.1983   0.2926   0.3942
     0.5303   0.5810   0.7873   1.1033   1.1231   1.1381   1.2068   1.2530
     1.4030   1.4247   1.5302   1.6490   1.9202   1.9962   2.7290   4.0898
     4.4396   4.5537   4.7218   4.8565   5.0815   5.1179   5.3034   5.4413

          k = 0.1250-0.1223 0.0000 ( 40932 PWs)   bands (ev):

   -73.4868 -72.7738 -72.5339 -72.3716 -72.3491 -72.0630 -44.0419 -43.3203
   -43.0901 -42.8500 -42.7802 -42.6998 -42.6485 -42.6184 -42.6155 -42.4222
   -42.4014 -42.2893 -42.2448 -42.2332 -42.2175 -42.1644 -41.9861 -41.9168
   -18.6904 -18.4675 -18.2674 -18.2032 -17.9191 -17.8057 -17.4438 -17.3947
   -17.3508 -17.3276 -16.9256 -16.8417 -16.1668  -6.8669  -6.6531  -6.6144
    -6.4647  -6.4191  -5.9700  -5.7799  -5.6989  -5.6546  -5.5336  -5.2699
    -5.2147  -5.0408  -4.8566  -4.4708  -4.2178  -4.0251  -4.0038  -3.7005
    -3.4695  -3.4475  -3.3623  -3.3267  -3.1922  -3.1347  -3.0673  -2.8282
    -2.6341  -2.5274  -2.3323  -2.2088  -2.0748  -2.0028  -1.7537  -1.5646
    -1.4293  -1.0749  -0.9913  -0.7913  -0.0655   0.1688   0.1891   0.2648
     0.3767   0.4374   0.6639   0.7439   0.7944   0.8812   1.1420   1.2202
     1.3594   1.4663   1.6682   1.7102   1.9214   2.3130   2.5821   4.0283
     4.4135   4.7482   4.8405   4.8765   5.0068   5.2009   5.2643   5.3840

          k = 0.2500 0.0000 0.0000 ( 40947 PWs)   bands (ev):

   -73.4832 -72.7700 -72.5303 -72.3680 -72.3454 -72.0593 -44.0378 -43.3815
   -43.0802 -42.8487 -42.8452 -42.6956 -42.6370 -42.6142 -42.6112 -42.4842
   -42.3916 -42.3096 -42.2919 -42.2694 -42.2259 -42.1531 -42.0517 -41.9051
   -18.4779 -18.3036 -18.1172 -17.9859 -17.7886 -17.5760 -17.4659 -17.4281
   -17.4265 -17.3479 -17.0673 -16.8687 -16.2210  -6.7991  -6.6212  -6.5853
    -6.2650  -6.0075  -5.9853  -5.8637  -5.8139  -5.4745  -5.4521  -5.0564
    -4.9879  -4.6499  -4.5342  -4.5258  -4.3416  -4.1439  -4.0312  -3.9889
    -3.7561  -3.6779  -3.3454  -3.2022  -3.1196  -3.0203  -2.8583  -2.8007
    -2.6954  -2.4822  -2.4008  -2.2361  -2.2109  -2.1133  -2.0538  -1.6110
    -1.4609  -1.2574  -1.1980  -0.9689  -0.1786  -0.1620   0.1696   0.4462
     0.5171   0.5848   0.7989   0.9724   1.0642   1.1610   1.2067   1.3343
     1.3595   1.4598   1.4955   1.6086   1.8518   2.1807   2.4954   3.9586
     4.1781   4.2390   4.4122   4.6677   4.7416   4.8063   4.8795   4.9630

          k = 0.2500 0.1223 0.0000 ( 40905 PWs)   bands (ev):

   -73.4832 -72.7700 -72.5303 -72.3679 -72.3454 -72.0593 -44.0378 -43.3818
   -43.0788 -42.8487 -42.8462 -42.6955 -42.6370 -42.6141 -42.6112 -42.4842
   -42.3916 -42.3085 -42.2924 -42.2697 -42.2259 -42.1537 -42.0513 -41.9056
   -18.3912 -18.2089 -18.0256 -18.0191 -17.7802 -17.6504 -17.5492 -17.5051
   -17.4653 -17.3981 -17.0585 -16.8748 -16.2205  -6.4856  -6.3381  -6.2672
    -6.2279  -5.9951  -5.8773  -5.8325  -5.6511  -5.5747  -5.3686  -5.1159
    -4.8065  -4.7452  -4.6656  -4.5112  -4.4556  -4.3628  -4.2371  -4.1468
    -4.0018  -3.5740  -3.5143  -3.3612  -3.2070  -3.1852  -3.0206  -2.9279
    -2.7826  -2.6628  -2.4423  -2.2630  -2.1713  -2.1283  -1.9339  -1.6044
    -1.4308  -1.2548  -1.1684  -1.0261  -0.2147   0.1010   0.4102   0.4640
     0.5803   0.8331   0.8942   0.9674   1.0559   1.1330   1.2060   1.2594
     1.3641   1.5264   1.5946   1.6544   1.7863   2.0602   2.6120   3.7118
     4.0391   4.1433   4.2393   4.3804   4.6719   4.7836   5.2096   5.3557

          k = 0.2500-0.2445 0.0000 ( 40892 PWs)   bands (ev):

   -73.4832 -72.7700 -72.5303 -72.3679 -72.3454 -72.0593 -44.0378 -43.3822
   -43.0775 -42.8483 -42.8475 -42.6953 -42.6370 -42.6141 -42.6111 -42.4843
   -42.3915 -42.3073 -42.2929 -42.2701 -42.2259 -42.1542 -42.0509 -41.9061
   -18.2182 -18.1658 -17.9790 -17.9285 -17.7738 -17.7555 -17.7005 -17.6281
   -17.5215 -17.3961 -17.0497 -16.8819 -16.2200  -6.2867  -6.0388  -5.9677
    -5.8533  -5.7961  -5.7929  -5.6718  -5.5679  -5.3275  -5.3097  -5.2302
    -5.0070  -4.9983  -4.9627  -4.7865  -4.5946  -4.4931  -4.2544  -4.0507
    -3.8388  -3.7544  -3.6367  -3.6037  -3.5501  -3.5130  -3.2904  -3.2736
    -2.9365  -2.7890  -2.3834  -2.2476  -1.9490  -1.8775  -1.6752  -1.6153
    -1.3413  -1.3049  -1.1460  -1.1172  -0.0020   0.0285   0.2659   0.5719
     0.5949   0.8585   1.0127   1.0801   1.1200   1.1496   1.2727   1.3792
     1.3986   1.6005   1.6506   1.7779   1.8141   1.9132   2.7041   3.3059
     3.7531   3.8358   4.0942   4.3736   4.6856   5.0767   5.3149   5.5944

          k = 0.2500-0.1223 0.0000 ( 40905 PWs)   bands (ev):

   -73.4832 -72.7700 -72.5303 -72.3679 -72.3454 -72.0593 -44.0378 -43.3818
   -43.0788 -42.8487 -42.8462 -42.6955 -42.6370 -42.6141 -42.6112 -42.4842
   -42.3916 -42.3085 -42.2924 -42.2697 -42.2259 -42.1537 -42.0513 -41.9056
   -18.3912 -18.2089 -18.0256 -18.0191 -17.7802 -17.6504 -17.5492 -17.5051
   -17.4653 -17.3981 -17.0585 -16.8748 -16.2205  -6.4856  -6.3381  -6.2672
    -6.2279  -5.9951  -5.8773  -5.8325  -5.6511  -5.5747  -5.3686  -5.1159
    -4.8065  -4.7452  -4.6656  -4.5112  -4.4556  -4.3628  -4.2371  -4.1468
    -4.0018  -3.5740  -3.5143  -3.3612  -3.2070  -3.1852  -3.0206  -2.9279
    -2.7826  -2.6628  -2.4423  -2.2630  -2.1713  -2.1283  -1.9339  -1.6044
    -1.4308  -1.2548  -1.1684  -1.0261  -0.2147   0.1010   0.4102   0.4640
     0.5803   0.8331   0.8942   0.9674   1.0559   1.1330   1.2060   1.2594
     1.3641   1.5264   1.5946   1.6544   1.7863   2.0602   2.6120   3.7118
     4.0391   4.1433   4.2393   4.3804   4.6719   4.7836   5.2096   5.3557

          k = 0.3750 0.0000 0.0000 ( 40852 PWs)   bands (ev):

   -73.4797 -72.7661 -72.5266 -72.3643 -72.3417 -72.0555 -44.0336 -43.4422
   -43.0676 -42.9162 -42.8430 -42.6907 -42.6260 -42.6087 -42.6078 -42.5445
   -42.3846 -42.3698 -42.3462 -42.2703 -42.2186 -42.1431 -42.1163 -41.8943
   -18.1283 -18.0098 -17.8806 -17.8463 -17.7485 -17.6445 -17.6034 -17.5308
   -17.4672 -17.4096 -17.0802 -16.8344 -16.1932  -6.3554  -6.1757  -6.0568
    -6.0319  -5.9100  -5.8597  -5.6541  -5.6318  -5.5085  -5.4083  -5.2088
    -5.0678  -4.8277  -4.7925  -4.5803  -4.4200  -4.3700  -4.2115  -3.9688
    -3.6545  -3.5050  -3.4116  -3.3821  -3.3394  -3.1628  -3.1003  -2.8153
    -2.6774  -2.6076  -2.4469  -2.2826  -2.2170  -2.0366  -1.9608  -1.5152
    -1.3875  -1.3817  -1.2420  -0.9731  -0.1560   0.0135   0.2697   0.4726
     0.5757   0.6610   0.7657   0.7736   0.8635   1.0271   1.1724   1.2109
     1.3786   1.5237   1.6544   1.7784   1.9681   2.1497   2.3703   3.4260
     3.8052   4.0650   4.2753   4.3835   4.4831   4.5447   4.7827   4.9405

          k = 0.3750 0.1223 0.0000 ( 40842 PWs)   bands (ev):

   -73.4797 -72.7661 -72.5266 -72.3643 -72.3417 -72.0555 -44.0336 -43.4427
   -43.0676 -42.9157 -42.8429 -42.6912 -42.6260 -42.6103 -42.6076 -42.5446
   -42.3842 -42.3684 -42.3467 -42.2703 -42.2186 -42.1429 -42.1155 -41.8943
   -18.1082 -18.0096 -17.9394 -17.8826 -17.8180 -17.6406 -17.5361 -17.4817
   -17.4603 -17.3972 -17.0794 -16.8382 -16.1934  -6.2292  -6.1315  -6.1013
    -6.0496  -5.9647  -5.7709  -5.6601  -5.6042  -5.5285  -5.4766  -5.3598
    -5.0494  -4.7772  -4.7073  -4.5415  -4.4614  -4.2870  -4.0446  -3.8586
    -3.6444  -3.5667  -3.3530  -3.3064  -3.2349  -3.1472  -3.0477  -2.8788
    -2.7381  -2.6114  -2.5134  -2.2917  -2.1846  -2.0655  -1.9386  -1.6223
    -1.5486  -1.4116  -1.2644  -1.1261  -0.1297  -0.0824   0.2037   0.2277
     0.5369   0.6008   0.6300   0.7566   0.8080   0.9247   0.9512   1.2235
     1.6739   1.7444   1.8282   1.8789   2.0372   2.0515   2.4806   3.1695
     3.4857   3.6526   3.7507   4.1060   4.2927   5.1390   5.4583   5.5735

          k = 0.3750-0.2445 0.0000 ( 40856 PWs)   bands (ev):

   -73.4797 -72.7661 -72.5266 -72.3643 -72.3417 -72.0555 -44.0336 -43.4432
   -43.0677 -42.9151 -42.8427 -42.6917 -42.6260 -42.6117 -42.6076 -42.5447
   -42.3839 -42.3670 -42.3472 -42.2703 -42.2186 -42.1428 -42.1148 -41.8944
   -18.0603 -18.0360 -17.9981 -17.9070 -17.8583 -17.6471 -17.4855 -17.4701
   -17.4302 -17.3857 -17.0784 -16.8422 -16.1936  -6.2648  -6.0843  -5.9286
    -5.9271  -5.8579  -5.8236  -5.7625  -5.6944  -5.6853  -5.5609  -5.4191
    -4.9405  -4.7977  -4.5531  -4.5043  -4.2912  -4.2006  -4.0716  -3.7396
    -3.5450  -3.4339  -3.4228  -3.2886  -3.2783  -3.1584  -3.1282  -2.9776
    -2.7793  -2.7366  -2.3615  -2.2274  -2.1460  -2.0366  -1.9018  -1.8534
    -1.5823  -1.4376  -1.2816  -1.2540  -0.3249  -0.2663  -0.1012   0.3185
     0.4272   0.5921   0.6719   0.7698   0.8163   0.8762   1.0099   1.2050
     1.5723   1.7977   1.9674   1.9919   2.1131   2.2075   2.5786   2.7527
     3.2157   3.3192   3.5191   4.1306   4.2950   5.5210   5.6025   5.8226

          k = 0.3750-0.1223 0.0000 ( 40842 PWs)   bands (ev):

   -73.4797 -72.7661 -72.5266 -72.3643 -72.3417 -72.0555 -44.0336 -43.4427
   -43.0676 -42.9157 -42.8429 -42.6912 -42.6260 -42.6103 -42.6076 -42.5446
   -42.3842 -42.3684 -42.3467 -42.2703 -42.2186 -42.1429 -42.1155 -41.8943
   -18.1082 -18.0096 -17.9394 -17.8826 -17.8180 -17.6406 -17.5361 -17.4817
   -17.4603 -17.3972 -17.0794 -16.8382 -16.1934  -6.2292  -6.1315  -6.1013
    -6.0496  -5.9647  -5.7709  -5.6601  -5.6042  -5.5285  -5.4766  -5.3598
    -5.0494  -4.7772  -4.7073  -4.5415  -4.4614  -4.2870  -4.0446  -3.8586
    -3.6444  -3.5667  -3.3530  -3.3064  -3.2349  -3.1472  -3.0477  -2.8788
    -2.7381  -2.6114  -2.5134  -2.2917  -2.1846  -2.0655  -1.9386  -1.6223
    -1.5486  -1.4116  -1.2644  -1.1261  -0.1297  -0.0824   0.2037   0.2277
     0.5369   0.6008   0.6300   0.7566   0.8080   0.9247   0.9512   1.2235
     1.6739   1.7444   1.8282   1.8789   2.0372   2.0515   2.4806   3.1695
     3.4857   3.6526   3.7507   4.1060   4.2927   5.1390   5.4583   5.5735

          k =-0.5000 0.0000 0.0000 ( 40876 PWs)   bands (ev):

   -73.4782 -72.7645 -72.5251 -72.3628 -72.3402 -72.0540 -44.0319 -43.4672
   -43.0623 -42.9439 -42.8421 -42.6887 -42.6227 -42.6065 -42.6063 -42.5682
   -42.4014 -42.3750 -42.3715 -42.2677 -42.2156 -42.1427 -42.1389 -41.8898
   -18.0166 -17.8612 -17.8381 -17.7857 -17.7166 -17.6988 -17.6736 -17.6041
   -17.4844 -17.4017 -17.0112 -16.8073 -16.1567  -6.3384  -6.1549  -5.9954
    -5.7979  -5.7727  -5.6971  -5.5965  -5.5588  -5.5317  -5.4293  -5.3274
    -5.1595  -5.0345  -4.9065  -4.7380  -4.5053  -4.0713  -3.8154  -3.7940
    -3.6858  -3.6835  -3.6793  -3.5696  -3.4176  -2.9705  -2.8626  -2.7133
    -2.6225  -2.4853  -2.4711  -2.3721  -2.1653  -1.9924  -1.8317  -1.7190
    -1.6195  -1.2477  -1.1254  -0.9031  -0.2185   0.0679   0.0794   0.4617
     0.5545   0.5687   0.6234   0.6631   0.7232   0.7870   1.0301   1.1616
     1.3197   1.5070   1.8486   1.9240   2.1518   2.2591   2.3240   3.2043
     3.6514   4.0198   4.2131   4.2516   4.3655   4.5534   4.7590   4.9101

          k =-0.5000 0.1223 0.0000 ( 40858 PWs)   bands (ev):

   -73.4782 -72.7645 -72.5251 -72.3628 -72.3402 -72.0540 -44.0319 -43.4678
   -43.0630 -42.9431 -42.8414 -42.6895 -42.6227 -42.6089 -42.6060 -42.5683
   -42.3992 -42.3748 -42.3719 -42.2677 -42.2156 -42.1417 -42.1385 -41.8897
   -18.0100 -17.9736 -17.9579 -17.9112 -17.8646 -17.5538 -17.4832 -17.4704
   -17.4295 -17.4027 -17.0123 -16.8101 -16.1562  -6.2895  -6.2405  -6.1189
    -6.1129  -6.0029  -5.7604  -5.6657  -5.6401  -5.6190  -5.4235  -5.1817
    -5.0931  -4.8419  -4.5879  -4.4112  -4.1151  -3.8730  -3.8331  -3.8000
    -3.7619  -3.6470  -3.6378  -3.6098  -3.0126  -2.9527  -2.8260  -2.6287
    -2.6083  -2.5277  -2.5020  -2.2781  -2.1888  -2.1386  -1.8394  -1.6613
    -1.6290  -1.5001  -1.3100  -1.0906  -0.2100  -0.0392   0.0314   0.0750
     0.2032   0.4463   0.4898   0.5626   0.5880   0.6246   0.7452   1.1750
     1.8370   1.8451   2.0087   2.0146   2.1842   2.2018   2.4072   2.9969
     3.2517   3.4532   3.5786   4.0485   4.2157   5.3382   5.5997   5.6429

          k =-0.5000-0.2445 0.0000 ( 40872 PWs)   bands (ev):

   -73.4782 -72.7645 -72.5251 -72.3628 -72.3402 -72.0540 -44.0319 -43.4683
   -43.0638 -42.9424 -42.8408 -42.6903 -42.6227 -42.6111 -42.6060 -42.5684
   -42.3972 -42.3747 -42.3723 -42.2677 -42.2156 -42.1408 -42.1380 -41.8895
   -18.0501 -18.0479 -18.0028 -18.0023 -17.8686 -17.4818 -17.4730 -17.4039
   -17.3708 -17.3318 -17.0133 -16.8130 -16.1557  -6.4966  -6.2829  -6.2019
    -6.0950  -6.0871  -5.7709  -5.6901  -5.6770  -5.6591  -5.5015  -5.1817
    -5.0452  -4.9644  -4.1852  -4.1199  -3.9018  -3.8873  -3.8163  -3.5997
    -3.5926  -3.5282  -3.4272  -3.2394  -3.2139  -2.9010  -2.8600  -2.8097
    -2.6798  -2.4154  -2.3168  -2.1998  -2.1663  -1.9322  -1.9124  -1.7984
    -1.7614  -1.7242  -1.5854  -1.2693  -0.5131  -0.2318  -0.2041   0.0027
     0.0967   0.1672   0.4531   0.4690   0.5980   0.6237   0.7595   1.2068
     1.7494   1.9160   2.1063   2.1218   2.3523   2.3671   2.4624   2.5905
     3.0685   3.1910   3.2878   4.0753   4.2177   5.7228   5.7975   5.8331

          k =-0.5000-0.1223 0.0000 ( 40858 PWs)   bands (ev):

   -73.4782 -72.7645 -72.5251 -72.3628 -72.3402 -72.0540 -44.0319 -43.4678
   -43.0630 -42.9431 -42.8414 -42.6895 -42.6227 -42.6089 -42.6060 -42.5683
   -42.3992 -42.3748 -42.3719 -42.2677 -42.2156 -42.1417 -42.1385 -41.8897
   -18.0100 -17.9736 -17.9579 -17.9112 -17.8646 -17.5538 -17.4832 -17.4704
   -17.4295 -17.4027 -17.0123 -16.8101 -16.1562  -6.2895  -6.2405  -6.1189
    -6.1129  -6.0029  -5.7604  -5.6657  -5.6401  -5.6190  -5.4235  -5.1817
    -5.0931  -4.8419  -4.5879  -4.4112  -4.1151  -3.8730  -3.8331  -3.8000
    -3.7619  -3.6470  -3.6378  -3.6098  -3.0126  -2.9527  -2.8260  -2.6287
    -2.6083  -2.5277  -2.5020  -2.2781  -2.1888  -2.1386  -1.8394  -1.6613
    -1.6290  -1.5001  -1.3100  -1.0906  -0.2100  -0.0392   0.0314   0.0750
     0.2032   0.4463   0.4898   0.5626   0.5880   0.6246   0.7452   1.1750
     1.8370   1.8451   2.0087   2.0146   2.1842   2.2018   2.4072   2.9969
     3.2517   3.4532   3.5786   4.0485   4.2157   5.3382   5.5997   5.6429

          k =-0.3750 0.0000 0.0000 ( 40852 PWs)   bands (ev):

   -73.4797 -72.7661 -72.5266 -72.3643 -72.3417 -72.0555 -44.0336 -43.4422
   -43.0676 -42.9162 -42.8430 -42.6907 -42.6260 -42.6087 -42.6078 -42.5445
   -42.3846 -42.3698 -42.3462 -42.2703 -42.2186 -42.1431 -42.1163 -41.8943
   -18.1283 -18.0098 -17.8806 -17.8463 -17.7485 -17.6445 -17.6034 -17.5308
   -17.4672 -17.4096 -17.0802 -16.8344 -16.1932  -6.3554  -6.1757  -6.0568
    -6.0319  -5.9100  -5.8597  -5.6541  -5.6318  -5.5085  -5.4083  -5.2088
    -5.0678  -4.8277  -4.7925  -4.5803  -4.4200  -4.3700  -4.2115  -3.9688
    -3.6545  -3.5050  -3.4116  -3.3821  -3.3394  -3.1628  -3.1003  -2.8153
    -2.6774  -2.6076  -2.4469  -2.2826  -2.2170  -2.0366  -1.9608  -1.5152
    -1.3875  -1.3817  -1.2420  -0.9731  -0.1560   0.0135   0.2697   0.4726
     0.5757   0.6610   0.7657   0.7736   0.8635   1.0271   1.1724   1.2109
     1.3786   1.5237   1.6544   1.7784   1.9681   2.1497   2.3703   3.4260
     3.8052   4.0650   4.2753   4.3835   4.4831   4.5447   4.7827   4.9405

          k =-0.3750 0.1223 0.0000 ( 40842 PWs)   bands (ev):

   -73.4797 -72.7661 -72.5266 -72.3643 -72.3417 -72.0555 -44.0336 -43.4427
   -43.0676 -42.9157 -42.8429 -42.6912 -42.6260 -42.6103 -42.6076 -42.5446
   -42.3842 -42.3684 -42.3467 -42.2703 -42.2186 -42.1429 -42.1155 -41.8943
   -18.1082 -18.0096 -17.9394 -17.8826 -17.8180 -17.6406 -17.5361 -17.4817
   -17.4603 -17.3972 -17.0794 -16.8382 -16.1934  -6.2292  -6.1315  -6.1013
    -6.0496  -5.9647  -5.7709  -5.6601  -5.6042  -5.5285  -5.4766  -5.3598
    -5.0494  -4.7772  -4.7073  -4.5415  -4.4614  -4.2870  -4.0446  -3.8586
    -3.6444  -3.5667  -3.3530  -3.3064  -3.2349  -3.1472  -3.0477  -2.8788
    -2.7381  -2.6114  -2.5134  -2.2917  -2.1846  -2.0655  -1.9386  -1.6223
    -1.5486  -1.4116  -1.2644  -1.1261  -0.1297  -0.0824   0.2037   0.2277
     0.5369   0.6008   0.6300   0.7566   0.8080   0.9247   0.9512   1.2235
     1.6739   1.7444   1.8282   1.8789   2.0372   2.0515   2.4806   3.1695
     3.4857   3.6526   3.7507   4.1060   4.2927   5.1390   5.4583   5.5735

          k =-0.3750-0.2445 0.0000 ( 40856 PWs)   bands (ev):

   -73.4797 -72.7661 -72.5266 -72.3643 -72.3417 -72.0555 -44.0336 -43.4432
   -43.0677 -42.9151 -42.8427 -42.6917 -42.6260 -42.6117 -42.6076 -42.5447
   -42.3839 -42.3670 -42.3472 -42.2703 -42.2186 -42.1428 -42.1148 -41.8944
   -18.0603 -18.0360 -17.9981 -17.9070 -17.8583 -17.6471 -17.4855 -17.4701
   -17.4302 -17.3857 -17.0784 -16.8422 -16.1936  -6.2648  -6.0843  -5.9286
    -5.9271  -5.8579  -5.8236  -5.7625  -5.6944  -5.6853  -5.5609  -5.4191
    -4.9405  -4.7977  -4.5531  -4.5043  -4.2912  -4.2006  -4.0716  -3.7396
    -3.5450  -3.4339  -3.4228  -3.2886  -3.2783  -3.1584  -3.1282  -2.9776
    -2.7793  -2.7366  -2.3615  -2.2274  -2.1460  -2.0366  -1.9018  -1.8534
    -1.5823  -1.4376  -1.2816  -1.2540  -0.3249  -0.2663  -0.1012   0.3185
     0.4272   0.5921   0.6719   0.7698   0.8163   0.8762   1.0099   1.2050
     1.5723   1.7977   1.9674   1.9919   2.1131   2.2075   2.5786   2.7527
     3.2157   3.3192   3.5191   4.1306   4.2950   5.5210   5.6025   5.8226

          k =-0.3750-0.1223 0.0000 ( 40842 PWs)   bands (ev):

   -73.4797 -72.7661 -72.5266 -72.3643 -72.3417 -72.0555 -44.0336 -43.4427
   -43.0676 -42.9157 -42.8429 -42.6912 -42.6260 -42.6103 -42.6076 -42.5446
   -42.3842 -42.3684 -42.3467 -42.2703 -42.2186 -42.1429 -42.1155 -41.8943
   -18.1082 -18.0096 -17.9394 -17.8826 -17.8180 -17.6406 -17.5361 -17.4817
   -17.4603 -17.3972 -17.0794 -16.8382 -16.1934  -6.2292  -6.1315  -6.1013
    -6.0496  -5.9647  -5.7709  -5.6601  -5.6042  -5.5285  -5.4766  -5.3598
    -5.0494  -4.7772  -4.7073  -4.5415  -4.4614  -4.2870  -4.0446  -3.8586
    -3.6444  -3.5667  -3.3530  -3.3064  -3.2349  -3.1472  -3.0477  -2.8788
    -2.7381  -2.6114  -2.5134  -2.2917  -2.1846  -2.0655  -1.9386  -1.6223
    -1.5486  -1.4116  -1.2644  -1.1261  -0.1297  -0.0824   0.2037   0.2277
     0.5369   0.6008   0.6300   0.7566   0.8080   0.9247   0.9512   1.2235
     1.6739   1.7444   1.8282   1.8789   2.0372   2.0515   2.4806   3.1695
     3.4857   3.6526   3.7507   4.1060   4.2927   5.1390   5.4583   5.5735

          k =-0.2500 0.0000 0.0000 ( 40947 PWs)   bands (ev):

   -73.4832 -72.7700 -72.5303 -72.3680 -72.3454 -72.0593 -44.0378 -43.3815
   -43.0802 -42.8487 -42.8452 -42.6956 -42.6370 -42.6142 -42.6112 -42.4842
   -42.3916 -42.3096 -42.2919 -42.2694 -42.2259 -42.1531 -42.0517 -41.9051
   -18.4779 -18.3036 -18.1172 -17.9859 -17.7886 -17.5760 -17.4659 -17.4281
   -17.4265 -17.3479 -17.0673 -16.8687 -16.2210  -6.7991  -6.6212  -6.5853
    -6.2650  -6.0075  -5.9853  -5.8637  -5.8139  -5.4745  -5.4521  -5.0564
    -4.9879  -4.6499  -4.5342  -4.5258  -4.3416  -4.1439  -4.0312  -3.9889
    -3.7561  -3.6779  -3.3454  -3.2022  -3.1196  -3.0203  -2.8583  -2.8007
    -2.6954  -2.4822  -2.4008  -2.2361  -2.2109  -2.1133  -2.0538  -1.6110
    -1.4609  -1.2574  -1.1980  -0.9689  -0.1786  -0.1620   0.1696   0.4462
     0.5171   0.5848   0.7989   0.9724   1.0642   1.1610   1.2067   1.3343
     1.3595   1.4598   1.4955   1.6086   1.8518   2.1807   2.4954   3.9586
     4.1781   4.2390   4.4122   4.6677   4.7416   4.8063   4.8795   4.9630

          k =-0.2500 0.1223 0.0000 ( 40905 PWs)   bands (ev):

   -73.4832 -72.7700 -72.5303 -72.3679 -72.3454 -72.0593 -44.0378 -43.3818
   -43.0788 -42.8487 -42.8462 -42.6955 -42.6370 -42.6141 -42.6112 -42.4842
   -42.3916 -42.3085 -42.2924 -42.2697 -42.2259 -42.1537 -42.0513 -41.9056
   -18.3912 -18.2089 -18.0256 -18.0191 -17.7802 -17.6504 -17.5492 -17.5051
   -17.4653 -17.3981 -17.0585 -16.8748 -16.2205  -6.4856  -6.3381  -6.2672
    -6.2279  -5.9951  -5.8773  -5.8325  -5.6511  -5.5747  -5.3686  -5.1159
    -4.8065  -4.7452  -4.6656  -4.5112  -4.4556  -4.3628  -4.2371  -4.1468
    -4.0018  -3.5740  -3.5143  -3.3612  -3.2070  -3.1852  -3.0206  -2.9279
    -2.7826  -2.6628  -2.4423  -2.2630  -2.1713  -2.1283  -1.9339  -1.6044
    -1.4308  -1.2548  -1.1684  -1.0261  -0.2147   0.1010   0.4102   0.4640
     0.5803   0.8331   0.8942   0.9674   1.0559   1.1330   1.2060   1.2594
     1.3641   1.5264   1.5946   1.6544   1.7863   2.0602   2.6120   3.7118
     4.0391   4.1433   4.2393   4.3804   4.6719   4.7836   5.2096   5.3557

          k =-0.2500-0.2445 0.0000 ( 40892 PWs)   bands (ev):

   -73.4832 -72.7700 -72.5303 -72.3679 -72.3454 -72.0593 -44.0378 -43.3822
   -43.0775 -42.8483 -42.8475 -42.6953 -42.6370 -42.6141 -42.6111 -42.4843
   -42.3915 -42.3073 -42.2929 -42.2701 -42.2259 -42.1542 -42.0509 -41.9061
   -18.2182 -18.1658 -17.9790 -17.9285 -17.7738 -17.7555 -17.7005 -17.6281
   -17.5215 -17.3961 -17.0497 -16.8819 -16.2200  -6.2867  -6.0388  -5.9677
    -5.8533  -5.7961  -5.7929  -5.6718  -5.5679  -5.3275  -5.3097  -5.2302
    -5.0070  -4.9983  -4.9627  -4.7865  -4.5946  -4.4931  -4.2544  -4.0507
    -3.8388  -3.7544  -3.6367  -3.6037  -3.5501  -3.5130  -3.2904  -3.2736
    -2.9365  -2.7890  -2.3834  -2.2476  -1.9490  -1.8775  -1.6752  -1.6153
    -1.3413  -1.3049  -1.1460  -1.1172  -0.0020   0.0285   0.2659   0.5719
     0.5949   0.8585   1.0127   1.0801   1.1200   1.1496   1.2727   1.3792
     1.3986   1.6005   1.6506   1.7779   1.8141   1.9132   2.7041   3.3059
     3.7531   3.8358   4.0942   4.3736   4.6856   5.0767   5.3149   5.5944

          k =-0.2500-0.1223 0.0000 ( 40905 PWs)   bands (ev):

   -73.4832 -72.7700 -72.5303 -72.3679 -72.3454 -72.0593 -44.0378 -43.3818
   -43.0788 -42.8487 -42.8462 -42.6955 -42.6370 -42.6141 -42.6112 -42.4842
   -42.3916 -42.3085 -42.2924 -42.2697 -42.2259 -42.1537 -42.0513 -41.9056
   -18.3912 -18.2089 -18.0256 -18.0191 -17.7802 -17.6504 -17.5492 -17.5051
   -17.4653 -17.3981 -17.0585 -16.8748 -16.2205  -6.4856  -6.3381  -6.2672
    -6.2279  -5.9951  -5.8773  -5.8325  -5.6511  -5.5747  -5.3686  -5.1159
    -4.8065  -4.7452  -4.6656  -4.5112  -4.4556  -4.3628  -4.2371  -4.1468
    -4.0018  -3.5740  -3.5143  -3.3612  -3.2070  -3.1852  -3.0206  -2.9279
    -2.7826  -2.6628  -2.4423  -2.2630  -2.1713  -2.1283  -1.9339  -1.6044
    -1.4308  -1.2548  -1.1684  -1.0261  -0.2147   0.1010   0.4102   0.4640
     0.5803   0.8331   0.8942   0.9674   1.0559   1.1330   1.2060   1.2594
     1.3641   1.5264   1.5946   1.6544   1.7863   2.0602   2.6120   3.7118
     4.0391   4.1433   4.2393   4.3804   4.6719   4.7836   5.2096   5.3557

          k =-0.1250 0.0000 0.0000 ( 40851 PWs)   bands (ev):

   -73.4868 -72.7738 -72.5339 -72.3716 -72.3490 -72.0630 -44.0419 -43.3202
   -43.0926 -42.8476 -42.7802 -42.7005 -42.6485 -42.6197 -42.6155 -42.4222
   -42.4015 -42.2893 -42.2455 -42.2332 -42.2167 -42.1631 -41.9862 -41.9158
   -18.8043 -18.5924 -18.3862 -18.1586 -17.9160 -17.7705 -17.4107 -17.2829
   -17.2464 -17.1585 -16.9451 -16.8298 -16.1691  -7.2700  -7.0687  -7.0549
    -6.4609  -6.4412  -6.0650  -5.8127  -5.7686  -5.6350  -5.5868  -5.4703
    -5.2247  -5.0395  -4.9807  -4.4344  -4.0927  -4.0363  -3.4443  -3.2792
    -3.2522  -3.1580  -3.0784  -3.0623  -2.9067  -2.7526  -2.7186  -2.5860
    -2.4854  -2.3347  -2.1808  -2.1505  -2.0809  -2.0473  -1.8711  -1.7211
    -1.5757  -1.0965  -1.0674  -0.6735  -0.4504  -0.2539   0.0186   0.0576
     0.1438   0.3327   0.4556   0.5187   0.6793   0.7005   1.1498   1.1956
     1.3350   1.4420   1.6282   1.8725   2.1438   2.3632   2.5629   3.7120
     4.3452   4.7666   4.7861   4.9070   5.0596   5.3667   5.4011   5.4575

          k =-0.1250 0.1223 0.0000 ( 40932 PWs)   bands (ev):

   -73.4868 -72.7738 -72.5339 -72.3716 -72.3491 -72.0630 -44.0419 -43.3203
   -43.0901 -42.8500 -42.7802 -42.6998 -42.6485 -42.6184 -42.6155 -42.4222
   -42.4014 -42.2893 -42.2448 -42.2332 -42.2175 -42.1644 -41.9861 -41.9168
   -18.6904 -18.4675 -18.2674 -18.2032 -17.9191 -17.8057 -17.4438 -17.3947
   -17.3508 -17.3276 -16.9256 -16.8417 -16.1668  -6.8669  -6.6531  -6.6144
    -6.4647  -6.4191  -5.9700  -5.7799  -5.6989  -5.6546  -5.5336  -5.2699
    -5.2147  -5.0408  -4.8566  -4.4708  -4.2178  -4.0251  -4.0038  -3.7005
    -3.4695  -3.4475  -3.3623  -3.3267  -3.1922  -3.1347  -3.0673  -2.8282
    -2.6341  -2.5274  -2.3323  -2.2088  -2.0748  -2.0028  -1.7537  -1.5646
    -1.4293  -1.0749  -0.9913  -0.7913  -0.0655   0.1688   0.1891   0.2648
     0.3767   0.4374   0.6639   0.7439   0.7944   0.8812   1.1420   1.2202
     1.3594   1.4663   1.6682   1.7102   1.9214   2.3130   2.5821   4.0283
     4.4135   4.7482   4.8405   4.8765   5.0068   5.2009   5.2643   5.3840

          k =-0.1250-0.2445 0.0000 ( 40974 PWs)   bands (ev):

   -73.4868 -72.7738 -72.5339 -72.3715 -72.3491 -72.0630 -44.0419 -43.3204
   -43.0877 -42.8525 -42.7801 -42.6990 -42.6485 -42.6172 -42.6154 -42.4222
   -42.4014 -42.2893 -42.2440 -42.2333 -42.2184 -42.1658 -41.9861 -41.9178
   -18.4562 -18.4045 -18.2374 -18.0420 -17.9830 -17.8911 -17.5673 -17.5484
   -17.4907 -17.3858 -16.8906 -16.8727 -16.1649  -6.4971  -6.4725  -6.1516
    -5.9532  -5.8454  -5.7673  -5.7617  -5.6922  -5.6575  -5.6378  -5.2610
    -5.0662  -4.8947  -4.7870  -4.6553  -4.4830  -4.3290  -4.1726  -4.1411
    -4.1073  -4.0072  -3.8737  -3.7937  -3.4863  -3.3735  -3.2805  -2.8640
    -2.7308  -2.6296  -2.3134  -2.2394  -1.9435  -1.7730  -1.5594  -1.4102
    -1.1614  -1.0993  -1.0091  -0.9920   0.1851   0.1983   0.2926   0.3942
     0.5303   0.5810   0.7873   1.1033   1.1231   1.1381   1.2068   1.2530
     1.4030   1.4247   1.5302   1.6490   1.9202   1.9962   2.7290   4.0898
     4.4396   4.5537   4.7218   4.8565   5.0815   5.1179   5.3034   5.4413

          k =-0.1250-0.1223 0.0000 ( 40932 PWs)   bands (ev):

   -73.4868 -72.7738 -72.5339 -72.3716 -72.3491 -72.0630 -44.0419 -43.3203
   -43.0901 -42.8500 -42.7802 -42.6998 -42.6485 -42.6184 -42.6155 -42.4222
   -42.4014 -42.2893 -42.2448 -42.2332 -42.2175 -42.1644 -41.9861 -41.9168
   -18.6904 -18.4675 -18.2674 -18.2032 -17.9191 -17.8057 -17.4438 -17.3947
   -17.3508 -17.3276 -16.9256 -16.8417 -16.1668  -6.8669  -6.6531  -6.6144
    -6.4647  -6.4191  -5.9700  -5.7799  -5.6989  -5.6546  -5.5336  -5.2699
    -5.2147  -5.0408  -4.8566  -4.4708  -4.2178  -4.0251  -4.0038  -3.7005
    -3.4695  -3.4475  -3.3623  -3.3267  -3.1922  -3.1347  -3.0673  -2.8282
    -2.6341  -2.5274  -2.3323  -2.2088  -2.0748  -2.0028  -1.7537  -1.5646
    -1.4293  -1.0749  -0.9913  -0.7913  -0.0655   0.1688   0.1891   0.2648
     0.3767   0.4374   0.6639   0.7439   0.7944   0.8812   1.1420   1.2202
     1.3594   1.4663   1.6682   1.7102   1.9214   2.3130   2.5821   4.0283
     4.4135   4.7482   4.8405   4.8765   5.0068   5.2009   5.2643   5.3840

     the Fermi energy is     1.1952 ev

!    total energy              =   -1672.25490048 Ry
     estimated scf accuracy    <          7.5E-09 Ry
     smearing contrib. (-TS)   =      -0.00197840 Ry
     internal energy E=F+TS    =   -1672.25292208 Ry

     The total energy is F=E-TS. E is the sum of the following terms:
     one-electron contribution =  -16965.77680968 Ry
     hartree contribution      =    8504.89530645 Ry
     xc contribution           =    -214.04758676 Ry
     ewald contribution        =    7126.46211764 Ry
     one-center paw contrib.   =    -123.78594973 Ry

     convergence has been achieved in   9 iterations

     negative rho (up, down):  1.097E-04 0.000E+00

     Forces acting on atoms (cartesian axes, Ry/au):

     atom    1 type  1   force =     0.00000000    0.00003991    0.06973550
     atom    2 type  1   force =    -0.00000000    0.00061435   -0.09091319
     atom    3 type  1   force =    -0.00000001    0.00024751   -0.00052514
     atom    4 type  1   force =     0.00000003    0.00019023    0.00093878
     atom    5 type  1   force =     0.00000001   -0.00068375   -0.00064050
     atom    6 type  1   force =    -0.00000000   -0.00150915    0.00033741
     atom    7 type  2   force =     0.00000001   -0.00062326    0.01728337
     atom    8 type  2   force =     0.00000000   -0.00017706    0.06209524
     atom    9 type  2   force =     0.00000000    0.02382091   -0.02459111
     atom   10 type  2   force =    -0.00000000   -0.02411591   -0.02464521
     atom   11 type  2   force =    -0.00000003    0.00046111    0.00130735
     atom   12 type  2   force =    -0.00000000    0.00081345   -0.01111394
     atom   13 type  2   force =    -0.00000004   -0.00009170   -0.00004447
     atom   14 type  2   force =     0.00000002    0.00034304   -0.00004737
     atom   15 type  2   force =     0.00000003    0.00046005    0.00107351
     atom   16 type  2   force =     0.00000000    0.00069236   -0.00070365
     atom   17 type  2   force =    -0.00000002   -0.00044226   -0.00010490
     atom   18 type  2   force =    -0.00000002    0.00029825   -0.00000217
     atom   19 type  2   force =     0.00000002   -0.00033809    0.00056046

     Total force =     0.003105     Total SCF correction =     0.000496
     SCF correction compared to forces is large: reduce conv_thr to get better values
     Energy error            =      2.5E-05 Ry
     Gradient error          =      1.5E-03 Ry/Bohr

     bfgs converged in  21 scf cycles and  20 bfgs steps
     (criteria: energy <  1.0E-04 Ry, force <  2.0E-03 Ry/Bohr)

     End of BFGS Geometry Optimization

     Final energy             =   -1672.2549004773 Ry

     File ./tmp_s0_O__1x1_off/s0_O__1x1_off.bfgs deleted, as requested
Begin final coordinates

ATOMIC_POSITIONS (angstrom)
Ru               0.0000000000        1.5881618300        9.5289709800    0   0   0
Ru               1.5535000000        4.7644854900        9.5289709800    0   0   0
Ru               0.0000000530        4.7672880965       12.7188126572
Ru               1.5534999969        1.5895350357       12.7051274267
Ru               0.0000000468        1.6373690762       16.0558299671
Ru               1.5534999791        4.8156658664       15.9428061937
O                0.0000000000        4.7644854900       10.7677372100    0   0   0
O                0.0000000000        4.7644854900        8.2902047600    0   0   0
O                1.5535000000        0.3493956000        9.5289709800    0   0   0
O                1.5535000000        2.8269280600        9.5289709800    0   0   0
O                0.0000000357        1.5946014945       13.9768663172
O                0.0000000000        1.5881618300       11.4665284200    0   0   0
O                1.5535000979        3.5332760538       12.7100281275
O                1.5534999989        6.0012375258       12.7011271813
O               -0.0000000620        4.7876898264       17.0451959473
O                0.0000000040        4.7957431070       14.6464262859
O                1.5535000361        0.4153115359       15.8764660929
O                1.5535000306        2.8509233286       15.8462737118
O               -0.0000001794        1.6568676242       17.7533644157
End final coordinates



     Writing all to output data dir ./tmp_s0_O__1x1_off/s0_O__1x1_off.save/ :
     XML data file, charge density, pseudopotentials, collected wavefunctions

     init_run     :     45.54s CPU     47.29s WALL (       1 calls)
     electrons    :  23979.43s CPU  24539.15s WALL (      21 calls)
     update_pot   :     36.70s CPU     39.58s WALL (      20 calls)
     forces       :    286.17s CPU    296.33s WALL (      21 calls)

     Called by init_run:
     wfcinit      :     38.38s CPU     39.52s WALL (       1 calls)
     potinit      :      2.87s CPU      3.19s WALL (       1 calls)
     hinit0       :      2.42s CPU      2.55s WALL (       1 calls)

     Called by electrons:
     c_bands      :  18807.32s CPU  19260.21s WALL (     237 calls)
     sum_band     :   3692.18s CPU   3728.57s WALL (     237 calls)
     v_of_rho     :    279.21s CPU    308.14s WALL (     246 calls)
     newd         :     93.18s CPU    118.19s WALL (     246 calls)
     PAW_pot      :    107.02s CPU    107.11s WALL (     266 calls)
     mix_rho      :   1012.35s CPU   1032.88s WALL (     237 calls)

     Called by c_bands:
     init_us_2    :    338.08s CPU    339.34s WALL (    4128 calls)
     cegterg      :  17627.27s CPU  18078.32s WALL (    1896 calls)

     Called by *egterg:
     cdiaghg      :     90.62s CPU     90.76s WALL (    5777 calls)
     h_psi        :  13351.85s CPU  13486.76s WALL (    6041 calls)
     s_psi        :    881.38s CPU    881.62s WALL (    6041 calls)
     g_psi        :    127.14s CPU    127.23s WALL (    4137 calls)

     Called by h_psi:
     h_psi:calbec :    938.13s CPU    938.34s WALL (    6041 calls)
     vloc_psi     :  11445.17s CPU  11458.56s WALL (    6041 calls)
                                        0.00s GPU  (    6041 calls)
     add_vuspsi   :    888.98s CPU    889.21s WALL (    6041 calls)

     General routines
     calbec       :   1529.80s CPU   1530.16s WALL (    8769 calls)
     fft          :    131.38s CPU    131.50s WALL (    3419 calls)
     ffts         :    362.89s CPU    363.12s WALL (   25575 calls)
     fftw         :  10824.01s CPU  10832.92s WALL ( 1057470 calls)
     interpolate  :     19.76s CPU     19.81s WALL (     246 calls)

     Parallel routines

     PWSCF        :      6h46m CPU      6h56m WALL


   This run was terminated on:  17:18:19  11Aug2026            

=------------------------------------------------------------------------------=
   JOB DONE.
=------------------------------------------------------------------------------=
