
     Program PWSCF v.7.5 starts on 16Sep2026 at 21:23:24 

     This program is part of the open-source Quantum ESPRESSO suite
     for quantum simulation of materials; please cite
         "P. Giannozzi et al., J. Phys.:Condens. Matter 21 395502 (2009);
         "P. Giannozzi et al., J. Phys.:Condens. Matter 29 465901 (2017);
         "P. Giannozzi et al., J. Chem. Phys. 152 154105 (2020);
          URL http://www.quantum-espresso.org", 
     in publications or presentations arising from this work. More details at
     http://www.quantum-espresso.org/quote

     Parallel version (MPI & OpenMP), running on     128 processor cores
     Number of MPI processes:               128
     Threads/MPI process:                     1

     MPI processes distributed on     1 nodes
     224510 MiB available memory on the printing compute node when the environment starts

     Reading input from /anvil/projects/x-che260157/sts/runs/a0/ru_pp/Ru/slab__u000_gbrv.run.in

     Current dimensions of program PWSCF are:
     Max number of different atomic species (ntypx) = 10
     Max number of k-points (npk) =  40000
     Max angular momentum in pseudopotentials (lmaxx) =  4
     file O.pbe-n-kjpaw_psl.0.1.UPF: wavefunction(s)  2P renormalized

     K-points division:     npool     =       4
     R & G space division:  proc/nbgrp/npool/nimage =      32
     Subspace diagonalization in iterative solution of the eigenvalue problem:
     a serial algorithm will be used


     Parallelization info
     --------------------
     sticks:   dense  smooth     PW     G-vecs:    dense   smooth      PW
     Min         112      56     16                28918    10208    1540
     Max         113      57     17                28934    10234    1560
     Sum        3587    1793    513               925697   327113   49625

     Using Slab Decomposition



     bravais-lattice index     =            0
     lattice parameter (alat)  =       5.8714  a.u.
     unit-cell volume          =    3384.5999 (a.u.)^3
     number of atoms/cell      =           18
     number of atomic types    =            2
     number of electrons       =       168.00
     number of Kohn-Sham states=          101
     kinetic-energy cutoff     =      80.0000  Ry
     charge density cutoff     =     640.0000  Ry
     scf convergence threshold =      1.0E-06
     mixing beta               =       0.3000
     number of iterations used =            8  local-TF  mixing
     Exchange-correlation= SLA  PW   PBX  PBC
                           (   1   4   3   4   0   0   0)

     celldm(1)=   5.871379  celldm(2)=   0.000000  celldm(3)=   0.000000
     celldm(4)=   0.000000  celldm(5)=   0.000000  celldm(6)=   0.000000

     crystal axes: (cart. coord. in units of alat)
               a(1) = (   1.000000   0.000000   0.000000 )  
               a(2) = (   0.000000   2.044624   0.000000 )  
               a(3) = (   0.000000   0.000000   8.178497 )  

     reciprocal axes: (cart. coord. in units 2 pi/alat)
               b(1) = (  1.000000  0.000000  0.000000 )  
               b(2) = (  0.000000  0.489087  0.000000 )  
               b(3) = (  0.000000  0.000000  0.122272 )  


     PseudoPot. # 1 for Ru read from file:
     /anvil/projects/x-che260157/pseudo/ru_pbe_v1.2.uspp.F.UPF
     MD5 check sum: 7158a806dd851261a58e6920c40ebe78
     Pseudo is Ultrasoft + core correction, Zval = 16.0
     Generated by new atomic code, or converted to UPF format
     Using radial grid of  967 points,  6 beta functions with: 
                l(1) =   0
                l(2) =   0
                l(3) =   1
                l(4) =   1
                l(5) =   2
                l(6) =   2
     Q(r) pseudized with  8 coefficients,  rinner =    1.300   1.300   1.300
                                                       1.300   1.300

     PseudoPot. # 2 for O  read from file:
     /anvil/projects/x-che260157/pseudo/O.pbe-n-kjpaw_psl.0.1.UPF
     MD5 check sum: 0234752ac141de4415c5fc33072bef88
     Pseudo is Projector augmented-wave + core cor, Zval =  6.0
     Generated using "atomic" code by A. Dal Corso  v.5.0.99 svn rev. 10869
     Shape of augmentation charge: BESSEL
     Using radial grid of 1095 points,  4 beta functions with: 
                l(1) =   0
                l(2) =   0
                l(3) =   1
                l(4) =   1
     Q(r) pseudized with 0 coefficients 


     atomic species   valence    mass     pseudopotential
     Ru               16.00   101.07000     Ru( 1.00)
     O                 6.00    15.99900     O ( 1.00)

     No symmetry found



   Cartesian axes

     site n.     atom                  positions (alat units)
         1        Ru     tau(   1) = (   0.0000000   0.5111560   3.0669363  )
         2        Ru     tau(   2) = (   0.5000000   1.5334681   3.0669363  )
         3        Ru     tau(   3) = (  -0.0000000   1.5334682   4.1031648  )
         4        Ru     tau(   4) = (   0.4999999   0.5111560   4.0810147  )
         5        Ru     tau(   5) = (  -0.0000001   0.5111559   5.0865401  )
         6        Ru     tau(   6) = (   0.5000000   1.5334681   5.1601732  )
         7        O      tau(   7) = (   0.0000000   1.5334681   3.4656380  )
         8        O      tau(   8) = (   0.0000000   1.5334681   2.6682346  )
         9        O      tau(   9) = (   0.5000000   0.1124543   3.0669363  )
        10        O      tau(  10) = (   0.5000000   0.9098578   3.0669363  )
        11        O      tau(  11) = (  -0.0000002   0.5111559   4.4808233  )
        12        O      tau(  12) = (   0.0000000   0.5111560   3.6905466  )
        13        O      tau(  13) = (   0.5000000   1.1379671   4.0944546  )
        14        O      tau(  14) = (   0.4999999   1.9289692   4.0944546  )
        15        O      tau(  15) = (  -0.0000000   1.5334681   5.5138311  )
        16        O      tau(  16) = (   0.0000001   1.5334681   4.7285026  )
        17        O      tau(  17) = (   0.4999999   0.1221419   5.1394925  )
        18        O      tau(  18) = (   0.4999999   0.9001701   5.1394925  )

     number of k points=    32  Marzari-Vanderbilt smearing, width (Ry)=  0.0100
                       cart. coord. in units 2pi/alat
        k(    1) = (   0.0000000   0.0000000   0.0000000), wk =   0.0625000
        k(    2) = (   0.0000000   0.1222719   0.0000000), wk =   0.0625000
        k(    3) = (   0.0000000  -0.2445437   0.0000000), wk =   0.0625000
        k(    4) = (   0.0000000  -0.1222719   0.0000000), wk =   0.0625000
        k(    5) = (   0.1250000   0.0000000   0.0000000), wk =   0.0625000
        k(    6) = (   0.1250000   0.1222719   0.0000000), wk =   0.0625000
        k(    7) = (   0.1250000  -0.2445437   0.0000000), wk =   0.0625000
        k(    8) = (   0.1250000  -0.1222719   0.0000000), wk =   0.0625000
        k(    9) = (   0.2500000   0.0000000   0.0000000), wk =   0.0625000
        k(   10) = (   0.2500000   0.1222719   0.0000000), wk =   0.0625000
        k(   11) = (   0.2500000  -0.2445437   0.0000000), wk =   0.0625000
        k(   12) = (   0.2500000  -0.1222719   0.0000000), wk =   0.0625000
        k(   13) = (   0.3750000   0.0000000   0.0000000), wk =   0.0625000
        k(   14) = (   0.3750000   0.1222719   0.0000000), wk =   0.0625000
        k(   15) = (   0.3750000  -0.2445437   0.0000000), wk =   0.0625000
        k(   16) = (   0.3750000  -0.1222719   0.0000000), wk =   0.0625000
        k(   17) = (  -0.5000000   0.0000000   0.0000000), wk =   0.0625000
        k(   18) = (  -0.5000000   0.1222719   0.0000000), wk =   0.0625000
        k(   19) = (  -0.5000000  -0.2445437   0.0000000), wk =   0.0625000
        k(   20) = (  -0.5000000  -0.1222719   0.0000000), wk =   0.0625000
        k(   21) = (  -0.3750000   0.0000000   0.0000000), wk =   0.0625000
        k(   22) = (  -0.3750000   0.1222719   0.0000000), wk =   0.0625000
        k(   23) = (  -0.3750000  -0.2445437   0.0000000), wk =   0.0625000
        k(   24) = (  -0.3750000  -0.1222719   0.0000000), wk =   0.0625000
        k(   25) = (  -0.2500000   0.0000000   0.0000000), wk =   0.0625000
        k(   26) = (  -0.2500000   0.1222719   0.0000000), wk =   0.0625000
        k(   27) = (  -0.2500000  -0.2445437   0.0000000), wk =   0.0625000
        k(   28) = (  -0.2500000  -0.1222719   0.0000000), wk =   0.0625000
        k(   29) = (  -0.1250000   0.0000000   0.0000000), wk =   0.0625000
        k(   30) = (  -0.1250000   0.1222719   0.0000000), wk =   0.0625000
        k(   31) = (  -0.1250000  -0.2445437   0.0000000), wk =   0.0625000
        k(   32) = (  -0.1250000  -0.1222719   0.0000000), wk =   0.0625000

     Dense  grid:   925697 G-vectors     FFT dimensions: (  48, 100, 400)

     Smooth grid:   327113 G-vectors     FFT dimensions: (  36,  72, 288)

     Estimated max dynamical RAM per process >      67.36 MB

     Estimated total dynamical RAM >       7.76 GB

     Initial potential from superposition of free atoms

     starting charge     161.9999, renormalised to     168.0000

     negative rho (up, down):  4.586E-01 0.000E+00
     Starting wfcs are  126 randomized atomic wfcs
     Checking if some PAW data can be deallocated... 

     total cpu time spent up to now is        4.3 secs

     per-process dynamical memory:   101.3 Mb

     Self-consistent Calculation

     iteration #  1     ecut=    80.00 Ry     beta= 0.30
     Davidson diagonalization with overlap
     ethr =  1.00E-02,  avg # of iterations =  2.1

     negative rho (up, down):  4.563E-01 0.000E+00

     total cpu time spent up to now is       14.0 secs

     total energy              =   -1665.21972711 Ry
     estimated scf accuracy    <      11.86169834 Ry

     iteration #  2     ecut=    80.00 Ry     beta= 0.30
     Davidson diagonalization with overlap
     ethr =  7.06E-03,  avg # of iterations =  1.0

     negative rho (up, down):  4.563E-01 0.000E+00

     total cpu time spent up to now is       18.0 secs

     total energy              =   -1665.10457304 Ry
     estimated scf accuracy    <       6.64052064 Ry

     iteration #  3     ecut=    80.00 Ry     beta= 0.30
     Davidson diagonalization with overlap
     ethr =  3.95E-03,  avg # of iterations =  1.0

     negative rho (up, down):  4.675E-01 0.000E+00

     total cpu time spent up to now is       24.8 secs

     total energy              =   -1664.78343011 Ry
     estimated scf accuracy    <       2.28670971 Ry

     iteration #  4     ecut=    80.00 Ry     beta= 0.30
     Davidson diagonalization with overlap
     ethr =  1.36E-03,  avg # of iterations =  2.3

     negative rho (up, down):  4.741E-01 0.000E+00

     total cpu time spent up to now is       29.9 secs

     total energy              =   -1664.99673312 Ry
     estimated scf accuracy    <       0.32867639 Ry

     iteration #  5     ecut=    80.00 Ry     beta= 0.30
     Davidson diagonalization with overlap
     ethr =  1.96E-04,  avg # of iterations =  4.4

     negative rho (up, down):  4.853E-01 0.000E+00

     total cpu time spent up to now is       35.0 secs

     total energy              =   -1664.97951555 Ry
     estimated scf accuracy    <       0.15378642 Ry

     iteration #  6     ecut=    80.00 Ry     beta= 0.30
     Davidson diagonalization with overlap
     ethr =  9.15E-05,  avg # of iterations =  2.7

     negative rho (up, down):  4.924E-01 0.000E+00

     total cpu time spent up to now is       40.6 secs

     total energy              =   -1664.97830233 Ry
     estimated scf accuracy    <       0.05938620 Ry

     iteration #  7     ecut=    80.00 Ry     beta= 0.30
     Davidson diagonalization with overlap
     ethr =  3.53E-05,  avg # of iterations =  4.9

     negative rho (up, down):  4.947E-01 0.000E+00

     total cpu time spent up to now is       47.0 secs

     total energy              =   -1664.98187803 Ry
     estimated scf accuracy    <       0.01024184 Ry

     iteration #  8     ecut=    80.00 Ry     beta= 0.30
     Davidson diagonalization with overlap
     c_bands:  1 eigenvalues not converged
     ethr =  6.10E-06,  avg # of iterations =  6.3

     negative rho (up, down):  4.944E-01 0.000E+00

     total cpu time spent up to now is       52.9 secs

     total energy              =   -1664.98244625 Ry
     estimated scf accuracy    <       0.00296056 Ry

     iteration #  9     ecut=    80.00 Ry     beta= 0.30
     Davidson diagonalization with overlap
     ethr =  1.76E-06,  avg # of iterations =  3.8

     negative rho (up, down):  4.935E-01 0.000E+00

     total cpu time spent up to now is       58.4 secs

     total energy              =   -1664.98252175 Ry
     estimated scf accuracy    <       0.00473145 Ry

     iteration # 10     ecut=    80.00 Ry     beta= 0.30
     Davidson diagonalization with overlap
     ethr =  1.76E-06,  avg # of iterations =  2.2

     negative rho (up, down):  4.915E-01 0.000E+00

     total cpu time spent up to now is       63.4 secs

     total energy              =   -1664.98236478 Ry
     estimated scf accuracy    <       0.00153011 Ry

     iteration # 11     ecut=    80.00 Ry     beta= 0.30
     Davidson diagonalization with overlap
     ethr =  9.11E-07,  avg # of iterations =  2.6

     negative rho (up, down):  4.867E-01 0.000E+00

     total cpu time spent up to now is       68.6 secs

     total energy              =   -1664.98216275 Ry
     estimated scf accuracy    <       0.00105368 Ry

     iteration # 12     ecut=    80.00 Ry     beta= 0.30
     Davidson diagonalization with overlap
     ethr =  6.27E-07,  avg # of iterations =  3.7

     negative rho (up, down):  4.768E-01 0.000E+00

     total cpu time spent up to now is       73.2 secs

     total energy              =   -1664.98178272 Ry
     estimated scf accuracy    <       0.00063661 Ry

     iteration # 13     ecut=    80.00 Ry     beta= 0.30
     Davidson diagonalization with overlap
     c_bands:  1 eigenvalues not converged
     c_bands:  1 eigenvalues not converged
     ethr =  3.79E-07,  avg # of iterations =  4.6

     negative rho (up, down):  4.733E-01 0.000E+00

     total cpu time spent up to now is      102.9 secs

     total energy              =   -1664.98165515 Ry
     estimated scf accuracy    <       0.00031617 Ry

     iteration # 14     ecut=    80.00 Ry     beta= 0.30
     Davidson diagonalization with overlap
     c_bands:  1 eigenvalues not converged
     c_bands:  1 eigenvalues not converged
     ethr =  1.88E-07,  avg # of iterations =  3.1

     negative rho (up, down):  4.713E-01 0.000E+00

     total cpu time spent up to now is      108.1 secs

     total energy              =   -1664.98158307 Ry
     estimated scf accuracy    <       0.00022442 Ry

     iteration # 15     ecut=    80.00 Ry     beta= 0.30
     Davidson diagonalization with overlap
     ethr =  1.34E-07,  avg # of iterations =  2.3

     negative rho (up, down):  4.691E-01 0.000E+00

     total cpu time spent up to now is      112.5 secs

     total energy              =   -1664.98151847 Ry
     estimated scf accuracy    <       0.00008513 Ry

     iteration # 16     ecut=    80.00 Ry     beta= 0.30
     Davidson diagonalization with overlap
     ethr =  5.07E-08,  avg # of iterations =  2.8

     negative rho (up, down):  4.676E-01 0.000E+00

     total cpu time spent up to now is      116.7 secs

     total energy              =   -1664.98148940 Ry
     estimated scf accuracy    <       0.00003646 Ry

     iteration # 17     ecut=    80.00 Ry     beta= 0.30
     Davidson diagonalization with overlap
     ethr =  2.17E-08,  avg # of iterations =  1.7

     negative rho (up, down):  4.666E-01 0.000E+00

     total cpu time spent up to now is      120.6 secs

     total energy              =   -1664.98148010 Ry
     estimated scf accuracy    <       0.00001027 Ry

     iteration # 18     ecut=    80.00 Ry     beta= 0.30
     Davidson diagonalization with overlap
     ethr =  6.11E-09,  avg # of iterations =  2.3

     negative rho (up, down):  4.660E-01 0.000E+00

     total cpu time spent up to now is      124.7 secs

     total energy              =   -1664.98147462 Ry
     estimated scf accuracy    <       0.00000756 Ry

     iteration # 19     ecut=    80.00 Ry     beta= 0.30
     Davidson diagonalization with overlap
     ethr =  4.50E-09,  avg # of iterations =  1.8

     negative rho (up, down):  4.654E-01 0.000E+00

     total cpu time spent up to now is      129.9 secs

     total energy              =   -1664.98147303 Ry
     estimated scf accuracy    <       0.00000191 Ry

     iteration # 20     ecut=    80.00 Ry     beta= 0.30
     Davidson diagonalization with overlap
     ethr =  1.14E-09,  avg # of iterations =  1.8

     negative rho (up, down):  4.650E-01 0.000E+00

     total cpu time spent up to now is      134.6 secs

     total energy              =   -1664.98147147 Ry
     estimated scf accuracy    <       0.00000111 Ry

     iteration # 21     ecut=    80.00 Ry     beta= 0.30
     Davidson diagonalization with overlap
     ethr =  6.60E-10,  avg # of iterations =  1.8

     negative rho (up, down):  4.650E-01 0.000E+00

     total cpu time spent up to now is      140.2 secs

     End of self-consistent calculation

          k = 0.0000 0.0000 0.0000 ( 40831 PWs)   bands (ev):

   -72.3918 -72.2626 -72.1966 -72.0726 -71.9635 -71.7185 -42.4101 -42.4062
   -42.3924 -42.3688 -42.3260 -42.2566 -42.2064 -42.1245 -42.1052 -42.0944
   -42.0824 -41.9301 -41.9134 -41.9036 -41.8845 -41.7930 -41.6280 -41.5812
   -18.7939 -18.4254 -18.2626 -18.1347 -17.6296 -17.5097 -17.4742 -16.9479
   -16.8767 -16.7939 -16.5428 -15.8268  -7.0327  -6.9589  -6.9225  -6.8451
    -6.0059  -5.7628  -5.5255  -5.4963  -5.4223  -5.3415  -5.3180  -5.1989
    -4.9676  -4.7280  -3.9338  -3.6490  -3.1095  -3.0988  -3.0340  -2.9604
    -2.7123  -2.7012  -2.5665  -2.5066  -2.2578  -2.2189  -2.1303  -1.9811
    -1.8767  -1.5747  -1.3201  -1.1831  -1.0335  -0.9020  -0.6979  -0.5092
    -0.0831  -0.0786   0.0170   0.0784   0.0916   0.1722   0.2698   0.3273
     0.4611   0.7936   0.8765   1.2812   1.2858   1.4229   1.9369   2.3490
     2.3851   2.6640   2.9218   3.0176   4.1043   4.8721   5.0569   5.4921
     5.7615   5.8671   5.9714   6.0873   6.2860

          k = 0.0000 0.1223 0.0000 ( 40974 PWs)   bands (ev):

   -72.3918 -72.2626 -72.1966 -72.0726 -71.9635 -71.7185 -42.4092 -42.4051
   -42.3924 -42.3672 -42.3259 -42.2566 -42.2064 -42.1245 -42.1052 -42.0944
   -42.0823 -41.9302 -41.9135 -41.9037 -41.8863 -41.7943 -41.6280 -41.5824
   -18.7230 -18.3004 -18.1740 -18.0767 -17.6629 -17.5472 -17.4825 -17.0623
   -17.0098 -16.9685 -16.5407 -15.8239  -6.8821  -6.5826  -6.4954  -6.4584
    -5.9991  -5.7624  -5.4517  -5.3773  -5.3440  -5.3414  -5.2353  -5.1204
    -4.9652  -4.5609  -3.9627  -3.9360  -3.6418  -3.5219  -3.2926  -3.0980
    -3.0505  -2.9177  -2.7699  -2.5755  -2.5062  -2.4147  -2.4053  -2.0544
    -2.0447  -1.8801  -1.6004  -1.3411  -1.3219  -0.9352  -0.8560  -0.6098
     0.0364   0.0847   0.4502   0.5627   0.6111   0.6188   0.6891   0.7216
     0.7677   0.8149   0.9546   1.2716   1.4027   1.4108   1.9914   2.0758
     2.3545   2.6009   2.7615   3.1751   4.3881   5.1118   5.3071   5.4911
     5.6899   5.7902   5.8118   5.8470   6.0325

          k = 0.0000-0.2445 0.0000 ( 41014 PWs)   bands (ev):

   -72.3918 -72.2626 -72.1966 -72.0726 -71.9636 -71.7185 -42.4082 -42.4039
   -42.3923 -42.3656 -42.3259 -42.2565 -42.2064 -42.1244 -42.1051 -42.0944
   -42.0822 -41.9302 -41.9136 -41.9037 -41.8881 -41.7957 -41.6280 -41.5835
   -18.6451 -18.1344 -18.0838 -17.8997 -17.7778 -17.6443 -17.4740 -17.1880
   -17.1767 -17.1357 -16.5403 -15.8217  -6.8773  -6.0372  -5.9088  -5.7892
    -5.7618  -5.6811  -5.3721  -5.3376  -5.3123  -5.2548  -5.1447  -4.9588
    -4.6935  -4.6394  -4.2460  -4.2397  -4.1773  -4.1755  -3.8952  -3.8394
    -3.2310  -3.0622  -2.9793  -2.8582  -2.8160  -2.7493  -2.4664  -2.1225
    -1.8146  -1.7914  -1.4685  -1.4543  -1.3762  -1.0436  -0.8718  -0.7364
     0.0723   0.1215   0.6062   0.7842   0.9394   0.9969   1.0534   1.0816
     1.0827   1.1530   1.1812   1.3017   1.3925   1.4397   1.7917   1.8557
     2.2773   2.3647   2.8346   3.3653   4.5393   5.4130   5.4751   5.4804
     5.5336   5.5620   5.5623   5.7921   5.9995

          k = 0.0000-0.1223 0.0000 ( 40974 PWs)   bands (ev):

   -72.3918 -72.2626 -72.1966 -72.0726 -71.9635 -71.7185 -42.4092 -42.4051
   -42.3924 -42.3672 -42.3259 -42.2566 -42.2064 -42.1245 -42.1052 -42.0944
   -42.0823 -41.9302 -41.9135 -41.9037 -41.8863 -41.7943 -41.6280 -41.5824
   -18.7230 -18.3004 -18.1740 -18.0767 -17.6629 -17.5472 -17.4825 -17.0623
   -17.0098 -16.9685 -16.5407 -15.8239  -6.8821  -6.5826  -6.4954  -6.4584
    -5.9991  -5.7624  -5.4517  -5.3773  -5.3440  -5.3414  -5.2353  -5.1204
    -4.9652  -4.5609  -3.9627  -3.9360  -3.6418  -3.5219  -3.2926  -3.0980
    -3.0505  -2.9177  -2.7699  -2.5755  -2.5062  -2.4147  -2.4053  -2.0544
    -2.0447  -1.8801  -1.6004  -1.3411  -1.3219  -0.9352  -0.8560  -0.6098
     0.0364   0.0847   0.4502   0.5627   0.6111   0.6188   0.6891   0.7216
     0.7677   0.8149   0.9546   1.2716   1.4027   1.4108   1.9914   2.0758
     2.3545   2.6009   2.7615   3.1751   4.3881   5.1118   5.3071   5.4911
     5.6899   5.7902   5.8118   5.8490   6.0324

          k = 0.1250 0.0000 0.0000 ( 40851 PWs)   bands (ev):

   -72.3902 -72.2611 -72.1950 -72.0710 -71.9620 -71.7169 -42.4207 -42.4081
   -42.4040 -42.3665 -42.3235 -42.2524 -42.2041 -42.1504 -42.1103 -42.1010
   -42.0898 -41.9406 -41.9318 -41.9284 -41.8803 -41.7886 -41.6554 -41.5768
   -18.6643 -18.3082 -18.1569 -18.0328 -17.5765 -17.5398 -17.3933 -17.0271
   -16.9520 -16.8733 -16.6179 -15.8700  -6.8549  -6.7853  -6.7449  -6.6415
    -5.9945  -5.7883  -5.5478  -5.5156  -5.4102  -5.3130  -5.1984  -4.8454
    -4.6956  -4.4749  -3.9356  -3.6956  -3.4972  -3.1416  -3.0626  -2.9478
    -2.9155  -2.8140  -2.6773  -2.5248  -2.5155  -2.4364  -2.2771  -2.0852
    -1.8420  -1.8095  -1.7752  -1.6137  -1.5744  -1.0526  -0.8007  -0.5815
    -0.0318   0.0096   0.2361   0.2960   0.3990   0.5331   0.5804   0.6277
     0.8573   0.8703   1.0898   1.2270   1.4685   1.6925   1.7770   2.2022
     2.5186   2.5646   2.8664   2.9413   4.2268   4.8638   5.0541   5.2573
     5.3615   5.5707   5.6562   5.7727   6.0019

          k = 0.1250 0.1223 0.0000 ( 40932 PWs)   bands (ev):

   -72.3902 -72.2611 -72.1950 -72.0711 -71.9620 -71.7169 -42.4207 -42.4074
   -42.4032 -42.3653 -42.3234 -42.2524 -42.2041 -42.1503 -42.1103 -42.1010
   -42.0898 -41.9405 -41.9317 -41.9284 -41.8818 -41.7897 -41.6554 -41.5777
   -18.5996 -18.1887 -18.0756 -17.9694 -17.5789 -17.5668 -17.4425 -17.1272
   -17.0718 -17.0378 -16.6160 -15.8677  -6.6956  -6.4148  -6.3333  -6.3054
    -5.9886  -5.7922  -5.4531  -5.4134  -5.4078  -5.2614  -5.0045  -4.8273
    -4.6969  -4.4324  -3.9792  -3.7732  -3.6985  -3.5366  -3.4586  -3.2753
    -3.1536  -3.0423  -2.9306  -2.8825  -2.7872  -2.6900  -2.4880  -2.3260
    -2.0014  -1.8432  -1.7184  -1.6653  -1.3912  -0.9289  -0.8306  -0.7093
     0.0378   0.1740   0.4430   0.5304   0.6161   0.7195   0.8920   0.9434
     0.9890   1.1366   1.2316   1.3784   1.4800   1.6849   1.8678   1.9647
     2.2644   2.5921   2.7615   3.1431   4.4592   4.9388   5.1009   5.2110
     5.2991   5.4457   5.5621   5.5864   5.6711

          k = 0.1250-0.2445 0.0000 ( 40974 PWs)   bands (ev):

   -72.3902 -72.2611 -72.1950 -72.0711 -71.9620 -71.7169 -42.4207 -42.4066
   -42.4023 -42.3641 -42.3234 -42.2523 -42.2041 -42.1503 -42.1102 -42.1010
   -42.0899 -41.9404 -41.9316 -41.9284 -41.8833 -41.7908 -41.6553 -41.5786
   -18.5294 -18.0232 -17.9771 -17.8072 -17.6943 -17.5766 -17.5193 -17.2480
   -17.2413 -17.1708 -16.6156 -15.8658  -6.6860  -6.0132  -5.7960  -5.6860
    -5.5958  -5.4694  -5.4649  -5.4210  -5.3837  -5.3243  -4.8584  -4.7114
    -4.5537  -4.5239  -4.3152  -4.0913  -3.8921  -3.8603  -3.8258  -3.8048
    -3.6383  -3.6240  -3.2460  -3.1559  -3.1027  -2.9555  -2.5538  -2.2951
    -1.9784  -1.6442  -1.5613  -1.3556  -1.3548  -1.1163  -0.8268  -0.7507
     0.0442   0.3287   0.5212   0.6588   0.7303   0.7695   1.0657   1.3003
     1.3883   1.3883   1.4569   1.5392   1.5512   1.7101   1.7520   1.8568
     2.1532   2.2356   2.9208   3.2987   4.6025   4.8737   4.9080   5.0186
     5.2080   5.3605   5.5646   5.6952   5.7331

          k = 0.1250-0.1223 0.0000 ( 40932 PWs)   bands (ev):

   -72.3902 -72.2611 -72.1950 -72.0711 -71.9620 -71.7169 -42.4207 -42.4074
   -42.4032 -42.3653 -42.3234 -42.2524 -42.2041 -42.1503 -42.1103 -42.1010
   -42.0898 -41.9405 -41.9317 -41.9284 -41.8818 -41.7897 -41.6554 -41.5777
   -18.5996 -18.1887 -18.0756 -17.9694 -17.5789 -17.5668 -17.4425 -17.1272
   -17.0718 -17.0378 -16.6160 -15.8677  -6.6956  -6.4148  -6.3333  -6.3054
    -5.9886  -5.7922  -5.4531  -5.4134  -5.4078  -5.2614  -5.0045  -4.8273
    -4.6969  -4.4324  -3.9792  -3.7732  -3.6985  -3.5366  -3.4586  -3.2753
    -3.1536  -3.0423  -2.9306  -2.8825  -2.7872  -2.6900  -2.4880  -2.3260
    -2.0014  -1.8432  -1.7184  -1.6653  -1.3912  -0.9289  -0.8306  -0.7093
     0.0378   0.1740   0.4430   0.5304   0.6161   0.7195   0.8920   0.9434
     0.9890   1.1366   1.2316   1.3784   1.4800   1.6849   1.8678   1.9647
     2.2644   2.5921   2.7615   3.1431   4.4592   4.9388   5.1009   5.2110
     5.2991   5.4457   5.5621   5.5864   5.6712

          k = 0.2500 0.0000 0.0000 ( 40947 PWs)   bands (ev):

   -72.3864 -72.2575 -72.1912 -72.0673 -71.9581 -71.7131 -42.4879 -42.4032
   -42.3988 -42.3610 -42.3180 -42.2426 -42.2120 -42.2037 -42.1705 -42.0910
   -42.0801 -42.0055 -41.9986 -41.9249 -41.8703 -41.7778 -41.7212 -41.5659
   -18.3343 -18.0315 -17.9161 -17.7845 -17.7030 -17.3887 -17.2138 -17.1741
   -17.1295 -17.0600 -16.7860 -15.9274  -6.4062  -6.3305  -6.2790  -6.1089
    -5.8089  -5.7389  -5.6130  -5.4455  -5.2584  -5.1297  -4.8729  -4.7611
    -4.3234  -4.2215  -3.9459  -3.9239  -3.8133  -3.7094  -3.5852  -3.3937
    -3.1379  -2.9539  -2.8315  -2.6774  -2.6662  -2.5600  -2.5136  -2.3182
    -2.1320  -2.0310  -1.9894  -1.9725  -1.6311  -1.1001  -0.9704  -0.7626
     0.0970   0.1902   0.3616   0.5572   0.7282   0.9027   1.0742   1.1130
     1.1258   1.3408   1.3937   1.4420   1.4669   1.6315   1.7740   1.9786
     2.1995   2.4556   2.7736   2.9255   4.1950   4.5786   4.7226   4.9230
     5.0719   5.1113   5.1174   5.1939   5.3198

          k = 0.2500 0.1223 0.0000 ( 40905 PWs)   bands (ev):

   -72.3864 -72.2575 -72.1912 -72.0673 -71.9581 -71.7131 -42.4880 -42.4031
   -42.3987 -42.3608 -42.3179 -42.2426 -42.2121 -42.2037 -42.1706 -42.0910
   -42.0801 -42.0049 -41.9981 -41.9249 -41.8710 -41.7784 -41.7208 -41.5664
   -18.2901 -17.9494 -17.8646 -17.7283 -17.6790 -17.4170 -17.3387 -17.2269
   -17.1733 -17.1400 -16.7851 -15.9269  -6.2294  -6.0196  -5.9696  -5.9595
    -5.8014  -5.7341  -5.4582  -5.3077  -5.2662  -5.1118  -4.9072  -4.5941
    -4.3622  -4.3101  -4.1692  -4.1379  -4.0148  -3.8805  -3.7067  -3.6218
    -3.2184  -3.0536  -2.8977  -2.8104  -2.7443  -2.6829  -2.6331  -2.4659
    -2.2348  -1.9692  -1.9100  -1.8537  -1.6260  -1.1206  -0.9728  -0.8171
    -0.0707   0.2995   0.3953   0.6428   0.9270   1.0045   1.1461   1.2229
     1.2547   1.3132   1.4006   1.4945   1.6238   1.6557   1.8547   1.9409
     2.0970   2.2977   2.8985   3.0570   4.2215   4.3576   4.4708   4.5470
     4.8043   4.9072   5.1969   5.6047   5.7664

          k = 0.2500-0.2445 0.0000 ( 40892 PWs)   bands (ev):

   -72.3864 -72.2575 -72.1912 -72.0674 -71.9581 -71.7131 -42.4880 -42.4029
   -42.3987 -42.3607 -42.3179 -42.2425 -42.2121 -42.2038 -42.1707 -42.0910
   -42.0802 -42.0043 -41.9975 -41.9249 -41.8717 -41.7790 -41.7205 -41.5669
   -18.2435 -17.8472 -17.7829 -17.6257 -17.6246 -17.4813 -17.4404 -17.4180
   -17.2759 -17.1378 -16.7847 -15.9264  -6.1866  -5.8263  -5.7352  -5.5116
    -5.5025  -5.4779  -5.3181  -5.1733  -5.1184  -5.0190  -4.8730  -4.7853
    -4.7565  -4.6660  -4.3940  -4.2323  -4.0899  -3.9564  -3.6426  -3.4898
    -3.3975  -3.3762  -3.2799  -3.2128  -3.0639  -3.0175  -2.8683  -2.3684
    -2.0882  -1.7905  -1.6205  -1.5649  -1.5404  -1.2149  -1.0340  -0.8824
     0.1148   0.1635   0.4154   0.6033   0.6125   1.0338   1.2857   1.3681
     1.4086   1.4835   1.5829   1.6635   1.6818   1.7657   1.8294   1.9826
     2.0717   2.1713   2.9974   3.1645   3.9999   4.0494   4.1492   4.2922
     4.8056   4.9074   5.3323   5.9077   5.9259

          k = 0.2500-0.1223 0.0000 ( 40905 PWs)   bands (ev):

   -72.3864 -72.2575 -72.1912 -72.0673 -71.9581 -71.7131 -42.4880 -42.4031
   -42.3987 -42.3608 -42.3179 -42.2426 -42.2121 -42.2037 -42.1706 -42.0910
   -42.0801 -42.0049 -41.9981 -41.9249 -41.8710 -41.7784 -41.7208 -41.5664
   -18.2901 -17.9494 -17.8646 -17.7283 -17.6790 -17.4170 -17.3387 -17.2269
   -17.1733 -17.1400 -16.7851 -15.9269  -6.2294  -6.0196  -5.9696  -5.9595
    -5.8014  -5.7341  -5.4582  -5.3077  -5.2662  -5.1118  -4.9072  -4.5941
    -4.3622  -4.3101  -4.1692  -4.1379  -4.0148  -3.8805  -3.7067  -3.6218
    -3.2184  -3.0536  -2.8977  -2.8104  -2.7443  -2.6829  -2.6331  -2.4659
    -2.2348  -1.9692  -1.9100  -1.8537  -1.6260  -1.1206  -0.9728  -0.8171
    -0.0707   0.2995   0.3953   0.6428   0.9270   1.0045   1.1461   1.2229
     1.2547   1.3132   1.4006   1.4945   1.6238   1.6557   1.8547   1.9409
     2.0970   2.2977   2.8985   3.0570   4.2215   4.3576   4.4708   4.5470
     4.8043   4.9073   5.1970   5.6053   5.7669

          k = 0.3750 0.0000 0.0000 ( 40852 PWs)   bands (ev):

   -72.3825 -72.2539 -72.1874 -72.0636 -71.9543 -71.7094 -42.5542 -42.3983
   -42.3935 -42.3555 -42.3148 -42.2710 -42.2485 -42.2327 -42.1849 -42.0831
   -42.0757 -42.0677 -42.0591 -41.9215 -41.8601 -41.7862 -41.7670 -41.5551
   -18.0224 -17.9148 -17.6809 -17.5890 -17.5264 -17.3942 -17.3543 -17.3014
   -17.2400 -17.0195 -16.8429 -15.9017  -6.0078  -5.8192  -5.7351  -5.6741
    -5.5872  -5.5799  -5.5501  -5.3572  -5.2726  -5.1729  -5.0178  -4.7378
    -4.5148  -4.3975  -4.2899  -4.1061  -4.0447  -3.8516  -3.3678  -3.1938
    -3.1722  -3.0990  -3.0725  -2.9033  -2.6592  -2.6586  -2.4922  -2.2866
    -2.2394  -2.0913  -1.9732  -1.8008  -1.6318  -1.2607  -1.0844  -0.7065
     0.0892   0.5397   0.5893   0.6570   0.7682   0.8436   0.9202   1.0307
     1.1488   1.1638   1.3978   1.4760   1.6224   1.8057   1.8464   1.8693
     2.3199   2.3615   2.5994   2.8127   3.6186   4.5109   4.6237   4.6583
     4.6906   4.7839   4.7992   5.0540   5.2420

          k = 0.3750 0.1223 0.0000 ( 40842 PWs)   bands (ev):

   -72.3825 -72.2539 -72.1874 -72.0636 -71.9543 -71.7094 -42.5543 -42.3988
   -42.3945 -42.3566 -42.3148 -42.2711 -42.2487 -42.2327 -42.1850 -42.0828
   -42.0752 -42.0665 -42.0584 -41.9215 -41.8601 -41.7855 -41.7671 -41.5551
   -18.0168 -17.9024 -17.7095 -17.6434 -17.5646 -17.4123 -17.3671 -17.2338
   -17.1791 -17.0206 -16.8436 -15.9019  -5.9299  -5.8124  -5.7534  -5.6700
    -5.6088  -5.5293  -5.4325  -5.3699  -5.3643  -5.2525  -5.1534  -4.5986
    -4.4076  -4.3527  -4.2340  -4.1667  -3.9977  -3.6388  -3.4825  -3.2973
    -3.1304  -3.0085  -2.9377  -2.7924  -2.7136  -2.5655  -2.4715  -2.4467
    -2.3090  -2.0618  -1.9519  -1.7567  -1.6615  -1.3926  -1.0636  -0.8406
    -0.0485   0.2232   0.4064   0.5843   0.7010   0.7735   0.9101   0.9631
     1.0301   1.1087   1.2156   1.4279   1.7981   1.8973   2.1140   2.1969
     2.2786   2.3006   2.7507   2.9187   3.6117   3.9038   3.9458   4.0651
     4.5468   4.6873   5.5185   5.7674   5.9382

          k = 0.3750-0.2445 0.0000 ( 40856 PWs)   bands (ev):

   -72.3825 -72.2539 -72.1874 -72.0636 -71.9543 -71.7094 -42.5544 -42.3993
   -42.3954 -42.3577 -42.3148 -42.2712 -42.2489 -42.2327 -42.1850 -42.0826
   -42.0748 -42.0653 -42.0577 -41.9216 -41.8602 -41.7848 -41.7671 -41.5551
   -18.0109 -17.8860 -17.7375 -17.6948 -17.5918 -17.4392 -17.3484 -17.1857
   -17.1408 -17.0212 -16.8443 -15.9022  -5.8488  -5.8448  -5.7350  -5.6106
    -5.5410  -5.5318  -5.4645  -5.3994  -5.3738  -5.2992  -5.2690  -4.5895
    -4.4164  -4.2394  -4.1863  -3.9898  -3.8313  -3.4957  -3.4323  -3.3045
    -3.0612  -3.0554  -2.9463  -2.9185  -2.7891  -2.7432  -2.6786  -2.4676
    -2.1074  -2.0773  -1.7996  -1.7379  -1.4777  -1.3403  -1.0808  -1.0517
    -0.2300  -0.0749   0.0750   0.1672   0.6110   0.9038   1.0379   1.0661
     1.0672   1.1347   1.1698   1.3117   1.8685   1.9674   2.0233   2.2757
     2.4193   2.4853   2.8729   3.0211   3.4462   3.5110   3.6372   3.7286
     4.5500   4.7075   5.7739   6.1771   6.1817

          k = 0.3750-0.1223 0.0000 ( 40842 PWs)   bands (ev):

   -72.3825 -72.2539 -72.1874 -72.0636 -71.9543 -71.7094 -42.5543 -42.3988
   -42.3945 -42.3566 -42.3148 -42.2711 -42.2487 -42.2327 -42.1850 -42.0828
   -42.0752 -42.0665 -42.0584 -41.9215 -41.8601 -41.7855 -41.7671 -41.5551
   -18.0168 -17.9024 -17.7095 -17.6434 -17.5646 -17.4123 -17.3671 -17.2338
   -17.1791 -17.0206 -16.8436 -15.9019  -5.9299  -5.8124  -5.7534  -5.6700
    -5.6088  -5.5293  -5.4325  -5.3699  -5.3643  -5.2525  -5.1534  -4.5986
    -4.4076  -4.3527  -4.2340  -4.1667  -3.9977  -3.6388  -3.4825  -3.2973
    -3.1304  -3.0085  -2.9377  -2.7924  -2.7136  -2.5655  -2.4715  -2.4467
    -2.3090  -2.0618  -1.9519  -1.7567  -1.6615  -1.3926  -1.0636  -0.8406
    -0.0485   0.2232   0.4064   0.5843   0.7010   0.7735   0.9101   0.9631
     1.0301   1.1087   1.2156   1.4279   1.7981   1.8973   2.1140   2.1969
     2.2786   2.3006   2.7507   2.9187   3.6117   3.9038   3.9458   4.0651
     4.5468   4.6873   5.5185   5.7674   5.9382

          k =-0.5000 0.0000 0.0000 ( 40876 PWs)   bands (ev):

   -72.3809 -72.2524 -72.1859 -72.0621 -71.9527 -71.7078 -42.5814 -42.3963
   -42.3914 -42.3532 -42.3181 -42.2907 -42.2744 -42.2287 -42.1834 -42.0984
   -42.0955 -42.0747 -42.0622 -41.9202 -41.8559 -41.8130 -41.7625 -41.5505
   -18.0483 -17.7551 -17.5609 -17.4814 -17.4672 -17.4047 -17.4037 -17.3711
   -17.3127 -17.0559 -16.7574 -15.8645  -6.0630  -5.7389  -5.6663  -5.5431
    -5.5300  -5.4097  -5.3138  -5.2923  -5.1734  -5.1635  -4.8641  -4.8110
    -4.7968  -4.7687  -4.4143  -4.3435  -3.4519  -3.4131  -3.3815  -3.3694
    -3.3147  -3.2045  -3.1880  -3.0395  -2.8146  -2.4580  -2.4260  -2.1181
    -2.0996  -2.0165  -1.9383  -1.5766  -1.5538  -1.4006  -1.3581  -0.6768
     0.3106   0.4138   0.4542   0.6113   0.7529   0.7586   0.8599   0.9259
     1.0352   1.0559   1.1965   1.2819   1.6781   1.8024   1.9891   2.1626
     2.3046   2.4972   2.5443   2.7261   3.3861   4.4742   4.5270   4.5652
     4.6830   4.6939   4.7111   4.9897   5.1870

          k =-0.5000 0.1223 0.0000 ( 40858 PWs)   bands (ev):

   -72.3809 -72.2524 -72.1859 -72.0621 -71.9527 -71.7078 -42.5815 -42.3971
   -42.3928 -42.3549 -42.3181 -42.2907 -42.2746 -42.2287 -42.1834 -42.0967
   -42.0941 -42.0745 -42.0621 -41.9202 -41.8556 -41.8121 -41.7624 -41.5504
   -18.0472 -17.7497 -17.7091 -17.6471 -17.6088 -17.4091 -17.3042 -17.1672
   -17.1422 -17.0573 -16.7572 -15.8640  -6.0412  -5.9414  -5.8396  -5.7145
    -5.6771  -5.4510  -5.3459  -5.3016  -5.2589  -5.2005  -4.9539  -4.9398
    -4.4960  -4.1403  -4.1269  -3.6731  -3.6676  -3.5973  -3.4627  -3.3715
    -3.3065  -3.2381  -2.8536  -2.7619  -2.6330  -2.4427  -2.3474  -2.2248
    -2.1971  -2.0259  -1.8177  -1.8166  -1.5795  -1.4107  -1.2656  -0.8916
     0.1161   0.1741   0.3146   0.4614   0.5022   0.6169   0.6753   0.7651
     0.7778   0.8728   1.0576   1.0722   1.9676   2.2408   2.2777   2.3163
     2.3243   2.5152   2.5541   2.8371   3.4304   3.6854   3.7623   3.8950
     4.4801   4.7130   5.7188   5.8698   5.9551

          k =-0.5000-0.2445 0.0000 ( 40872 PWs)   bands (ev):

   -72.3809 -72.2524 -72.1859 -72.0621 -71.9527 -71.7078 -42.5816 -42.3978
   -42.3942 -42.3567 -42.3182 -42.2908 -42.2749 -42.2287 -42.1834 -42.0950
   -42.0927 -42.0744 -42.0620 -41.9202 -41.8554 -41.8112 -41.7622 -41.5503
   -18.0460 -17.7861 -17.7441 -17.7357 -17.6974 -17.4148 -17.2234 -17.0694
   -17.0587 -17.0472 -16.7570 -15.8635  -6.1219  -6.0371  -6.0211  -5.8892
    -5.6858  -5.3810  -5.2594  -5.2573  -5.2538  -5.2534  -5.0844  -4.9490
    -4.5780  -3.9025  -3.6648  -3.6597  -3.5569  -3.3588  -3.2207  -3.2165
    -3.0709  -2.9915  -2.9508  -2.7777  -2.6344  -2.6056  -2.5022  -2.3288
    -2.1396  -1.9765  -1.7489  -1.6229  -1.6165  -1.4819  -1.3092  -0.9554
    -0.3672  -0.1354  -0.1176  -0.0338   0.4827   0.6192   0.7049   0.7604
     0.7949   0.8369   0.8827   1.0724   2.0372   2.1014   2.2713   2.5250
     2.5720   2.6354   2.7009   2.9105   3.3414   3.3721   3.4643   3.5126
     4.4856   4.7321   6.0179   6.2326   6.3271

          k =-0.5000-0.1223 0.0000 ( 40858 PWs)   bands (ev):

   -72.3809 -72.2524 -72.1859 -72.0621 -71.9527 -71.7078 -42.5815 -42.3971
   -42.3928 -42.3549 -42.3181 -42.2907 -42.2746 -42.2287 -42.1834 -42.0967
   -42.0941 -42.0745 -42.0621 -41.9202 -41.8556 -41.8121 -41.7624 -41.5504
   -18.0472 -17.7497 -17.7091 -17.6471 -17.6088 -17.4091 -17.3042 -17.1672
   -17.1422 -17.0573 -16.7572 -15.8640  -6.0412  -5.9414  -5.8396  -5.7145
    -5.6771  -5.4510  -5.3459  -5.3016  -5.2589  -5.2005  -4.9539  -4.9398
    -4.4960  -4.1403  -4.1269  -3.6731  -3.6676  -3.5973  -3.4627  -3.3715
    -3.3065  -3.2381  -2.8536  -2.7619  -2.6330  -2.4427  -2.3474  -2.2248
    -2.1971  -2.0259  -1.8177  -1.8166  -1.5795  -1.4107  -1.2656  -0.8916
     0.1161   0.1741   0.3146   0.4614   0.5022   0.6169   0.6753   0.7651
     0.7778   0.8728   1.0576   1.0722   1.9676   2.2408   2.2777   2.3163
     2.3243   2.5152   2.5541   2.8371   3.4304   3.6854   3.7623   3.8950
     4.4801   4.7130   5.7188   5.8698   5.9551

          k =-0.3750 0.0000 0.0000 ( 40852 PWs)   bands (ev):

   -72.3825 -72.2539 -72.1874 -72.0636 -71.9543 -71.7094 -42.5542 -42.3983
   -42.3935 -42.3555 -42.3148 -42.2710 -42.2485 -42.2327 -42.1849 -42.0831
   -42.0757 -42.0677 -42.0591 -41.9215 -41.8601 -41.7862 -41.7670 -41.5551
   -18.0224 -17.9148 -17.6809 -17.5890 -17.5264 -17.3942 -17.3543 -17.3014
   -17.2400 -17.0195 -16.8429 -15.9017  -6.0078  -5.8192  -5.7351  -5.6741
    -5.5872  -5.5799  -5.5501  -5.3572  -5.2726  -5.1729  -5.0178  -4.7378
    -4.5148  -4.3975  -4.2899  -4.1061  -4.0447  -3.8516  -3.3678  -3.1938
    -3.1722  -3.0990  -3.0725  -2.9033  -2.6592  -2.6586  -2.4922  -2.2866
    -2.2394  -2.0913  -1.9732  -1.8008  -1.6318  -1.2607  -1.0844  -0.7065
     0.0892   0.5397   0.5893   0.6570   0.7682   0.8436   0.9202   1.0307
     1.1488   1.1638   1.3978   1.4760   1.6224   1.8057   1.8464   1.8693
     2.3199   2.3615   2.5994   2.8127   3.6186   4.5109   4.6237   4.6583
     4.6906   4.7839   4.7992   5.0540   5.2420

          k =-0.3750 0.1223 0.0000 ( 40842 PWs)   bands (ev):

   -72.3825 -72.2539 -72.1874 -72.0636 -71.9543 -71.7094 -42.5543 -42.3988
   -42.3945 -42.3566 -42.3148 -42.2711 -42.2487 -42.2327 -42.1850 -42.0828
   -42.0752 -42.0665 -42.0584 -41.9215 -41.8601 -41.7855 -41.7671 -41.5551
   -18.0168 -17.9024 -17.7095 -17.6434 -17.5646 -17.4123 -17.3671 -17.2338
   -17.1791 -17.0206 -16.8436 -15.9019  -5.9299  -5.8124  -5.7534  -5.6700
    -5.6088  -5.5293  -5.4325  -5.3699  -5.3643  -5.2525  -5.1534  -4.5986
    -4.4076  -4.3527  -4.2340  -4.1667  -3.9977  -3.6388  -3.4825  -3.2973
    -3.1304  -3.0085  -2.9377  -2.7924  -2.7136  -2.5655  -2.4715  -2.4467
    -2.3090  -2.0618  -1.9519  -1.7567  -1.6615  -1.3926  -1.0636  -0.8406
    -0.0485   0.2232   0.4064   0.5843   0.7010   0.7735   0.9101   0.9631
     1.0301   1.1087   1.2156   1.4279   1.7981   1.8973   2.1140   2.1969
     2.2786   2.3006   2.7507   2.9187   3.6117   3.9038   3.9458   4.0651
     4.5468   4.6873   5.5185   5.7674   5.9382

          k =-0.3750-0.2445 0.0000 ( 40856 PWs)   bands (ev):

   -72.3825 -72.2539 -72.1874 -72.0636 -71.9543 -71.7094 -42.5544 -42.3993
   -42.3954 -42.3577 -42.3148 -42.2712 -42.2489 -42.2327 -42.1850 -42.0826
   -42.0748 -42.0653 -42.0577 -41.9216 -41.8602 -41.7848 -41.7671 -41.5551
   -18.0109 -17.8860 -17.7375 -17.6948 -17.5918 -17.4392 -17.3484 -17.1857
   -17.1408 -17.0212 -16.8443 -15.9022  -5.8488  -5.8448  -5.7350  -5.6106
    -5.5410  -5.5318  -5.4645  -5.3994  -5.3738  -5.2992  -5.2690  -4.5895
    -4.4164  -4.2394  -4.1863  -3.9898  -3.8313  -3.4957  -3.4323  -3.3045
    -3.0612  -3.0554  -2.9463  -2.9185  -2.7891  -2.7432  -2.6786  -2.4676
    -2.1074  -2.0773  -1.7996  -1.7379  -1.4777  -1.3403  -1.0808  -1.0517
    -0.2300  -0.0749   0.0750   0.1672   0.6110   0.9038   1.0379   1.0661
     1.0672   1.1347   1.1698   1.3117   1.8685   1.9674   2.0233   2.2757
     2.4193   2.4853   2.8729   3.0211   3.4462   3.5110   3.6372   3.7286
     4.5500   4.7075   5.7739   6.1771   6.1817

          k =-0.3750-0.1223 0.0000 ( 40842 PWs)   bands (ev):

   -72.3825 -72.2539 -72.1874 -72.0636 -71.9543 -71.7094 -42.5543 -42.3988
   -42.3945 -42.3566 -42.3148 -42.2711 -42.2487 -42.2327 -42.1850 -42.0828
   -42.0752 -42.0665 -42.0584 -41.9215 -41.8601 -41.7855 -41.7671 -41.5551
   -18.0168 -17.9024 -17.7095 -17.6434 -17.5646 -17.4123 -17.3671 -17.2338
   -17.1791 -17.0206 -16.8436 -15.9019  -5.9299  -5.8124  -5.7534  -5.6700
    -5.6088  -5.5293  -5.4325  -5.3699  -5.3643  -5.2525  -5.1534  -4.5986
    -4.4076  -4.3527  -4.2340  -4.1667  -3.9977  -3.6388  -3.4825  -3.2973
    -3.1304  -3.0085  -2.9377  -2.7924  -2.7136  -2.5655  -2.4715  -2.4467
    -2.3090  -2.0618  -1.9519  -1.7567  -1.6615  -1.3926  -1.0636  -0.8406
    -0.0485   0.2232   0.4064   0.5843   0.7010   0.7735   0.9101   0.9631
     1.0301   1.1087   1.2156   1.4279   1.7981   1.8973   2.1140   2.1969
     2.2786   2.3006   2.7507   2.9187   3.6117   3.9038   3.9458   4.0651
     4.5468   4.6873   5.5185   5.7674   5.9382

          k =-0.2500 0.0000 0.0000 ( 40947 PWs)   bands (ev):

   -72.3864 -72.2575 -72.1912 -72.0673 -71.9581 -71.7131 -42.4879 -42.4032
   -42.3988 -42.3610 -42.3180 -42.2426 -42.2120 -42.2037 -42.1705 -42.0910
   -42.0801 -42.0055 -41.9986 -41.9249 -41.8703 -41.7778 -41.7212 -41.5659
   -18.3343 -18.0315 -17.9161 -17.7845 -17.7030 -17.3887 -17.2138 -17.1741
   -17.1295 -17.0600 -16.7860 -15.9274  -6.4062  -6.3305  -6.2790  -6.1089
    -5.8089  -5.7389  -5.6130  -5.4455  -5.2584  -5.1297  -4.8729  -4.7611
    -4.3234  -4.2215  -3.9459  -3.9239  -3.8133  -3.7094  -3.5852  -3.3937
    -3.1379  -2.9539  -2.8315  -2.6774  -2.6662  -2.5600  -2.5136  -2.3182
    -2.1320  -2.0310  -1.9894  -1.9725  -1.6311  -1.1001  -0.9704  -0.7626
     0.0970   0.1902   0.3616   0.5572   0.7282   0.9027   1.0742   1.1130
     1.1258   1.3408   1.3937   1.4420   1.4669   1.6315   1.7740   1.9786
     2.1995   2.4556   2.7736   2.9255   4.1950   4.5786   4.7226   4.9230
     5.0719   5.1113   5.1174   5.1939   5.3198

          k =-0.2500 0.1223 0.0000 ( 40905 PWs)   bands (ev):

   -72.3864 -72.2575 -72.1912 -72.0673 -71.9581 -71.7131 -42.4880 -42.4031
   -42.3987 -42.3608 -42.3179 -42.2426 -42.2121 -42.2037 -42.1706 -42.0910
   -42.0801 -42.0049 -41.9981 -41.9249 -41.8710 -41.7784 -41.7208 -41.5664
   -18.2901 -17.9494 -17.8646 -17.7283 -17.6790 -17.4170 -17.3387 -17.2269
   -17.1733 -17.1400 -16.7851 -15.9269  -6.2294  -6.0196  -5.9696  -5.9595
    -5.8014  -5.7341  -5.4582  -5.3077  -5.2662  -5.1118  -4.9072  -4.5941
    -4.3622  -4.3101  -4.1692  -4.1379  -4.0148  -3.8805  -3.7067  -3.6218
    -3.2184  -3.0536  -2.8977  -2.8104  -2.7443  -2.6829  -2.6331  -2.4659
    -2.2348  -1.9692  -1.9100  -1.8537  -1.6260  -1.1206  -0.9728  -0.8171
    -0.0707   0.2995   0.3953   0.6428   0.9270   1.0045   1.1461   1.2229
     1.2547   1.3132   1.4006   1.4945   1.6238   1.6557   1.8547   1.9409
     2.0970   2.2977   2.8985   3.0570   4.2215   4.3576   4.4708   4.5470
     4.8043   4.9072   5.1969   5.6047   5.7664

          k =-0.2500-0.2445 0.0000 ( 40892 PWs)   bands (ev):

   -72.3864 -72.2575 -72.1912 -72.0674 -71.9581 -71.7131 -42.4880 -42.4029
   -42.3987 -42.3607 -42.3179 -42.2425 -42.2121 -42.2038 -42.1707 -42.0910
   -42.0802 -42.0043 -41.9975 -41.9249 -41.8717 -41.7790 -41.7205 -41.5669
   -18.2435 -17.8472 -17.7829 -17.6257 -17.6246 -17.4813 -17.4404 -17.4180
   -17.2759 -17.1378 -16.7847 -15.9264  -6.1866  -5.8263  -5.7352  -5.5116
    -5.5025  -5.4779  -5.3181  -5.1733  -5.1184  -5.0190  -4.8730  -4.7853
    -4.7565  -4.6660  -4.3940  -4.2323  -4.0899  -3.9564  -3.6426  -3.4898
    -3.3975  -3.3762  -3.2799  -3.2128  -3.0639  -3.0175  -2.8683  -2.3684
    -2.0882  -1.7905  -1.6205  -1.5649  -1.5404  -1.2149  -1.0340  -0.8824
     0.1148   0.1635   0.4154   0.6033   0.6125   1.0338   1.2857   1.3681
     1.4086   1.4835   1.5829   1.6635   1.6818   1.7657   1.8294   1.9826
     2.0717   2.1713   2.9974   3.1645   3.9999   4.0494   4.1492   4.2922
     4.8056   4.9074   5.3323   5.9077   5.9259

          k =-0.2500-0.1223 0.0000 ( 40905 PWs)   bands (ev):

   -72.3864 -72.2575 -72.1912 -72.0673 -71.9581 -71.7131 -42.4880 -42.4031
   -42.3987 -42.3608 -42.3179 -42.2426 -42.2121 -42.2037 -42.1706 -42.0910
   -42.0801 -42.0049 -41.9981 -41.9249 -41.8710 -41.7784 -41.7208 -41.5664
   -18.2901 -17.9494 -17.8646 -17.7283 -17.6790 -17.4170 -17.3387 -17.2269
   -17.1733 -17.1400 -16.7851 -15.9269  -6.2294  -6.0196  -5.9696  -5.9595
    -5.8014  -5.7341  -5.4582  -5.3077  -5.2662  -5.1118  -4.9072  -4.5941
    -4.3622  -4.3101  -4.1692  -4.1379  -4.0148  -3.8805  -3.7067  -3.6218
    -3.2184  -3.0536  -2.8977  -2.8104  -2.7443  -2.6829  -2.6331  -2.4659
    -2.2348  -1.9692  -1.9100  -1.8537  -1.6260  -1.1206  -0.9728  -0.8171
    -0.0707   0.2995   0.3953   0.6428   0.9270   1.0045   1.1461   1.2229
     1.2547   1.3132   1.4006   1.4945   1.6238   1.6557   1.8547   1.9409
     2.0970   2.2977   2.8985   3.0570   4.2215   4.3576   4.4708   4.5470
     4.8043   4.9072   5.1969   5.6047   5.7664

          k =-0.1250 0.0000 0.0000 ( 40851 PWs)   bands (ev):

   -72.3902 -72.2611 -72.1950 -72.0710 -71.9620 -71.7169 -42.4207 -42.4081
   -42.4040 -42.3665 -42.3235 -42.2524 -42.2041 -42.1504 -42.1103 -42.1010
   -42.0898 -41.9406 -41.9318 -41.9284 -41.8803 -41.7886 -41.6554 -41.5768
   -18.6643 -18.3082 -18.1569 -18.0328 -17.5765 -17.5398 -17.3933 -17.0271
   -16.9520 -16.8733 -16.6179 -15.8700  -6.8549  -6.7853  -6.7449  -6.6415
    -5.9945  -5.7883  -5.5478  -5.5156  -5.4102  -5.3130  -5.1984  -4.8454
    -4.6956  -4.4749  -3.9356  -3.6956  -3.4972  -3.1416  -3.0626  -2.9478
    -2.9155  -2.8140  -2.6773  -2.5248  -2.5155  -2.4364  -2.2771  -2.0852
    -1.8420  -1.8095  -1.7752  -1.6137  -1.5744  -1.0526  -0.8007  -0.5815
    -0.0318   0.0096   0.2361   0.2960   0.3990   0.5331   0.5804   0.6277
     0.8573   0.8703   1.0898   1.2270   1.4685   1.6925   1.7770   2.2022
     2.5186   2.5646   2.8664   2.9413   4.2268   4.8638   5.0541   5.2573
     5.3615   5.5707   5.6562   5.7727   6.0019

          k =-0.1250 0.1223 0.0000 ( 40932 PWs)   bands (ev):

   -72.3902 -72.2611 -72.1950 -72.0711 -71.9620 -71.7169 -42.4207 -42.4074
   -42.4032 -42.3653 -42.3234 -42.2524 -42.2041 -42.1503 -42.1103 -42.1010
   -42.0898 -41.9405 -41.9317 -41.9284 -41.8818 -41.7897 -41.6554 -41.5777
   -18.5996 -18.1887 -18.0756 -17.9694 -17.5789 -17.5668 -17.4425 -17.1272
   -17.0718 -17.0378 -16.6160 -15.8677  -6.6956  -6.4148  -6.3333  -6.3054
    -5.9886  -5.7922  -5.4531  -5.4134  -5.4078  -5.2614  -5.0045  -4.8273
    -4.6969  -4.4324  -3.9792  -3.7732  -3.6985  -3.5366  -3.4586  -3.2753
    -3.1536  -3.0423  -2.9306  -2.8825  -2.7872  -2.6900  -2.4880  -2.3260
    -2.0014  -1.8432  -1.7184  -1.6653  -1.3912  -0.9289  -0.8306  -0.7093
     0.0378   0.1740   0.4430   0.5304   0.6161   0.7195   0.8920   0.9434
     0.9890   1.1366   1.2316   1.3784   1.4800   1.6849   1.8678   1.9647
     2.2644   2.5921   2.7615   3.1431   4.4592   4.9388   5.1009   5.2110
     5.2991   5.4457   5.5621   5.5864   5.6712

          k =-0.1250-0.2445 0.0000 ( 40974 PWs)   bands (ev):

   -72.3902 -72.2611 -72.1950 -72.0711 -71.9620 -71.7169 -42.4207 -42.4066
   -42.4023 -42.3641 -42.3234 -42.2523 -42.2041 -42.1503 -42.1102 -42.1010
   -42.0899 -41.9404 -41.9316 -41.9284 -41.8833 -41.7908 -41.6553 -41.5786
   -18.5294 -18.0232 -17.9771 -17.8072 -17.6943 -17.5766 -17.5193 -17.2480
   -17.2413 -17.1708 -16.6156 -15.8658  -6.6860  -6.0132  -5.7960  -5.6860
    -5.5958  -5.4694  -5.4649  -5.4210  -5.3837  -5.3243  -4.8584  -4.7114
    -4.5537  -4.5239  -4.3152  -4.0913  -3.8921  -3.8603  -3.8258  -3.8048
    -3.6383  -3.6240  -3.2460  -3.1559  -3.1027  -2.9555  -2.5538  -2.2951
    -1.9784  -1.6442  -1.5613  -1.3556  -1.3548  -1.1163  -0.8268  -0.7507
     0.0442   0.3287   0.5212   0.6588   0.7303   0.7695   1.0657   1.3003
     1.3883   1.3883   1.4569   1.5392   1.5512   1.7101   1.7520   1.8568
     2.1532   2.2356   2.9208   3.2987   4.6025   4.8737   4.9080   5.0186
     5.2080   5.3605   5.5646   5.6952   5.7331

          k =-0.1250-0.1223 0.0000 ( 40932 PWs)   bands (ev):

   -72.3902 -72.2611 -72.1950 -72.0711 -71.9620 -71.7169 -42.4207 -42.4074
   -42.4032 -42.3653 -42.3234 -42.2524 -42.2041 -42.1503 -42.1103 -42.1010
   -42.0898 -41.9405 -41.9317 -41.9284 -41.8818 -41.7897 -41.6554 -41.5777
   -18.5996 -18.1887 -18.0756 -17.9694 -17.5789 -17.5668 -17.4425 -17.1272
   -17.0718 -17.0378 -16.6160 -15.8677  -6.6956  -6.4148  -6.3333  -6.3054
    -5.9886  -5.7922  -5.4531  -5.4134  -5.4078  -5.2614  -5.0045  -4.8273
    -4.6969  -4.4324  -3.9792  -3.7732  -3.6985  -3.5366  -3.4586  -3.2753
    -3.1536  -3.0423  -2.9306  -2.8825  -2.7872  -2.6900  -2.4880  -2.3260
    -2.0014  -1.8432  -1.7184  -1.6653  -1.3912  -0.9289  -0.8306  -0.7093
     0.0378   0.1740   0.4430   0.5304   0.6161   0.7195   0.8920   0.9434
     0.9890   1.1366   1.2316   1.3784   1.4800   1.6849   1.8678   1.9647
     2.2644   2.5921   2.7615   3.1431   4.4592   4.9388   5.1009   5.2110
     5.2991   5.4457   5.5621   5.5865   5.6712

     the Fermi energy is     1.4927 ev

!    total energy              =   -1664.98147102 Ry
     estimated scf accuracy    <       0.00000039 Ry
     smearing contrib. (-TS)   =       0.00059263 Ry
     internal energy E=F+TS    =   -1664.98206365 Ry

     The total energy is F=E-TS. E is the sum of the following terms:
     one-electron contribution =  -16607.96063671 Ry
     hartree contribution      =    8330.06414268 Ry
     xc contribution           =    -243.60212822 Ry
     ewald contribution        =    6970.75708750 Ry
     one-center paw contrib.   =    -114.24052891 Ry

     convergence has been achieved in  21 iterations

     negative rho (up, down):  4.650E-01 0.000E+00

     Forces acting on atoms (cartesian axes, Ry/au):

     atom    1 type  1   force =     0.00000001   -0.00000029    0.06336006
     atom    2 type  1   force =     0.00000009    0.00000064   -0.08757324
     atom    3 type  1   force =    -0.00000028    0.00000019    0.00021949
     atom    4 type  1   force =    -0.00000005   -0.00000001    0.00151999
     atom    5 type  1   force =     0.00000004   -0.00000004    0.00020012
     atom    6 type  1   force =     0.00000002   -0.00000025   -0.00140846
     atom    7 type  2   force =    -0.00000002    0.00000022    0.02950756
     atom    8 type  2   force =    -0.00000016    0.00000033    0.06532128
     atom    9 type  2   force =    -0.00000036    0.02274142   -0.02434247
     atom   10 type  2   force =     0.00000018   -0.02274179   -0.02434227
     atom   11 type  2   force =     0.00000066    0.00000000    0.00034847
     atom   12 type  2   force =     0.00000024    0.00000001   -0.02346045
     atom   13 type  2   force =    -0.00000022    0.00072462    0.00120519
     atom   14 type  2   force =     0.00000026   -0.00072484    0.00120557
     atom   15 type  2   force =    -0.00000031   -0.00000028   -0.00368385
     atom   16 type  2   force =    -0.00000040   -0.00000007    0.00090973
     atom   17 type  2   force =     0.00000014    0.00108912    0.00050670
     atom   18 type  2   force =     0.00000014   -0.00108898    0.00050658

     Total force =     0.005074     Total SCF correction =     0.002113
     SCF correction compared to forces is large: reduce conv_thr to get better values

     Writing all to output data dir /anvil/projects/x-che260157/sts/runs/a0/ru_pp/Ru/tmp_slab__u000_gbrv/slab__u000_gbrv.save/ :
     XML data file, charge density, pseudopotentials, collected wavefunctions

     init_run     :      3.95s CPU      4.09s WALL (       1 calls)
     electrons    :    134.19s CPU    135.94s WALL (       1 calls)
     forces       :      0.96s CPU      0.97s WALL (       1 calls)

     Called by init_run:
     wfcinit      :      1.33s CPU      1.40s WALL (       1 calls)
     potinit      :      1.46s CPU      1.48s WALL (       1 calls)
     hinit0       :      0.43s CPU      0.44s WALL (       1 calls)

     Called by electrons:
     c_bands      :    109.58s CPU    110.94s WALL (      21 calls)
     sum_band     :     14.66s CPU     14.87s WALL (      21 calls)
     v_of_rho     :      1.79s CPU      1.82s WALL (      22 calls)
     newd         :      1.47s CPU      1.49s WALL (      22 calls)
     PAW_pot      :      3.04s CPU      3.09s WALL (      22 calls)
     mix_rho      :      3.79s CPU      3.84s WALL (      21 calls)

     Called by c_bands:
     init_us_2    :      1.19s CPU      1.21s WALL (     352 calls)
     cegterg      :     69.67s CPU     70.76s WALL (     168 calls)

     Called by *egterg:
     cdiaghg      :      9.28s CPU      9.40s WALL (     973 calls)
     h_psi        :     43.15s CPU     43.91s WALL (     981 calls)
     s_psi        :      2.49s CPU      2.55s WALL (     981 calls)
     g_psi        :      0.18s CPU      0.19s WALL (     805 calls)

     Called by h_psi:
     h_psi:calbec :      4.64s CPU      4.72s WALL (     981 calls)
     vloc_psi     :     35.73s CPU     36.38s WALL (     981 calls)
                                        0.00s GPU  (     981 calls)
     add_vuspsi   :      2.51s CPU      2.53s WALL (     981 calls)

     General routines
     calbec       :      6.65s CPU      6.75s WALL (    1181 calls)
     fft          :      1.92s CPU      1.95s WALL (     295 calls)
     ffts         :      2.12s CPU      2.14s WALL (    2503 calls)
     fftw         :     41.15s CPU     41.86s WALL (   90768 calls)
     interpolate  :      0.60s CPU      0.61s WALL (      22 calls)

     Parallel routines

     PWSCF        :   2m19.75s CPU   2m22.10s WALL


   This run was terminated on:  21:25:46  16Sep2026            

=------------------------------------------------------------------------------=
   JOB DONE.
=------------------------------------------------------------------------------=
