
     Program PWSCF v.7.5 starts on  7Oct2026 at 13: 9:59 

     This program is part of the open-source Quantum ESPRESSO suite
     for quantum simulation of materials; please cite
         "P. Giannozzi et al., J. Phys.:Condens. Matter 21 395502 (2009);
         "P. Giannozzi et al., J. Phys.:Condens. Matter 29 465901 (2017);
         "P. Giannozzi et al., J. Chem. Phys. 152 154105 (2020);
          URL http://www.quantum-espresso.org", 
     in publications or presentations arising from this work. More details at
     http://www.quantum-espresso.org/quote

     Parallel version (MPI & OpenMP), running on     128 processor cores
     Number of MPI processes:               128
     Threads/MPI process:                     1

     MPI processes distributed on     1 nodes
     230959 MiB available memory on the printing compute node when the environment starts

     Reading input from /anvil/projects/x-che260157/sts_arm_c_2026-10-07/runs/hea/arm_c_2026-10-07/Cu8Cr23Mn35Co34__s20_site2/OH__atomic.run.in

     Current dimensions of program PWSCF are:
     Max number of different atomic species (ntypx) = 10
     Max number of k-points (npk) =  40000
     Max angular momentum in pseudopotentials (lmaxx) =  4
     file Cu.paw.z_11.ld1.psl.v1.0.0-low.upf: wavefunction(s)  4S 3D renormalized
     file O.pbe-n-kjpaw_psl.0.1.UPF: wavefunction(s)  2P renormalized

     K-points division:     npool     =       8
     R & G space division:  proc/nbgrp/npool/nimage =      16
     Subspace diagonalization in iterative solution of the eigenvalue problem:
     one sub-group per band group will be used
     ELPA distributed-memory algorithm (size of sub-group:  4*  4 procs)


     Parallelization info
     --------------------
     sticks:   dense  smooth     PW     G-vecs:    dense   smooth      PW
     Min         836     418    112               212726    75206   10412
     Max         838     419    113               212729    75219   10424
     Sum       13391    6697   1793              3403647  1203369  166707

     Using Slab Decomposition



     bravais-lattice index     =            0
     lattice parameter (alat)  =      11.0895  a.u.
     unit-cell volume          =   12447.9970 (a.u.)^3
     number of atoms/cell      =           74
     number of atomic types    =            6
     number of electrons       =       657.00
     number of Kohn-Sham states=          395
     kinetic-energy cutoff     =      80.0000  Ry
     charge density cutoff     =     640.0000  Ry
     scf convergence threshold =      1.0E-06
     mixing beta               =       0.3000
     number of iterations used =            8  local-TF  mixing
     Exchange-correlation= PBE
                           (   1   4   3   4   0   0   0)
     Hubbard projectors: atomic
     Hubbard parameters of DFT+U (Dudarev formulation) in eV:
     U(Co-3d) =  3.3200
     U(Cr-3d) =  3.7000
     U(Mn-3d) =  3.9000

     Internal variables: lda_plus_u =T, lda_plus_u_kind = 0

     Internal variables: orbital_resolved =F, hub_pot_fix =F, apply_U = F

     celldm(1)=  11.089468  celldm(2)=   0.000000  celldm(3)=   0.000000
     celldm(4)=   0.000000  celldm(5)=   0.000000  celldm(6)=   0.000000

     crystal axes: (cart. coord. in units of alat)
               a(1) = (   1.000000   0.000000   0.000000 )  
               a(2) = (   0.000000   2.136332   0.000000 )  
               a(3) = (   0.000000   0.000000   4.272663 )  

     reciprocal axes: (cart. coord. in units 2 pi/alat)
               b(1) = (  1.000000 -0.000000  0.000000 )  
               b(2) = (  0.000000  0.468092  0.000000 )  
               b(3) = ( -0.000000 -0.000000  0.234046 )  


     PseudoPot. # 1 for Co read from file:
     /anvil/projects/x-che260157/pseudo/Co_pbe_v1.2.uspp.F.UPF
     MD5 check sum: 5f91765df6ddd3222702df6e7b74a16d
     Pseudo is Ultrasoft + core correction, Zval = 17.0
     Generated by new atomic code, or converted to UPF format
     Using radial grid of  863 points,  6 beta functions with: 
                l(1) =   0
                l(2) =   0
                l(3) =   1
                l(4) =   1
                l(5) =   2
                l(6) =   2
     Q(r) pseudized with  8 coefficients,  rinner =    1.200   1.200   1.200
                                                       1.200   1.200

     PseudoPot. # 2 for Cr read from file:
     /anvil/projects/x-che260157/pseudo/cr_pbe_v1.5.uspp.F.UPF
     MD5 check sum: 0d52af634a40206e4dee301ad30da4bf
     Pseudo is Ultrasoft + core correction, Zval = 14.0
     Generated by new atomic code, or converted to UPF format
     Using radial grid of  857 points,  6 beta functions with: 
                l(1) =   0
                l(2) =   0
                l(3) =   1
                l(4) =   1
                l(5) =   2
                l(6) =   2
     Q(r) pseudized with  8 coefficients,  rinner =    0.950   0.950   0.950
                                                       0.950   0.950

     PseudoPot. # 3 for Cu read from file:
     /anvil/projects/x-che260157/pseudo/Cu.paw.z_11.ld1.psl.v1.0.0-low.upf
     MD5 check sum: 619f40885d92a09a85a8b37550532d0c
     Pseudo is Projector augmented-wave + core cor, Zval = 11.0
     Generated using &quot;atomic&quot; code by A. Dal Corso  v.6.3MaX
     Shape of augmentation charge: PSQ
     Using radial grid of 1199 points,  6 beta functions with: 
                l(1) =   0
                l(2) =   0
                l(3) =   1
                l(4) =   1
                l(5) =   2
                l(6) =   2
     Q(r) pseudized with 0 coefficients 


     PseudoPot. # 4 for Mn read from file:
     /anvil/projects/x-che260157/pseudo/mn_pbe_v1.5.uspp.F.UPF
     MD5 check sum: 82ef2b46521d7a7d9e736dc3972e4928
     Pseudo is Ultrasoft + core correction, Zval = 15.0
     Generated by new atomic code, or converted to UPF format
     Using radial grid of  859 points,  6 beta functions with: 
                l(1) =   0
                l(2) =   0
                l(3) =   1
                l(4) =   1
                l(5) =   2
                l(6) =   2
     Q(r) pseudized with  8 coefficients,  rinner =    0.950   0.950   0.950
                                                       0.950   0.950

     PseudoPot. # 5 for O  read from file:
     /anvil/projects/x-che260157/pseudo/O.pbe-n-kjpaw_psl.0.1.UPF
     MD5 check sum: 0234752ac141de4415c5fc33072bef88
     Pseudo is Projector augmented-wave + core cor, Zval =  6.0
     Generated using "atomic" code by A. Dal Corso  v.5.0.99 svn rev. 10869
     Shape of augmentation charge: BESSEL
     Using radial grid of 1095 points,  4 beta functions with: 
                l(1) =   0
                l(2) =   0
                l(3) =   1
                l(4) =   1
     Q(r) pseudized with 0 coefficients 


     PseudoPot. # 6 for H  read from file:
     /anvil/projects/x-che260157/pseudo/H.pbe-rrkjus_psl.1.0.0.UPF
     MD5 check sum: f52b6d4d1c606e5624b1dc7b2218f220
     Pseudo is Ultrasoft, Zval =  1.0
     Generated using "atomic" code by A. Dal Corso  v.5.1
     Using radial grid of  929 points,  2 beta functions with: 
                l(1) =   0
                l(2) =   0
     Q(r) pseudized with 0 coefficients 


     atomic species   valence    mass     pseudopotential
     Co               17.00    58.93300     Co( 1.00)
     Cr               14.00    51.99600     Cr( 1.00)
     Cu               11.00    63.54600     Cu( 1.00)
     Mn               15.00    54.93800     Mn( 1.00)
     O                 6.00    15.99900     O ( 1.00)
     H                 1.00     1.00800     H ( 1.00)

     Starting magnetic structure 
     atomic species   magnetization
     Co              0.400
     Cr              0.600
     Cu              0.200
     Mn              0.500
     O               0.000
     H               0.000

     No symmetry found



   Cartesian axes

     site n.     atom                  positions (alat units)
         1        Cr     tau(   1) = (   0.0000000   0.2670415   1.6022487  )
         2        Co     tau(   2) = (   0.0000000   1.3352073   1.6022487  )
         3        Mn     tau(   3) = (   0.5000000   0.2670415   1.6022487  )
         4        Cu     tau(   4) = (   0.5000000   1.3352073   1.6022487  )
         5        Mn     tau(   5) = (   0.2500000   0.8011244   1.6022487  )
         6        Cr     tau(   6) = (   0.2500000   1.8692902   1.6022487  )
         7        Cu     tau(   7) = (   0.7500000   0.8011244   1.6022487  )
         8        Mn     tau(   8) = (   0.7500000   1.8692902   1.6022487  )
         9        Mn     tau(   9) = (   0.0018393   0.8039561   2.1396454  )
        10        Mn     tau(  10) = (   0.0004916   1.8690465   2.1470130  )
        11        Cr     tau(  11) = (   0.5025120   0.7990056   2.1528135  )
        12        Co     tau(  12) = (   0.4971788   1.8736296   2.1598701  )
        13        Co     tau(  13) = (   0.2531717   0.2666799   2.1398281  )
        14        Cr     tau(  14) = (   0.2596661   1.3361949   2.1338717  )
        15        Mn     tau(  15) = (   0.7458716   0.2678697   2.1428309  )
        16        Co     tau(  16) = (   0.7436433   1.3381716   2.1253611  )
        17        Mn     tau(  17) = (   0.0007529   0.2739929   2.6630375  )
        18        Cr     tau(  18) = (   0.0044481   1.3399171   2.6698529  )
        19        Cr     tau(  19) = (   0.4941114   0.2796118   2.7158103  )
        20        Co     tau(  20) = (   0.5066210   1.3404372   2.6981679  )
        21        Co     tau(  21) = (   0.2497433   0.8127427   2.6998787  )
        22        Co     tau(  22) = (   0.2518779   1.8694860   2.7133561  )
        23        Co     tau(  23) = (   0.7579031   0.8114061   2.7031870  )
        24        Mn     tau(  24) = (   0.7526166   1.8751846   2.6834049  )
        25        O      tau(  25) = (   0.0000000   0.8011244   1.8105410  )
        26        O      tau(  26) = (   0.0000000   1.8692902   1.8105410  )
        27        O      tau(  27) = (   0.5000000   0.8011244   1.8105410  )
        28        O      tau(  28) = (   0.5000000   1.8692902   1.8105410  )
        29        O      tau(  29) = (   0.0000000   0.8011244   1.3939564  )
        30        O      tau(  30) = (   0.0000000   1.8692902   1.3939564  )
        31        O      tau(  31) = (   0.5000000   0.8011244   1.3939564  )
        32        O      tau(  32) = (   0.5000000   1.8692902   1.3939564  )
        33        O      tau(  33) = (   0.2500000   0.0587491   1.6022487  )
        34        O      tau(  34) = (   0.2500000   1.1269149   1.6022487  )
        35        O      tau(  35) = (   0.7500000   0.0587491   1.6022487  )
        36        O      tau(  36) = (   0.7500000   1.1269149   1.6022487  )
        37        O      tau(  37) = (   0.2500000   0.4753338   1.6022487  )
        38        O      tau(  38) = (   0.2500000   1.5434996   1.6022487  )
        39        O      tau(  39) = (   0.7500000   0.4753338   1.6022487  )
        40        O      tau(  40) = (   0.7500000   1.5434996   1.6022487  )
        41        O      tau(  41) = (   0.0024927   0.2743346   2.3464063  )
        42        O      tau(  42) = (   0.0038992   1.3359925   2.3776581  )
        43        O      tau(  43) = (   0.4940350   0.2765250   2.3543755  )
        44        O      tau(  44) = (   0.5081931   1.3327530   2.3404028  )
        45        O      tau(  45) = (   0.0000000   0.2670415   1.9280393  )
        46        O      tau(  46) = (   0.0000000   1.3352073   1.9280393  )
        47        O      tau(  47) = (   0.5000000   0.2670415   1.9280393  )
        48        O      tau(  48) = (   0.5000000   1.3352073   1.9280393  )
        49        O      tau(  49) = (   0.2507983   0.5895146   2.1434743  )
        50        O      tau(  50) = (   0.2519078   1.6581064   2.1433240  )
        51        O      tau(  51) = (   0.7531926   0.5964449   2.1440797  )
        52        O      tau(  52) = (   0.7471431   1.6513543   2.1406599  )
        53        O      tau(  53) = (   0.2481579   1.0187024   2.1430955  )
        54        O      tau(  54) = (   0.2517804   2.0835718   2.1493019  )
        55        O      tau(  55) = (   0.7513318   1.0213290   2.1395104  )
        56        O      tau(  56) = (   0.7461667   2.0734328   2.1499828  )
        57        O      tau(  57) = (   0.0056745   0.7998106   2.8890051  )
        58        O      tau(  58) = (   0.0095277   1.8853682   2.8908917  )
        59        O      tau(  59) = (   0.5027389   0.7924304   2.8720328  )
        60        O      tau(  60) = (   0.4944911   1.9007186   2.8908338  )
        61        O      tau(  61) = (   0.0024937   0.8298321   2.4805139  )
        62        O      tau(  62) = (   0.0042960   1.8501456   2.4773734  )
        63        O      tau(  63) = (   0.5001413   0.8140065   2.4615061  )
        64        O      tau(  64) = (   0.4982066   1.8549664   2.4747611  )
        65        O      tau(  65) = (   0.2511298   0.0624518   2.6904386  )
        66        O      tau(  66) = (   0.2567924   1.1325746   2.7262104  )
        67        O      tau(  67) = (   0.7524464   0.0705511   2.6866267  )
        68        O      tau(  68) = (   0.7527001   1.1288099   2.7290425  )
        69        O      tau(  69) = (   0.2492300   0.4882196   2.7002877  )
        70        O      tau(  70) = (   0.2532510   1.5456671   2.7285909  )
        71        O      tau(  71) = (   0.7528831   0.4892870   2.6924032  )
        72        O      tau(  72) = (   0.7535867   1.5396286   2.7342069  )
        73        O      tau(  73) = (   0.5060713   0.2531092   3.0271044  )
        74        H      tau(  74) = (   0.5233329   0.0884677   3.0557084  )

     number of k points=     8  Marzari-Vanderbilt smearing, width (Ry)=  0.0100
                       cart. coord. in units 2pi/alat
        k(    1) = (   0.0000000   0.0000000   0.0000000), wk =   0.1250000
        k(    2) = (   0.0000000  -0.2340461   0.0000000), wk =   0.1250000
        k(    3) = (   0.2500000  -0.0000000   0.0000000), wk =   0.1250000
        k(    4) = (   0.2500000  -0.2340461   0.0000000), wk =   0.1250000
        k(    5) = (  -0.5000000   0.0000000   0.0000000), wk =   0.1250000
        k(    6) = (  -0.5000000  -0.2340461   0.0000000), wk =   0.1250000
        k(    7) = (  -0.2500000   0.0000000   0.0000000), wk =   0.1250000
        k(    8) = (  -0.2500000  -0.2340461   0.0000000), wk =   0.1250000

     Dense  grid:  3403647 G-vectors     FFT dimensions: (  90, 192, 384)

     Smooth grid:  1203369 G-vectors     FFT dimensions: (  64, 135, 270)

     Estimated max dynamical RAM per process >     923.72 MB

     Estimated total dynamical RAM >     104.10 GB

     Check: negative core charge=   -0.000014
     Generating pointlists ...
     new r_m :   0.1241 (alat units)  1.3762 (a.u.) for type    1
     new r_m :   0.1205 (alat units)  1.3367 (a.u.) for type    2
     new r_m :   0.1342 (alat units)  1.4885 (a.u.) for type    3
     new r_m :   0.1306 (alat units)  1.4484 (a.u.) for type    4
     new r_m :   0.0693 (alat units)  0.7685 (a.u.) for type    5
     new r_m :   0.0693 (alat units)  0.7685 (a.u.) for type    6

     Initial potential from superposition of free atoms

     starting charge     638.9986, renormalised to     657.0000

     negative rho (up, down):  6.001E-03 1.622E-03

     STARTING HUBBARD OCCUPATIONS:

     =================== HUBBARD OCCUPATIONS ===================
     ------------------------ ATOM    1 ------------------------
     Tr[ns(  1)] (up, down, total) =   3.40000  0.00000  3.40000
     Atomic magnetic moment for atom   1 =   3.40000
     SPIN  1
     eigenvalues:
       0.680  0.680  0.680  0.680  0.680
     eigenvectors (columns):
       1.000  0.000  0.000  0.000  0.000
       0.000  1.000  0.000  0.000  0.000
       0.000  0.000  1.000  0.000  0.000
       0.000  0.000  0.000  1.000  0.000
       0.000  0.000  0.000  0.000  1.000
     occupation matrix ns (before diag.):
       0.680  0.000  0.000  0.000  0.000
       0.000  0.680  0.000  0.000  0.000
       0.000  0.000  0.680  0.000  0.000
       0.000  0.000  0.000  0.680  0.000
       0.000  0.000  0.000  0.000  0.680
     SPIN  2
     eigenvalues:
       0.000  0.000  0.000  0.000  0.000
     eigenvectors (columns):
       1.000  0.000  0.000  0.000  0.000
       0.000  1.000  0.000  0.000  0.000
       0.000  0.000  1.000  0.000  0.000
       0.000  0.000  0.000  1.000  0.000
       0.000  0.000  0.000  0.000  1.000
     occupation matrix ns (before diag.):
       0.000  0.000  0.000  0.000  0.000
       0.000  0.000  0.000  0.000  0.000
       0.000  0.000  0.000  0.000  0.000
       0.000  0.000  0.000  0.000  0.000
       0.000  0.000  0.000  0.000  0.000
     ------------------------ ATOM    2 ------------------------
     Tr[ns(  2)] (up, down, total) =   5.00000  2.00000  7.00000
     Atomic magnetic moment for atom   2 =   3.00000
     SPIN  1
     eigenvalues:
       1.000  1.000  1.000  1.000  1.000
     eigenvectors (columns):
       1.000  0.000  0.000  0.000  0.000
       0.000  1.000  0.000  0.000  0.000
       0.000  0.000  1.000  0.000  0.000
       0.000  0.000  0.000  1.000  0.000
       0.000  0.000  0.000  0.000  1.000
     occupation matrix ns (before diag.):
       1.000  0.000  0.000  0.000  0.000
       0.000  1.000  0.000  0.000  0.000
       0.000  0.000  1.000  0.000  0.000
       0.000  0.000  0.000  1.000  0.000
       0.000  0.000  0.000  0.000  1.000
     SPIN  2
     eigenvalues:
       0.400  0.400  0.400  0.400  0.400
     eigenvectors (columns):
       1.000  0.000  0.000  0.000  0.000
       0.000  1.000  0.000  0.000  0.000
       0.000  0.000  1.000  0.000  0.000
       0.000  0.000  0.000  1.000  0.000
       0.000  0.000  0.000  0.000  1.000
     occupation matrix ns (before diag.):
       0.400  0.000  0.000  0.000  0.000
       0.000  0.400  0.000  0.000  0.000
       0.000  0.000  0.400  0.000  0.000
       0.000  0.000  0.000  0.400  0.000
       0.000  0.000  0.000  0.000  0.400
     ------------------------ ATOM    3 ------------------------
     Tr[ns(  3)] (up, down, total) =   5.00000  0.00000  5.00000
     Atomic magnetic moment for atom   3 =   5.00000
     SPIN  1
     eigenvalues:
       1.000  1.000  1.000  1.000  1.000
     eigenvectors (columns):
       1.000  0.000  0.000  0.000  0.000
       0.000  1.000  0.000  0.000  0.000
       0.000  0.000  1.000  0.000  0.000
       0.000  0.000  0.000  1.000  0.000
       0.000  0.000  0.000  0.000  1.000
     occupation matrix ns (before diag.):
       1.000  0.000  0.000  0.000  0.000
       0.000  1.000  0.000  0.000  0.000
       0.000  0.000  1.000  0.000  0.000
       0.000  0.000  0.000  1.000  0.000
       0.000  0.000  0.000  0.000  1.000
     SPIN  2
     eigenvalues:
       0.000  0.000  0.000  0.000  0.000
     eigenvectors (columns):
       1.000  0.000  0.000  0.000  0.000
       0.000  1.000  0.000  0.000  0.000
       0.000  0.000  1.000  0.000  0.000
       0.000  0.000  0.000  1.000  0.000
       0.000  0.000  0.000  0.000  1.000
     occupation matrix ns (before diag.):
       0.000  0.000  0.000  0.000  0.000
       0.000  0.000  0.000  0.000  0.000
       0.000  0.000  0.000  0.000  0.000
       0.000  0.000  0.000  0.000  0.000
       0.000  0.000  0.000  0.000  0.000
     ------------------------ ATOM    5 ------------------------
     Tr[ns(  5)] (up, down, total) =   5.00000  0.00000  5.00000
     Atomic magnetic moment for atom   5 =   5.00000
     SPIN  1
     eigenvalues:
       1.000  1.000  1.000  1.000  1.000
     eigenvectors (columns):
       1.000  0.000  0.000  0.000  0.000
       0.000  1.000  0.000  0.000  0.000
       0.000  0.000  1.000  0.000  0.000
       0.000  0.000  0.000  1.000  0.000
       0.000  0.000  0.000  0.000  1.000
     occupation matrix ns (before diag.):
       1.000  0.000  0.000  0.000  0.000
       0.000  1.000  0.000  0.000  0.000
       0.000  0.000  1.000  0.000  0.000
       0.000  0.000  0.000  1.000  0.000
       0.000  0.000  0.000  0.000  1.000
     SPIN  2
     eigenvalues:
       0.000  0.000  0.000  0.000  0.000
     eigenvectors (columns):
       1.000  0.000  0.000  0.000  0.000
       0.000  1.000  0.000  0.000  0.000
       0.000  0.000  1.000  0.000  0.000
       0.000  0.000  0.000  1.000  0.000
       0.000  0.000  0.000  0.000  1.000
     occupation matrix ns (before diag.):
       0.000  0.000  0.000  0.000  0.000
       0.000  0.000  0.000  0.000  0.000
       0.000  0.000  0.000  0.000  0.000
       0.000  0.000  0.000  0.000  0.000
       0.000  0.000  0.000  0.000  0.000
     ------------------------ ATOM    6 ------------------------
     Tr[ns(  6)] (up, down, total) =   3.40000  0.00000  3.40000
     Atomic magnetic moment for atom   6 =   3.40000
     SPIN  1
     eigenvalues:
       0.680  0.680  0.680  0.680  0.680
     eigenvectors (columns):
       1.000  0.000  0.000  0.000  0.000
       0.000  1.000  0.000  0.000  0.000
       0.000  0.000  1.000  0.000  0.000
       0.000  0.000  0.000  1.000  0.000
       0.000  0.000  0.000  0.000  1.000
     occupation matrix ns (before diag.):
       0.680  0.000  0.000  0.000  0.000
       0.000  0.680  0.000  0.000  0.000
       0.000  0.000  0.680  0.000  0.000
       0.000  0.000  0.000  0.680  0.000
       0.000  0.000  0.000  0.000  0.680
     SPIN  2
     eigenvalues:
       0.000  0.000  0.000  0.000  0.000
     eigenvectors (columns):
       1.000  0.000  0.000  0.000  0.000
       0.000  1.000  0.000  0.000  0.000
       0.000  0.000  1.000  0.000  0.000
       0.000  0.000  0.000  1.000  0.000
       0.000  0.000  0.000  0.000  1.000
     occupation matrix ns (before diag.):
       0.000  0.000  0.000  0.000  0.000
       0.000  0.000  0.000  0.000  0.000
       0.000  0.000  0.000  0.000  0.000
       0.000  0.000  0.000  0.000  0.000
       0.000  0.000  0.000  0.000  0.000
     ------------------------ ATOM    8 ------------------------
     Tr[ns(  8)] (up, down, total) =   5.00000  0.00000  5.00000
     Atomic magnetic moment for atom   8 =   5.00000
     SPIN  1
     eigenvalues:
       1.000  1.000  1.000  1.000  1.000
     eigenvectors (columns):
       1.000  0.000  0.000  0.000  0.000
       0.000  1.000  0.000  0.000  0.000
       0.000  0.000  1.000  0.000  0.000
       0.000  0.000  0.000  1.000  0.000
       0.000  0.000  0.000  0.000  1.000
     occupation matrix ns (before diag.):
       1.000  0.000  0.000  0.000  0.000
       0.000  1.000  0.000  0.000  0.000
       0.000  0.000  1.000  0.000  0.000
       0.000  0.000  0.000  1.000  0.000
       0.000  0.000  0.000  0.000  1.000
     SPIN  2
     eigenvalues:
       0.000  0.000  0.000  0.000  0.000
     eigenvectors (columns):
       1.000  0.000  0.000  0.000  0.000
       0.000  1.000  0.000  0.000  0.000
       0.000  0.000  1.000  0.000  0.000
       0.000  0.000  0.000  1.000  0.000
       0.000  0.000  0.000  0.000  1.000
     occupation matrix ns (before diag.):
       0.000  0.000  0.000  0.000  0.000
       0.000  0.000  0.000  0.000  0.000
       0.000  0.000  0.000  0.000  0.000
       0.000  0.000  0.000  0.000  0.000
       0.000  0.000  0.000  0.000  0.000
     ------------------------ ATOM    9 ------------------------
     Tr[ns(  9)] (up, down, total) =   5.00000  0.00000  5.00000
     Atomic magnetic moment for atom   9 =   5.00000
     SPIN  1
     eigenvalues:
       1.000  1.000  1.000  1.000  1.000
     eigenvectors (columns):
       1.000  0.000  0.000  0.000  0.000
       0.000  1.000  0.000  0.000  0.000
       0.000  0.000  1.000  0.000  0.000
       0.000  0.000  0.000  1.000  0.000
       0.000  0.000  0.000  0.000  1.000
     occupation matrix ns (before diag.):
       1.000  0.000  0.000  0.000  0.000
       0.000  1.000  0.000  0.000  0.000
       0.000  0.000  1.000  0.000  0.000
       0.000  0.000  0.000  1.000  0.000
       0.000  0.000  0.000  0.000  1.000
     SPIN  2
     eigenvalues:
       0.000  0.000  0.000  0.000  0.000
     eigenvectors (columns):
       1.000  0.000  0.000  0.000  0.000
       0.000  1.000  0.000  0.000  0.000
       0.000  0.000  1.000  0.000  0.000
       0.000  0.000  0.000  1.000  0.000
       0.000  0.000  0.000  0.000  1.000
     occupation matrix ns (before diag.):
       0.000  0.000  0.000  0.000  0.000
       0.000  0.000  0.000  0.000  0.000
       0.000  0.000  0.000  0.000  0.000
       0.000  0.000  0.000  0.000  0.000
       0.000  0.000  0.000  0.000  0.000
     ------------------------ ATOM   10 ------------------------
     Tr[ns( 10)] (up, down, total) =   5.00000  0.00000  5.00000
     Atomic magnetic moment for atom  10 =   5.00000
     SPIN  1
     eigenvalues:
       1.000  1.000  1.000  1.000  1.000
     eigenvectors (columns):
       1.000  0.000  0.000  0.000  0.000
       0.000  1.000  0.000  0.000  0.000
       0.000  0.000  1.000  0.000  0.000
       0.000  0.000  0.000  1.000  0.000
       0.000  0.000  0.000  0.000  1.000
     occupation matrix ns (before diag.):
       1.000  0.000  0.000  0.000  0.000
       0.000  1.000  0.000  0.000  0.000
       0.000  0.000  1.000  0.000  0.000
       0.000  0.000  0.000  1.000  0.000
       0.000  0.000  0.000  0.000  1.000
     SPIN  2
     eigenvalues:
       0.000  0.000  0.000  0.000  0.000
     eigenvectors (columns):
       1.000  0.000  0.000  0.000  0.000
       0.000  1.000  0.000  0.000  0.000
       0.000  0.000  1.000  0.000  0.000
       0.000  0.000  0.000  1.000  0.000
       0.000  0.000  0.000  0.000  1.000
     occupation matrix ns (before diag.):
       0.000  0.000  0.000  0.000  0.000
       0.000  0.000  0.000  0.000  0.000
       0.000  0.000  0.000  0.000  0.000
       0.000  0.000  0.000  0.000  0.000
       0.000  0.000  0.000  0.000  0.000
     ------------------------ ATOM   11 ------------------------
     Tr[ns( 11)] (up, down, total) =   3.40000  0.00000  3.40000
     Atomic magnetic moment for atom  11 =   3.40000
     SPIN  1
     eigenvalues:
       0.680  0.680  0.680  0.680  0.680
     eigenvectors (columns):
       1.000  0.000  0.000  0.000  0.000
       0.000  1.000  0.000  0.000  0.000
       0.000  0.000  1.000  0.000  0.000
       0.000  0.000  0.000  1.000  0.000
       0.000  0.000  0.000  0.000  1.000
     occupation matrix ns (before diag.):
       0.680  0.000  0.000  0.000  0.000
       0.000  0.680  0.000  0.000  0.000
       0.000  0.000  0.680  0.000  0.000
       0.000  0.000  0.000  0.680  0.000
       0.000  0.000  0.000  0.000  0.680
     SPIN  2
     eigenvalues:
       0.000  0.000  0.000  0.000  0.000
     eigenvectors (columns):
       1.000  0.000  0.000  0.000  0.000
       0.000  1.000  0.000  0.000  0.000
       0.000  0.000  1.000  0.000  0.000
       0.000  0.000  0.000  1.000  0.000
       0.000  0.000  0.000  0.000  1.000
     occupation matrix ns (before diag.):
       0.000  0.000  0.000  0.000  0.000
       0.000  0.000  0.000  0.000  0.000
       0.000  0.000  0.000  0.000  0.000
       0.000  0.000  0.000  0.000  0.000
       0.000  0.000  0.000  0.000  0.000
     ------------------------ ATOM   12 ------------------------
     Tr[ns( 12)] (up, down, total) =   5.00000  2.00000  7.00000
     Atomic magnetic moment for atom  12 =   3.00000
     SPIN  1
     eigenvalues:
       1.000  1.000  1.000  1.000  1.000
     eigenvectors (columns):
       1.000  0.000  0.000  0.000  0.000
       0.000  1.000  0.000  0.000  0.000
       0.000  0.000  1.000  0.000  0.000
       0.000  0.000  0.000  1.000  0.000
       0.000  0.000  0.000  0.000  1.000
     occupation matrix ns (before diag.):
       1.000  0.000  0.000  0.000  0.000
       0.000  1.000  0.000  0.000  0.000
       0.000  0.000  1.000  0.000  0.000
       0.000  0.000  0.000  1.000  0.000
       0.000  0.000  0.000  0.000  1.000
     SPIN  2
     eigenvalues:
       0.400  0.400  0.400  0.400  0.400
     eigenvectors (columns):
       1.000  0.000  0.000  0.000  0.000
       0.000  1.000  0.000  0.000  0.000
       0.000  0.000  1.000  0.000  0.000
       0.000  0.000  0.000  1.000  0.000
       0.000  0.000  0.000  0.000  1.000
     occupation matrix ns (before diag.):
       0.400  0.000  0.000  0.000  0.000
       0.000  0.400  0.000  0.000  0.000
       0.000  0.000  0.400  0.000  0.000
       0.000  0.000  0.000  0.400  0.000
       0.000  0.000  0.000  0.000  0.400
     ------------------------ ATOM   13 ------------------------
     Tr[ns( 13)] (up, down, total) =   5.00000  2.00000  7.00000
     Atomic magnetic moment for atom  13 =   3.00000
     SPIN  1
     eigenvalues:
       1.000  1.000  1.000  1.000  1.000
     eigenvectors (columns):
       1.000  0.000  0.000  0.000  0.000
       0.000  1.000  0.000  0.000  0.000
       0.000  0.000  1.000  0.000  0.000
       0.000  0.000  0.000  1.000  0.000
       0.000  0.000  0.000  0.000  1.000
     occupation matrix ns (before diag.):
       1.000  0.000  0.000  0.000  0.000
       0.000  1.000  0.000  0.000  0.000
       0.000  0.000  1.000  0.000  0.000
       0.000  0.000  0.000  1.000  0.000
       0.000  0.000  0.000  0.000  1.000
     SPIN  2
     eigenvalues:
       0.400  0.400  0.400  0.400  0.400
     eigenvectors (columns):
       1.000  0.000  0.000  0.000  0.000
       0.000  1.000  0.000  0.000  0.000
       0.000  0.000  1.000  0.000  0.000
       0.000  0.000  0.000  1.000  0.000
       0.000  0.000  0.000  0.000  1.000
     occupation matrix ns (before diag.):
       0.400  0.000  0.000  0.000  0.000
       0.000  0.400  0.000  0.000  0.000
       0.000  0.000  0.400  0.000  0.000
       0.000  0.000  0.000  0.400  0.000
       0.000  0.000  0.000  0.000  0.400
     ------------------------ ATOM   14 ------------------------
     Tr[ns( 14)] (up, down, total) =   3.40000  0.00000  3.40000
     Atomic magnetic moment for atom  14 =   3.40000
     SPIN  1
     eigenvalues:
       0.680  0.680  0.680  0.680  0.680
     eigenvectors (columns):
       1.000  0.000  0.000  0.000  0.000
       0.000  1.000  0.000  0.000  0.000
       0.000  0.000  1.000  0.000  0.000
       0.000  0.000  0.000  1.000  0.000
       0.000  0.000  0.000  0.000  1.000
     occupation matrix ns (before diag.):
       0.680  0.000  0.000  0.000  0.000
       0.000  0.680  0.000  0.000  0.000
       0.000  0.000  0.680  0.000  0.000
       0.000  0.000  0.000  0.680  0.000
       0.000  0.000  0.000  0.000  0.680
     SPIN  2
     eigenvalues:
       0.000  0.000  0.000  0.000  0.000
     eigenvectors (columns):
       1.000  0.000  0.000  0.000  0.000
       0.000  1.000  0.000  0.000  0.000
       0.000  0.000  1.000  0.000  0.000
       0.000  0.000  0.000  1.000  0.000
       0.000  0.000  0.000  0.000  1.000
     occupation matrix ns (before diag.):
       0.000  0.000  0.000  0.000  0.000
       0.000  0.000  0.000  0.000  0.000
       0.000  0.000  0.000  0.000  0.000
       0.000  0.000  0.000  0.000  0.000
       0.000  0.000  0.000  0.000  0.000
     ------------------------ ATOM   15 ------------------------
     Tr[ns( 15)] (up, down, total) =   5.00000  0.00000  5.00000
     Atomic magnetic moment for atom  15 =   5.00000
     SPIN  1
     eigenvalues:
       1.000  1.000  1.000  1.000  1.000
     eigenvectors (columns):
       1.000  0.000  0.000  0.000  0.000
       0.000  1.000  0.000  0.000  0.000
       0.000  0.000  1.000  0.000  0.000
       0.000  0.000  0.000  1.000  0.000
       0.000  0.000  0.000  0.000  1.000
     occupation matrix ns (before diag.):
       1.000  0.000  0.000  0.000  0.000
       0.000  1.000  0.000  0.000  0.000
       0.000  0.000  1.000  0.000  0.000
       0.000  0.000  0.000  1.000  0.000
       0.000  0.000  0.000  0.000  1.000
     SPIN  2
     eigenvalues:
       0.000  0.000  0.000  0.000  0.000
     eigenvectors (columns):
       1.000  0.000  0.000  0.000  0.000
       0.000  1.000  0.000  0.000  0.000
       0.000  0.000  1.000  0.000  0.000
       0.000  0.000  0.000  1.000  0.000
       0.000  0.000  0.000  0.000  1.000
     occupation matrix ns (before diag.):
       0.000  0.000  0.000  0.000  0.000
       0.000  0.000  0.000  0.000  0.000
       0.000  0.000  0.000  0.000  0.000
       0.000  0.000  0.000  0.000  0.000
       0.000  0.000  0.000  0.000  0.000
     ------------------------ ATOM   16 ------------------------
     Tr[ns( 16)] (up, down, total) =   5.00000  2.00000  7.00000
     Atomic magnetic moment for atom  16 =   3.00000
     SPIN  1
     eigenvalues:
       1.000  1.000  1.000  1.000  1.000
     eigenvectors (columns):
       1.000  0.000  0.000  0.000  0.000
       0.000  1.000  0.000  0.000  0.000
       0.000  0.000  1.000  0.000  0.000
       0.000  0.000  0.000  1.000  0.000
       0.000  0.000  0.000  0.000  1.000
     occupation matrix ns (before diag.):
       1.000  0.000  0.000  0.000  0.000
       0.000  1.000  0.000  0.000  0.000
       0.000  0.000  1.000  0.000  0.000
       0.000  0.000  0.000  1.000  0.000
       0.000  0.000  0.000  0.000  1.000
     SPIN  2
     eigenvalues:
       0.400  0.400  0.400  0.400  0.400
     eigenvectors (columns):
       1.000  0.000  0.000  0.000  0.000
       0.000  1.000  0.000  0.000  0.000
       0.000  0.000  1.000  0.000  0.000
       0.000  0.000  0.000  1.000  0.000
       0.000  0.000  0.000  0.000  1.000
     occupation matrix ns (before diag.):
       0.400  0.000  0.000  0.000  0.000
       0.000  0.400  0.000  0.000  0.000
       0.000  0.000  0.400  0.000  0.000
       0.000  0.000  0.000  0.400  0.000
       0.000  0.000  0.000  0.000  0.400
     ------------------------ ATOM   17 ------------------------
     Tr[ns( 17)] (up, down, total) =   5.00000  0.00000  5.00000
     Atomic magnetic moment for atom  17 =   5.00000
     SPIN  1
     eigenvalues:
       1.000  1.000  1.000  1.000  1.000
     eigenvectors (columns):
       1.000  0.000  0.000  0.000  0.000
       0.000  1.000  0.000  0.000  0.000
       0.000  0.000  1.000  0.000  0.000
       0.000  0.000  0.000  1.000  0.000
       0.000  0.000  0.000  0.000  1.000
     occupation matrix ns (before diag.):
       1.000  0.000  0.000  0.000  0.000
       0.000  1.000  0.000  0.000  0.000
       0.000  0.000  1.000  0.000  0.000
       0.000  0.000  0.000  1.000  0.000
       0.000  0.000  0.000  0.000  1.000
     SPIN  2
     eigenvalues:
       0.000  0.000  0.000  0.000  0.000
     eigenvectors (columns):
       1.000  0.000  0.000  0.000  0.000
       0.000  1.000  0.000  0.000  0.000
       0.000  0.000  1.000  0.000  0.000
       0.000  0.000  0.000  1.000  0.000
       0.000  0.000  0.000  0.000  1.000
     occupation matrix ns (before diag.):
       0.000  0.000  0.000  0.000  0.000
       0.000  0.000  0.000  0.000  0.000
       0.000  0.000  0.000  0.000  0.000
       0.000  0.000  0.000  0.000  0.000
       0.000  0.000  0.000  0.000  0.000
     ------------------------ ATOM   18 ------------------------
     Tr[ns( 18)] (up, down, total) =   3.40000  0.00000  3.40000
     Atomic magnetic moment for atom  18 =   3.40000
     SPIN  1
     eigenvalues:
       0.680  0.680  0.680  0.680  0.680
     eigenvectors (columns):
       1.000  0.000  0.000  0.000  0.000
       0.000  1.000  0.000  0.000  0.000
       0.000  0.000  1.000  0.000  0.000
       0.000  0.000  0.000  1.000  0.000
       0.000  0.000  0.000  0.000  1.000
     occupation matrix ns (before diag.):
       0.680  0.000  0.000  0.000  0.000
       0.000  0.680  0.000  0.000  0.000
       0.000  0.000  0.680  0.000  0.000
       0.000  0.000  0.000  0.680  0.000
       0.000  0.000  0.000  0.000  0.680
     SPIN  2
     eigenvalues:
       0.000  0.000  0.000  0.000  0.000
     eigenvectors (columns):
       1.000  0.000  0.000  0.000  0.000
       0.000  1.000  0.000  0.000  0.000
       0.000  0.000  1.000  0.000  0.000
       0.000  0.000  0.000  1.000  0.000
       0.000  0.000  0.000  0.000  1.000
     occupation matrix ns (before diag.):
       0.000  0.000  0.000  0.000  0.000
       0.000  0.000  0.000  0.000  0.000
       0.000  0.000  0.000  0.000  0.000
       0.000  0.000  0.000  0.000  0.000
       0.000  0.000  0.000  0.000  0.000
     ------------------------ ATOM   19 ------------------------
     Tr[ns( 19)] (up, down, total) =   3.40000  0.00000  3.40000
     Atomic magnetic moment for atom  19 =   3.40000
     SPIN  1
     eigenvalues:
       0.680  0.680  0.680  0.680  0.680
     eigenvectors (columns):
       1.000  0.000  0.000  0.000  0.000
       0.000  1.000  0.000  0.000  0.000
       0.000  0.000  1.000  0.000  0.000
       0.000  0.000  0.000  1.000  0.000
       0.000  0.000  0.000  0.000  1.000
     occupation matrix ns (before diag.):
       0.680  0.000  0.000  0.000  0.000
       0.000  0.680  0.000  0.000  0.000
       0.000  0.000  0.680  0.000  0.000
       0.000  0.000  0.000  0.680  0.000
       0.000  0.000  0.000  0.000  0.680
     SPIN  2
     eigenvalues:
       0.000  0.000  0.000  0.000  0.000
     eigenvectors (columns):
       1.000  0.000  0.000  0.000  0.000
       0.000  1.000  0.000  0.000  0.000
       0.000  0.000  1.000  0.000  0.000
       0.000  0.000  0.000  1.000  0.000
       0.000  0.000  0.000  0.000  1.000
     occupation matrix ns (before diag.):
       0.000  0.000  0.000  0.000  0.000
       0.000  0.000  0.000  0.000  0.000
       0.000  0.000  0.000  0.000  0.000
       0.000  0.000  0.000  0.000  0.000
       0.000  0.000  0.000  0.000  0.000
     ------------------------ ATOM   20 ------------------------
     Tr[ns( 20)] (up, down, total) =   5.00000  2.00000  7.00000
     Atomic magnetic moment for atom  20 =   3.00000
     SPIN  1
     eigenvalues:
       1.000  1.000  1.000  1.000  1.000
     eigenvectors (columns):
       1.000  0.000  0.000  0.000  0.000
       0.000  1.000  0.000  0.000  0.000
       0.000  0.000  1.000  0.000  0.000
       0.000  0.000  0.000  1.000  0.000
       0.000  0.000  0.000  0.000  1.000
     occupation matrix ns (before diag.):
       1.000  0.000  0.000  0.000  0.000
       0.000  1.000  0.000  0.000  0.000
       0.000  0.000  1.000  0.000  0.000
       0.000  0.000  0.000  1.000  0.000
       0.000  0.000  0.000  0.000  1.000
     SPIN  2
     eigenvalues:
       0.400  0.400  0.400  0.400  0.400
     eigenvectors (columns):
       1.000  0.000  0.000  0.000  0.000
       0.000  1.000  0.000  0.000  0.000
       0.000  0.000  1.000  0.000  0.000
       0.000  0.000  0.000  1.000  0.000
       0.000  0.000  0.000  0.000  1.000
     occupation matrix ns (before diag.):
       0.400  0.000  0.000  0.000  0.000
       0.000  0.400  0.000  0.000  0.000
       0.000  0.000  0.400  0.000  0.000
       0.000  0.000  0.000  0.400  0.000
       0.000  0.000  0.000  0.000  0.400
     ------------------------ ATOM   21 ------------------------
     Tr[ns( 21)] (up, down, total) =   5.00000  2.00000  7.00000
     Atomic magnetic moment for atom  21 =   3.00000
     SPIN  1
     eigenvalues:
       1.000  1.000  1.000  1.000  1.000
     eigenvectors (columns):
       1.000  0.000  0.000  0.000  0.000
       0.000  1.000  0.000  0.000  0.000
       0.000  0.000  1.000  0.000  0.000
       0.000  0.000  0.000  1.000  0.000
       0.000  0.000  0.000  0.000  1.000
     occupation matrix ns (before diag.):
       1.000  0.000  0.000  0.000  0.000
       0.000  1.000  0.000  0.000  0.000
       0.000  0.000  1.000  0.000  0.000
       0.000  0.000  0.000  1.000  0.000
       0.000  0.000  0.000  0.000  1.000
     SPIN  2
     eigenvalues:
       0.400  0.400  0.400  0.400  0.400
     eigenvectors (columns):
       1.000  0.000  0.000  0.000  0.000
       0.000  1.000  0.000  0.000  0.000
       0.000  0.000  1.000  0.000  0.000
       0.000  0.000  0.000  1.000  0.000
       0.000  0.000  0.000  0.000  1.000
     occupation matrix ns (before diag.):
       0.400  0.000  0.000  0.000  0.000
       0.000  0.400  0.000  0.000  0.000
       0.000  0.000  0.400  0.000  0.000
       0.000  0.000  0.000  0.400  0.000
       0.000  0.000  0.000  0.000  0.400
     ------------------------ ATOM   22 ------------------------
     Tr[ns( 22)] (up, down, total) =   5.00000  2.00000  7.00000
     Atomic magnetic moment for atom  22 =   3.00000
     SPIN  1
     eigenvalues:
       1.000  1.000  1.000  1.000  1.000
     eigenvectors (columns):
       1.000  0.000  0.000  0.000  0.000
       0.000  1.000  0.000  0.000  0.000
       0.000  0.000  1.000  0.000  0.000
       0.000  0.000  0.000  1.000  0.000
       0.000  0.000  0.000  0.000  1.000
     occupation matrix ns (before diag.):
       1.000  0.000  0.000  0.000  0.000
       0.000  1.000  0.000  0.000  0.000
       0.000  0.000  1.000  0.000  0.000
       0.000  0.000  0.000  1.000  0.000
       0.000  0.000  0.000  0.000  1.000
     SPIN  2
     eigenvalues:
       0.400  0.400  0.400  0.400  0.400
     eigenvectors (columns):
       1.000  0.000  0.000  0.000  0.000
       0.000  1.000  0.000  0.000  0.000
       0.000  0.000  1.000  0.000  0.000
       0.000  0.000  0.000  1.000  0.000
       0.000  0.000  0.000  0.000  1.000
     occupation matrix ns (before diag.):
       0.400  0.000  0.000  0.000  0.000
       0.000  0.400  0.000  0.000  0.000
       0.000  0.000  0.400  0.000  0.000
       0.000  0.000  0.000  0.400  0.000
       0.000  0.000  0.000  0.000  0.400
     ------------------------ ATOM   23 ------------------------
     Tr[ns( 23)] (up, down, total) =   5.00000  2.00000  7.00000
     Atomic magnetic moment for atom  23 =   3.00000
     SPIN  1
     eigenvalues:
       1.000  1.000  1.000  1.000  1.000
     eigenvectors (columns):
       1.000  0.000  0.000  0.000  0.000
       0.000  1.000  0.000  0.000  0.000
       0.000  0.000  1.000  0.000  0.000
       0.000  0.000  0.000  1.000  0.000
       0.000  0.000  0.000  0.000  1.000
     occupation matrix ns (before diag.):
       1.000  0.000  0.000  0.000  0.000
       0.000  1.000  0.000  0.000  0.000
       0.000  0.000  1.000  0.000  0.000
       0.000  0.000  0.000  1.000  0.000
       0.000  0.000  0.000  0.000  1.000
     SPIN  2
     eigenvalues:
       0.400  0.400  0.400  0.400  0.400
     eigenvectors (columns):
       1.000  0.000  0.000  0.000  0.000
       0.000  1.000  0.000  0.000  0.000
       0.000  0.000  1.000  0.000  0.000
       0.000  0.000  0.000  1.000  0.000
       0.000  0.000  0.000  0.000  1.000
     occupation matrix ns (before diag.):
       0.400  0.000  0.000  0.000  0.000
       0.000  0.400  0.000  0.000  0.000
       0.000  0.000  0.400  0.000  0.000
       0.000  0.000  0.000  0.400  0.000
       0.000  0.000  0.000  0.000  0.400
     ------------------------ ATOM   24 ------------------------
     Tr[ns( 24)] (up, down, total) =   5.00000  0.00000  5.00000
     Atomic magnetic moment for atom  24 =   5.00000
     SPIN  1
     eigenvalues:
       1.000  1.000  1.000  1.000  1.000
     eigenvectors (columns):
       1.000  0.000  0.000  0.000  0.000
       0.000  1.000  0.000  0.000  0.000
       0.000  0.000  1.000  0.000  0.000
       0.000  0.000  0.000  1.000  0.000
       0.000  0.000  0.000  0.000  1.000
     occupation matrix ns (before diag.):
       1.000  0.000  0.000  0.000  0.000
       0.000  1.000  0.000  0.000  0.000
       0.000  0.000  1.000  0.000  0.000
       0.000  0.000  0.000  1.000  0.000
       0.000  0.000  0.000  0.000  1.000
     SPIN  2
     eigenvalues:
       0.000  0.000  0.000  0.000  0.000
     eigenvectors (columns):
       1.000  0.000  0.000  0.000  0.000
       0.000  1.000  0.000  0.000  0.000
       0.000  0.000  1.000  0.000  0.000
       0.000  0.000  0.000  1.000  0.000
       0.000  0.000  0.000  0.000  1.000
     occupation matrix ns (before diag.):
       0.000  0.000  0.000  0.000  0.000
       0.000  0.000  0.000  0.000  0.000
       0.000  0.000  0.000  0.000  0.000
       0.000  0.000  0.000  0.000  0.000
       0.000  0.000  0.000  0.000  0.000

     Number of occupied Hubbard levels =  116.4000

     Atomic wfc used for Hubbard projectors are NOT orthogonalized

     Starting wfcs are  483 randomized atomic wfcs
     Checking if some PAW data can be deallocated... 

     total cpu time spent up to now is       36.7 secs

     per-process dynamical memory:   544.0 Mb

     Self-consistent Calculation

     iteration #  1     ecut=    80.00 Ry     beta= 0.30
     Davidson diagonalization with overlap
     ethr =  1.00E-02,  avg # of iterations =  4.8

     =================== HUBBARD OCCUPATIONS ===================
     ------------------------ ATOM    1 ------------------------
     Tr[ns(  1)] (up, down, total) =   3.95487  0.51637  4.47124
     Atomic magnetic moment for atom   1 =   3.43850
     SPIN  1
     eigenvalues:
       0.518  0.558  0.930  0.973  0.975
     eigenvectors (columns):
      -0.244  0.957 -0.102 -0.113  0.028
      -0.021  0.106  0.993  0.033 -0.035
      -0.006  0.045 -0.046  0.196 -0.978
       0.032 -0.098  0.036 -0.973 -0.201
       0.969  0.247 -0.006  0.006  0.007
     occupation matrix ns (before diag.):
       0.565 -0.040 -0.019  0.042  0.010
      -0.040  0.926  0.000  0.003 -0.001
      -0.019  0.000  0.974  0.002 -0.002
       0.042  0.003  0.002  0.969 -0.004
       0.010 -0.001 -0.002 -0.004  0.521
     SPIN  2
     eigenvalues:
       0.052  0.065  0.070  0.128  0.202
     eigenvectors (columns):
       0.020 -0.042  0.264  0.963  0.003
      -0.016 -0.994 -0.106 -0.014  0.005
      -1.000  0.014  0.014  0.017 -0.003
       0.007 -0.098  0.959 -0.267  0.003
      -0.003  0.006 -0.003 -0.002  1.000
     occupation matrix ns (before diag.):
       0.124 -0.001  0.001 -0.015  0.000
      -0.001  0.065 -0.000 -0.000  0.001
       0.001 -0.000  0.052 -0.000 -0.000
      -0.015 -0.000 -0.000  0.074  0.000
       0.000  0.001 -0.000  0.000  0.202
     ------------------------ ATOM    2 ------------------------
     Tr[ns(  2)] (up, down, total) =   1.30924  0.38274  1.69198
     Atomic magnetic moment for atom   2 =   0.92650
     SPIN  1
     eigenvalues:
       0.188  0.211  0.231  0.276  0.403
     eigenvectors (columns):
       0.315  0.163  0.903  0.235 -0.057
      -0.314  0.495  0.220 -0.779 -0.044
       0.712 -0.421 -0.027 -0.561 -0.018
       0.544  0.742 -0.361  0.149  0.034
      -0.002 -0.002  0.073 -0.036  0.997
     occupation matrix ns (before diag.):
       0.229 -0.005 -0.014 -0.008 -0.010
      -0.005  0.250  0.033 -0.006 -0.006
      -0.014  0.033  0.220 -0.014 -0.002
      -0.008 -0.006 -0.014  0.209  0.006
      -0.010 -0.006 -0.002  0.006  0.402
     SPIN  2
     eigenvalues:
       0.036  0.045  0.051  0.089  0.162
     eigenvectors (columns):
      -0.016 -0.009 -0.279 -0.960  0.005
      -0.107 -0.994  0.025  0.004 -0.006
      -0.994  0.107  0.004  0.015 -0.001
      -0.002 -0.023 -0.960  0.279 -0.005
      -0.001 -0.006 -0.003  0.006  1.000
     occupation matrix ns (before diag.):
       0.086 -0.000 -0.001 -0.010  0.000
      -0.000  0.045 -0.001 -0.000 -0.001
      -0.001 -0.001  0.036  0.000 -0.000
      -0.010 -0.000  0.000  0.054 -0.001
       0.000 -0.001 -0.000 -0.001  0.162
     ------------------------ ATOM    3 ------------------------
     Tr[ns(  3)] (up, down, total) =   1.42278  0.43718  1.85996
     Atomic magnetic moment for atom   3 =   0.98561
     SPIN  1
     eigenvalues:
       0.197  0.221  0.294  0.307  0.403
     eigenvectors (columns):
       0.234 -0.057  0.129 -0.959 -0.071
       0.082 -0.399  0.897  0.160  0.057
      -0.191  0.886  0.419 -0.045  0.015
       0.949  0.227 -0.026  0.212  0.040
      -0.023 -0.004 -0.047 -0.086  0.995
     occupation matrix ns (before diag.):
       0.301 -0.006  0.008 -0.023 -0.006
      -0.006  0.283  0.027 -0.000  0.006
       0.008  0.027  0.234  0.003  0.002
      -0.023 -0.000  0.003  0.204  0.006
      -0.006  0.006  0.002  0.006  0.402
     SPIN  2
     eigenvalues:
       0.041  0.053  0.057  0.112  0.174
     eigenvectors (columns):
      -0.014  0.032  0.269  0.963  0.002
      -0.005 -0.996  0.084  0.010  0.006
       1.000 -0.004  0.008  0.012  0.002
      -0.004  0.078  0.960 -0.270 -0.003
      -0.002  0.006  0.001 -0.003  1.000
     occupation matrix ns (before diag.):
       0.108  0.001  0.001 -0.014  0.000
       0.001  0.053  0.000  0.000  0.001
       0.001  0.000  0.041 -0.000  0.000
      -0.014  0.000 -0.000  0.061 -0.000
       0.000  0.001  0.000 -0.000  0.174
     ------------------------ ATOM    5 ------------------------
     Tr[ns(  5)] (up, down, total) =   1.11285  0.40269  1.51554
     Atomic magnetic moment for atom   5 =   0.71016
     SPIN  1
     eigenvalues:
       0.157  0.161  0.165  0.299  0.331
     eigenvectors (columns):
       0.103  0.193 -0.906 -0.038  0.361
      -0.018  0.004  0.022 -0.999 -0.045
      -0.433 -0.871 -0.233 -0.001  0.004
      -0.046 -0.067  0.353 -0.034  0.931
       0.894 -0.447  0.010 -0.018  0.007
     occupation matrix ns (before diag.):
       0.186  0.002  0.001  0.056  0.000
       0.002  0.299  0.000 -0.002  0.003
       0.001  0.000  0.160  0.000  0.001
       0.056 -0.002  0.000  0.309  0.001
       0.000  0.003  0.001  0.001  0.158
     SPIN  2
     eigenvalues:
       0.038  0.046  0.049  0.119  0.151
     eigenvectors (columns):
       0.924 -0.021 -0.006 -0.010 -0.382
       0.002 -0.003  0.003  1.000 -0.020
      -0.024 -0.999  0.036 -0.003 -0.004
      -0.382  0.013  0.000 -0.018 -0.924
      -0.007 -0.036 -0.999  0.003  0.002
     occupation matrix ns (before diag.):
       0.054  0.000  0.000  0.040 -0.000
       0.000  0.119 -0.000  0.001  0.000
       0.000 -0.000  0.046  0.000 -0.000
       0.040  0.001  0.000  0.135 -0.000
      -0.000  0.000 -0.000 -0.000  0.049
     ------------------------ ATOM    6 ------------------------
     Tr[ns(  6)] (up, down, total) =   4.03777  0.63271  4.67048
     Atomic magnetic moment for atom   6 =   3.40507
     SPIN  1
     eigenvalues:
       0.531  0.548  0.981  0.987  0.991
     eigenvectors (columns):
       0.385 -0.113  0.023 -0.014  0.916
      -0.297 -0.955 -0.002 -0.002  0.007
       0.001  0.002 -0.990 -0.140  0.023
       0.874 -0.275 -0.009  0.000 -0.401
       0.005 -0.003 -0.140  0.990  0.016
     occupation matrix ns (before diag.):
       0.917  0.005  0.000 -0.169 -0.001
       0.005  0.546  0.001  0.003 -0.001
       0.000  0.001  0.981 -0.000 -0.001
      -0.169  0.003 -0.000  0.606 -0.002
      -0.001 -0.001 -0.001 -0.002  0.986
     SPIN  2
     eigenvalues:
       0.072  0.075  0.081  0.201  0.203
     eigenvectors (columns):
       0.080 -0.921 -0.016  0.235  0.300
       0.001 -0.002 -0.005 -0.790  0.612
      -0.994 -0.089  0.063 -0.002 -0.001
      -0.036  0.379  0.005  0.566  0.731
       0.064 -0.011  0.998 -0.003  0.004
     occupation matrix ns (before diag.):
       0.094  0.000  0.000  0.045 -0.000
       0.000  0.202  0.000  0.001  0.001
       0.000  0.000  0.072 -0.000  0.001
       0.045  0.001 -0.000  0.184  0.000
      -0.000  0.001  0.001  0.000  0.081
     ------------------------ ATOM    8 ------------------------
     Tr[ns(  8)] (up, down, total) =   1.67824  0.53943  2.21767
     Atomic magnetic moment for atom   8 =   1.13881
     SPIN  1
     eigenvalues:
       0.255  0.283  0.296  0.412  0.432
     eigenvectors (columns):
      -0.927  0.078 -0.040  0.107  0.348
       0.042 -0.018  0.016  0.982 -0.185
       0.023  0.712  0.701 -0.003 -0.019
       0.359 -0.026  0.040  0.157  0.919
       0.095  0.697 -0.711  0.022  0.010
     occupation matrix ns (before diag.):
       0.279  0.005 -0.001  0.059  0.004
       0.005  0.412  0.000 -0.006  0.002
      -0.001  0.000  0.289 -0.002 -0.007
       0.059 -0.006 -0.002  0.409  0.000
       0.004  0.002 -0.007  0.000  0.289
     SPIN  2
     eigenvalues:
       0.058  0.060  0.068  0.173  0.181
     eigenvectors (columns):
      -0.108  0.920 -0.001 -0.034  0.376
       0.001 -0.002 -0.003 -0.996 -0.085
       0.993  0.117 -0.029  0.001 -0.002
       0.046 -0.374  0.001 -0.078  0.923
       0.028  0.005  1.000 -0.003 -0.001
     occupation matrix ns (before diag.):
       0.077 -0.000  0.000  0.042 -0.000
      -0.000  0.173 -0.000 -0.001  0.000
       0.000 -0.000  0.058 -0.000 -0.000
       0.042 -0.001 -0.000  0.163 -0.000
      -0.000  0.000 -0.000 -0.000  0.068
     ------------------------ ATOM    9 ------------------------
     Tr[ns(  9)] (up, down, total) =   4.44870  0.51964  4.96834
     Atomic magnetic moment for atom   9 =   3.92906
     SPIN  1
     eigenvalues:
       0.700  0.782  0.987  0.989  0.991
     eigenvectors (columns):
      -0.970  0.218  0.070 -0.072 -0.030
      -0.009  0.055  0.555  0.830 -0.002
       0.050 -0.016  0.197 -0.132 -0.970
       0.076 -0.066  0.805 -0.532  0.241
       0.224  0.972  0.011 -0.069  0.007
     occupation matrix ns (before diag.):
       0.707 -0.005  0.015  0.024  0.019
      -0.005  0.988  0.000  0.000 -0.010
       0.015  0.000  0.990 -0.002 -0.000
       0.024  0.000 -0.002  0.985  0.008
       0.019 -0.010 -0.000  0.008  0.779
     SPIN  2
     eigenvalues:
       0.054  0.065  0.069  0.161  0.171
     eigenvectors (columns):
       0.118  0.039 -0.025 -0.425 -0.896
      -0.001 -0.387 -0.922 -0.003  0.010
      -0.052  0.920 -0.386  0.018  0.036
       0.992  0.043 -0.018  0.042  0.113
      -0.010  0.003  0.006 -0.904  0.428
     occupation matrix ns (before diag.):
       0.167 -0.001 -0.004 -0.014 -0.003
      -0.001  0.068  0.001  0.000  0.001
      -0.004  0.001  0.065  0.001  0.000
      -0.014  0.000  0.001  0.056  0.002
      -0.003  0.001  0.000  0.002  0.163
     ------------------------ ATOM   10 ------------------------
     Tr[ns( 10)] (up, down, total) =   4.91162  0.49620  5.40782
     Atomic magnetic moment for atom  10 =   4.41542
     SPIN  1
     eigenvalues:
       0.954  0.980  0.991  0.993  0.995
     eigenvectors (columns):
       0.933 -0.285  0.176 -0.128  0.022
      -0.084 -0.093 -0.381 -0.910  0.103
       0.028  0.010 -0.134  0.163  0.977
      -0.244 -0.089  0.892 -0.321  0.184
       0.249  0.950  0.101 -0.160  0.024
     occupation matrix ns (before diag.):
       0.957  0.003 -0.001  0.008 -0.006
       0.003  0.993  0.000  0.000  0.002
      -0.001  0.000  0.994  0.001 -0.000
       0.008  0.000  0.001  0.989  0.003
      -0.006  0.002 -0.000  0.003  0.978
     SPIN  2
     eigenvalues:
       0.053  0.054  0.061  0.160  0.168
     eigenvectors (columns):
      -0.012  0.135 -0.014 -0.607  0.783
      -0.191 -0.078 -0.978 -0.009 -0.013
      -0.910 -0.357  0.206 -0.026  0.031
      -0.367  0.921 -0.001  0.060 -0.118
      -0.013  0.021 -0.014  0.792  0.610
     occupation matrix ns (before diag.):
       0.163 -0.001  0.004 -0.014  0.003
      -0.001  0.061 -0.002  0.000 -0.002
       0.004 -0.002  0.054 -0.001 -0.000
      -0.014  0.000 -0.001  0.056 -0.003
       0.003 -0.002 -0.000 -0.003  0.163
     ------------------------ ATOM   11 ------------------------
     Tr[ns( 11)] (up, down, total) =   4.95500  0.64293  5.59794
     Atomic magnetic moment for atom  11 =   4.31207
     SPIN  1
     eigenvalues:
       0.979  0.993  0.994  0.994  0.995
     eigenvectors (columns):
      -0.982 -0.123 -0.132 -0.059 -0.021
      -0.002 -0.072 -0.335  0.940 -0.005
      -0.013 -0.082  0.015  0.005  0.996
       0.085 -0.957  0.262  0.020 -0.082
      -0.170  0.237  0.895  0.337  0.002
     occupation matrix ns (before diag.):
       0.979 -0.000 -0.000  0.001 -0.002
      -0.000  0.994 -0.000 -0.000  0.000
      -0.000 -0.000  0.995 -0.000 -0.000
       0.001 -0.000 -0.000  0.993  0.000
      -0.002  0.000 -0.000  0.000  0.993
     SPIN  2
     eigenvalues:
       0.064  0.085  0.090  0.188  0.216
     eigenvectors (columns):
       0.102 -0.003  0.023  0.070 -0.992
       0.010 -0.978 -0.210  0.002 -0.001
      -0.016 -0.210  0.977 -0.002  0.021
       0.994  0.007  0.016  0.014  0.103
       0.021 -0.002 -0.000 -0.997 -0.068
     occupation matrix ns (before diag.):
       0.214  0.000 -0.003 -0.015  0.002
       0.000  0.085 -0.001 -0.000 -0.000
      -0.003 -0.001  0.090  0.001  0.000
      -0.015 -0.000  0.001  0.066 -0.003
       0.002 -0.000  0.000 -0.003  0.188
     ------------------------ ATOM   12 ------------------------
     Tr[ns( 12)] (up, down, total) =   4.94848  0.47406  5.42254
     Atomic magnetic moment for atom  12 =   4.47442
     SPIN  1
     eigenvalues:
       0.982  0.990  0.991  0.992  0.993
     eigenvectors (columns):
      -0.863 -0.441 -0.129  0.172  0.122
      -0.073 -0.227 -0.080 -0.966 -0.061
       0.025  0.136  0.143 -0.107  0.974
       0.487 -0.713 -0.448  0.157  0.170
       0.112 -0.476  0.870  0.035 -0.060
     occupation matrix ns (before diag.):
       0.984 -0.001  0.000  0.003  0.001
      -0.001  0.992  0.000 -0.000 -0.000
       0.000  0.000  0.993  0.000 -0.000
       0.003 -0.000  0.000  0.988 -0.001
       0.001 -0.000 -0.000 -0.001  0.991
     SPIN  2
     eigenvalues:
       0.051  0.052  0.058  0.152  0.161
     eigenvectors (columns):
       0.024 -0.114 -0.014 -0.809 -0.576
       0.344 -0.037  0.938  0.001 -0.004
      -0.934  0.087  0.345 -0.031 -0.021
      -0.098 -0.989 -0.003  0.076  0.085
       0.005  0.024  0.003 -0.582  0.813
     occupation matrix ns (before diag.):
       0.154  0.000  0.004 -0.011 -0.004
       0.000  0.057  0.002 -0.000 -0.000
       0.004  0.002  0.052 -0.000 -0.000
      -0.011 -0.000 -0.000  0.053  0.003
      -0.004 -0.000 -0.000  0.003  0.158
     ------------------------ ATOM   13 ------------------------
     Tr[ns( 13)] (up, down, total) =   4.66428  0.49252  5.15681
     Atomic magnetic moment for atom  13 =   4.17176
     SPIN  1
     eigenvalues:
       0.816  0.880  0.983  0.991  0.993
     eigenvectors (columns):
      -0.369 -0.185  0.907 -0.074 -0.026
       0.329 -0.940 -0.064 -0.055 -0.039
       0.018 -0.002 -0.006 -0.469  0.883
      -0.867 -0.271 -0.413 -0.059 -0.017
       0.059  0.094 -0.041 -0.877 -0.467
     occupation matrix ns (before diag.):
       0.957  0.002  0.001 -0.059  0.006
       0.002  0.874 -0.001  0.021  0.006
       0.001 -0.001  0.992  0.003 -0.001
      -0.059  0.021  0.003  0.850  0.012
       0.006  0.006 -0.001  0.012  0.990
     SPIN  2
     eigenvalues:
       0.053  0.054  0.060  0.160  0.165
     eigenvectors (columns):
       0.731 -0.548 -0.010 -0.296 -0.279
       0.007 -0.017  0.023  0.710 -0.704
       0.588  0.765  0.262  0.015  0.010
      -0.313  0.260  0.006 -0.638 -0.653
      -0.150 -0.215  0.965 -0.021  0.015
     occupation matrix ns (before diag.):
       0.072 -0.000 -0.001  0.040  0.000
      -0.000  0.162  0.000  0.003 -0.003
      -0.001  0.000  0.054 -0.002  0.002
       0.040  0.003 -0.002  0.144  0.000
       0.000 -0.003  0.002  0.000  0.060
     ------------------------ ATOM   14 ------------------------
     Tr[ns( 14)] (up, down, total) =   4.97420  0.72078  5.69498
     Atomic magnetic moment for atom  14 =   4.25342
     SPIN  1
     eigenvalues:
       0.992  0.993  0.996  0.997  0.997
     eigenvectors (columns):
      -0.719  0.280  0.634 -0.060 -0.006
      -0.138  0.839 -0.520  0.078  0.020
       0.023  0.011 -0.005 -0.357  0.934
      -0.675 -0.457 -0.572 -0.084 -0.013
      -0.088 -0.090  0.031  0.925  0.357
     occupation matrix ns (before diag.):
       0.994 -0.001  0.000 -0.002 -0.000
      -0.001  0.994 -0.000  0.001  0.000
       0.000 -0.000  0.997  0.000  0.000
      -0.002  0.001  0.000  0.993 -0.000
      -0.000  0.000  0.000 -0.000  0.997
     SPIN  2
     eigenvalues:
       0.080  0.096  0.120  0.206  0.218
     eigenvectors (columns):
       0.009  0.039 -0.900 -0.046 -0.432
       0.005 -0.014  0.068 -0.997 -0.036
       0.949  0.314  0.021  0.001  0.004
      -0.004 -0.005  0.429  0.062 -0.901
      -0.314  0.949  0.034 -0.013  0.011
     occupation matrix ns (before diag.):
       0.138  0.006 -0.001  0.038 -0.001
       0.006  0.206 -0.000 -0.002  0.001
      -0.001 -0.000  0.082 -0.000  0.005
       0.038 -0.002 -0.000  0.200 -0.001
      -0.001  0.001  0.005 -0.001  0.095
     ------------------------ ATOM   15 ------------------------
     Tr[ns( 15)] (up, down, total) =   3.95302  0.50078  4.45380
     Atomic magnetic moment for atom  15 =   3.45225
     SPIN  1
     eigenvalues:
       0.476  0.521  0.977  0.985  0.993
     eigenvectors (columns):
      -0.313 -0.309  0.883 -0.160  0.007
       0.692 -0.722 -0.007  0.006  0.001
       0.018  0.015  0.016 -0.020 -0.999
      -0.650 -0.618 -0.428  0.106 -0.029
       0.015  0.021  0.191  0.981 -0.016
     occupation matrix ns (before diag.):
       0.885  0.007  0.005 -0.190  0.004
       0.007  0.500 -0.001  0.022  0.002
       0.005 -0.001  0.993  0.010 -0.000
      -0.190  0.022  0.010  0.591  0.012
       0.004  0.002 -0.000  0.012  0.985
     SPIN  2
     eigenvalues:
       0.053  0.056  0.062  0.161  0.169
     eigenvectors (columns):
       0.174  0.908 -0.024  0.279 -0.259
       0.006 -0.009  0.026  0.694  0.720
       0.959 -0.183 -0.216 -0.012  0.009
      -0.053 -0.377  0.022  0.663 -0.644
       0.218 -0.010  0.975 -0.029 -0.009
     occupation matrix ns (before diag.):
       0.072 -0.001 -0.001  0.038 -0.001
      -0.001  0.165 -0.000 -0.004 -0.003
      -0.001 -0.000  0.054 -0.001 -0.002
       0.038 -0.004 -0.001  0.149 -0.001
      -0.001 -0.003 -0.002 -0.001  0.062
     ------------------------ ATOM   16 ------------------------
     Tr[ns( 16)] (up, down, total) =   4.94347  0.57117  5.51465
     Atomic magnetic moment for atom  16 =   4.37230
     SPIN  1
     eigenvalues:
       0.982  0.985  0.991  0.992  0.994
     eigenvectors (columns):
      -0.678 -0.094  0.726  0.065 -0.024
       0.332  0.844  0.412  0.088 -0.011
       0.026 -0.036  0.033  0.212  0.976
      -0.651  0.513 -0.549  0.106  0.032
       0.081 -0.119 -0.033  0.965 -0.215
     occupation matrix ns (before diag.):
       0.987  0.003  0.000 -0.004  0.001
       0.003  0.985  0.000 -0.001  0.000
       0.000  0.000  0.994  0.000 -0.000
      -0.004 -0.001  0.000  0.985  0.001
       0.001  0.000 -0.000  0.001  0.992
     SPIN  2
     eigenvalues:
       0.066  0.076  0.080  0.163  0.186
     eigenvectors (columns):
       0.014 -0.077 -0.908 -0.103  0.398
       0.005 -0.004 -0.023  0.979  0.200
      -0.987 -0.163 -0.000  0.004  0.003
      -0.002  0.024  0.410 -0.173  0.895
      -0.162  0.983 -0.081  0.001  0.011
     occupation matrix ns (before diag.):
       0.098  0.000  0.000  0.039  0.001
       0.000  0.164  0.000  0.005  0.000
       0.000  0.000  0.066  0.000 -0.002
       0.039  0.005  0.000  0.167  0.001
       0.001  0.000 -0.002  0.001  0.076
     ------------------------ ATOM   17 ------------------------
     Tr[ns( 17)] (up, down, total) =   4.92956  0.47478  5.40435
     Atomic magnetic moment for atom  17 =   4.45478
     SPIN  1
     eigenvalues:
       0.951  0.993  0.994  0.994  0.997
     eigenvectors (columns):
       0.986 -0.081  0.050 -0.135  0.038
      -0.002 -0.656 -0.749  0.087 -0.044
      -0.028 -0.015 -0.038  0.066  0.997
      -0.158 -0.257  0.113 -0.945  0.059
      -0.053 -0.705  0.650  0.278 -0.005
     occupation matrix ns (before diag.):
       0.953  0.000  0.001  0.007  0.002
       0.000  0.994 -0.000 -0.000 -0.000
       0.001 -0.000  0.997 -0.000 -0.000
       0.007 -0.000 -0.000  0.993 -0.001
       0.002 -0.000 -0.000 -0.001  0.993
     SPIN  2
     eigenvalues:
       0.053  0.055  0.064  0.137  0.167
     eigenvectors (columns):
      -0.032 -0.193 -0.003 -0.977 -0.085
      -0.148  0.117 -0.982 -0.014 -0.011
       0.969 -0.181 -0.168  0.005 -0.004
      -0.195 -0.957 -0.088  0.193  0.028
       0.005  0.011 -0.009 -0.089  0.996
     occupation matrix ns (before diag.):
       0.134  0.001 -0.000 -0.016 -0.002
       0.001  0.063  0.002  0.000 -0.001
      -0.000  0.002  0.054  0.000 -0.000
      -0.016  0.000  0.000  0.058  0.002
      -0.002 -0.001 -0.000  0.002  0.166
     ------------------------ ATOM   18 ------------------------
     Tr[ns( 18)] (up, down, total) =   4.97902  3.73107  8.71009
     Atomic magnetic moment for atom  18 =   1.24795
     SPIN  1
     eigenvalues:
       0.988  0.997  0.998  0.998  0.998
     eigenvectors (columns):
      -0.998 -0.030 -0.019 -0.000 -0.050
       0.024 -0.746 -0.133  0.652  0.010
      -0.049  0.018 -0.088 -0.011  0.995
       0.026 -0.161 -0.911 -0.370 -0.080
      -0.010  0.645 -0.380  0.662 -0.038
     occupation matrix ns (before diag.):
       0.988  0.000 -0.001  0.000 -0.000
       0.000  0.997  0.000 -0.000  0.000
      -0.001  0.000  0.998 -0.000 -0.000
       0.000 -0.000 -0.000  0.998  0.000
      -0.000  0.000 -0.000  0.000  0.997
     SPIN  2
     eigenvalues:
       0.329  0.628  0.915  0.924  0.935
     eigenvectors (columns):
       0.039  0.991  0.121  0.024  0.019
      -0.007 -0.033  0.038  0.967  0.251
       0.007  0.020 -0.070  0.254 -0.964
      -0.021 -0.118  0.989 -0.022 -0.080
       0.999 -0.041  0.017  0.004  0.006
     occupation matrix ns (before diag.):
       0.632  0.010 -0.006  0.034 -0.011
       0.010  0.925 -0.002 -0.002  0.004
      -0.006 -0.002  0.934  0.002 -0.004
       0.034 -0.002  0.002  0.911  0.011
      -0.011  0.004 -0.004  0.011  0.330
     ------------------------ ATOM   19 ------------------------
     Tr[ns( 19)] (up, down, total) =   4.98116  0.60811  5.58927
     Atomic magnetic moment for atom  19 =   4.37305
     SPIN  1
     eigenvalues:
       0.995  0.996  0.997  0.997  0.997
     eigenvectors (columns):
       0.887 -0.385  0.035  0.222 -0.121
      -0.105  0.142 -0.060  0.146 -0.972
       0.043 -0.367 -0.037 -0.908 -0.192
      -0.424 -0.763  0.396  0.282 -0.048
       0.145  0.339  0.915 -0.157 -0.047
     occupation matrix ns (before diag.):
       0.995  0.000 -0.000  0.000 -0.000
       0.000  0.997  0.000  0.000  0.000
      -0.000  0.000  0.997 -0.000  0.000
       0.000  0.000 -0.000  0.996  0.000
      -0.000  0.000  0.000  0.000  0.996
     SPIN  2
     eigenvalues:
       0.063  0.074  0.087  0.189  0.194
     eigenvectors (columns):
       0.150  0.033 -0.032 -0.664  0.731
       0.014  0.252 -0.967  0.018 -0.041
      -0.745  0.642  0.153 -0.068  0.069
       0.650  0.723  0.203  0.065 -0.098
       0.009  0.019 -0.010  0.742  0.671
     occupation matrix ns (before diag.):
       0.189 -0.005  0.012 -0.015  0.002
      -0.005  0.087 -0.002 -0.002 -0.002
       0.012 -0.002  0.070  0.004 -0.000
      -0.015 -0.002  0.004  0.072 -0.002
       0.002 -0.002 -0.000 -0.002  0.191
     ------------------------ ATOM   20 ------------------------
     Tr[ns( 20)] (up, down, total) =   4.97618  3.59263  8.56881
     Atomic magnetic moment for atom  20 =   1.38354
     SPIN  1
     eigenvalues:
       0.994  0.994  0.995  0.996  0.997
     eigenvectors (columns):
      -0.411 -0.052 -0.675 -0.585  0.173
      -0.365  0.918  0.133  0.040  0.064
      -0.038  0.039 -0.634  0.770  0.053
       0.829  0.387 -0.321 -0.244  0.010
       0.090 -0.057  0.148  0.062  0.981
     occupation matrix ns (before diag.):
       0.995 -0.000 -0.000  0.000  0.000
      -0.000  0.994 -0.000  0.000  0.000
      -0.000 -0.000  0.995 -0.000  0.000
       0.000  0.000 -0.000  0.994 -0.000
       0.000  0.000  0.000 -0.000  0.997
     SPIN  2
     eigenvalues:
       0.283  0.592  0.899  0.907  0.912
     eigenvectors (columns):
      -0.018  0.990 -0.058  0.008  0.131
      -0.023  0.048  0.250 -0.947 -0.195
      -0.011  0.038 -0.772 -0.072 -0.631
       0.012 -0.129 -0.582 -0.313  0.739
       0.999  0.021  0.004 -0.019 -0.018
     occupation matrix ns (before diag.):
       0.599 -0.015 -0.013  0.041  0.005
      -0.015  0.905  0.001  0.003  0.014
      -0.013  0.001  0.904 -0.004  0.007
       0.041  0.003 -0.004  0.902 -0.007
       0.005  0.014  0.007 -0.007  0.284
     ------------------------ ATOM   21 ------------------------
     Tr[ns( 21)] (up, down, total) =   4.97223  2.73350  7.70573
     Atomic magnetic moment for atom  21 =   2.23872
     SPIN  1
     eigenvalues:
       0.992  0.993  0.995  0.995  0.997
     eigenvectors (columns):
      -0.668 -0.414 -0.036  0.227  0.574
      -0.406  0.241  0.287 -0.832  0.049
      -0.064  0.214  0.889  0.399 -0.022
       0.437  0.387 -0.015 -0.059  0.810
      -0.440  0.758 -0.354  0.306 -0.109
     occupation matrix ns (before diag.):
       0.994 -0.000  0.000  0.002 -0.000
      -0.000  0.994 -0.000  0.000 -0.001
       0.000 -0.000  0.995 -0.000 -0.000
       0.002  0.000 -0.000  0.995 -0.000
      -0.000 -0.001 -0.000 -0.000  0.994
     SPIN  2
     eigenvalues:
       0.189  0.202  0.681  0.800  0.862
     eigenvectors (columns):
       0.207 -0.385 -0.293  0.016  0.850
       0.923  0.380  0.041 -0.034 -0.038
       0.011 -0.076  0.925  0.246  0.277
       0.325 -0.836  0.055  0.015 -0.439
       0.021  0.052 -0.230  0.968 -0.079
     occupation matrix ns (before diag.):
       0.720 -0.030  0.028 -0.254 -0.003
      -0.030  0.193  0.006  0.008 -0.023
       0.028  0.006  0.699 -0.054  0.026
      -0.254  0.008 -0.054  0.330  0.025
      -0.003 -0.023  0.026  0.025  0.792
     ------------------------ ATOM   22 ------------------------
     Tr[ns( 22)] (up, down, total) =   4.96553  0.56890  5.53443
     Atomic magnetic moment for atom  22 =   4.39664
     SPIN  1
     eigenvalues:
       0.991  0.991  0.993  0.994  0.996
     eigenvectors (columns):
      -0.369 -0.406  0.149  0.236  0.788
       0.483 -0.568 -0.663  0.053  0.043
      -0.151 -0.139 -0.057 -0.964  0.157
       0.598  0.544  0.002 -0.078  0.583
      -0.500  0.444 -0.731  0.075  0.110
     occupation matrix ns (before diag.):
       0.994 -0.000 -0.000  0.002  0.000
      -0.000  0.992 -0.000  0.000  0.001
      -0.000 -0.000  0.994  0.001 -0.000
       0.002  0.000  0.001  0.993  0.000
       0.000  0.001 -0.000  0.000  0.993
     SPIN  2
     eigenvalues:
       0.065  0.074  0.080  0.168  0.182
     eigenvectors (columns):
       0.044 -0.896 -0.344 -0.278  0.005
      -0.026 -0.043  0.115 -0.026 -0.992
       0.994  0.012  0.012  0.102 -0.028
       0.094  0.278  0.061 -0.954  0.017
       0.001 -0.344  0.930 -0.038  0.124
     occupation matrix ns (before diag.):
       0.082 -0.000 -0.003  0.025 -0.001
      -0.000  0.181  0.003  0.001 -0.013
      -0.003  0.003  0.066 -0.010 -0.001
       0.025  0.001 -0.010  0.160  0.004
      -0.001 -0.013 -0.001  0.004  0.081
     ------------------------ ATOM   23 ------------------------
     Tr[ns( 23)] (up, down, total) =   4.97143  2.61964  7.59106
     Atomic magnetic moment for atom  23 =   2.35179
     SPIN  1
     eigenvalues:
       0.992  0.993  0.995  0.995  0.997
     eigenvectors (columns):
       0.664 -0.495 -0.138 -0.160  0.520
      -0.508 -0.271 -0.603 -0.549  0.061
       0.117  0.185  0.545 -0.806 -0.077
      -0.322  0.404  0.128  0.052  0.845
      -0.430 -0.696  0.552  0.143  0.077
     occupation matrix ns (before diag.):
       0.994  0.001 -0.000  0.002  0.000
       0.001  0.994  0.000 -0.000 -0.001
      -0.000  0.000  0.995 -0.000  0.000
       0.002 -0.000 -0.000  0.996  0.000
       0.000 -0.001  0.000  0.000  0.994
     SPIN  2
     eigenvalues:
       0.182  0.203  0.613  0.767  0.854
     eigenvectors (columns):
       0.151  0.393 -0.339 -0.008 -0.841
      -0.955  0.293 -0.039  0.024 -0.019
       0.004  0.094  0.909  0.246 -0.324
       0.255  0.865  0.059  0.011  0.427
      -0.021  0.038  0.234 -0.969 -0.070
     occupation matrix ns (before diag.):
       0.711  0.019  0.050 -0.243  0.011
       0.019  0.185 -0.007 -0.001 -0.016
       0.050 -0.007  0.644 -0.067 -0.033
      -0.243 -0.001 -0.067  0.322 -0.020
       0.011 -0.016 -0.033 -0.020  0.758
     ------------------------ ATOM   24 ------------------------
     Tr[ns( 24)] (up, down, total) =   4.97226  0.50389  5.47615
     Atomic magnetic moment for atom  24 =   4.46836
     SPIN  1
     eigenvalues:
       0.992  0.994  0.995  0.995  0.996
     eigenvectors (columns):
       0.136 -0.144  0.165  0.961  0.097
      -0.247 -0.874 -0.419 -0.025  0.007
      -0.103  0.084 -0.140  0.149 -0.970
      -0.953  0.213  0.113  0.135  0.124
      -0.037 -0.405  0.875 -0.187 -0.186
     occupation matrix ns (before diag.):
       0.995  0.000  0.000  0.000 -0.000
       0.000  0.994 -0.000 -0.001 -0.000
       0.000 -0.000  0.996 -0.000  0.000
       0.000 -0.001 -0.000  0.992 -0.000
      -0.000 -0.000  0.000 -0.000  0.995
     SPIN  2
     eigenvalues:
       0.053  0.058  0.064  0.159  0.170
     eigenvectors (columns):
      -0.139 -0.915  0.179  0.331 -0.042
      -0.018  0.019  0.106 -0.136 -0.985
      -0.986  0.121  0.039 -0.096  0.037
      -0.055  0.341 -0.046  0.929 -0.126
       0.064  0.177  0.976  0.002  0.107
     occupation matrix ns (before diag.):
       0.069  0.000 -0.004  0.032  0.001
       0.000  0.169 -0.003  0.001 -0.011
      -0.004 -0.003  0.054 -0.010  0.001
       0.032  0.001 -0.010  0.147 -0.002
       0.001 -0.011  0.001 -0.002  0.065

     Number of occupied Hubbard levels =  113.2236

     negative rho (up, down):  4.109E-02 2.909E-02

     total cpu time spent up to now is      105.4 secs

     total energy              =   -7583.16348360 Ry
     estimated scf accuracy    <     761.25058763 Ry

     total magnetization       =    70.73 Bohr mag/cell
     absolute magnetization    =    80.73 Bohr mag/cell

     iteration #  2     ecut=    80.00 Ry     beta= 0.30
     Davidson diagonalization with overlap
     ethr =  1.00E-02,  avg # of iterations =  4.0

     negative rho (up, down):  5.933E-02 4.499E-02

     total cpu time spent up to now is      166.0 secs

     total energy              =   -7588.40378601 Ry
     estimated scf accuracy    <     265.33499471 Ry

     total magnetization       =    70.74 Bohr mag/cell
     absolute magnetization    =    81.63 Bohr mag/cell

     iteration #  3     ecut=    80.00 Ry     beta= 0.30
     Davidson diagonalization with overlap
     ethr =  1.00E-02,  avg # of iterations =  1.5

     negative rho (up, down):  8.540E-02 7.979E-02

     total cpu time spent up to now is      213.8 secs

     total energy              =   -7589.53433137 Ry
     estimated scf accuracy    <     111.84540792 Ry

     total magnetization       =    65.57 Bohr mag/cell
     absolute magnetization    =    82.19 Bohr mag/cell

     iteration #  4     ecut=    80.00 Ry     beta= 0.30
     Davidson diagonalization with overlap
     ethr =  1.00E-02,  avg # of iterations =  3.6

     negative rho (up, down):  9.438E-02 9.217E-02

     total cpu time spent up to now is      265.7 secs

     total energy              =   -7591.65131410 Ry
     estimated scf accuracy    <     109.72225318 Ry

     total magnetization       =    51.44 Bohr mag/cell
     absolute magnetization    =    73.35 Bohr mag/cell

     iteration #  5     ecut=    80.00 Ry     beta= 0.30
     Davidson diagonalization with overlap
     ethr =  1.00E-02,  avg # of iterations =  1.2

     negative rho (up, down):  9.557E-02 9.763E-02

     total cpu time spent up to now is      312.2 secs

     total energy              =   -7592.71985751 Ry
     estimated scf accuracy    <      28.89664553 Ry

     total magnetization       =    49.52 Bohr mag/cell
     absolute magnetization    =    73.40 Bohr mag/cell

     iteration #  6     ecut=    80.00 Ry     beta= 0.30
     Davidson diagonalization with overlap
     ethr =  4.40E-03,  avg # of iterations =  1.5

     negative rho (up, down):  1.269E-01 1.533E-01

     total cpu time spent up to now is      360.1 secs

     total energy              =   -7593.93156234 Ry
     estimated scf accuracy    <      28.95205546 Ry

     total magnetization       =    58.86 Bohr mag/cell
     absolute magnetization    =    77.46 Bohr mag/cell

     iteration #  7     ecut=    80.00 Ry     beta= 0.30
     Davidson diagonalization with overlap
     ethr =  4.40E-03,  avg # of iterations =  2.5

     negative rho (up, down):  1.330E-01 1.640E-01

     total cpu time spent up to now is      408.5 secs

     total energy              =   -7594.47672748 Ry
     estimated scf accuracy    <      28.05769257 Ry

     total magnetization       =    52.45 Bohr mag/cell
     absolute magnetization    =    71.18 Bohr mag/cell

     iteration #  8     ecut=    80.00 Ry     beta= 0.30
     Davidson diagonalization with overlap
     ethr =  4.27E-03,  avg # of iterations =  1.7

     negative rho (up, down):  1.343E-01 1.648E-01

     total cpu time spent up to now is      456.3 secs

     total energy              =   -7594.20575593 Ry
     estimated scf accuracy    <      12.48661406 Ry

     total magnetization       =    53.43 Bohr mag/cell
     absolute magnetization    =    71.53 Bohr mag/cell

     iteration #  9     ecut=    80.00 Ry     beta= 0.30
     Davidson diagonalization with overlap
     ethr =  1.90E-03,  avg # of iterations =  6.2

     negative rho (up, down):  1.364E-01 1.692E-01

     total cpu time spent up to now is      510.0 secs

     total energy              =   -7594.36068013 Ry
     estimated scf accuracy    <       2.54578220 Ry

     total magnetization       =    52.82 Bohr mag/cell
     absolute magnetization    =    71.01 Bohr mag/cell

     iteration # 10     ecut=    80.00 Ry     beta= 0.30
     Davidson diagonalization with overlap
     ethr =  3.87E-04,  avg # of iterations =  4.7

     negative rho (up, down):  1.330E-01 1.643E-01

     total cpu time spent up to now is      564.4 secs

     total energy              =   -7594.40855767 Ry
     estimated scf accuracy    <       0.84028329 Ry

     total magnetization       =    51.15 Bohr mag/cell
     absolute magnetization    =    69.46 Bohr mag/cell

     iteration # 11     ecut=    80.00 Ry     beta= 0.30
     Davidson diagonalization with overlap
     ethr =  1.28E-04,  avg # of iterations =  4.0

     negative rho (up, down):  1.290E-01 1.593E-01

     total cpu time spent up to now is      616.6 secs

     total energy              =   -7594.46542381 Ry
     estimated scf accuracy    <       0.45380896 Ry

     total magnetization       =    50.95 Bohr mag/cell
     absolute magnetization    =    68.76 Bohr mag/cell

     iteration # 12     ecut=    80.00 Ry     beta= 0.30
     Davidson diagonalization with overlap
     ethr =  6.91E-05,  avg # of iterations =  5.9

     negative rho (up, down):  1.186E-01 1.463E-01

     total cpu time spent up to now is      673.6 secs

     total energy              =   -7594.50050453 Ry
     estimated scf accuracy    <       0.28294332 Ry

     total magnetization       =    50.64 Bohr mag/cell
     absolute magnetization    =    68.57 Bohr mag/cell

     iteration # 13     ecut=    80.00 Ry     beta= 0.30
     Davidson diagonalization with overlap
     ethr =  4.31E-05,  avg # of iterations =  3.8

     negative rho (up, down):  1.065E-01 1.315E-01

     total cpu time spent up to now is      729.1 secs

     total energy              =   -7594.53463919 Ry
     estimated scf accuracy    <       0.15934729 Ry

     total magnetization       =    50.14 Bohr mag/cell
     absolute magnetization    =    68.15 Bohr mag/cell

     iteration # 14     ecut=    80.00 Ry     beta= 0.30
     Davidson diagonalization with overlap
     ethr =  2.43E-05,  avg # of iterations =  1.9

     negative rho (up, down):  9.291E-02 1.164E-01

     total cpu time spent up to now is      776.8 secs

     total energy              =   -7594.54691857 Ry
     estimated scf accuracy    <       0.11067508 Ry

     total magnetization       =    49.74 Bohr mag/cell
     absolute magnetization    =    68.14 Bohr mag/cell

     iteration # 15     ecut=    80.00 Ry     beta= 0.30
     Davidson diagonalization with overlap
     ethr =  1.68E-05,  avg # of iterations =  1.2

     negative rho (up, down):  8.276E-02 1.057E-01

     total cpu time spent up to now is      823.2 secs

     total energy              =   -7594.55485051 Ry
     estimated scf accuracy    <       0.11694393 Ry

     total magnetization       =    49.30 Bohr mag/cell
     absolute magnetization    =    67.94 Bohr mag/cell

     iteration # 16     ecut=    80.00 Ry     beta= 0.30
     Davidson diagonalization with overlap
     ethr =  1.68E-05,  avg # of iterations =  1.1

     negative rho (up, down):  7.967E-02 1.026E-01

     total cpu time spent up to now is      869.9 secs

     total energy              =   -7594.55745902 Ry
     estimated scf accuracy    <       0.11882967 Ry

     total magnetization       =    48.78 Bohr mag/cell
     absolute magnetization    =    67.85 Bohr mag/cell

     iteration # 17     ecut=    80.00 Ry     beta= 0.30
     Davidson diagonalization with overlap
     ethr =  1.68E-05,  avg # of iterations =  1.0

     negative rho (up, down):  6.346E-02 8.632E-02

     total cpu time spent up to now is      913.1 secs

     total energy              =   -7594.55980673 Ry
     estimated scf accuracy    <       0.05120526 Ry

     total magnetization       =    48.68 Bohr mag/cell
     absolute magnetization    =    67.63 Bohr mag/cell

     iteration # 18     ecut=    80.00 Ry     beta= 0.30
     Davidson diagonalization with overlap
     ethr =  7.79E-06,  avg # of iterations =  1.9

     negative rho (up, down):  4.892E-02 7.168E-02

     total cpu time spent up to now is      961.0 secs

     total energy              =   -7594.56509818 Ry
     estimated scf accuracy    <       0.06581537 Ry

     total magnetization       =    47.85 Bohr mag/cell
     absolute magnetization    =    67.53 Bohr mag/cell

     iteration # 19     ecut=    80.00 Ry     beta= 0.30
     Davidson diagonalization with overlap
     ethr =  7.79E-06,  avg # of iterations =  1.1

     negative rho (up, down):  4.602E-02 6.862E-02

     total cpu time spent up to now is     1005.5 secs

     total energy              =   -7594.57019047 Ry
     estimated scf accuracy    <       0.03536279 Ry

     total magnetization       =    47.28 Bohr mag/cell
     absolute magnetization    =    67.21 Bohr mag/cell

     iteration # 20     ecut=    80.00 Ry     beta= 0.30
     Davidson diagonalization with overlap
     ethr =  5.38E-06,  avg # of iterations =  1.2

     negative rho (up, down):  3.842E-02 6.106E-02

     total cpu time spent up to now is     1051.9 secs

     total energy              =   -7594.57292583 Ry
     estimated scf accuracy    <       0.03533534 Ry

     total magnetization       =    47.15 Bohr mag/cell
     absolute magnetization    =    67.19 Bohr mag/cell

     iteration # 21     ecut=    80.00 Ry     beta= 0.30
     Davidson diagonalization with overlap
     ethr =  5.38E-06,  avg # of iterations =  1.1

     negative rho (up, down):  2.763E-02 4.992E-02

     total cpu time spent up to now is     1098.3 secs

     total energy              =   -7594.57697976 Ry
     estimated scf accuracy    <       0.02043013 Ry

     total magnetization       =    46.76 Bohr mag/cell
     absolute magnetization    =    66.98 Bohr mag/cell

     iteration # 22     ecut=    80.00 Ry     beta= 0.30
     Davidson diagonalization with overlap
     ethr =  3.11E-06,  avg # of iterations =  2.6

     negative rho (up, down):  2.245E-02 4.456E-02

     total cpu time spent up to now is     1147.8 secs

     total energy              =   -7594.58064976 Ry
     estimated scf accuracy    <       0.01278971 Ry

     total magnetization       =    46.48 Bohr mag/cell
     absolute magnetization    =    66.86 Bohr mag/cell

     iteration # 23     ecut=    80.00 Ry     beta= 0.30
     Davidson diagonalization with overlap
     ethr =  1.95E-06,  avg # of iterations =  4.8

     negative rho (up, down):  1.384E-02 3.556E-02

     total cpu time spent up to now is     1201.3 secs

     total energy              =   -7594.58216319 Ry
     estimated scf accuracy    <       0.00811177 Ry

     total magnetization       =    46.44 Bohr mag/cell
     absolute magnetization    =    66.80 Bohr mag/cell

     iteration # 24     ecut=    80.00 Ry     beta= 0.30
     Davidson diagonalization with overlap
     ethr =  1.23E-06,  avg # of iterations =  2.7

     negative rho (up, down):  9.788E-03 3.112E-02

     total cpu time spent up to now is     1251.6 secs

     total energy              =   -7594.58368046 Ry
     estimated scf accuracy    <       0.00475677 Ry

     total magnetization       =    46.45 Bohr mag/cell
     absolute magnetization    =    66.77 Bohr mag/cell

     iteration # 25     ecut=    80.00 Ry     beta= 0.30
     Davidson diagonalization with overlap
     ethr =  7.24E-07,  avg # of iterations =  1.3

     negative rho (up, down):  6.018E-03 2.662E-02

     total cpu time spent up to now is     1298.7 secs

     total energy              =   -7594.58488608 Ry
     estimated scf accuracy    <       0.00392353 Ry

     total magnetization       =    46.47 Bohr mag/cell
     absolute magnetization    =    66.78 Bohr mag/cell

     iteration # 26     ecut=    80.00 Ry     beta= 0.30
     Davidson diagonalization with overlap
     ethr =  5.97E-07,  avg # of iterations =  2.6

     negative rho (up, down):  2.689E-03 2.311E-02

     total cpu time spent up to now is     1348.7 secs

     total energy              =   -7594.58588830 Ry
     estimated scf accuracy    <       0.00305968 Ry

     total magnetization       =    46.48 Bohr mag/cell
     absolute magnetization    =    66.78 Bohr mag/cell

     iteration # 27     ecut=    80.00 Ry     beta= 0.30
     Davidson diagonalization with overlap
     ethr =  4.66E-07,  avg # of iterations =  1.6

     negative rho (up, down):  2.839E-03 2.310E-02

     total cpu time spent up to now is     1395.9 secs

     total energy              =   -7594.58719158 Ry
     estimated scf accuracy    <       0.00207962 Ry

     total magnetization       =    46.48 Bohr mag/cell
     absolute magnetization    =    66.75 Bohr mag/cell

     iteration # 28     ecut=    80.00 Ry     beta= 0.30
     Davidson diagonalization with overlap
     ethr =  3.17E-07,  avg # of iterations =  2.0

     negative rho (up, down):  3.466E-03 2.377E-02

     total cpu time spent up to now is     1444.6 secs

     total energy              =   -7594.58809616 Ry
     estimated scf accuracy    <       0.00243973 Ry

     total magnetization       =    46.53 Bohr mag/cell
     absolute magnetization    =    66.77 Bohr mag/cell

     iteration # 29     ecut=    80.00 Ry     beta= 0.30
     Davidson diagonalization with overlap
     ethr =  3.17E-07,  avg # of iterations =  1.2

     negative rho (up, down):  3.602E-03 2.356E-02

     total cpu time spent up to now is     1489.9 secs

     total energy              =   -7594.58858663 Ry
     estimated scf accuracy    <       0.00092898 Ry

     total magnetization       =    46.52 Bohr mag/cell
     absolute magnetization    =    66.74 Bohr mag/cell

     iteration # 30     ecut=    80.00 Ry     beta= 0.30
     Davidson diagonalization with overlap
     ethr =  1.41E-07,  avg # of iterations =  1.3

     negative rho (up, down):  4.300E-03 2.352E-02

     total cpu time spent up to now is     1536.4 secs

     total energy              =   -7594.58890062 Ry
     estimated scf accuracy    <       0.00087313 Ry

     total magnetization       =    46.52 Bohr mag/cell
     absolute magnetization    =    66.74 Bohr mag/cell

     iteration # 31     ecut=    80.00 Ry     beta= 0.30
     Davidson diagonalization with overlap
     ethr =  1.33E-07,  avg # of iterations =  2.0

     negative rho (up, down):  5.855E-03 2.468E-02

     total cpu time spent up to now is     1585.7 secs

     total energy              =   -7594.58933509 Ry
     estimated scf accuracy    <       0.00064161 Ry

     total magnetization       =    46.53 Bohr mag/cell
     absolute magnetization    =    66.73 Bohr mag/cell

     iteration # 32     ecut=    80.00 Ry     beta= 0.30
     Davidson diagonalization with overlap
     ethr =  9.77E-08,  avg # of iterations =  2.0

     negative rho (up, down):  7.230E-03 2.584E-02

     total cpu time spent up to now is     1634.2 secs

     total energy              =   -7594.58995324 Ry
     estimated scf accuracy    <       0.00046280 Ry

     total magnetization       =    46.53 Bohr mag/cell
     absolute magnetization    =    66.73 Bohr mag/cell

     iteration # 33     ecut=    80.00 Ry     beta= 0.30
     Davidson diagonalization with overlap
     ethr =  7.04E-08,  avg # of iterations =  2.5

     negative rho (up, down):  8.064E-03 2.619E-02

     total cpu time spent up to now is     1684.4 secs

     total energy              =   -7594.59059006 Ry
     estimated scf accuracy    <       0.00030717 Ry

     total magnetization       =    46.55 Bohr mag/cell
     absolute magnetization    =    66.74 Bohr mag/cell

     iteration # 34     ecut=    80.00 Ry     beta= 0.30
     Davidson diagonalization with overlap
     ethr =  4.68E-08,  avg # of iterations =  3.0

     negative rho (up, down):  8.736E-03 2.660E-02

     total cpu time spent up to now is     1736.3 secs

     total energy              =   -7594.59117049 Ry
     estimated scf accuracy    <       0.00020311 Ry

     total magnetization       =    46.55 Bohr mag/cell
     absolute magnetization    =    66.75 Bohr mag/cell

     iteration # 35     ecut=    80.00 Ry     beta= 0.30
     Davidson diagonalization with overlap
     ethr =  3.09E-08,  avg # of iterations =  3.9

     negative rho (up, down):  8.820E-03 2.617E-02

     total cpu time spent up to now is     1787.2 secs

     total energy              =   -7594.59145388 Ry
     estimated scf accuracy    <       0.00016318 Ry

     total magnetization       =    46.56 Bohr mag/cell
     absolute magnetization    =    66.76 Bohr mag/cell

     iteration # 36     ecut=    80.00 Ry     beta= 0.30
     Davidson diagonalization with overlap
     ethr =  2.48E-08,  avg # of iterations =  2.5

     negative rho (up, down):  8.972E-03 2.625E-02

     total cpu time spent up to now is     1837.6 secs

     total energy              =   -7594.59171487 Ry
     estimated scf accuracy    <       0.00010870 Ry

     total magnetization       =    46.56 Bohr mag/cell
     absolute magnetization    =    66.77 Bohr mag/cell

     iteration # 37     ecut=    80.00 Ry     beta= 0.30
     Davidson diagonalization with overlap
     ethr =  1.65E-08,  avg # of iterations =  2.0

     negative rho (up, down):  8.889E-03 2.610E-02

     total cpu time spent up to now is     1887.1 secs

     total energy              =   -7594.59182850 Ry
     estimated scf accuracy    <       0.00009482 Ry

     total magnetization       =    46.56 Bohr mag/cell
     absolute magnetization    =    66.78 Bohr mag/cell

     iteration # 38     ecut=    80.00 Ry     beta= 0.30
     Davidson diagonalization with overlap
     ethr =  1.44E-08,  avg # of iterations =  2.4

     negative rho (up, down):  8.941E-03 2.617E-02

     total cpu time spent up to now is     1935.6 secs

     total energy              =   -7594.59184112 Ry
     estimated scf accuracy    <       0.00007557 Ry

     total magnetization       =    46.56 Bohr mag/cell
     absolute magnetization    =    66.77 Bohr mag/cell

     iteration # 39     ecut=    80.00 Ry     beta= 0.30
     Davidson diagonalization with overlap
     ethr =  1.15E-08,  avg # of iterations =  3.2

     negative rho (up, down):  8.863E-03 2.608E-02

     total cpu time spent up to now is     1990.3 secs

     total energy              =   -7594.59209696 Ry
     estimated scf accuracy    <       0.00006280 Ry

     total magnetization       =    46.56 Bohr mag/cell
     absolute magnetization    =    66.78 Bohr mag/cell

     iteration # 40     ecut=    80.00 Ry     beta= 0.30
     Davidson diagonalization with overlap
     ethr =  9.56E-09,  avg # of iterations =  2.0

     negative rho (up, down):  8.784E-03 2.599E-02

     total cpu time spent up to now is     2039.3 secs

     total energy              =   -7594.59216254 Ry
     estimated scf accuracy    <       0.00005588 Ry

     total magnetization       =    46.56 Bohr mag/cell
     absolute magnetization    =    66.78 Bohr mag/cell

     iteration # 41     ecut=    80.00 Ry     beta= 0.30
     Davidson diagonalization with overlap
     ethr =  8.51E-09,  avg # of iterations =  2.0

     negative rho (up, down):  8.690E-03 2.586E-02

     total cpu time spent up to now is     2089.4 secs

     total energy              =   -7594.59218810 Ry
     estimated scf accuracy    <       0.00004980 Ry

     total magnetization       =    46.56 Bohr mag/cell
     absolute magnetization    =    66.78 Bohr mag/cell

     iteration # 42     ecut=    80.00 Ry     beta= 0.30
     Davidson diagonalization with overlap
     ethr =  7.58E-09,  avg # of iterations =  3.2

     negative rho (up, down):  8.585E-03 2.571E-02

     total cpu time spent up to now is     2141.0 secs

     total energy              =   -7594.59228691 Ry
     estimated scf accuracy    <       0.00004509 Ry

     total magnetization       =    46.56 Bohr mag/cell
     absolute magnetization    =    66.77 Bohr mag/cell

     iteration # 43     ecut=    80.00 Ry     beta= 0.30
     Davidson diagonalization with overlap
     ethr =  6.86E-09,  avg # of iterations =  3.4

     negative rho (up, down):  8.601E-03 2.573E-02

     total cpu time spent up to now is     2193.1 secs

     total energy              =   -7594.59234160 Ry
     estimated scf accuracy    <       0.00003945 Ry

     total magnetization       =    46.56 Bohr mag/cell
     absolute magnetization    =    66.77 Bohr mag/cell

     iteration # 44     ecut=    80.00 Ry     beta= 0.30
     Davidson diagonalization with overlap
     ethr =  6.00E-09,  avg # of iterations =  3.6

     negative rho (up, down):  8.616E-03 2.574E-02

     total cpu time spent up to now is     2248.4 secs

     total energy              =   -7594.59249048 Ry
     estimated scf accuracy    <       0.00003659 Ry

     total magnetization       =    46.56 Bohr mag/cell
     absolute magnetization    =    66.77 Bohr mag/cell

     iteration # 45     ecut=    80.00 Ry     beta= 0.30
     Davidson diagonalization with overlap
     ethr =  5.57E-09,  avg # of iterations =  2.0

     negative rho (up, down):  8.607E-03 2.573E-02

     total cpu time spent up to now is     2296.5 secs

     total energy              =   -7594.59250034 Ry
     estimated scf accuracy    <       0.00003401 Ry

     total magnetization       =    46.56 Bohr mag/cell
     absolute magnetization    =    66.76 Bohr mag/cell

     iteration # 46     ecut=    80.00 Ry     beta= 0.30
     Davidson diagonalization with overlap
     ethr =  5.18E-09,  avg # of iterations =  2.7

     negative rho (up, down):  8.567E-03 2.570E-02

     total cpu time spent up to now is     2348.0 secs

     total energy              =   -7594.59249876 Ry
     estimated scf accuracy    <       0.00003073 Ry

     total magnetization       =    46.57 Bohr mag/cell
     absolute magnetization    =    66.76 Bohr mag/cell

     iteration # 47     ecut=    80.00 Ry     beta= 0.30
     Davidson diagonalization with overlap
     ethr =  4.68E-09,  avg # of iterations =  4.2

     negative rho (up, down):  8.471E-03 2.560E-02

     total cpu time spent up to now is     2404.0 secs

     total energy              =   -7594.59263977 Ry
     estimated scf accuracy    <       0.00002750 Ry

     total magnetization       =    46.57 Bohr mag/cell
     absolute magnetization    =    66.75 Bohr mag/cell

     iteration # 48     ecut=    80.00 Ry     beta= 0.30
     Davidson diagonalization with overlap
     ethr =  4.19E-09,  avg # of iterations =  2.5

     negative rho (up, down):  8.414E-03 2.555E-02

     total cpu time spent up to now is     2455.2 secs

     total energy              =   -7594.59271100 Ry
     estimated scf accuracy    <       0.00002571 Ry

     total magnetization       =    46.57 Bohr mag/cell
     absolute magnetization    =    66.74 Bohr mag/cell

     iteration # 49     ecut=    80.00 Ry     beta= 0.30
     Davidson diagonalization with overlap
     ethr =  3.91E-09,  avg # of iterations =  2.0

     negative rho (up, down):  8.358E-03 2.549E-02

     total cpu time spent up to now is     2504.1 secs

     total energy              =   -7594.59274385 Ry
     estimated scf accuracy    <       0.00003551 Ry

     total magnetization       =    46.57 Bohr mag/cell
     absolute magnetization    =    66.73 Bohr mag/cell

     iteration # 50     ecut=    80.00 Ry     beta= 0.30
     Davidson diagonalization with overlap
     ethr =  3.91E-09,  avg # of iterations =  2.5

     negative rho (up, down):  8.341E-03 2.547E-02

     total cpu time spent up to now is     2553.2 secs

     total energy              =   -7594.59276930 Ry
     estimated scf accuracy    <       0.00002754 Ry

     total magnetization       =    46.57 Bohr mag/cell
     absolute magnetization    =    66.72 Bohr mag/cell

     iteration # 51     ecut=    80.00 Ry     beta= 0.30
     Davidson diagonalization with overlap
     ethr =  3.91E-09,  avg # of iterations =  2.8

     negative rho (up, down):  8.182E-03 2.531E-02

     total cpu time spent up to now is     2603.2 secs

     total energy              =   -7594.59276615 Ry
     estimated scf accuracy    <       0.00002527 Ry

     total magnetization       =    46.57 Bohr mag/cell
     absolute magnetization    =    66.72 Bohr mag/cell

     iteration # 52     ecut=    80.00 Ry     beta= 0.30
     Davidson diagonalization with overlap
     ethr =  3.85E-09,  avg # of iterations =  4.2

     negative rho (up, down):  8.089E-03 2.523E-02

     total cpu time spent up to now is     2658.6 secs

     total energy              =   -7594.59283595 Ry
     estimated scf accuracy    <       0.00002050 Ry

     total magnetization       =    46.57 Bohr mag/cell
     absolute magnetization    =    66.70 Bohr mag/cell

     iteration # 53     ecut=    80.00 Ry     beta= 0.30
     Davidson diagonalization with overlap
     ethr =  3.12E-09,  avg # of iterations =  3.2

     negative rho (up, down):  8.109E-03 2.524E-02

     total cpu time spent up to now is     2713.9 secs

     total energy              =   -7594.59294141 Ry
     estimated scf accuracy    <       0.00001964 Ry

     total magnetization       =    46.57 Bohr mag/cell
     absolute magnetization    =    66.69 Bohr mag/cell

     iteration # 54     ecut=    80.00 Ry     beta= 0.30
     Davidson diagonalization with overlap
     ethr =  2.99E-09,  avg # of iterations =  2.0

     negative rho (up, down):  8.054E-03 2.519E-02

     total cpu time spent up to now is     2762.4 secs

     total energy              =   -7594.59293145 Ry
     estimated scf accuracy    <       0.00001922 Ry

     total magnetization       =    46.57 Bohr mag/cell
     absolute magnetization    =    66.68 Bohr mag/cell

     iteration # 55     ecut=    80.00 Ry     beta= 0.30
     Davidson diagonalization with overlap
     ethr =  2.93E-09,  avg # of iterations =  2.9

     negative rho (up, down):  7.902E-03 2.507E-02

     total cpu time spent up to now is     2816.0 secs

     total energy              =   -7594.59253606 Ry
     estimated scf accuracy    <       0.00001718 Ry

     total magnetization       =    46.57 Bohr mag/cell
     absolute magnetization    =    66.66 Bohr mag/cell

     iteration # 56     ecut=    80.00 Ry     beta= 0.30
     Davidson diagonalization with overlap
     ethr =  2.62E-09,  avg # of iterations =  5.1

     negative rho (up, down):  7.974E-03 2.512E-02

     total cpu time spent up to now is     2880.8 secs

     total energy              =   -7594.59311860 Ry
     estimated scf accuracy    <       0.00001766 Ry

     total magnetization       =    46.56 Bohr mag/cell
     absolute magnetization    =    66.62 Bohr mag/cell

     iteration # 57     ecut=    80.00 Ry     beta= 0.30
     Davidson diagonalization with overlap
     ethr =  2.62E-09,  avg # of iterations =  2.0

     negative rho (up, down):  7.947E-03 2.509E-02

     total cpu time spent up to now is     2930.6 secs

     total energy              =   -7594.59310086 Ry
     estimated scf accuracy    <       0.00001870 Ry

     total magnetization       =    46.56 Bohr mag/cell
     absolute magnetization    =    66.61 Bohr mag/cell

     iteration # 58     ecut=    80.00 Ry     beta= 0.30
     Davidson diagonalization with overlap
     ethr =  2.62E-09,  avg # of iterations =  2.5

     negative rho (up, down):  7.864E-03 2.501E-02

     total cpu time spent up to now is     2984.9 secs

     total energy              =   -7594.59289958 Ry
     estimated scf accuracy    <       0.00001197 Ry

     total magnetization       =    46.56 Bohr mag/cell
     absolute magnetization    =    66.59 Bohr mag/cell

     iteration # 59     ecut=    80.00 Ry     beta= 0.30
     Davidson diagonalization with overlap
     ethr =  1.82E-09,  avg # of iterations =  4.6

     negative rho (up, down):  7.972E-03 2.509E-02

     total cpu time spent up to now is     3047.9 secs

     total energy              =   -7594.59320962 Ry
     estimated scf accuracy    <       0.00001912 Ry

     total magnetization       =    46.55 Bohr mag/cell
     absolute magnetization    =    66.56 Bohr mag/cell

     iteration # 60     ecut=    80.00 Ry     beta= 0.30
     Davidson diagonalization with overlap
     ethr =  1.82E-09,  avg # of iterations =  2.5

     negative rho (up, down):  7.973E-03 2.509E-02

     total cpu time spent up to now is     3102.5 secs

     total energy              =   -7594.59321537 Ry
     estimated scf accuracy    <       0.00001924 Ry

     total magnetization       =    46.55 Bohr mag/cell
     absolute magnetization    =    66.55 Bohr mag/cell

     iteration # 61     ecut=    80.00 Ry     beta= 0.30
     Davidson diagonalization with overlap
     ethr =  1.82E-09,  avg # of iterations =  2.5

     negative rho (up, down):  7.997E-03 2.510E-02

     total cpu time spent up to now is     3156.2 secs

     total energy              =   -7594.59326232 Ry
     estimated scf accuracy    <       0.00000987 Ry

     total magnetization       =    46.54 Bohr mag/cell
     absolute magnetization    =    66.54 Bohr mag/cell

     iteration # 62     ecut=    80.00 Ry     beta= 0.30
     Davidson diagonalization with overlap
     ethr =  1.50E-09,  avg # of iterations =  2.5

     negative rho (up, down):  8.019E-03 2.512E-02

     total cpu time spent up to now is     3207.2 secs

     total energy              =   -7594.59327472 Ry
     estimated scf accuracy    <       0.00000771 Ry

     total magnetization       =    46.54 Bohr mag/cell
     absolute magnetization    =    66.53 Bohr mag/cell

     iteration # 63     ecut=    80.00 Ry     beta= 0.30
     Davidson diagonalization with overlap
     ethr =  1.17E-09,  avg # of iterations =  2.6

     negative rho (up, down):  8.082E-03 2.518E-02

     total cpu time spent up to now is     3258.9 secs

     total energy              =   -7594.59328719 Ry
     estimated scf accuracy    <       0.00000491 Ry

     total magnetization       =    46.54 Bohr mag/cell
     absolute magnetization    =    66.52 Bohr mag/cell

     iteration # 64     ecut=    80.00 Ry     beta= 0.30
     Davidson diagonalization with overlap
     ethr =  7.47E-10,  avg # of iterations =  2.9

     negative rho (up, down):  8.131E-03 2.522E-02

     total cpu time spent up to now is     3312.3 secs

     total energy              =   -7594.59325426 Ry
     estimated scf accuracy    <       0.00000505 Ry

     total magnetization       =    46.54 Bohr mag/cell
     absolute magnetization    =    66.51 Bohr mag/cell

     iteration # 65     ecut=    80.00 Ry     beta= 0.30
     Davidson diagonalization with overlap
     ethr =  7.47E-10,  avg # of iterations =  4.8

     negative rho (up, down):  8.214E-03 2.530E-02

     total cpu time spent up to now is     3373.7 secs

     total energy              =   -7594.59331492 Ry
     estimated scf accuracy    <       0.00000442 Ry

     total magnetization       =    46.53 Bohr mag/cell
     absolute magnetization    =    66.49 Bohr mag/cell

     iteration # 66     ecut=    80.00 Ry     beta= 0.30
     Davidson diagonalization with overlap
     ethr =  6.73E-10,  avg # of iterations =  2.5

     negative rho (up, down):  8.227E-03 2.531E-02

     total cpu time spent up to now is     3426.8 secs

     total energy              =   -7594.59332798 Ry
     estimated scf accuracy    <       0.00000320 Ry

     total magnetization       =    46.53 Bohr mag/cell
     absolute magnetization    =    66.49 Bohr mag/cell

     iteration # 67     ecut=    80.00 Ry     beta= 0.30
     Davidson diagonalization with overlap
     ethr =  4.87E-10,  avg # of iterations =  1.1

     negative rho (up, down):  8.268E-03 2.535E-02

     total cpu time spent up to now is     3471.1 secs

     total energy              =   -7594.59330068 Ry
     estimated scf accuracy    <       0.00000306 Ry

     total magnetization       =    46.53 Bohr mag/cell
     absolute magnetization    =    66.49 Bohr mag/cell

     iteration # 68     ecut=    80.00 Ry     beta= 0.30
     Davidson diagonalization with overlap
     ethr =  4.66E-10,  avg # of iterations =  3.6

     negative rho (up, down):  8.277E-03 2.536E-02

     total cpu time spent up to now is     3531.9 secs

     total energy              =   -7594.59334107 Ry
     estimated scf accuracy    <       0.00000276 Ry

     total magnetization       =    46.53 Bohr mag/cell
     absolute magnetization    =    66.47 Bohr mag/cell

     iteration # 69     ecut=    80.00 Ry     beta= 0.30
     Davidson diagonalization with overlap
     ethr =  4.20E-10,  avg # of iterations =  2.0

     negative rho (up, down):  8.294E-03 2.538E-02

     total cpu time spent up to now is     3580.3 secs

     total energy              =   -7594.59333194 Ry
     estimated scf accuracy    <       0.00000220 Ry

     total magnetization       =    46.53 Bohr mag/cell
     absolute magnetization    =    66.47 Bohr mag/cell

     iteration # 70     ecut=    80.00 Ry     beta= 0.30
     Davidson diagonalization with overlap
     ethr =  3.36E-10,  avg # of iterations =  3.6

     negative rho (up, down):  8.290E-03 2.537E-02

     total cpu time spent up to now is     3638.5 secs

     total energy              =   -7594.59334821 Ry
     estimated scf accuracy    <       0.00000189 Ry

     total magnetization       =    46.52 Bohr mag/cell
     absolute magnetization    =    66.46 Bohr mag/cell

     iteration # 71     ecut=    80.00 Ry     beta= 0.30
     Davidson diagonalization with overlap
     ethr =  2.88E-10,  avg # of iterations =  3.6

     negative rho (up, down):  8.283E-03 2.536E-02

     total cpu time spent up to now is     3695.5 secs

     total energy              =   -7594.59335628 Ry
     estimated scf accuracy    <       0.00000173 Ry

     total magnetization       =    46.52 Bohr mag/cell
     absolute magnetization    =    66.46 Bohr mag/cell

     iteration # 72     ecut=    80.00 Ry     beta= 0.30
     Davidson diagonalization with overlap
     ethr =  2.63E-10,  avg # of iterations =  2.4

     negative rho (up, down):  8.266E-03 2.535E-02

     total cpu time spent up to now is     3746.5 secs

     total energy              =   -7594.59335819 Ry
     estimated scf accuracy    <       0.00000162 Ry

     total magnetization       =    46.52 Bohr mag/cell
     absolute magnetization    =    66.46 Bohr mag/cell

     iteration # 73     ecut=    80.00 Ry     beta= 0.30
     Davidson diagonalization with overlap
     ethr =  2.47E-10,  avg # of iterations =  3.8

     negative rho (up, down):  8.246E-03 2.532E-02

     total cpu time spent up to now is     3802.6 secs

     total energy              =   -7594.59336483 Ry
     estimated scf accuracy    <       0.00000163 Ry

     total magnetization       =    46.52 Bohr mag/cell
     absolute magnetization    =    66.46 Bohr mag/cell

     iteration # 74     ecut=    80.00 Ry     beta= 0.30
     Davidson diagonalization with overlap
     ethr =  2.47E-10,  avg # of iterations =  3.0

     negative rho (up, down):  8.244E-03 2.532E-02

     total cpu time spent up to now is     3855.6 secs

     total energy              =   -7594.59336950 Ry
     estimated scf accuracy    <       0.00000150 Ry

     total magnetization       =    46.52 Bohr mag/cell
     absolute magnetization    =    66.45 Bohr mag/cell

     iteration # 75     ecut=    80.00 Ry     beta= 0.30
     Davidson diagonalization with overlap
     ethr =  2.29E-10,  avg # of iterations =  2.4

     negative rho (up, down):  8.229E-03 2.531E-02

     total cpu time spent up to now is     3905.3 secs

     total energy              =   -7594.59337236 Ry
     estimated scf accuracy    <       0.00000145 Ry

     total magnetization       =    46.52 Bohr mag/cell
     absolute magnetization    =    66.45 Bohr mag/cell

     iteration # 76     ecut=    80.00 Ry     beta= 0.30
     Davidson diagonalization with overlap
     ethr =  2.20E-10,  avg # of iterations =  2.0

     negative rho (up, down):  8.200E-03 2.528E-02

     total cpu time spent up to now is     3953.5 secs

     total energy              =   -7594.59336580 Ry
     estimated scf accuracy    <       0.00000139 Ry

     total magnetization       =    46.52 Bohr mag/cell
     absolute magnetization    =    66.45 Bohr mag/cell

     iteration # 77     ecut=    80.00 Ry     beta= 0.30
     Davidson diagonalization with overlap
     ethr =  2.11E-10,  avg # of iterations =  5.3

     negative rho (up, down):  8.167E-03 2.525E-02

     total cpu time spent up to now is     4013.6 secs

     total energy              =   -7594.59337097 Ry
     estimated scf accuracy    <       0.00000123 Ry

     total magnetization       =    46.52 Bohr mag/cell
     absolute magnetization    =    66.45 Bohr mag/cell

     iteration # 78     ecut=    80.00 Ry     beta= 0.30
     Davidson diagonalization with overlap
     ethr =  1.86E-10,  avg # of iterations =  4.2

     negative rho (up, down):  8.147E-03 2.523E-02

     total cpu time spent up to now is     4073.7 secs

     total energy              =   -7594.59338543 Ry
     estimated scf accuracy    <       0.00000113 Ry

     total magnetization       =    46.52 Bohr mag/cell
     absolute magnetization    =    66.45 Bohr mag/cell

     iteration # 79     ecut=    80.00 Ry     beta= 0.30
     Davidson diagonalization with overlap
     ethr =  1.72E-10,  avg # of iterations =  2.0

     negative rho (up, down):  8.136E-03 2.522E-02

     total cpu time spent up to now is     4124.5 secs

     total energy              =   -7594.59338776 Ry
     estimated scf accuracy    <       0.00000101 Ry

     total magnetization       =    46.52 Bohr mag/cell
     absolute magnetization    =    66.45 Bohr mag/cell

     iteration # 80     ecut=    80.00 Ry     beta= 0.30
     Davidson diagonalization with overlap
     ethr =  1.54E-10,  avg # of iterations =  2.4

     negative rho (up, down):  8.177E-03 2.526E-02

     Magnetic moment per site  (integrated on atomic sphere of radius R)
     atom   1 (R=0.121)  charge= 10.0204  magn=  2.0501
     atom   2 (R=0.124)  charge= 13.5448  magn=  2.2401
     atom   3 (R=0.131)  charge= 11.6098  magn=  3.0997
     atom   4 (R=0.134)  charge=  8.3572  magn= -0.0587
     atom   5 (R=0.131)  charge= 11.5647  magn=  2.7077
     atom   6 (R=0.121)  charge=  9.9494  magn=  1.7028
     atom   7 (R=0.134)  charge=  8.3061  magn= -0.2209
     atom   8 (R=0.131)  charge= 11.5672  magn=  2.7563
     atom   9 (R=0.131)  charge= 11.5654  magn=  2.8616
     atom  10 (R=0.131)  charge= 11.5613  magn=  2.8787
     atom  11 (R=0.121)  charge=  9.9671  magn=  1.7930
     atom  12 (R=0.124)  charge= 13.5656  magn=  1.2308
     atom  13 (R=0.124)  charge= 13.5703  magn=  1.2587
     atom  14 (R=0.121)  charge=  9.9658  magn=  1.7537
     atom  15 (R=0.131)  charge= 11.5668  magn=  2.8809
     atom  16 (R=0.124)  charge= 13.5848  magn=  1.2104
     atom  17 (R=0.131)  charge= 11.5976  magn=  2.9858
     atom  18 (R=0.121)  charge=  9.9889  magn=  1.7596
     atom  19 (R=0.121)  charge=  9.9689  magn=  1.8087
     atom  20 (R=0.124)  charge= 13.5897  magn=  1.8344
     atom  21 (R=0.124)  charge= 13.5689  magn=  1.0742
     atom  22 (R=0.124)  charge= 13.5565  magn=  1.3377
     atom  23 (R=0.124)  charge= 13.5665  magn=  1.1430
     atom  24 (R=0.131)  charge= 11.5645  magn=  2.8345
     atom  25 (R=0.069)  charge=  1.9598  magn= -0.0552
     atom  26 (R=0.069)  charge=  1.9649  magn= -0.0867
     atom  27 (R=0.069)  charge=  1.9566  magn= -0.0911
     atom  28 (R=0.069)  charge=  1.9576  magn= -0.0946
     atom  29 (R=0.069)  charge=  1.9363  magn= -0.1328
     atom  30 (R=0.069)  charge=  1.9445  magn= -0.2028
     atom  31 (R=0.069)  charge=  1.9358  magn= -0.1684
     atom  32 (R=0.069)  charge=  1.9439  magn= -0.2006
     atom  33 (R=0.069)  charge=  1.9688  magn= -0.1000
     atom  34 (R=0.069)  charge=  1.9536  magn= -0.0032
     atom  35 (R=0.069)  charge=  1.9676  magn= -0.0849
     atom  36 (R=0.069)  charge=  1.9460  magn=  0.0111
     atom  37 (R=0.069)  charge=  1.9669  magn= -0.0936
     atom  38 (R=0.069)  charge=  1.9565  magn= -0.0198
     atom  39 (R=0.069)  charge=  1.9616  magn= -0.1383
     atom  40 (R=0.069)  charge=  1.9536  magn=  0.0065
     atom  41 (R=0.069)  charge=  1.9635  magn= -0.0691
     atom  42 (R=0.069)  charge=  1.9605  magn= -0.1380
     atom  43 (R=0.069)  charge=  1.9511  magn= -0.0848
     atom  44 (R=0.069)  charge=  1.9534  magn= -0.0717
     atom  45 (R=0.069)  charge=  1.9585  magn= -0.0950
     atom  46 (R=0.069)  charge=  1.9590  magn=  0.0060
     atom  47 (R=0.069)  charge=  1.9620  magn= -0.0698
     atom  48 (R=0.069)  charge=  1.9623  magn= -0.1349
     atom  49 (R=0.069)  charge=  1.9602  magn= -0.0730
     atom  50 (R=0.069)  charge=  1.9618  magn= -0.0876
     atom  51 (R=0.069)  charge=  1.9669  magn= -0.0824
     atom  52 (R=0.069)  charge=  1.9533  magn= -0.0196
     atom  53 (R=0.069)  charge=  1.9659  magn= -0.0991
     atom  54 (R=0.069)  charge=  1.9550  magn= -0.0329
     atom  55 (R=0.069)  charge=  1.9596  magn= -0.0587
     atom  56 (R=0.069)  charge=  1.9602  magn= -0.0493
     atom  57 (R=0.069)  charge=  1.9382  magn=  0.1153
     atom  58 (R=0.069)  charge=  1.9449  magn=  0.0896
     atom  59 (R=0.069)  charge=  1.9465  magn=  0.0920
     atom  60 (R=0.069)  charge=  1.9470  magn=  0.0626
     atom  61 (R=0.069)  charge=  1.9491  magn= -0.0308
     atom  62 (R=0.069)  charge=  1.9544  magn= -0.0500
     atom  63 (R=0.069)  charge=  1.9525  magn= -0.1226
     atom  64 (R=0.069)  charge=  1.9522  magn= -0.0102
     atom  65 (R=0.069)  charge=  1.9586  magn= -0.0725
     atom  66 (R=0.069)  charge=  1.9550  magn= -0.0416
     atom  67 (R=0.069)  charge=  1.9623  magn= -0.0567
     atom  68 (R=0.069)  charge=  1.9537  magn= -0.0383
     atom  69 (R=0.069)  charge=  1.9607  magn= -0.0710
     atom  70 (R=0.069)  charge=  1.9542  magn= -0.0670
     atom  71 (R=0.069)  charge=  1.9589  magn= -0.0631
     atom  72 (R=0.069)  charge=  1.9562  magn= -0.0664
     atom  73 (R=0.069)  charge=  1.9669  magn= -0.0900
     atom  74 (R=0.069)  charge=  0.3988  magn=  0.0050

     total cpu time spent up to now is     4173.7 secs

     End of self-consistent calculation

     =================== HUBBARD OCCUPATIONS ===================
     ------------------------ ATOM    1 ------------------------
     Tr[ns(  1)] (up, down, total) =   3.71205  0.96348  4.67553
     Atomic magnetic moment for atom   1 =   2.74857
     SPIN  1
     eigenvalues:
       0.490  0.499  0.861  0.894  0.968
     eigenvectors (columns):
      -0.898  0.438 -0.030 -0.006  0.036
       0.034 -0.001 -0.997 -0.067  0.004
       0.004  0.002  0.067 -0.997 -0.042
       0.031 -0.017  0.008 -0.042  0.998
       0.438  0.899  0.014  0.004  0.002
     occupation matrix ns (before diag.):
       0.493  0.011  0.001  0.017  0.003
       0.011  0.861  0.002  0.000 -0.005
       0.001  0.002  0.894 -0.003 -0.001
       0.017  0.000 -0.003  0.967  0.001
       0.003 -0.005 -0.001  0.001  0.497
     SPIN  2
     eigenvalues:
       0.098  0.109  0.121  0.264  0.372
     eigenvectors (columns):
      -0.135  0.001 -0.018 -0.991  0.015
      -0.013 -0.008 -1.000  0.020  0.001
       0.020 -1.000  0.008 -0.003 -0.001
      -0.990 -0.020  0.016  0.134 -0.018
      -0.015 -0.001  0.001  0.017  1.000
     occupation matrix ns (before diag.):
       0.261 -0.003  0.001 -0.022  0.001
      -0.003  0.121 -0.000  0.000  0.000
       0.001 -0.000  0.109  0.000 -0.000
      -0.022  0.000  0.000  0.101 -0.004
       0.001  0.000 -0.000 -0.004  0.372
     ------------------------ ATOM    2 ------------------------
     Tr[ns(  2)] (up, down, total) =   4.81490  2.57524  7.39014
     Atomic magnetic moment for atom   2 =   2.23965
     SPIN  1
     eigenvalues:
       0.843  0.980  0.996  0.998  0.999
     eigenvectors (columns):
      -0.033  0.921  0.373  0.104  0.021
       0.003 -0.029 -0.194  0.866  0.460
      -0.006 -0.002 -0.074  0.455 -0.887
       0.012 -0.386  0.904  0.180  0.018
       0.999  0.035  0.002  0.001 -0.006
     occupation matrix ns (before diag.):
       0.982  0.001  0.000  0.006  0.005
       0.001  0.998 -0.000  0.000 -0.001
       0.000 -0.000  0.998  0.000  0.001
       0.006  0.000  0.000  0.993 -0.002
       0.005 -0.001  0.001 -0.002  0.843
     SPIN  2
     eigenvalues:
       0.301  0.378  0.433  0.470  0.993
     eigenvectors (columns):
       0.051 -0.513  0.649 -0.548 -0.107
       0.034 -0.855 -0.412  0.311  0.026
       0.998  0.055 -0.019  0.020 -0.008
      -0.012  0.032 -0.064  0.088 -0.993
      -0.002 -0.026  0.636  0.771  0.026
     occupation matrix ns (before diag.):
       0.436 -0.032 -0.005  0.059 -0.018
      -0.032  0.397 -0.002 -0.012  0.008
      -0.005 -0.002  0.301  0.006  0.001
       0.059 -0.012  0.006  0.986 -0.012
      -0.018  0.008  0.001 -0.012  0.455
     ------------------------ ATOM    3 ------------------------
     Tr[ns(  3)] (up, down, total) =   4.53071  1.03264  5.56335
     Atomic magnetic moment for atom   3 =   3.49806
     SPIN  1
     eigenvalues:
       0.674  0.897  0.978  0.991  0.991
     eigenvectors (columns):
       0.011 -0.997 -0.022 -0.030  0.072
       0.008  0.023 -0.992  0.109  0.064
       0.002 -0.002 -0.126 -0.889 -0.440
       0.004  0.077  0.011 -0.443  0.893
       1.000  0.010  0.008  0.003 -0.004
     occupation matrix ns (before diag.):
       0.897  0.002 -0.000  0.007 -0.002
       0.002  0.978 -0.002 -0.000 -0.002
      -0.000 -0.002  0.991 -0.000 -0.001
       0.007 -0.000 -0.000  0.991 -0.001
      -0.002 -0.002 -0.001 -0.001  0.674
     SPIN  2
     eigenvalues:
       0.115  0.121  0.131  0.255  0.410
     eigenvectors (columns):
      -0.154 -0.005  0.023 -0.988 -0.013
       0.013  0.009 -1.000 -0.025  0.000
       0.058 -0.998 -0.008 -0.005  0.001
      -0.986 -0.058 -0.018  0.153  0.023
       0.021  0.003  0.001 -0.016  1.000
     occupation matrix ns (before diag.):
       0.252  0.003  0.001 -0.021 -0.002
       0.003  0.131  0.000 -0.000  0.000
       0.001  0.000  0.121  0.000  0.000
      -0.021 -0.000  0.000  0.119  0.006
      -0.002  0.000  0.000  0.006  0.410
     ------------------------ ATOM    5 ------------------------
     Tr[ns(  5)] (up, down, total) =   4.33403  1.33699  5.67102
     Atomic magnetic moment for atom   5 =   2.99704
     SPIN  1
     eigenvalues:
       0.696  0.703  0.966  0.983  0.987
     eigenvectors (columns):
      -0.405  0.048 -0.031 -0.027  0.912
       0.105  0.994  0.000  0.001 -0.006
       0.006 -0.001  0.266  0.963  0.040
      -0.908  0.093  0.017  0.019 -0.407
      -0.001  0.000 -0.963  0.268 -0.025
     occupation matrix ns (before diag.):
       0.938 -0.001  0.001 -0.108 -0.001
      -0.001  0.702  0.000  0.001  0.000
       0.001  0.000  0.982  0.002  0.004
      -0.108  0.001  0.002  0.744  0.000
      -0.001  0.000  0.004  0.000  0.967
     SPIN  2
     eigenvalues:
       0.138  0.161  0.172  0.424  0.442
     eigenvectors (columns):
       0.928  0.023  0.057 -0.365  0.045
      -0.010  0.001 -0.003 -0.147 -0.989
      -0.021  1.000 -0.015  0.006  0.000
      -0.368 -0.003 -0.009 -0.919  0.141
       0.057 -0.014 -0.998 -0.012  0.004
     occupation matrix ns (before diag.):
       0.177  0.002 -0.000  0.098 -0.001
       0.002  0.442 -0.000 -0.004 -0.001
      -0.000 -0.000  0.161 -0.002  0.000
       0.098 -0.004 -0.002  0.386  0.004
      -0.001 -0.001  0.000  0.004  0.172
     ------------------------ ATOM    6 ------------------------
     Tr[ns(  6)] (up, down, total) =   3.53168  1.23382  4.76551
     Atomic magnetic moment for atom   6 =   2.29786
     SPIN  1
     eigenvalues:
       0.553  0.564  0.673  0.775  0.966
     eigenvectors (columns):
      -0.050 -0.415  0.001  0.003  0.908
      -0.993  0.121  0.007 -0.003  0.000
       0.007  0.008  0.999  0.041  0.003
      -0.110 -0.902  0.010 -0.018 -0.418
       0.006  0.015  0.040 -0.999  0.010
     occupation matrix ns (before diag.):
       0.896 -0.000  0.001 -0.153  0.003
      -0.000  0.553  0.001 -0.001  0.001
       0.001  0.001  0.673  0.000 -0.004
      -0.153 -0.001  0.000  0.634  0.002
       0.003  0.001 -0.004  0.002  0.775
     SPIN  2
     eigenvalues:
       0.119  0.151  0.151  0.400  0.413
     eigenvectors (columns):
       0.914  0.003 -0.002 -0.405  0.033
      -0.000 -0.000  0.000 -0.081 -0.997
      -0.004  0.998 -0.068 -0.001 -0.000
      -0.406 -0.002  0.013 -0.911  0.074
       0.007  0.068  0.998  0.011 -0.001
     occupation matrix ns (before diag.):
       0.165 -0.000  0.000  0.104 -0.001
      -0.000  0.413  0.000 -0.001  0.000
       0.000  0.000  0.151  0.000 -0.000
       0.104 -0.001  0.000  0.354 -0.002
      -0.001  0.000 -0.000 -0.002  0.151
     ------------------------ ATOM    8 ------------------------
     Tr[ns(  8)] (up, down, total) =   4.35795  1.30713  5.66508
     Atomic magnetic moment for atom   8 =   3.05082
     SPIN  1
     eigenvalues:
       0.702  0.711  0.971  0.980  0.993
     eigenvectors (columns):
       0.047 -0.424  0.008 -0.006  0.905
      -0.994 -0.108 -0.004 -0.003  0.002
       0.002 -0.009  0.239 -0.971 -0.013
       0.097 -0.899 -0.008  0.012 -0.426
      -0.004 -0.002  0.971  0.239 -0.008
     occupation matrix ns (before diag.):
       0.942  0.001 -0.001 -0.109 -0.000
       0.001  0.702  0.000  0.001 -0.001
      -0.001  0.000  0.980 -0.002 -0.002
      -0.109  0.001 -0.002  0.762 -0.000
      -0.000 -0.001 -0.002 -0.000  0.972
     SPIN  2
     eigenvalues:
       0.139  0.152  0.159  0.415  0.441
     eigenvectors (columns):
       0.916 -0.008  0.006 -0.399  0.022
       0.000  0.001 -0.001  0.056  0.998
      -0.009 -0.999  0.034 -0.001  0.001
      -0.400  0.004 -0.013 -0.915  0.051
      -0.010  0.034  0.999 -0.009  0.002
     occupation matrix ns (before diag.):
       0.183  0.001  0.000  0.101  0.001
       0.001  0.441  0.000  0.001  0.000
       0.000  0.000  0.153  0.000  0.000
       0.101  0.001  0.000  0.371  0.002
       0.001  0.000  0.000  0.002  0.159
     ------------------------ ATOM    9 ------------------------
     Tr[ns(  9)] (up, down, total) =   4.39560  1.21770  5.61329
     Atomic magnetic moment for atom   9 =   3.17790
     SPIN  1
     eigenvalues:
       0.689  0.740  0.984  0.990  0.992
     eigenvectors (columns):
      -0.227  0.973 -0.006 -0.035 -0.016
       0.006  0.019  0.954  0.297  0.025
      -0.002 -0.030  0.289 -0.941  0.174
       0.010 -0.019  0.075 -0.158 -0.984
       0.974  0.227 -0.007 -0.011  0.006
     occupation matrix ns (before diag.):
       0.738 -0.004  0.007  0.005  0.011
      -0.004  0.985 -0.002 -0.000 -0.003
       0.007 -0.002  0.990 -0.001  0.002
       0.005 -0.000 -0.001  0.992 -0.002
       0.011 -0.003  0.002 -0.002  0.692
     SPIN  2
     eigenvalues:
       0.112  0.150  0.156  0.384  0.415
     eigenvectors (columns):
      -0.054  0.027  0.027  0.995 -0.077
      -0.004 -0.787  0.617  0.005  0.005
       0.045  0.616  0.786 -0.035 -0.000
      -0.997  0.030  0.032 -0.054  0.025
       0.021  0.005 -0.002  0.078  0.997
     occupation matrix ns (before diag.):
       0.383  0.001 -0.008 -0.015 -0.002
       0.001  0.153  0.003 -0.000  0.001
      -0.008  0.003  0.154  0.002 -0.001
      -0.015 -0.000  0.002  0.113  0.006
      -0.002  0.001 -0.001  0.006  0.414
     ------------------------ ATOM   10 ------------------------
     Tr[ns( 10)] (up, down, total) =   4.39907  1.19294  5.59200
     Atomic magnetic moment for atom  10 =   3.20613
     SPIN  1
     eigenvalues:
       0.701  0.727  0.988  0.990  0.992
     eigenvectors (columns):
       0.806 -0.590 -0.035 -0.021 -0.000
      -0.010 -0.010 -0.449  0.628  0.636
       0.010 -0.013  0.618 -0.296  0.728
      -0.045  0.002 -0.644 -0.720  0.255
       0.590  0.807 -0.020 -0.011  0.019
     occupation matrix ns (before diag.):
       0.710  0.001 -0.004  0.011 -0.012
       0.001  0.991  0.001 -0.000  0.004
      -0.004  0.001  0.991  0.001  0.001
       0.011 -0.000  0.001  0.989  0.007
      -0.012  0.004  0.001  0.007  0.718
     SPIN  2
     eigenvalues:
       0.100  0.145  0.153  0.392  0.403
     eigenvectors (columns):
       0.051  0.024 -0.022  0.840  0.540
       0.008 -0.477 -0.879  0.001 -0.016
       0.016 -0.878  0.477  0.027  0.015
       0.998  0.017  0.001 -0.021 -0.062
       0.041 -0.008 -0.012 -0.542  0.839
     occupation matrix ns (before diag.):
       0.394 -0.002  0.008 -0.015  0.005
      -0.002  0.152 -0.003 -0.000 -0.004
       0.008 -0.003  0.147 -0.001 -0.000
      -0.015 -0.000 -0.001  0.101 -0.013
       0.005 -0.004 -0.000 -0.013  0.399
     ------------------------ ATOM   11 ------------------------
     Tr[ns( 11)] (up, down, total) =   3.56708  1.16933  4.73641
     Atomic magnetic moment for atom  11 =   2.39775
     SPIN  1
     eigenvalues:
       0.506  0.548  0.664  0.876  0.972
     eigenvectors (columns):
       0.025  0.996 -0.048  0.029 -0.061
      -0.008  0.032  0.018 -0.999  0.031
       0.007  0.048  0.998  0.020  0.022
      -0.026 -0.058  0.026 -0.032 -0.997
       0.999 -0.027 -0.004 -0.010 -0.024
     occupation matrix ns (before diag.):
       0.550 -0.011 -0.006  0.025 -0.000
      -0.011  0.876 -0.004 -0.002  0.003
      -0.006 -0.004  0.664 -0.007 -0.001
       0.025 -0.002 -0.007  0.970  0.011
      -0.000  0.003 -0.001  0.011  0.507
     SPIN  2
     eigenvalues:
       0.092  0.146  0.165  0.374  0.391
     eigenvectors (columns):
       0.054 -0.007  0.032 -0.137 -0.989
      -0.003  1.000  0.014  0.006 -0.008
      -0.028 -0.014  0.999 -0.005  0.032
       0.998  0.002  0.027  0.039  0.050
       0.032  0.007 -0.008 -0.990  0.139
     occupation matrix ns (before diag.):
       0.390  0.002 -0.007 -0.016 -0.003
       0.002  0.147  0.000  0.000 -0.002
      -0.007  0.000  0.166  0.002  0.002
      -0.016  0.000  0.002  0.093 -0.009
      -0.003 -0.002  0.002 -0.009  0.374
     ------------------------ ATOM   12 ------------------------
     Tr[ns( 12)] (up, down, total) =   4.41947  3.14732  7.56679
     Atomic magnetic moment for atom  12 =   1.27214
     SPIN  1
     eigenvalues:
       0.705  0.744  0.987  0.988  0.996
     eigenvectors (columns):
      -0.079  0.992 -0.011 -0.099 -0.023
       0.008 -0.009  0.976 -0.177 -0.129
      -0.002  0.023  0.129 -0.018  0.991
       0.027 -0.097 -0.178 -0.979  0.008
       0.996  0.082 -0.004  0.020  0.001
     occupation matrix ns (before diag.):
       0.746  0.002 -0.006  0.024  0.003
       0.002  0.987 -0.001 -0.000 -0.002
      -0.006 -0.001  0.996  0.001  0.000
       0.024 -0.000  0.001  0.985 -0.006
       0.003 -0.002  0.000 -0.006  0.705
     SPIN  2
     eigenvalues:
       0.276  0.447  0.451  0.982  0.991
     eigenvectors (columns):
       0.034  0.912 -0.369  0.010  0.174
      -0.088  0.014 -0.014 -0.995 -0.030
      -0.995  0.035 -0.003  0.089 -0.001
      -0.009 -0.143  0.108 -0.032  0.983
       0.010  0.382  0.923 -0.007 -0.046
     occupation matrix ns (before diag.):
       0.464 -0.007  0.006  0.093 -0.006
      -0.007  0.976 -0.062  0.001  0.005
       0.006 -0.062  0.282 -0.003  0.001
       0.093  0.001 -0.003  0.973 -0.024
      -0.006  0.005  0.001 -0.024  0.452
     ------------------------ ATOM   13 ------------------------
     Tr[ns( 13)] (up, down, total) =   4.43605  3.13915  7.57520
     Atomic magnetic moment for atom  13 =   1.29690
     SPIN  1
     eigenvalues:
       0.720  0.753  0.981  0.985  0.998
     eigenvectors (columns):
      -0.259 -0.312 -0.048 -0.912  0.032
       0.846 -0.528  0.034 -0.061 -0.002
       0.016  0.016 -0.039  0.027  0.999
      -0.464 -0.789  0.014  0.401  0.010
      -0.034  0.015  0.997 -0.046  0.040
     occupation matrix ns (before diag.):
       0.945  0.020  0.003 -0.089 -0.001
       0.020  0.730 -0.002  0.007  0.009
       0.003 -0.002  0.998  0.005  0.001
      -0.089  0.007  0.005  0.783 -0.002
      -0.001  0.009  0.001 -0.002  0.980
     SPIN  2
     eigenvalues:
       0.283  0.425  0.449  0.989  0.993
     eigenvectors (columns):
       0.031  0.199  0.285  0.074  0.934
      -0.013  0.830 -0.557 -0.015 -0.005
       0.999  0.003 -0.019 -0.010 -0.028
       0.004  0.520  0.780 -0.005 -0.349
      -0.008  0.000  0.026 -0.997  0.072
     occupation matrix ns (before diag.):
       0.925 -0.007 -0.020 -0.180 -0.004
      -0.007  0.433  0.002 -0.009  0.008
      -0.020  0.002  0.283  0.005  0.006
      -0.180 -0.009  0.005  0.509 -0.011
      -0.004  0.008  0.006 -0.011  0.989
     ------------------------ ATOM   14 ------------------------
     Tr[ns( 14)] (up, down, total) =   3.55524  1.20166  4.75690
     Atomic magnetic moment for atom  14 =   2.35358
     SPIN  1
     eigenvalues:
       0.537  0.552  0.652  0.848  0.967
     eigenvectors (columns):
       0.319 -0.313 -0.007 -0.022 -0.894
       0.815  0.572  0.026  0.002  0.090
      -0.021 -0.014  0.985 -0.170 -0.006
       0.483 -0.757 -0.005 -0.041  0.438
      -0.021  0.042 -0.169 -0.984  0.003
     occupation matrix ns (before diag.):
       0.883 -0.037  0.003 -0.165  0.005
      -0.037  0.545  0.003  0.010 -0.001
       0.003  0.003  0.657  0.001  0.033
      -0.165  0.010  0.001  0.628  0.013
       0.005 -0.001  0.033  0.013  0.842
     SPIN  2
     eigenvalues:
       0.096  0.154  0.174  0.374  0.404
     eigenvectors (columns):
       0.893  0.006  0.000 -0.172 -0.417
      -0.013  0.002 -0.007 -0.934  0.358
      -0.003  0.279 -0.960  0.006 -0.006
      -0.451  0.020  0.010 -0.314 -0.835
       0.005  0.960  0.279  0.008  0.021
     occupation matrix ns (before diag.):
       0.158 -0.001  0.001  0.122 -0.003
      -0.001  0.377 -0.002 -0.011  0.000
       0.001 -0.002  0.173  0.001 -0.005
       0.122 -0.011  0.001  0.338 -0.005
      -0.003  0.000 -0.005 -0.005  0.156
     ------------------------ ATOM   15 ------------------------
     Tr[ns( 15)] (up, down, total) =   4.40288  1.20622  5.60910
     Atomic magnetic moment for atom  15 =   3.19666
     SPIN  1
     eigenvalues:
       0.700  0.735  0.987  0.987  0.994
     eigenvectors (columns):
       0.438  0.133 -0.006 -0.889 -0.006
       0.343 -0.938  0.025  0.028  0.002
      -0.019 -0.004  0.190 -0.005 -0.982
       0.830  0.318  0.025  0.457 -0.015
      -0.024  0.018  0.981 -0.017  0.190
     occupation matrix ns (before diag.):
       0.928 -0.012  0.003 -0.115  0.002
      -0.012  0.731  0.001 -0.007  0.007
       0.003  0.001  0.993  0.005 -0.001
      -0.115 -0.007  0.005  0.764  0.004
       0.002  0.007 -0.001  0.004  0.987
     SPIN  2
     eigenvalues:
       0.101  0.155  0.160  0.390  0.401
     eigenvectors (columns):
       0.896  0.014  0.005 -0.383 -0.224
       0.004  0.008  0.019  0.512 -0.859
      -0.005  0.987 -0.157  0.014  0.015
      -0.444  0.019  0.019 -0.769 -0.460
       0.003  0.156  0.987  0.009  0.029
     occupation matrix ns (before diag.):
       0.159  0.001 -0.002  0.116 -0.003
       0.001  0.398 -0.001  0.004 -0.005
      -0.002 -0.001  0.155 -0.004 -0.001
       0.116  0.004 -0.004  0.335 -0.005
      -0.003 -0.005 -0.001 -0.005  0.160
     ------------------------ ATOM   16 ------------------------
     Tr[ns( 16)] (up, down, total) =   4.42029  3.18038  7.60066
     Atomic magnetic moment for atom  16 =   1.23991
     SPIN  1
     eigenvalues:
       0.696  0.774  0.964  0.991  0.994
     eigenvectors (columns):
       0.183 -0.312 -0.018  0.930  0.053
       0.796  0.604 -0.026  0.045  0.004
       0.008 -0.010 -0.023  0.052 -0.998
       0.577 -0.733  0.017 -0.359 -0.007
       0.014  0.023  0.999  0.025 -0.022
     occupation matrix ns (before diag.):
       0.960 -0.002 -0.001 -0.081  0.001
      -0.002  0.726 -0.001 -0.040 -0.006
      -0.001 -0.001  0.994 -0.003  0.001
      -0.081 -0.040 -0.003  0.776  0.001
       0.001 -0.006  0.001  0.001  0.964
     SPIN  2
     eigenvalues:
       0.311  0.416  0.484  0.983  0.986
     eigenvectors (columns):
      -0.003 -0.183  0.334  0.924 -0.031
      -0.035  0.800  0.597 -0.057  0.010
       0.999  0.025  0.025 -0.002 -0.032
      -0.006 -0.571  0.729 -0.377 -0.021
       0.032 -0.025  0.021  0.021  0.999
     occupation matrix ns (before diag.):
       0.908 -0.017  0.000 -0.181 -0.006
      -0.017  0.442  0.005  0.041  0.006
       0.000  0.005  0.312  0.003 -0.021
      -0.181  0.041  0.003  0.533 -0.016
      -0.006  0.006 -0.021 -0.016  0.985
     ------------------------ ATOM   17 ------------------------
     Tr[ns( 17)] (up, down, total) =   4.46497  1.11426  5.57924
     Atomic magnetic moment for atom  17 =   3.35071
     SPIN  1
     eigenvalues:
       0.680  0.824  0.984  0.986  0.991
     eigenvectors (columns):
      -0.047  0.996 -0.019 -0.026  0.062
      -0.008  0.022  0.994  0.110 -0.011
      -0.005 -0.015  0.108 -0.986 -0.129
       0.015 -0.064  0.026 -0.125  0.990
       0.999  0.047  0.007 -0.003 -0.013
     occupation matrix ns (before diag.):
       0.825 -0.004  0.002  0.011  0.007
      -0.004  0.984 -0.000  0.000  0.002
       0.002 -0.000  0.986 -0.001  0.002
       0.011  0.000 -0.001  0.990 -0.004
       0.007  0.002  0.002 -0.004  0.680
     SPIN  2
     eigenvalues:
       0.109  0.153  0.156  0.284  0.413
     eigenvectors (columns):
       0.112 -0.024  0.016  0.993 -0.018
       0.014  0.942 -0.333  0.026 -0.012
      -0.044 -0.333 -0.942  0.012 -0.009
       0.993 -0.025 -0.039 -0.111  0.018
      -0.016  0.008 -0.012  0.020  1.000
     occupation matrix ns (before diag.):
       0.281  0.003  0.002 -0.019 -0.002
       0.003  0.154  0.001 -0.001 -0.003
       0.002  0.001  0.155  0.002 -0.002
      -0.019 -0.001  0.002  0.111  0.005
      -0.002 -0.003 -0.002  0.005  0.413
     ------------------------ ATOM   18 ------------------------
     Tr[ns( 18)] (up, down, total) =   3.54249  1.19700  4.73949
     Atomic magnetic moment for atom  18 =   2.34549
     SPIN  1
     eigenvalues:
       0.518  0.541  0.743  0.762  0.979
     eigenvectors (columns):
      -0.087 -0.987  0.013 -0.102  0.081
       0.026  0.101 -0.043 -0.994  0.004
       0.033  0.016  0.998 -0.041  0.009
      -0.020  0.082 -0.009  0.012  0.996
       0.995 -0.088 -0.031  0.019  0.026
     occupation matrix ns (before diag.):
       0.546  0.023  0.004  0.035  0.002
       0.023  0.759  0.000 -0.001 -0.004
       0.004  0.000  0.742  0.002 -0.007
       0.035 -0.001  0.002  0.976  0.012
       0.002 -0.004 -0.007  0.012  0.519
     SPIN  2
     eigenvalues:
       0.090  0.186  0.198  0.352  0.371
     eigenvectors (columns):
       0.086 -0.022 -0.035  0.992  0.080
      -0.018 -0.054 -0.998 -0.034 -0.014
       0.008 -0.998  0.054 -0.021  0.006
       0.996  0.009 -0.015 -0.084 -0.033
       0.026  0.007 -0.012 -0.083  0.996
     occupation matrix ns (before diag.):
       0.350 -0.005 -0.003 -0.023  0.001
      -0.005  0.198 -0.001  0.002 -0.002
      -0.003 -0.001  0.186 -0.001  0.001
      -0.023  0.002 -0.001  0.092 -0.007
       0.001 -0.002  0.001 -0.007  0.370
     ------------------------ ATOM   19 ------------------------
     Tr[ns( 19)] (up, down, total) =   3.54624  1.14782  4.69406
     Atomic magnetic moment for atom  19 =   2.39842
     SPIN  1
     eigenvalues:
       0.494  0.548  0.583  0.956  0.966
     eigenvectors (columns):
       0.105  0.983  0.021  0.141 -0.052
      -0.056  0.013 -0.994  0.092 -0.022
      -0.000  0.151 -0.089 -0.874  0.453
      -0.013  0.020 -0.022 -0.455 -0.890
       0.993 -0.103 -0.058 -0.016 -0.007
     occupation matrix ns (before diag.):
       0.557  0.005 -0.060 -0.007 -0.006
       0.005  0.586 -0.034 -0.008  0.004
      -0.060 -0.034  0.946 -0.006  0.004
      -0.007 -0.008 -0.006  0.963  0.006
      -0.006  0.004  0.004  0.006  0.495
     SPIN  2
     eigenvalues:
       0.093  0.117  0.181  0.371  0.386
     eigenvectors (columns):
      -0.080  0.153 -0.048 -0.048 -0.983
       0.008  0.062 -0.996  0.001  0.058
      -0.079 -0.984 -0.070 -0.003 -0.143
      -0.993  0.066  0.002  0.021  0.090
      -0.016 -0.002  0.001 -0.999  0.049
     occupation matrix ns (before diag.):
       0.377 -0.012  0.038 -0.026 -0.001
      -0.012  0.181  0.002  0.001  0.000
       0.038  0.002  0.123 -0.005 -0.001
      -0.026  0.001 -0.005  0.096 -0.004
      -0.001  0.000 -0.001 -0.004  0.371
     ------------------------ ATOM   20 ------------------------
     Tr[ns( 20)] (up, down, total) =   4.69955  2.73572  7.43527
     Atomic magnetic moment for atom  20 =   1.96382
     SPIN  1
     eigenvalues:
       0.743  0.979  0.989  0.991  0.997
     eigenvectors (columns):
      -0.021  0.942  0.255 -0.216  0.010
      -0.007 -0.176 -0.171 -0.969  0.005
      -0.020  0.005 -0.047  0.013  0.999
       0.015 -0.284  0.951 -0.115  0.048
       0.999  0.022 -0.011 -0.010  0.019
     occupation matrix ns (before diag.):
       0.981  0.002 -0.000  0.003  0.005
       0.002  0.991 -0.000 -0.000  0.002
      -0.000 -0.000  0.997  0.000  0.005
       0.003 -0.000  0.000  0.989 -0.004
       0.005  0.002  0.005 -0.004  0.743
     SPIN  2
     eigenvalues:
       0.141  0.213  0.420  0.974  0.988
     eigenvectors (columns):
      -0.046  0.939 -0.025  0.035 -0.338
       0.043  0.087 -0.013 -0.986  0.133
       0.998  0.031 -0.012  0.041 -0.044
      -0.024 -0.330  0.037 -0.156 -0.930
       0.013  0.037  0.999 -0.006  0.027
     occupation matrix ns (before diag.):
       0.302 -0.061  0.016  0.239 -0.012
      -0.061  0.967 -0.038  0.021  0.004
       0.016 -0.038  0.144  0.029 -0.005
       0.239  0.021  0.029  0.902 -0.011
      -0.012  0.004 -0.005 -0.011  0.420
     ------------------------ ATOM   21 ------------------------
     Tr[ns( 21)] (up, down, total) =   4.34071  3.28014  7.62084
     Atomic magnetic moment for atom  21 =   1.06057
     SPIN  1
     eigenvalues:
       0.674  0.699  0.984  0.988  0.995
     eigenvectors (columns):
       0.131  0.333  0.894 -0.028  0.267
       0.973 -0.208 -0.047  0.065 -0.052
       0.013  0.054  0.207 -0.528 -0.822
       0.175  0.917 -0.354  0.023 -0.041
       0.068 -0.036 -0.172 -0.846  0.499
     occupation matrix ns (before diag.):
       0.948 -0.020 -0.008 -0.094  0.002
      -0.020  0.678 -0.000  0.002 -0.023
      -0.008 -0.000  0.992 -0.015 -0.003
      -0.094  0.002 -0.015  0.735  0.005
       0.002 -0.023 -0.003  0.005  0.988
     SPIN  2
     eigenvalues:
       0.398  0.496  0.533  0.864  0.988
     eigenvectors (columns):
      -0.421  0.169  0.173 -0.016  0.874
       0.040  0.833 -0.539  0.112 -0.033
       0.884  0.120  0.188 -0.196  0.362
      -0.119  0.511  0.790 -0.044 -0.314
      -0.161  0.046 -0.139 -0.973 -0.077
     occupation matrix ns (before diag.):
       0.856 -0.017  0.194 -0.134 -0.035
      -0.017  0.512 -0.021 -0.012 -0.036
       0.194 -0.021  0.500 -0.037  0.070
      -0.134 -0.012 -0.037  0.567  0.022
      -0.035 -0.036  0.070  0.022  0.846
     ------------------------ ATOM   22 ------------------------
     Tr[ns( 22)] (up, down, total) =   4.44305  3.14962  7.59267
     Atomic magnetic moment for atom  22 =   1.29343
     SPIN  1
     eigenvalues:
       0.710  0.751  0.990  0.995  0.997
     eigenvectors (columns):
      -0.006  0.372 -0.862  0.111  0.327
       0.992 -0.002 -0.020  0.102 -0.068
       0.006 -0.060  0.337  0.527  0.778
       0.007  0.926  0.370 -0.029 -0.070
      -0.124  0.020 -0.083  0.836 -0.528
     occupation matrix ns (before diag.):
       0.958  0.002  0.007 -0.083 -0.003
       0.002  0.714 -0.002 -0.002  0.035
       0.007 -0.002  0.995  0.013 -0.000
      -0.083 -0.002  0.013  0.785 -0.004
      -0.003  0.035 -0.000 -0.004  0.991
     SPIN  2
     eigenvalues:
       0.418  0.509  0.527  0.701  0.994
     eigenvectors (columns):
       0.740  0.084  0.059 -0.071  0.660
      -0.081 -0.007  0.966  0.244  0.032
       0.643 -0.349  0.036  0.149 -0.664
       0.175  0.931  0.032 -0.002 -0.319
      -0.024  0.065 -0.248  0.956  0.144
     occupation matrix ns (before diag.):
       0.672  0.013 -0.258 -0.114  0.034
       0.013  0.537  0.002 -0.003  0.042
      -0.258  0.002  0.689  0.092 -0.018
      -0.114 -0.003  0.092  0.556 -0.022
       0.034  0.042 -0.018 -0.022  0.696
     ------------------------ ATOM   23 ------------------------
     Tr[ns( 23)] (up, down, total) =   4.36894  3.23362  7.60256
     Atomic magnetic moment for atom  23 =   1.13532
     SPIN  1
     eigenvalues:
       0.687  0.712  0.985  0.989  0.996
     eigenvectors (columns):
      -0.101  0.314 -0.853  0.403  0.045
       0.984  0.168 -0.033  0.043  0.024
      -0.003  0.077  0.170  0.402 -0.897
      -0.143  0.931  0.284 -0.167  0.059
       0.030  0.011 -0.402 -0.804 -0.436
     occupation matrix ns (before diag.):
       0.956  0.015 -0.006 -0.084 -0.002
       0.015  0.688 -0.003 -0.001 -0.010
      -0.006 -0.003  0.993 -0.021  0.003
      -0.084 -0.001 -0.021  0.742 -0.001
      -0.002 -0.010  0.003 -0.001  0.990
     SPIN  2
     eigenvalues:
       0.344  0.483  0.539  0.882  0.985
     eigenvectors (columns):
      -0.050 -0.170 -0.245 -0.045  0.952
      -0.014  0.882 -0.468  0.039  0.038
      -0.979  0.002  0.047  0.197 -0.030
      -0.025 -0.439 -0.847  0.034 -0.296
      -0.196  0.028 -0.028 -0.978 -0.059
     occupation matrix ns (before diag.):
       0.942  0.024 -0.025 -0.131 -0.012
       0.024  0.497 -0.001  0.017 -0.016
      -0.025 -0.001  0.366  0.001 -0.103
      -0.131  0.017  0.001  0.568 -0.004
      -0.012 -0.016 -0.103 -0.004  0.861
     ------------------------ ATOM   24 ------------------------
     Tr[ns( 24)] (up, down, total) =   4.37537  1.21840  5.59377
     Atomic magnetic moment for atom  24 =   3.15697
     SPIN  1
     eigenvalues:
       0.696  0.705  0.989  0.993  0.994
     eigenvectors (columns):
       0.067 -0.408 -0.870  0.251  0.094
      -0.985 -0.160  0.013  0.055 -0.016
      -0.001  0.098 -0.147  0.020 -0.984
       0.147 -0.893  0.385 -0.099 -0.149
       0.053  0.021  0.270  0.961 -0.019
     occupation matrix ns (before diag.):
       0.941  0.001  0.011 -0.106  0.002
       0.001  0.697  0.004  0.002  0.017
       0.011  0.004  0.991  0.026 -0.000
      -0.106  0.002  0.026  0.756  0.003
       0.002  0.017 -0.000  0.003  0.991
     SPIN  2
     eigenvalues:
       0.111  0.141  0.148  0.391  0.428
     eigenvectors (columns):
      -0.917 -0.091 -0.031  0.386 -0.010
      -0.002 -0.039 -0.066 -0.045 -0.996
      -0.080  0.721 -0.684 -0.076  0.021
       0.380  0.089 -0.054  0.918 -0.042
       0.087 -0.680 -0.724 -0.010  0.075
     occupation matrix ns (before diag.):
       0.153 -0.002 -0.009  0.099  0.001
      -0.002  0.426 -0.005  0.002 -0.021
      -0.009 -0.005  0.146 -0.016  0.005
       0.099  0.002 -0.016  0.348 -0.004
       0.001 -0.021  0.005 -0.004  0.146

     Number of occupied Hubbard levels =  133.6389

 ------ SPIN UP ------------


          k = 0.0000 0.0000 0.0000 (150423 PWs)   bands (ev):

   -98.5771 -97.8272 -97.6305 -97.3655 -97.3604 -97.3250 -97.2706 -97.2552
   -82.7524 -82.6854 -82.6507 -82.6406 -82.6297 -82.5896 -82.5015 -82.4279
   -74.2470 -74.1391 -74.0826 -73.9895 -73.9260 -73.9082 -62.5385 -61.4490
   -61.4468 -61.2695 -61.1994 -61.0672 -60.9672 -60.9667 -60.9407 -60.8924
   -60.8772 -60.8679 -60.8091 -60.7675 -60.7023 -60.5820 -60.5561 -60.4556
   -60.3900 -60.1914 -60.1642 -59.9241 -59.8947 -59.8537 -51.4957 -51.4148
   -51.4073 -51.3821 -51.3642 -51.3638 -51.3620 -51.3533 -51.3311 -51.3228
   -51.3217 -51.3081 -51.2965 -51.2839 -51.2762 -51.2715 -51.2625 -51.2378
   -51.2086 -51.1991 -51.1272 -51.1228 -51.1040 -51.0852 -45.7387 -45.5014
   -45.4993 -45.4378 -45.4365 -45.4244 -45.4129 -45.3859 -45.3767 -45.3741
   -45.3266 -45.3201 -45.2239 -45.2183 -45.2099 -45.1998 -45.1283 -45.0629
   -19.6944 -19.4600 -19.3049 -19.2774 -19.1901 -19.0292 -19.0048 -18.8068
   -18.7648 -18.6656 -18.5796 -18.4589 -18.4438 -18.3882 -18.3855 -18.3726
   -18.3523 -18.3062 -18.3047 -18.2508 -18.2387 -18.2255 -18.1862 -18.1746
   -18.1439 -18.1279 -18.0990 -18.0860 -18.0802 -18.0562 -18.0243 -18.0167
   -17.9879 -17.9440 -17.9173 -17.9017 -17.8801 -17.8514 -17.8067 -17.7879
   -17.7467 -17.6913 -17.6741 -17.6334 -17.5789 -17.1818 -17.1484 -17.1132
   -17.0170  -8.4446  -8.3407  -8.2688  -7.9533  -7.8748  -7.8627  -7.8233
    -7.6771  -7.6316  -7.6263  -7.6022  -7.5682  -7.5292  -7.4583  -7.4128
    -7.3911  -7.2991  -7.2783  -7.2272  -7.1990  -7.1247  -6.9071  -6.8856
    -6.8738  -6.8466  -6.8056  -6.7871  -6.7846  -6.7476  -6.7458  -6.6829
    -6.6648  -6.6369  -6.5908  -6.5773  -6.5378  -6.4840  -6.4814  -6.4194
    -6.3865  -6.3854  -6.3697  -6.3535  -6.3183  -6.2960  -6.2630  -6.2546
    -6.2465  -6.1780  -6.1477  -6.1350  -6.1031  -6.0847  -6.0763  -6.0430
    -6.0098  -5.9952  -5.9072  -5.8879  -5.8582  -5.8518  -5.8289  -5.7431
    -5.7311  -5.6650  -5.6352  -5.6281  -5.6054  -5.5875  -5.5447  -5.4943
    -5.4799  -5.4141  -5.4112  -5.3677  -5.3332  -5.2558  -5.2243  -5.1975
    -5.0985  -5.0703  -5.0138  -4.9835  -4.9808  -4.9624  -4.9247  -4.9214
    -4.8725  -4.8301  -4.7244  -4.7215  -4.6773  -4.6645  -4.6556  -4.6200
    -4.5996  -4.5869  -4.5646  -4.5442  -4.4928  -4.4713  -4.4548  -4.4086
    -4.3969  -4.3705  -4.3413  -4.3112  -4.2512  -4.2357  -4.2174  -4.2077
    -4.1812  -4.1487  -4.1263  -4.0612  -4.0122  -4.0024  -3.9381  -3.9223
    -3.8907  -3.8793  -3.8470  -3.8294  -3.8189  -3.7645  -3.7538  -3.7465
    -3.7176  -3.6761  -3.6580  -3.6517  -3.6116  -3.5808  -3.5458  -3.5249
    -3.5133  -3.4630  -3.4570  -3.4311  -3.4189  -3.3720  -3.3484  -3.2852
    -3.2636  -3.2422  -3.2139  -3.1690  -3.0797  -3.0637  -3.0370  -3.0264
    -3.0018  -2.9693  -2.9000  -2.8672  -2.8323  -2.7806  -2.7109  -2.5916
    -2.5716  -2.5338  -2.5083  -2.4704  -2.4395  -2.3674  -2.2800  -2.2220
    -2.1939  -2.1651  -2.1565  -2.1178  -2.0545  -2.0467  -2.0351  -2.0217
    -1.9632  -1.9512  -1.9055  -1.8913  -1.8421  -1.8264  -1.8113  -1.7991
    -1.7706  -1.7514  -1.7251  -1.7164  -1.6461  -1.6335  -1.6119  -1.5561
    -1.5344  -1.5111  -1.4845  -1.4686  -1.4364  -1.4136  -1.3953  -1.3409
    -1.2519  -1.2200  -1.1972  -1.1815  -1.1455  -1.1377  -1.1011  -1.0627
    -1.0424  -0.9835  -0.9317  -0.8755  -0.8358  -0.8175  -0.7910  -0.7422
    -0.7270  -0.6977  -0.6952  -0.6347  -0.6128  -0.5752  -0.5366  -0.4715
    -0.3112  -0.2041  -0.1661  -0.1277  -0.1045  -0.1013  -0.0359   0.0243
     0.1481   0.1983   0.2464   0.3773   0.5057   0.5935   0.6309   0.6577
     0.6732   0.7092   0.7753   0.8891   1.1165   1.2089   1.2619   1.3249
     1.3759   1.4161   1.4971   1.5188   1.5750   1.7390   1.7844   1.8132
     1.8686   1.9111   2.4699

          k = 0.0000-0.2340 0.0000 (150480 PWs)   bands (ev):

   -98.5771 -97.8272 -97.6305 -97.3655 -97.3604 -97.3250 -97.2706 -97.2552
   -82.7524 -82.6854 -82.6507 -82.6406 -82.6297 -82.5896 -82.5015 -82.4279
   -74.2470 -74.1391 -74.0826 -73.9895 -73.9260 -73.9082 -62.5385 -61.4490
   -61.4468 -61.2695 -61.1994 -61.0672 -60.9672 -60.9667 -60.9407 -60.8924
   -60.8772 -60.8679 -60.8091 -60.7675 -60.7023 -60.5820 -60.5561 -60.4556
   -60.3900 -60.1914 -60.1642 -59.9241 -59.8947 -59.8537 -51.4957 -51.4148
   -51.4073 -51.3821 -51.3642 -51.3638 -51.3620 -51.3533 -51.3311 -51.3228
   -51.3217 -51.3081 -51.2965 -51.2839 -51.2762 -51.2715 -51.2625 -51.2378
   -51.2086 -51.1991 -51.1272 -51.1228 -51.1040 -51.0852 -45.7387 -45.5014
   -45.4993 -45.4378 -45.4365 -45.4244 -45.4129 -45.3859 -45.3767 -45.3741
   -45.3266 -45.3201 -45.2239 -45.2183 -45.2099 -45.1998 -45.1283 -45.0629
   -19.5987 -19.5583 -19.3728 -19.3254 -19.1019 -19.0339 -18.9208 -18.9038
   -18.7230 -18.6535 -18.5035 -18.4544 -18.4458 -18.4110 -18.3808 -18.3750
   -18.3504 -18.3110 -18.2874 -18.2725 -18.2481 -18.2433 -18.1877 -18.1823
   -18.1762 -18.1404 -18.1047 -18.0843 -18.0614 -18.0573 -18.0373 -18.0309
   -17.9797 -17.9344 -17.9161 -17.8981 -17.8729 -17.8357 -17.8101 -17.7939
   -17.7536 -17.6910 -17.6727 -17.6336 -17.5739 -17.1817 -17.1472 -17.1132
   -17.0173  -8.2775  -8.2152  -8.1364  -8.0722  -8.0043  -7.8911  -7.8133
    -7.7641  -7.6607  -7.6526  -7.5820  -7.5584  -7.5462  -7.4549  -7.4267
    -7.3969  -7.3720  -7.3223  -7.2901  -7.2737  -7.2559  -7.1756  -7.0547
    -6.8867  -6.8456  -6.7890  -6.7513  -6.7467  -6.7305  -6.6839  -6.6154
    -6.5846  -6.5779  -6.5490  -6.5136  -6.4718  -6.4360  -6.3895  -6.3698
    -6.3464  -6.3270  -6.3161  -6.3060  -6.2945  -6.2708  -6.2549  -6.2336
    -6.1751  -6.1657  -6.1564  -6.1416  -6.1178  -6.0464  -6.0373  -6.0173
    -6.0016  -5.9739  -5.9481  -5.9190  -5.8863  -5.8557  -5.7751  -5.7471
    -5.7413  -5.7347  -5.7221  -5.6314  -5.6217  -5.5880  -5.5478  -5.5022
    -5.4773  -5.4182  -5.3981  -5.3533  -5.3143  -5.2609  -5.1650  -5.1242
    -5.0958  -5.0497  -5.0333  -4.9870  -4.9692  -4.9285  -4.9152  -4.8914
    -4.8425  -4.8270  -4.8047  -4.7383  -4.6949  -4.6838  -4.6574  -4.6492
    -4.6425  -4.6169  -4.5876  -4.5766  -4.5413  -4.5380  -4.5120  -4.4715
    -4.4485  -4.4454  -4.3818  -4.3295  -4.2920  -4.2903  -4.2471  -4.2125
    -4.1937  -4.1393  -4.1171  -4.0236  -4.0044  -3.9732  -3.9326  -3.9269
    -3.9135  -3.8913  -3.8655  -3.8335  -3.7998  -3.7693  -3.7227  -3.7014
    -3.6911  -3.6640  -3.6558  -3.6035  -3.5681  -3.5532  -3.5373  -3.5167
    -3.4910  -3.4642  -3.4296  -3.3975  -3.3625  -3.3103  -3.3063  -3.2770
    -3.2379  -3.2006  -3.1907  -3.1336  -3.0833  -3.0605  -3.0124  -2.9974
    -2.9825  -2.9614  -2.9049  -2.8603  -2.8321  -2.7918  -2.7430  -2.6687
    -2.5885  -2.5603  -2.4813  -2.4660  -2.4233  -2.3505  -2.2884  -2.2798
    -2.2289  -2.1862  -2.1795  -2.1618  -2.1133  -2.0730  -2.0530  -2.0194
    -1.9677  -1.9498  -1.9150  -1.8972  -1.8607  -1.8310  -1.8071  -1.7909
    -1.7628  -1.7378  -1.7201  -1.6818  -1.6784  -1.6485  -1.6334  -1.6122
    -1.5724  -1.5430  -1.4966  -1.4522  -1.3971  -1.3634  -1.3401  -1.3060
    -1.2555  -1.2294  -1.1812  -1.1640  -1.1302  -1.1192  -1.0708  -1.0446
    -1.0192  -1.0088  -0.8890  -0.8628  -0.8188  -0.7900  -0.7638  -0.7306
    -0.7206  -0.6751  -0.6653  -0.6477  -0.5971  -0.5384  -0.4753  -0.4627
    -0.3421  -0.2742  -0.2326  -0.1882  -0.1612  -0.1163  -0.0978  -0.0746
    -0.0132   0.0675   0.1512   0.2429   0.4402   0.5517   0.6194   0.6997
     0.7333   0.8422   0.9136   1.1309   1.2091   1.2879   1.3083   1.3702
     1.4247   1.5064   1.5195   1.5657   1.5936   1.6310   1.7080   1.7703
     1.8669   1.9091   2.4920

          k = 0.2500-0.0000 0.0000 (150396 PWs)   bands (ev):

   -98.5771 -97.8267 -97.6303 -97.3654 -97.3598 -97.3244 -97.2705 -97.2550
   -82.7521 -82.6852 -82.6504 -82.6404 -82.6294 -82.5895 -82.5012 -82.4279
   -74.2467 -74.1389 -74.0817 -73.9886 -73.9250 -73.9074 -62.5385 -61.4490
   -61.4469 -61.2695 -61.1994 -61.0675 -60.9672 -60.9667 -60.9407 -60.8924
   -60.8772 -60.8679 -60.8092 -60.7675 -60.7023 -60.5819 -60.5561 -60.4558
   -60.3899 -60.1881 -60.1680 -59.9245 -59.8951 -59.8539 -51.4960 -51.4148
   -51.4076 -51.3823 -51.3642 -51.3639 -51.3622 -51.3536 -51.3312 -51.3229
   -51.3217 -51.3081 -51.2965 -51.2841 -51.2762 -51.2715 -51.2626 -51.2378
   -51.2087 -51.1993 -51.1272 -51.1228 -51.1040 -51.0852 -45.7388 -45.5015
   -45.4998 -45.4378 -45.4366 -45.4246 -45.4130 -45.3860 -45.3769 -45.3745
   -45.3278 -45.3215 -45.2255 -45.2194 -45.2100 -45.2002 -45.1284 -45.0629
   -19.5606 -19.3384 -19.1916 -19.1652 -19.0809 -18.9398 -18.9093 -18.7629
   -18.7262 -18.6910 -18.6466 -18.5982 -18.5620 -18.5321 -18.4902 -18.4794
   -18.4235 -18.3575 -18.3429 -18.2917 -18.2651 -18.2381 -18.1948 -18.1511
   -18.1387 -18.1178 -18.1000 -18.0869 -18.0512 -18.0127 -17.9962 -17.9865
   -17.9685 -17.9525 -17.9351 -17.9121 -17.8823 -17.8637 -17.8119 -17.8010
   -17.7774 -17.7189 -17.6806 -17.6487 -17.5939 -17.2117 -17.1363 -17.1296
   -17.0529  -8.2373  -8.1435  -8.0804  -7.7756  -7.6881  -7.6808  -7.6228
    -7.5223  -7.4593  -7.4336  -7.4196  -7.3986  -7.3654  -7.3153  -7.2700
    -7.2223  -7.1887  -7.1602  -7.1224  -7.1070  -7.0828  -7.0191  -6.9906
    -6.9184  -6.8923  -6.8610  -6.8328  -6.8062  -6.7857  -6.7587  -6.7405
    -6.7124  -6.6791  -6.6324  -6.5955  -6.5596  -6.5446  -6.5116  -6.4873
    -6.4649  -6.4391  -6.3958  -6.3653  -6.3312  -6.2992  -6.2720  -6.2433
    -6.2247  -6.1999  -6.1714  -6.1585  -6.1441  -6.1096  -6.0980  -6.0595
    -6.0201  -5.9825  -5.9494  -5.8905  -5.8622  -5.8376  -5.7931  -5.7778
    -5.7604  -5.7235  -5.6929  -5.6702  -5.6580  -5.6298  -5.5708  -5.5660
    -5.5465  -5.5062  -5.4825  -5.3942  -5.3608  -5.3066  -5.2837  -5.2598
    -5.2323  -5.2083  -5.1661  -5.1552  -5.1330  -5.0901  -5.0363  -4.9931
    -4.9843  -4.9585  -4.9409  -4.9133  -4.8713  -4.8439  -4.8240  -4.8020
    -4.7556  -4.7168  -4.7087  -4.6754  -4.6055  -4.5832  -4.5662  -4.5299
    -4.4979  -4.4479  -4.4037  -4.3734  -4.3323  -4.3244  -4.2856  -4.2506
    -4.2277  -4.1975  -4.1400  -4.1220  -4.1059  -4.0767  -4.0427  -4.0164
    -3.9984  -3.9681  -3.9265  -3.8986  -3.8631  -3.8344  -3.7982  -3.7704
    -3.7154  -3.6654  -3.6456  -3.6129  -3.5455  -3.5291  -3.4935  -3.4451
    -3.4371  -3.4118  -3.3655  -3.3488  -3.3112  -3.2726  -3.2536  -3.1921
    -3.1651  -3.1180  -3.0712  -3.0523  -3.0156  -2.9677  -2.9296  -2.8863
    -2.8389  -2.8132  -2.7908  -2.7557  -2.7147  -2.6386  -2.5971  -2.5440
    -2.5209  -2.4732  -2.4455  -2.3711  -2.2746  -2.2312  -2.2056  -2.1923
    -2.1364  -2.0749  -2.0660  -2.0184  -2.0032  -1.9843  -1.9447  -1.9130
    -1.8938  -1.8603  -1.8167  -1.8066  -1.7652  -1.7574  -1.7298  -1.7223
    -1.7076  -1.6683  -1.6425  -1.6270  -1.6111  -1.5671  -1.5448  -1.5158
    -1.4955  -1.4604  -1.4375  -1.4300  -1.3793  -1.3411  -1.3233  -1.2908
    -1.2659  -1.2297  -1.2161  -1.2064  -1.1679  -1.1263  -1.0975  -1.0822
    -1.0500  -1.0181  -0.9720  -0.8911  -0.8618  -0.8562  -0.8199  -0.7733
    -0.7379  -0.7076  -0.6723  -0.6340  -0.6033  -0.5411  -0.4894  -0.4333
    -0.2987  -0.2777  -0.2472  -0.1911  -0.1641  -0.1330  -0.0567   0.1029
     0.1250   0.2022   0.3101   0.3503   0.3803   0.5066   0.5425   0.5778
     0.6593   0.7299   0.7493   0.8476   0.9675   1.0416   1.0795   1.1493
     1.2135   1.3364   1.3635   1.4132   1.4754   1.6204   1.6464   1.7006
     1.7457   1.8198   2.3031

          k = 0.2500-0.2340 0.0000 (150352 PWs)   bands (ev):

   -98.5771 -97.8267 -97.6303 -97.3654 -97.3598 -97.3244 -97.2705 -97.2550
   -82.7521 -82.6852 -82.6504 -82.6404 -82.6294 -82.5895 -82.5012 -82.4279
   -74.2467 -74.1389 -74.0817 -73.9886 -73.9250 -73.9074 -62.5385 -61.4490
   -61.4469 -61.2695 -61.1994 -61.0675 -60.9672 -60.9667 -60.9407 -60.8924
   -60.8772 -60.8679 -60.8092 -60.7675 -60.7023 -60.5819 -60.5561 -60.4558
   -60.3899 -60.1881 -60.1680 -59.9245 -59.8951 -59.8539 -51.4960 -51.4148
   -51.4076 -51.3823 -51.3642 -51.3639 -51.3622 -51.3536 -51.3312 -51.3229
   -51.3217 -51.3081 -51.2965 -51.2841 -51.2762 -51.2715 -51.2626 -51.2378
   -51.2087 -51.1993 -51.1272 -51.1228 -51.1040 -51.0852 -45.7388 -45.5015
   -45.4998 -45.4378 -45.4366 -45.4246 -45.4130 -45.3860 -45.3769 -45.3745
   -45.3278 -45.3215 -45.2255 -45.2194 -45.2100 -45.2002 -45.1284 -45.0629
   -19.4713 -19.4291 -19.2575 -19.2101 -18.9976 -18.9404 -18.8321 -18.8161
   -18.7218 -18.7102 -18.6353 -18.6216 -18.5542 -18.5066 -18.4709 -18.4313
   -18.4205 -18.3627 -18.3338 -18.3091 -18.2685 -18.2410 -18.2107 -18.1642
   -18.1397 -18.1261 -18.1066 -18.0800 -18.0531 -18.0268 -18.0098 -18.0007
   -17.9711 -17.9471 -17.9222 -17.9112 -17.8761 -17.8517 -17.8214 -17.8006
   -17.7801 -17.7190 -17.6794 -17.6490 -17.5893 -17.2108 -17.1361 -17.1293
   -17.0533  -8.0624  -8.0147  -7.9477  -7.8890  -7.8084  -7.7228  -7.6763
    -7.5992  -7.5221  -7.4682  -7.4268  -7.4008  -7.3695  -7.3138  -7.2593
    -7.2387  -7.2261  -7.1626  -7.1456  -7.1224  -7.0901  -7.0522  -6.9733
    -6.9249  -6.9074  -6.8857  -6.8639  -6.8296  -6.7895  -6.7549  -6.7204
    -6.6922  -6.6542  -6.6149  -6.5905  -6.5626  -6.5435  -6.5202  -6.5040
    -6.4744  -6.4553  -6.4173  -6.3985  -6.3633  -6.3522  -6.2949  -6.2689
    -6.2396  -6.1823  -6.1738  -6.1113  -6.0907  -6.0622  -6.0538  -6.0236
    -6.0090  -5.9834  -5.9420  -5.9215  -5.8762  -5.8502  -5.8027  -5.7422
    -5.7191  -5.6856  -5.6697  -5.6391  -5.6095  -5.5885  -5.5434  -5.5128
    -5.4917  -5.4687  -5.4462  -5.3926  -5.3662  -5.3204  -5.2761  -5.2561
    -5.2100  -5.1866  -5.1576  -5.1298  -5.0818  -5.0295  -5.0216  -5.0040
    -4.9745  -4.9494  -4.9253  -4.9027  -4.8443  -4.8209  -4.8011  -4.7830
    -4.7633  -4.7414  -4.7115  -4.6973  -4.6598  -4.6434  -4.5880  -4.5607
    -4.5502  -4.5352  -4.4982  -4.4570  -4.4359  -4.3973  -4.3544  -4.3259
    -4.2919  -4.2726  -4.1880  -4.1553  -4.1159  -4.0928  -4.0516  -4.0020
    -3.9432  -3.9078  -3.8652  -3.8163  -3.7581  -3.7134  -3.6821  -3.6492
    -3.6275  -3.6034  -3.5850  -3.5648  -3.5132  -3.4943  -3.4699  -3.4565
    -3.4197  -3.4044  -3.3878  -3.3537  -3.3051  -3.2933  -3.2578  -3.2120
    -3.1881  -3.1615  -3.1316  -3.0924  -3.0614  -3.0021  -2.9356  -2.9085
    -2.8740  -2.7895  -2.7756  -2.7519  -2.6965  -2.6570  -2.6047  -2.5730
    -2.5243  -2.4891  -2.4463  -2.3953  -2.3582  -2.3001  -2.2192  -2.2064
    -2.1499  -2.1159  -2.0782  -2.0614  -2.0130  -1.9841  -1.9482  -1.9226
    -1.9107  -1.8859  -1.8530  -1.8339  -1.7749  -1.7347  -1.7211  -1.7113
    -1.6853  -1.6721  -1.6540  -1.6400  -1.6058  -1.5891  -1.5653  -1.5308
    -1.4873  -1.4476  -1.4047  -1.3742  -1.3522  -1.3170  -1.2771  -1.2491
    -1.2412  -1.2278  -1.2072  -1.1726  -1.1480  -1.1350  -1.1134  -1.0907
    -1.0557  -1.0505  -0.9433  -0.8792  -0.8541  -0.8255  -0.8081  -0.7801
    -0.7334  -0.6797  -0.6518  -0.6329  -0.5759  -0.5078  -0.4831  -0.4238
    -0.3210  -0.2859  -0.2307  -0.2079  -0.1515  -0.0789  -0.0468  -0.0214
     0.0389   0.1001   0.1384   0.2934   0.3558   0.4169   0.5582   0.6357
     0.7133   0.7474   0.8527   0.9233   1.0064   1.0640   1.1297   1.2277
     1.2860   1.3551   1.4190   1.4670   1.5157   1.5481   1.5874   1.6651
     1.7216   1.8444   2.3154

          k =-0.5000 0.0000 0.0000 (150516 PWs)   bands (ev):

   -98.5771 -97.8262 -97.6301 -97.3652 -97.3593 -97.3239 -97.2704 -97.2548
   -82.7518 -82.6851 -82.6501 -82.6403 -82.6291 -82.5893 -82.5010 -82.4279
   -74.2465 -74.1387 -74.0808 -73.9877 -73.9240 -73.9065 -62.5385 -61.4490
   -61.4469 -61.2695 -61.1994 -61.0678 -60.9673 -60.9667 -60.9407 -60.8924
   -60.8772 -60.8680 -60.8092 -60.7675 -60.7023 -60.5818 -60.5561 -60.4560
   -60.3899 -60.1823 -60.1741 -59.9248 -59.8955 -59.8541 -51.4962 -51.4148
   -51.4079 -51.3826 -51.3642 -51.3641 -51.3624 -51.3538 -51.3312 -51.3229
   -51.3217 -51.3081 -51.2965 -51.2844 -51.2763 -51.2715 -51.2626 -51.2378
   -51.2087 -51.1995 -51.1272 -51.1228 -51.1041 -51.0852 -45.7388 -45.5015
   -45.5003 -45.4379 -45.4367 -45.4247 -45.4132 -45.3862 -45.3770 -45.3749
   -45.3291 -45.3229 -45.2272 -45.2206 -45.2101 -45.2004 -45.1285 -45.0630
   -19.2235 -19.1897 -19.0449 -19.0175 -18.9184 -18.8980 -18.8906 -18.8486
   -18.8218 -18.7699 -18.7344 -18.7066 -18.6525 -18.6130 -18.5136 -18.5006
   -18.4653 -18.4380 -18.4225 -18.3673 -18.3321 -18.2792 -18.2130 -18.1771
   -18.1093 -18.0947 -18.0567 -18.0553 -18.0337 -18.0158 -17.9983 -17.9899
   -17.9611 -17.9344 -17.9198 -17.9067 -17.8822 -17.8559 -17.8387 -17.8258
   -17.8137 -17.7629 -17.6800 -17.6653 -17.6104 -17.2337 -17.1441 -17.1193
   -17.1032  -7.8344  -7.6994  -7.6521  -7.6352  -7.5495  -7.5051  -7.4641
    -7.4093  -7.3204  -7.2951  -7.2640  -7.2452  -7.2052  -7.1997  -7.1610
    -7.1360  -7.1317  -7.0728  -7.0475  -7.0423  -7.0112  -6.9981  -6.9813
    -6.9612  -6.9460  -6.9130  -6.8941  -6.8821  -6.8314  -6.8067  -6.7913
    -6.7505  -6.7397  -6.6846  -6.6541  -6.5902  -6.5839  -6.5223  -6.4741
    -6.4457  -6.4226  -6.4189  -6.4086  -6.3813  -6.3312  -6.3218  -6.2379
    -6.2178  -6.1958  -6.1631  -6.1365  -6.1078  -6.0923  -6.0643  -6.0506
    -6.0242  -5.9932  -5.9634  -5.9546  -5.9429  -5.9216  -5.8651  -5.8513
    -5.8281  -5.7964  -5.7700  -5.7536  -5.7363  -5.6980  -5.6661  -5.6257
    -5.6041  -5.5694  -5.5589  -5.5350  -5.4913  -5.4883  -5.4492  -5.4331
    -5.3928  -5.3403  -5.2718  -5.2608  -5.2043  -5.1771  -5.1509  -5.0912
    -5.0851  -5.0622  -5.0294  -5.0195  -4.9753  -4.9359  -4.8847  -4.8676
    -4.8613  -4.8040  -4.7322  -4.7005  -4.6791  -4.6424  -4.6227  -4.6099
    -4.5762  -4.5545  -4.5043  -4.4637  -4.4255  -4.3982  -4.3734  -4.3409
    -4.3202  -4.2813  -4.2631  -4.2184  -4.1740  -4.1565  -4.1206  -4.1136
    -4.1075  -4.0402  -4.0067  -3.9854  -3.9237  -3.9100  -3.8747  -3.8477
    -3.7794  -3.7289  -3.7017  -3.6831  -3.6479  -3.5498  -3.5239  -3.4825
    -3.4211  -3.3989  -3.3420  -3.2908  -3.2416  -3.1717  -3.1487  -3.0733
    -2.9818  -2.9715  -2.9122  -2.8949  -2.8577  -2.8338  -2.7948  -2.7802
    -2.6932  -2.6801  -2.6291  -2.5516  -2.5119  -2.4160  -2.3891  -2.3586
    -2.3028  -2.2620  -2.2110  -2.1948  -2.1308  -2.1094  -2.0826  -2.0665
    -2.0574  -1.9987  -1.9906  -1.9485  -1.9449  -1.9227  -1.9009  -1.8869
    -1.8541  -1.8264  -1.7894  -1.7846  -1.7410  -1.7324  -1.7095  -1.6930
    -1.6545  -1.6264  -1.6112  -1.5921  -1.5667  -1.5264  -1.5110  -1.4896
    -1.4613  -1.4488  -1.4273  -1.4183  -1.3770  -1.3431  -1.2774  -1.2715
    -1.2450  -1.2250  -1.2014  -1.1763  -1.1440  -1.1276  -1.1141  -1.0714
    -1.0260  -1.0053  -0.9551  -0.9400  -0.9002  -0.8762  -0.8193  -0.7924
    -0.7159  -0.6900  -0.6629  -0.5493  -0.5234  -0.4929  -0.4084  -0.3815
    -0.3673  -0.3201  -0.2346  -0.2116  -0.1768  -0.1241  -0.0150   0.0775
     0.0939   0.1421   0.1879   0.2348   0.2498   0.2716   0.3334   0.4564
     0.4818   0.6571   0.7227   0.7868   0.8388   0.8950   0.9389   1.0440
     1.1591   1.2200   1.2667   1.3545   1.4493   1.4956   1.5308   1.5839
     1.6078   1.6959   2.1949

          k =-0.5000-0.2340 0.0000 (150436 PWs)   bands (ev):

   -98.5771 -97.8262 -97.6301 -97.3652 -97.3593 -97.3239 -97.2704 -97.2548
   -82.7518 -82.6851 -82.6501 -82.6403 -82.6291 -82.5893 -82.5010 -82.4279
   -74.2465 -74.1387 -74.0808 -73.9877 -73.9240 -73.9065 -62.5385 -61.4490
   -61.4469 -61.2695 -61.1994 -61.0678 -60.9673 -60.9667 -60.9407 -60.8924
   -60.8772 -60.8680 -60.8092 -60.7675 -60.7023 -60.5818 -60.5561 -60.4560
   -60.3899 -60.1823 -60.1741 -59.9248 -59.8955 -59.8541 -51.4962 -51.4148
   -51.4079 -51.3826 -51.3642 -51.3641 -51.3624 -51.3538 -51.3312 -51.3229
   -51.3217 -51.3081 -51.2965 -51.2844 -51.2762 -51.2715 -51.2626 -51.2378
   -51.2087 -51.1995 -51.1272 -51.1228 -51.1040 -51.0852 -45.7388 -45.5015
   -45.5003 -45.4379 -45.4367 -45.4247 -45.4132 -45.3862 -45.3770 -45.3749
   -45.3291 -45.3229 -45.2272 -45.2206 -45.2101 -45.2004 -45.1285 -45.0630
   -19.1561 -19.1253 -19.1076 -19.0713 -18.9875 -18.9420 -18.9221 -18.8913
   -18.7787 -18.7317 -18.7138 -18.6633 -18.6023 -18.5725 -18.5687 -18.5594
   -18.4536 -18.4372 -18.3656 -18.3343 -18.3112 -18.2322 -18.2134 -18.1745
   -18.1584 -18.1336 -18.0909 -18.0455 -18.0337 -18.0272 -18.0083 -17.9952
   -17.9681 -17.9274 -17.9149 -17.8916 -17.8883 -17.8597 -17.8406 -17.8353
   -17.8050 -17.7607 -17.6794 -17.6642 -17.6076 -17.2321 -17.1437 -17.1195
   -17.1035  -7.6761  -7.6410  -7.6029  -7.5399  -7.4701  -7.4499  -7.3627
    -7.3478  -7.3408  -7.3032  -7.2795  -7.2578  -7.2482  -7.2253  -7.2049
    -7.1567  -7.1466  -7.1290  -7.1244  -7.0863  -7.0505  -7.0332  -7.0130
    -7.0068  -6.9832  -6.9525  -6.9384  -6.9000  -6.8682  -6.8490  -6.8428
    -6.7774  -6.7686  -6.7370  -6.7136  -6.6787  -6.6623  -6.6328  -6.6183
    -6.5870  -6.5222  -6.4984  -6.4122  -6.3785  -6.3458  -6.3104  -6.2889
    -6.2172  -6.1760  -6.1398  -6.1089  -6.0697  -6.0526  -5.9953  -5.9763
    -5.9526  -5.9422  -5.9067  -5.8909  -5.8370  -5.8214  -5.7840  -5.7713
    -5.7429  -5.7341  -5.7035  -5.6852  -5.6431  -5.6337  -5.6107  -5.6041
    -5.5641  -5.5441  -5.5317  -5.4854  -5.4685  -5.4433  -5.4153  -5.3652
    -5.3475  -5.3001  -5.2869  -5.2611  -5.2304  -5.2015  -5.1651  -5.1473
    -5.1388  -5.0782  -5.0381  -5.0191  -4.9995  -4.9840  -4.9538  -4.9238
    -4.9034  -4.8896  -4.8311  -4.8090  -4.7648  -4.6761  -4.6366  -4.6205
    -4.5776  -4.5444  -4.5203  -4.4968  -4.4237  -4.3986  -4.3507  -4.3444
    -4.3264  -4.2861  -4.2643  -4.2160  -4.2065  -4.1879  -4.1161  -4.1023
    -4.0633  -4.0236  -3.9237  -3.8939  -3.8577  -3.8386  -3.8073  -3.7388
    -3.7277  -3.6922  -3.6290  -3.5883  -3.5466  -3.5353  -3.5076  -3.4700
    -3.4609  -3.4008  -3.3668  -3.3279  -3.3162  -3.2482  -3.2392  -3.1439
    -3.0791  -3.0078  -2.9386  -2.9139  -2.8325  -2.8078  -2.7663  -2.7459
    -2.6734  -2.6653  -2.5960  -2.5581  -2.5326  -2.4830  -2.4635  -2.4088
    -2.3589  -2.2818  -2.2380  -2.2074  -2.1982  -2.1293  -2.1011  -2.0740
    -2.0587  -2.0485  -2.0229  -1.9992  -1.9543  -1.9396  -1.8956  -1.8800
    -1.8501  -1.8441  -1.7951  -1.7846  -1.7614  -1.7441  -1.7094  -1.7016
    -1.6495  -1.6444  -1.6150  -1.5852  -1.5497  -1.5375  -1.5181  -1.4767
    -1.4595  -1.4345  -1.4223  -1.4027  -1.3432  -1.3162  -1.3077  -1.2468
    -1.2264  -1.1993  -1.1828  -1.1616  -1.1562  -1.1300  -1.0997  -1.0793
    -1.0125  -0.9668  -0.9590  -0.9276  -0.9190  -0.8823  -0.8649  -0.7914
    -0.7546  -0.7203  -0.6845  -0.5456  -0.4928  -0.4599  -0.3867  -0.3371
    -0.3245  -0.2704  -0.2308  -0.1810  -0.1279  -0.0538   0.0407   0.0748
     0.0955   0.1453   0.1974   0.2105   0.3020   0.3200   0.3648   0.3852
     0.4340   0.5715   0.6524   0.7881   0.8227   0.8751   0.9631   1.1190
     1.1709   1.2385   1.2880   1.3834   1.4285   1.4512   1.5146   1.5543
     1.6504   1.7713   2.1547

          k =-0.2500 0.0000 0.0000 (150396 PWs)   bands (ev):

   -98.5771 -97.8267 -97.6303 -97.3654 -97.3598 -97.3244 -97.2705 -97.2550
   -82.7521 -82.6852 -82.6504 -82.6404 -82.6294 -82.5895 -82.5012 -82.4279
   -74.2467 -74.1389 -74.0817 -73.9886 -73.9250 -73.9074 -62.5385 -61.4490
   -61.4469 -61.2695 -61.1994 -61.0675 -60.9672 -60.9667 -60.9407 -60.8924
   -60.8772 -60.8679 -60.8092 -60.7675 -60.7023 -60.5819 -60.5561 -60.4558
   -60.3899 -60.1881 -60.1680 -59.9245 -59.8951 -59.8539 -51.4960 -51.4148
   -51.4076 -51.3823 -51.3642 -51.3639 -51.3622 -51.3536 -51.3312 -51.3229
   -51.3217 -51.3081 -51.2965 -51.2841 -51.2762 -51.2715 -51.2626 -51.2378
   -51.2087 -51.1993 -51.1272 -51.1228 -51.1040 -51.0852 -45.7388 -45.5015
   -45.4998 -45.4378 -45.4366 -45.4246 -45.4130 -45.3860 -45.3769 -45.3745
   -45.3278 -45.3215 -45.2255 -45.2194 -45.2100 -45.2002 -45.1284 -45.0629
   -19.5606 -19.3384 -19.1916 -19.1652 -19.0809 -18.9398 -18.9093 -18.7629
   -18.7262 -18.6910 -18.6466 -18.5982 -18.5620 -18.5321 -18.4902 -18.4794
   -18.4235 -18.3575 -18.3429 -18.2917 -18.2651 -18.2381 -18.1948 -18.1511
   -18.1387 -18.1178 -18.1000 -18.0869 -18.0512 -18.0127 -17.9962 -17.9865
   -17.9685 -17.9525 -17.9351 -17.9121 -17.8823 -17.8637 -17.8119 -17.8010
   -17.7774 -17.7189 -17.6806 -17.6487 -17.5939 -17.2117 -17.1363 -17.1296
   -17.0529  -8.2373  -8.1435  -8.0804  -7.7756  -7.6881  -7.6808  -7.6228
    -7.5223  -7.4593  -7.4336  -7.4196  -7.3986  -7.3654  -7.3153  -7.2700
    -7.2223  -7.1887  -7.1602  -7.1224  -7.1070  -7.0828  -7.0191  -6.9906
    -6.9184  -6.8923  -6.8610  -6.8328  -6.8062  -6.7857  -6.7587  -6.7405
    -6.7124  -6.6791  -6.6324  -6.5955  -6.5596  -6.5446  -6.5116  -6.4873
    -6.4649  -6.4391  -6.3958  -6.3653  -6.3312  -6.2992  -6.2720  -6.2433
    -6.2247  -6.1999  -6.1714  -6.1585  -6.1441  -6.1096  -6.0980  -6.0595
    -6.0201  -5.9825  -5.9494  -5.8905  -5.8622  -5.8376  -5.7931  -5.7778
    -5.7604  -5.7235  -5.6929  -5.6702  -5.6580  -5.6298  -5.5708  -5.5660
    -5.5465  -5.5062  -5.4825  -5.3942  -5.3608  -5.3066  -5.2837  -5.2598
    -5.2323  -5.2083  -5.1661  -5.1552  -5.1330  -5.0901  -5.0363  -4.9931
    -4.9843  -4.9585  -4.9409  -4.9133  -4.8713  -4.8439  -4.8240  -4.8020
    -4.7556  -4.7168  -4.7087  -4.6754  -4.6055  -4.5832  -4.5662  -4.5299
    -4.4979  -4.4479  -4.4037  -4.3734  -4.3323  -4.3244  -4.2856  -4.2506
    -4.2277  -4.1975  -4.1400  -4.1220  -4.1059  -4.0767  -4.0427  -4.0164
    -3.9984  -3.9681  -3.9265  -3.8986  -3.8631  -3.8344  -3.7982  -3.7704
    -3.7154  -3.6654  -3.6456  -3.6129  -3.5455  -3.5291  -3.4935  -3.4451
    -3.4371  -3.4118  -3.3655  -3.3488  -3.3112  -3.2726  -3.2536  -3.1921
    -3.1651  -3.1180  -3.0712  -3.0523  -3.0156  -2.9677  -2.9296  -2.8863
    -2.8389  -2.8132  -2.7908  -2.7557  -2.7147  -2.6386  -2.5971  -2.5440
    -2.5209  -2.4732  -2.4455  -2.3711  -2.2746  -2.2312  -2.2056  -2.1923
    -2.1364  -2.0749  -2.0660  -2.0184  -2.0032  -1.9843  -1.9447  -1.9130
    -1.8938  -1.8603  -1.8167  -1.8066  -1.7652  -1.7574  -1.7298  -1.7223
    -1.7076  -1.6683  -1.6425  -1.6270  -1.6111  -1.5671  -1.5448  -1.5158
    -1.4955  -1.4604  -1.4375  -1.4300  -1.3793  -1.3411  -1.3233  -1.2908
    -1.2659  -1.2297  -1.2161  -1.2064  -1.1679  -1.1263  -1.0975  -1.0822
    -1.0500  -1.0181  -0.9720  -0.8911  -0.8618  -0.8562  -0.8199  -0.7733
    -0.7379  -0.7076  -0.6723  -0.6340  -0.6033  -0.5411  -0.4894  -0.4333
    -0.2987  -0.2777  -0.2472  -0.1911  -0.1641  -0.1330  -0.0567   0.1029
     0.1250   0.2022   0.3101   0.3503   0.3803   0.5066   0.5425   0.5778
     0.6593   0.7299   0.7493   0.8476   0.9675   1.0416   1.0795   1.1493
     1.2135   1.3364   1.3635   1.4132   1.4754   1.6204   1.6464   1.7006
     1.7457   1.8198   2.3031

          k =-0.2500-0.2340 0.0000 (150352 PWs)   bands (ev):

   -98.5771 -97.8267 -97.6303 -97.3654 -97.3598 -97.3244 -97.2705 -97.2550
   -82.7521 -82.6852 -82.6504 -82.6404 -82.6294 -82.5895 -82.5012 -82.4279
   -74.2467 -74.1389 -74.0817 -73.9886 -73.9250 -73.9074 -62.5385 -61.4490
   -61.4469 -61.2695 -61.1994 -61.0675 -60.9672 -60.9667 -60.9407 -60.8924
   -60.8772 -60.8679 -60.8092 -60.7675 -60.7023 -60.5819 -60.5561 -60.4558
   -60.3899 -60.1881 -60.1680 -59.9245 -59.8951 -59.8539 -51.4960 -51.4148
   -51.4076 -51.3823 -51.3642 -51.3639 -51.3622 -51.3536 -51.3312 -51.3229
   -51.3217 -51.3081 -51.2965 -51.2841 -51.2762 -51.2715 -51.2626 -51.2378
   -51.2087 -51.1993 -51.1272 -51.1228 -51.1040 -51.0852 -45.7388 -45.5015
   -45.4998 -45.4378 -45.4366 -45.4246 -45.4130 -45.3860 -45.3769 -45.3745
   -45.3278 -45.3215 -45.2255 -45.2194 -45.2100 -45.2002 -45.1284 -45.0629
   -19.4713 -19.4291 -19.2575 -19.2101 -18.9976 -18.9404 -18.8321 -18.8161
   -18.7218 -18.7102 -18.6353 -18.6216 -18.5542 -18.5066 -18.4709 -18.4313
   -18.4205 -18.3627 -18.3338 -18.3091 -18.2685 -18.2410 -18.2107 -18.1642
   -18.1397 -18.1261 -18.1066 -18.0800 -18.0531 -18.0268 -18.0098 -18.0007
   -17.9711 -17.9471 -17.9222 -17.9112 -17.8761 -17.8517 -17.8214 -17.8006
   -17.7801 -17.7190 -17.6794 -17.6490 -17.5893 -17.2108 -17.1361 -17.1293
   -17.0533  -8.0624  -8.0147  -7.9477  -7.8890  -7.8084  -7.7228  -7.6763
    -7.5992  -7.5221  -7.4682  -7.4268  -7.4008  -7.3695  -7.3138  -7.2593
    -7.2387  -7.2261  -7.1626  -7.1456  -7.1224  -7.0901  -7.0522  -6.9733
    -6.9249  -6.9074  -6.8857  -6.8639  -6.8296  -6.7895  -6.7549  -6.7204
    -6.6922  -6.6542  -6.6149  -6.5905  -6.5626  -6.5435  -6.5202  -6.5040
    -6.4744  -6.4553  -6.4173  -6.3985  -6.3633  -6.3522  -6.2949  -6.2689
    -6.2396  -6.1823  -6.1738  -6.1113  -6.0907  -6.0622  -6.0538  -6.0236
    -6.0090  -5.9834  -5.9420  -5.9215  -5.8762  -5.8502  -5.8027  -5.7422
    -5.7191  -5.6856  -5.6697  -5.6391  -5.6095  -5.5885  -5.5434  -5.5128
    -5.4917  -5.4687  -5.4462  -5.3926  -5.3662  -5.3204  -5.2761  -5.2561
    -5.2100  -5.1866  -5.1576  -5.1298  -5.0818  -5.0295  -5.0216  -5.0040
    -4.9745  -4.9494  -4.9253  -4.9027  -4.8443  -4.8209  -4.8011  -4.7830
    -4.7633  -4.7414  -4.7115  -4.6973  -4.6598  -4.6434  -4.5880  -4.5607
    -4.5502  -4.5352  -4.4982  -4.4570  -4.4359  -4.3973  -4.3544  -4.3259
    -4.2919  -4.2726  -4.1880  -4.1553  -4.1159  -4.0928  -4.0516  -4.0020
    -3.9432  -3.9078  -3.8652  -3.8163  -3.7581  -3.7134  -3.6821  -3.6492
    -3.6275  -3.6034  -3.5850  -3.5648  -3.5132  -3.4943  -3.4699  -3.4565
    -3.4197  -3.4044  -3.3878  -3.3537  -3.3051  -3.2933  -3.2578  -3.2120
    -3.1881  -3.1615  -3.1316  -3.0924  -3.0614  -3.0021  -2.9356  -2.9085
    -2.8740  -2.7895  -2.7756  -2.7519  -2.6965  -2.6570  -2.6047  -2.5730
    -2.5243  -2.4891  -2.4463  -2.3953  -2.3582  -2.3001  -2.2192  -2.2064
    -2.1499  -2.1159  -2.0782  -2.0614  -2.0130  -1.9841  -1.9482  -1.9226
    -1.9107  -1.8859  -1.8530  -1.8339  -1.7749  -1.7347  -1.7211  -1.7113
    -1.6853  -1.6721  -1.6540  -1.6400  -1.6058  -1.5891  -1.5653  -1.5308
    -1.4873  -1.4476  -1.4047  -1.3742  -1.3522  -1.3170  -1.2771  -1.2491
    -1.2412  -1.2278  -1.2072  -1.1726  -1.1480  -1.1350  -1.1134  -1.0907
    -1.0557  -1.0505  -0.9433  -0.8792  -0.8541  -0.8255  -0.8081  -0.7801
    -0.7334  -0.6797  -0.6518  -0.6329  -0.5759  -0.5078  -0.4831  -0.4238
    -0.3210  -0.2859  -0.2307  -0.2079  -0.1515  -0.0789  -0.0468  -0.0214
     0.0389   0.1001   0.1384   0.2934   0.3558   0.4169   0.5582   0.6357
     0.7133   0.7474   0.8527   0.9233   1.0064   1.0640   1.1297   1.2277
     1.2860   1.3551   1.4190   1.4670   1.5157   1.5481   1.5874   1.6651
     1.7216   1.8444   2.3154

 ------ SPIN DOWN ----------


          k = 0.0000 0.0000 0.0000 (150423 PWs)   bands (ev):

   -95.8617 -95.6933 -95.6823 -95.5321 -95.4587 -95.4527 -95.2755 -94.9153
   -78.8490 -78.7582 -78.7420 -78.7364 -78.7266 -78.7112 -78.5605 -78.4279
   -71.6870 -71.5840 -71.4983 -71.4706 -71.2825 -70.9473 -59.3447 -59.1472
   -59.0648 -59.0262 -59.0153 -59.0089 -58.9281 -58.8877 -58.8609 -58.8357
   -58.8354 -58.8305 -58.8224 -58.7943 -58.7679 -58.6866 -58.6723 -58.6203
   -58.6197 -58.6002 -58.4761 -58.4018 -58.2825 -58.0059 -47.7505 -47.6252
   -47.6217 -47.6077 -47.6048 -47.6044 -47.5612 -47.5308 -47.5261 -47.5207
   -47.5150 -47.4949 -47.4859 -47.4813 -47.4515 -47.4474 -47.4349 -47.4153
   -47.3986 -47.3797 -47.3708 -47.3070 -47.1673 -46.9305 -43.4677 -43.2417
   -43.1865 -43.0613 -42.9502 -42.9354 -42.8831 -42.8315 -42.8054 -42.7512
   -42.6844 -42.6723 -42.6385 -42.5639 -42.4711 -42.3676 -42.1372 -42.1239
   -19.8666 -19.5662 -19.4840 -19.3826 -19.2489 -19.1440 -19.0715 -18.9627
   -18.8613 -18.8183 -18.7625 -18.7222 -18.6346 -18.5401 -18.5107 -18.4987
   -18.4318 -18.4207 -18.3644 -18.3343 -18.3258 -18.3003 -18.2932 -18.2447
   -18.2334 -18.2076 -18.1971 -18.1733 -18.1549 -18.1372 -18.1145 -18.1075
   -18.0744 -18.0580 -18.0275 -17.9499 -17.9161 -17.8787 -17.8703 -17.8402
   -17.8291 -17.8178 -17.7285 -17.6794 -17.6674 -17.6357 -17.6066 -17.5753
   -17.5274  -7.4865  -7.2719  -7.0919  -6.9647  -6.8127  -6.7702  -6.7036
    -6.6835  -6.6401  -6.6297  -6.5291  -6.4942  -6.4378  -6.4051  -6.3532
    -6.3451  -6.2884  -6.2691  -6.2553  -6.2010  -6.1886  -6.1319  -6.0668
    -6.0422  -6.0310  -5.9551  -5.9077  -5.8983  -5.8224  -5.7861  -5.7307
    -5.7175  -5.6453  -5.5953  -5.5840  -5.5333  -5.4792  -5.4470  -5.4241
    -5.3804  -5.3551  -5.3378  -5.2295  -5.2006  -5.1526  -5.1445  -5.1271
    -5.1052  -5.0668  -5.0449  -5.0189  -5.0062  -5.0026  -4.9656  -4.9252
    -4.9148  -4.8828  -4.8694  -4.8366  -4.8273  -4.7867  -4.7702  -4.7160
    -4.6959  -4.6672  -4.6369  -4.5818  -4.5025  -4.4399  -4.3647  -4.3592
    -4.3329  -4.3186  -4.3110  -4.2975  -4.2654  -4.1878  -4.1710  -4.1609
    -4.0891  -4.0542  -4.0379  -4.0151  -3.9782  -3.9231  -3.8959  -3.8682
    -3.8141  -3.7949  -3.7665  -3.7130  -3.6684  -3.6396  -3.5596  -3.5235
    -3.4738  -3.4596  -3.4054  -3.3541  -3.3442  -3.3207  -3.3169  -3.2777
    -3.2621  -3.2358  -3.2180  -3.1874  -3.1700  -3.1026  -3.0679  -3.0551
    -3.0108  -2.9768  -2.9400  -2.9248  -2.8996  -2.8504  -2.8161  -2.8119
    -2.7749  -2.7649  -2.7127  -2.6998  -2.6734  -2.6473  -2.5953  -2.5662
    -2.5205  -2.4972  -2.4812  -2.4518  -2.4003  -2.3887  -2.3547  -2.3366
    -2.3236  -2.3039  -2.2723  -2.2159  -2.1912  -2.1570  -2.1314  -2.1091
    -2.0671  -2.0499  -2.0181  -2.0047  -1.9706  -1.9554  -1.9131  -1.8981
    -1.8727  -1.8034  -1.7456  -1.6898  -1.6753  -1.5940  -1.5687  -1.4973
    -1.4574  -1.4235  -1.3405  -1.2987  -1.2856  -1.2130  -1.1740  -1.0376
    -0.9845  -0.6822  -0.3833  -0.3431  -0.2319  -0.2088  -0.1334  -0.1143
     0.1059   0.2544   0.3044   0.3491   0.4050   0.4549   0.7100   0.8043
     0.9300   0.9432   1.0186   1.0636   1.1155   1.4298   1.4706   1.5115
     1.5392   1.6453   1.6638   1.7759   1.9025   1.9350   2.0211   2.0465
     2.0705   2.0787   2.1054   2.1223   2.1754   2.2133   2.2433   2.2928
     2.3013   2.3391   2.3721   2.3965   2.4155   2.4389   2.4419   2.4472
     2.4683   2.4818   2.5019   2.5537   2.5619   2.5715   2.6027   2.6277
     2.6801   2.7004   2.7097   2.7325   2.7727   2.7797   2.8086   2.8159
     2.8319   2.8652   2.8839   2.9148   2.9363   2.9919   3.0374   3.0871
     3.1248   3.1579   3.2109   3.2799   3.3798   3.4000   3.4046   3.4355
     3.4607   3.4691   3.5062   3.5390   3.5969   3.6274   3.6733   3.7137
     3.8397   3.8702   3.9961

          k = 0.0000-0.2340 0.0000 (150480 PWs)   bands (ev):

   -95.8617 -95.6933 -95.6823 -95.5321 -95.4587 -95.4527 -95.2755 -94.9153
   -78.8490 -78.7582 -78.7420 -78.7364 -78.7266 -78.7112 -78.5605 -78.4279
   -71.6870 -71.5840 -71.4983 -71.4706 -71.2825 -70.9473 -59.3447 -59.1472
   -59.0648 -59.0262 -59.0153 -59.0089 -58.9281 -58.8877 -58.8609 -58.8357
   -58.8354 -58.8305 -58.8224 -58.7943 -58.7679 -58.6866 -58.6723 -58.6203
   -58.6197 -58.6002 -58.4761 -58.4018 -58.2825 -58.0059 -47.7505 -47.6252
   -47.6217 -47.6077 -47.6048 -47.6044 -47.5612 -47.5308 -47.5261 -47.5207
   -47.5150 -47.4949 -47.4859 -47.4813 -47.4515 -47.4474 -47.4349 -47.4153
   -47.3986 -47.3797 -47.3708 -47.3070 -47.1673 -46.9305 -43.4677 -43.2417
   -43.1865 -43.0613 -42.9502 -42.9354 -42.8831 -42.8315 -42.8054 -42.7512
   -42.6844 -42.6723 -42.6385 -42.5639 -42.4711 -42.3676 -42.1372 -42.1239
   -19.7837 -19.7313 -19.4514 -19.3780 -19.1667 -19.1588 -19.0489 -19.0211
   -18.8896 -18.8397 -18.6757 -18.6211 -18.5951 -18.5538 -18.5210 -18.5153
   -18.4717 -18.4430 -18.4400 -18.3656 -18.3475 -18.3169 -18.3018 -18.2619
   -18.2207 -18.2009 -18.1765 -18.1674 -18.1448 -18.1331 -18.1274 -18.1076
   -18.0519 -18.0323 -17.9672 -17.9586 -17.9386 -17.8874 -17.8734 -17.8564
   -17.8311 -17.7998 -17.7295 -17.6799 -17.6682 -17.6344 -17.6053 -17.5726
   -17.5340  -7.3628  -7.1907  -7.0952  -6.9274  -6.8615  -6.7897  -6.7463
    -6.7053  -6.6400  -6.6060  -6.5744  -6.5448  -6.4972  -6.4191  -6.4022
    -6.3597  -6.3397  -6.2821  -6.2390  -6.2031  -6.1445  -6.1245  -6.0744
    -6.0432  -6.0337  -6.0150  -5.9775  -5.9300  -5.8922  -5.8482  -5.8015
    -5.7407  -5.6543  -5.6165  -5.5864  -5.5451  -5.5173  -5.4172  -5.3972
    -5.3562  -5.3058  -5.2303  -5.2062  -5.1801  -5.1696  -5.1462  -5.1325
    -5.1202  -5.0804  -5.0258  -5.0022  -4.9486  -4.9234  -4.9120  -4.8518
    -4.8398  -4.7890  -4.7454  -4.7248  -4.7129  -4.6590  -4.6492  -4.6430
    -4.6238  -4.6059  -4.5971  -4.5721  -4.5576  -4.5360  -4.4991  -4.4774
    -4.4216  -4.4063  -4.3569  -4.3490  -4.3154  -4.2985  -4.2518  -4.2229
    -4.1915  -4.1454  -4.0644  -3.9976  -3.9635  -3.9466  -3.8828  -3.8308
    -3.8092  -3.7694  -3.7286  -3.6970  -3.6566  -3.5774  -3.5464  -3.5184
    -3.5063  -3.4576  -3.4495  -3.3845  -3.3435  -3.3184  -3.2954  -3.2451
    -3.2118  -3.1846  -3.1387  -3.1034  -3.0786  -3.0601  -3.0150  -2.9998
    -2.9699  -2.9636  -2.9437  -2.9238  -2.9131  -2.8762  -2.8448  -2.8209
    -2.8020  -2.7786  -2.7294  -2.7171  -2.6967  -2.6553  -2.6084  -2.5971
    -2.5574  -2.5509  -2.4820  -2.4660  -2.4253  -2.4147  -2.3702  -2.3555
    -2.3396  -2.3300  -2.2997  -2.2844  -2.2639  -2.1964  -2.1174  -2.0904
    -2.0734  -2.0559  -2.0053  -1.9905  -1.9779  -1.9459  -1.9177  -1.8935
    -1.8578  -1.8243  -1.7663  -1.7178  -1.6610  -1.5759  -1.5287  -1.4828
    -1.4401  -1.3991  -1.3791  -1.3386  -1.2482  -1.2069  -1.1422  -1.1149
    -0.9951  -0.6813  -0.3834  -0.3451  -0.2670  -0.1833  -0.1240  -0.1064
     0.1286   0.2103   0.2994   0.3694   0.4066   0.4695   0.7991   0.9012
     0.9585   1.0059   1.0473   1.0648   1.1308   1.2284   1.4038   1.4833
     1.6180   1.6930   1.7162   1.8460   1.9152   1.9212   2.0263   2.0362
     2.0472   2.0720   2.0931   2.1135   2.1363   2.1639   2.2163   2.2507
     2.2871   2.2964   2.3384   2.3703   2.3862   2.4182   2.4426   2.4511
     2.4606   2.4916   2.5213   2.5312   2.5709   2.5966   2.6027   2.6379
     2.6784   2.7020   2.7176   2.7441   2.7665   2.8066   2.8180   2.8281
     2.8487   2.8657   2.8877   2.9186   2.9439   3.0103   3.0535   3.0786
     3.1248   3.1275   3.2123   3.2830   3.3792   3.4126   3.4452   3.4571
     3.4611   3.4821   3.5239   3.5892   3.6049   3.6295   3.6712   3.7269
     3.8560   3.8812   4.0365

          k = 0.2500-0.0000 0.0000 (150396 PWs)   bands (ev):

   -95.8621 -95.6932 -95.6823 -95.5325 -95.4589 -95.4531 -95.2755 -94.9155
   -78.8493 -78.7580 -78.7423 -78.7364 -78.7265 -78.7110 -78.5608 -78.4282
   -71.6870 -71.5839 -71.4988 -71.4712 -71.2831 -70.9480 -59.3445 -59.1471
   -59.0612 -59.0278 -59.0160 -59.0105 -58.9281 -58.8876 -58.8609 -58.8354
   -58.8353 -58.8310 -58.8224 -58.7942 -58.7679 -58.6864 -58.6723 -58.6200
   -58.6196 -58.6002 -58.4761 -58.4018 -58.2823 -58.0058 -47.7498 -47.6245
   -47.6218 -47.6079 -47.6050 -47.6043 -47.5615 -47.5307 -47.5261 -47.5201
   -47.5149 -47.4949 -47.4859 -47.4813 -47.4515 -47.4466 -47.4349 -47.4153
   -47.3986 -47.3797 -47.3707 -47.3070 -47.1672 -46.9305 -43.4678 -43.2417
   -43.1864 -43.0613 -42.9500 -42.9355 -42.8831 -42.8315 -42.8054 -42.7512
   -42.6844 -42.6727 -42.6385 -42.5638 -42.4710 -42.3674 -42.1372 -42.1239
   -19.7431 -19.4604 -19.3822 -19.2760 -19.1612 -19.1011 -18.9905 -18.9513
   -18.9082 -18.8471 -18.8022 -18.7486 -18.6897 -18.6675 -18.6446 -18.6042
   -18.5177 -18.5030 -18.4449 -18.4000 -18.3618 -18.3263 -18.2920 -18.2445
   -18.2344 -18.2143 -18.1812 -18.1413 -18.1256 -18.1154 -18.1037 -18.0942
   -18.0673 -18.0482 -18.0085 -17.9843 -17.8933 -17.8852 -17.8752 -17.8450
   -17.8145 -17.7968 -17.7225 -17.6931 -17.6609 -17.6209 -17.6038 -17.5809
   -17.5422  -7.3438  -7.1603  -6.9900  -6.8668  -6.7127  -6.6358  -6.5970
    -6.5435  -6.5109  -6.4841  -6.4384  -6.3910  -6.3715  -6.3336  -6.2780
    -6.2628  -6.2266  -6.1879  -6.1604  -6.1195  -6.0789  -6.0593  -6.0250
    -6.0077  -5.9712  -5.9299  -5.8846  -5.8728  -5.7940  -5.7772  -5.7494
    -5.7172  -5.6806  -5.6632  -5.6187  -5.5934  -5.5662  -5.5302  -5.4798
    -5.4265  -5.4080  -5.3770  -5.3545  -5.3181  -5.3026  -5.2844  -5.2579
    -5.2362  -5.1876  -5.1663  -5.1383  -5.1141  -5.1011  -5.0359  -4.9989
    -4.9257  -4.8983  -4.8686  -4.8191  -4.7936  -4.7386  -4.6517  -4.6135
    -4.5790  -4.5688  -4.5330  -4.4992  -4.4629  -4.4479  -4.4258  -4.3802
    -4.3724  -4.3443  -4.3201  -4.2433  -4.1854  -4.1694  -4.1195  -4.0976
    -4.0793  -4.0364  -4.0195  -3.9939  -3.9558  -3.9325  -3.8847  -3.8696
    -3.8500  -3.8331  -3.7808  -3.7593  -3.7128  -3.7014  -3.6830  -3.6505
    -3.6276  -3.6104  -3.5896  -3.5737  -3.4717  -3.4617  -3.4360  -3.4045
    -3.3507  -3.3255  -3.3036  -3.2708  -3.2518  -3.2180  -3.1822  -3.1301
    -3.1033  -3.0599  -3.0427  -3.0021  -2.9414  -2.8988  -2.8718  -2.8540
    -2.8194  -2.7966  -2.7563  -2.7398  -2.7036  -2.6872  -2.6091  -2.5668
    -2.5192  -2.4974  -2.4655  -2.4320  -2.4003  -2.3658  -2.3322  -2.3024
    -2.2506  -2.2276  -2.2096  -2.1676  -2.1662  -2.1164  -2.0951  -2.0625
    -2.0290  -2.0006  -1.9814  -1.9384  -1.9164  -1.8838  -1.8453  -1.8148
    -1.7659  -1.7562  -1.6790  -1.6422  -1.6118  -1.5758  -1.5370  -1.4520
    -1.4120  -1.3799  -1.3170  -1.2370  -1.2085  -1.1499  -1.1129  -1.0614
    -0.9472  -0.6292  -0.5177  -0.5055  -0.1963  -0.1652  -0.1181  -0.1135
     0.1149   0.2120   0.2675   0.3407   0.4152   0.4897   0.7471   0.8822
     0.9128   0.9917   1.0342   1.0780   1.2130   1.4041   1.4291   1.4741
     1.5366   1.6352   1.6643   1.8069   1.8534   1.9729   2.0153   2.0548
     2.1088   2.1243   2.1434   2.1735   2.2103   2.2386   2.2864   2.3051
     2.3175   2.3484   2.3541   2.3770   2.4026   2.4150   2.4384   2.4659
     2.4820   2.4995   2.5236   2.5430   2.5564   2.5634   2.6079   2.6290
     2.6706   2.6978   2.7398   2.7620   2.7754   2.7881   2.8097   2.8230
     2.8382   2.8642   2.8863   2.9293   2.9631   3.0349   3.0609   3.1027
     3.1268   3.1473   3.1921   3.2559   3.2839   3.3036   3.3196   3.3460
     3.3771   3.4019   3.4277   3.4955   3.5502   3.5771   3.6081   3.6604
     3.7418   3.8165   3.8971

          k = 0.2500-0.2340 0.0000 (150352 PWs)   bands (ev):

   -95.8621 -95.6932 -95.6823 -95.5325 -95.4589 -95.4531 -95.2755 -94.9155
   -78.8493 -78.7580 -78.7423 -78.7364 -78.7265 -78.7110 -78.5608 -78.4282
   -71.6870 -71.5839 -71.4988 -71.4712 -71.2831 -70.9480 -59.3445 -59.1471
   -59.0612 -59.0278 -59.0160 -59.0105 -58.9281 -58.8876 -58.8609 -58.8354
   -58.8353 -58.8310 -58.8224 -58.7942 -58.7679 -58.6864 -58.6723 -58.6200
   -58.6196 -58.6002 -58.4761 -58.4018 -58.2823 -58.0058 -47.7498 -47.6245
   -47.6218 -47.6079 -47.6050 -47.6043 -47.5615 -47.5307 -47.5261 -47.5201
   -47.5149 -47.4949 -47.4859 -47.4813 -47.4515 -47.4466 -47.4349 -47.4153
   -47.3986 -47.3797 -47.3707 -47.3070 -47.1672 -46.9305 -43.4678 -43.2417
   -43.1864 -43.0613 -42.9500 -42.9355 -42.8831 -42.8315 -42.8054 -42.7512
   -42.6844 -42.6727 -42.6385 -42.5638 -42.4710 -42.3674 -42.1372 -42.1239
   -19.6662 -19.6127 -19.3463 -19.2839 -19.0954 -19.0788 -18.9968 -18.9487
   -18.9431 -18.8739 -18.8408 -18.7026 -18.6793 -18.6592 -18.5829 -18.5579
   -18.5317 -18.4943 -18.4559 -18.4406 -18.3751 -18.3589 -18.3115 -18.2568
   -18.2347 -18.2185 -18.1868 -18.1768 -18.1300 -18.1180 -18.1036 -18.0868
   -18.0414 -18.0212 -17.9844 -17.9538 -17.9293 -17.8896 -17.8718 -17.8569
   -17.8045 -17.7941 -17.7234 -17.6940 -17.6606 -17.6191 -17.6015 -17.5798
   -17.5474  -7.2143  -7.0656  -6.9752  -6.8209  -6.7719  -6.6702  -6.6158
    -6.5738  -6.5086  -6.4772  -6.4365  -6.3946  -6.3859  -6.3182  -6.2981
    -6.2789  -6.2494  -6.2015  -6.1943  -6.1576  -6.1435  -6.1247  -6.0697
    -6.0194  -5.9981  -5.9846  -5.9552  -5.9273  -5.8956  -5.8317  -5.7471
    -5.7219  -5.6881  -5.6477  -5.6079  -5.5822  -5.5433  -5.5041  -5.4716
    -5.4535  -5.4213  -5.4067  -5.3785  -5.3566  -5.3431  -5.3119  -5.2681
    -5.2090  -5.1647  -5.1291  -5.1002  -5.0328  -5.0020  -4.9783  -4.9494
    -4.9246  -4.8771  -4.8410  -4.7678  -4.7446  -4.7081  -4.6405  -4.6140
    -4.5470  -4.5217  -4.5091  -4.4440  -4.3942  -4.3731  -4.3276  -4.3036
    -4.2600  -4.2372  -4.2196  -4.1803  -4.1755  -4.1454  -4.1332  -4.1188
    -4.1021  -4.0461  -4.0301  -4.0128  -3.9864  -3.9658  -3.9137  -3.8912
    -3.8614  -3.8497  -3.8247  -3.7885  -3.7763  -3.7536  -3.7308  -3.7162
    -3.6697  -3.6488  -3.6161  -3.5928  -3.5449  -3.4842  -3.4676  -3.4088
    -3.3727  -3.3289  -3.3001  -3.2617  -3.2024  -3.1739  -3.1638  -3.1230
    -3.0751  -3.0643  -3.0088  -2.9870  -2.9559  -2.9262  -2.8799  -2.8503
    -2.8331  -2.7939  -2.7591  -2.7521  -2.6939  -2.6880  -2.6294  -2.6011
    -2.5830  -2.5386  -2.5038  -2.4481  -2.4067  -2.3783  -2.3360  -2.3169
    -2.2726  -2.2568  -2.2357  -2.1654  -2.1445  -2.0995  -2.0593  -2.0437
    -2.0253  -2.0083  -1.9895  -1.9245  -1.9042  -1.8786  -1.8408  -1.8297
    -1.7912  -1.7457  -1.7138  -1.6429  -1.6156  -1.5592  -1.5123  -1.4650
    -1.4202  -1.3831  -1.2702  -1.2369  -1.1892  -1.1638  -1.1142  -1.0845
    -0.9547  -0.6468  -0.5198  -0.5050  -0.1963  -0.1580  -0.1191  -0.1043
     0.1285   0.1865   0.2756   0.3300   0.4299   0.4966   0.8139   0.8869
     0.9751   1.0338   1.0773   1.1283   1.2140   1.2896   1.4114   1.4335
     1.5608   1.6597   1.6715   1.8122   1.8741   1.9943   2.0234   2.0576
     2.0801   2.1163   2.1399   2.1550   2.1777   2.2206   2.2566   2.2801
     2.2987   2.3385   2.3469   2.3786   2.3952   2.4163   2.4394   2.4668
     2.4774   2.5031   2.5207   2.5319   2.5652   2.5885   2.6071   2.6465
     2.6654   2.7075   2.7341   2.7614   2.7786   2.7915   2.8130   2.8215
     2.8554   2.8862   2.9133   2.9303   2.9883   3.0092   3.0587   3.0839
     3.1264   3.1494   3.2000   3.2258   3.2828   3.3084   3.3374   3.3500
     3.3902   3.4074   3.4344   3.4930   3.5457   3.5784   3.5899   3.7137
     3.7725   3.8078   3.9335

          k =-0.5000 0.0000 0.0000 (150516 PWs)   bands (ev):

   -95.8624 -95.6930 -95.6823 -95.5329 -95.4591 -95.4535 -95.2755 -94.9157
   -78.8496 -78.7579 -78.7425 -78.7364 -78.7264 -78.7109 -78.5610 -78.4285
   -71.6869 -71.5837 -71.4994 -71.4719 -71.2838 -70.9487 -59.3442 -59.1471
   -59.0567 -59.0305 -59.0168 -59.0117 -58.9280 -58.8876 -58.8608 -58.8354
   -58.8346 -58.8316 -58.8224 -58.7941 -58.7679 -58.6861 -58.6723 -58.6197
   -58.6195 -58.6003 -58.4761 -58.4018 -58.2821 -58.0058 -47.7492 -47.6238
   -47.6218 -47.6082 -47.6052 -47.6042 -47.5617 -47.5307 -47.5261 -47.5194
   -47.5149 -47.4949 -47.4860 -47.4813 -47.4515 -47.4458 -47.4349 -47.4153
   -47.3986 -47.3797 -47.3707 -47.3070 -47.1672 -46.9305 -43.4678 -43.2417
   -43.1864 -43.0612 -42.9499 -42.9357 -42.8831 -42.8315 -42.8053 -42.7512
   -42.6844 -42.6731 -42.6385 -42.5636 -42.4709 -42.3673 -42.1372 -42.1239
   -19.4439 -19.3831 -19.2225 -19.1682 -19.1488 -19.0601 -19.0289 -18.9616
   -18.9445 -18.9184 -18.8564 -18.7900 -18.7731 -18.7107 -18.6600 -18.6355
   -18.6035 -18.5772 -18.5443 -18.5180 -18.4722 -18.3504 -18.2486 -18.2449
   -18.2253 -18.2097 -18.1769 -18.1582 -18.1292 -18.1058 -18.0925 -18.0865
   -18.0614 -18.0373 -18.0220 -17.9713 -17.8885 -17.8707 -17.8663 -17.8512
   -17.8104 -17.7735 -17.7322 -17.7083 -17.6486 -17.6014 -17.6000 -17.5809
   -17.5708  -7.0833  -6.9707  -6.8607  -6.8120  -6.7665  -6.6531  -6.5740
    -6.5347  -6.3999  -6.3794  -6.3230  -6.2757  -6.2570  -6.1989  -6.1834
    -6.1617  -6.1246  -6.1093  -6.0864  -6.0600  -5.9840  -5.9753  -5.9642
    -5.9400  -5.9169  -5.8626  -5.8193  -5.8011  -5.7524  -5.7305  -5.7103
    -5.6955  -5.6385  -5.6168  -5.5968  -5.5610  -5.5211  -5.4912  -5.4718
    -5.4247  -5.4069  -5.3955  -5.3851  -5.3680  -5.3374  -5.3309  -5.2871
    -5.2654  -5.2340  -5.1827  -5.1489  -5.1335  -5.1208  -5.0921  -5.0799
    -5.0527  -4.9780  -4.9522  -4.9160  -4.8713  -4.8127  -4.7812  -4.7541
    -4.6659  -4.6394  -4.6104  -4.5853  -4.5691  -4.5574  -4.5374  -4.4810
    -4.4396  -4.4052  -4.3670  -4.3531  -4.2905  -4.2447  -4.2071  -4.1933
    -4.1443  -4.1156  -4.0988  -4.0961  -4.0361  -3.9789  -3.9712  -3.9339
    -3.8729  -3.8490  -3.8204  -3.7952  -3.7354  -3.7319  -3.6786  -3.6330
    -3.5981  -3.5900  -3.5624  -3.5328  -3.5096  -3.4746  -3.4558  -3.4387
    -3.3880  -3.3656  -3.2945  -3.2876  -3.2720  -3.2157  -3.1991  -3.1745
    -3.1224  -3.1101  -3.0832  -3.0506  -2.9986  -2.9505  -2.9339  -2.8895
    -2.8816  -2.8080  -2.7762  -2.7045  -2.6742  -2.6491  -2.6332  -2.6117
    -2.5962  -2.5085  -2.4674  -2.4424  -2.4187  -2.4036  -2.3283  -2.2955
    -2.2532  -2.2514  -2.2223  -2.1805  -2.1590  -2.1195  -2.0609  -2.0060
    -1.9930  -1.9485  -1.9066  -1.8749  -1.8367  -1.8006  -1.7998  -1.7836
    -1.7486  -1.7167  -1.6472  -1.5608  -1.5227  -1.5083  -1.4290  -1.3704
    -1.3478  -1.3150  -1.2940  -1.2564  -1.2328  -1.1370  -0.9994  -0.9302
    -0.8149  -0.7591  -0.6420  -0.5792  -0.2023  -0.1641  -0.1418   0.0051
     0.1119   0.1559   0.1971   0.3129   0.4596   0.5087   0.7856   0.9035
     0.9373   1.0080   1.1756   1.1910   1.2458   1.2838   1.3776   1.4713
     1.5097   1.5582   1.6278   1.6627   1.8843   1.9679   2.0354   2.0806
     2.1092   2.1481   2.1673   2.1827   2.2262   2.2482   2.2818   2.3089
     2.3236   2.3494   2.3658   2.3708   2.4094   2.4241   2.4597   2.4763
     2.5038   2.5251   2.5437   2.5593   2.5755   2.5816   2.6043   2.6229
     2.6611   2.6842   2.7292   2.7473   2.7659   2.8057   2.8336   2.8461
     2.8786   2.9052   2.9396   2.9683   3.0112   3.0251   3.0591   3.1149
     3.1313   3.1461   3.1779   3.1878   3.2203   3.2356   3.2634   3.2835
     3.2927   3.3285   3.3746   3.4326   3.4951   3.5488   3.5829   3.6462
     3.6567   3.6840   3.7848

          k =-0.5000-0.2340 0.0000 (150436 PWs)   bands (ev):

   -95.8624 -95.6930 -95.6823 -95.5329 -95.4591 -95.4535 -95.2755 -94.9157
   -78.8496 -78.7579 -78.7425 -78.7364 -78.7264 -78.7109 -78.5610 -78.4285
   -71.6869 -71.5837 -71.4994 -71.4719 -71.2838 -70.9487 -59.3442 -59.1471
   -59.0567 -59.0305 -59.0168 -59.0117 -58.9280 -58.8876 -58.8608 -58.8354
   -58.8346 -58.8316 -58.8224 -58.7941 -58.7679 -58.6861 -58.6723 -58.6197
   -58.6195 -58.6003 -58.4761 -58.4018 -58.2821 -58.0058 -47.7492 -47.6238
   -47.6218 -47.6082 -47.6052 -47.6042 -47.5617 -47.5307 -47.5261 -47.5194
   -47.5149 -47.4949 -47.4860 -47.4813 -47.4515 -47.4458 -47.4349 -47.4153
   -47.3986 -47.3797 -47.3707 -47.3070 -47.1672 -46.9305 -43.4678 -43.2417
   -43.1864 -43.0612 -42.9499 -42.9357 -42.8831 -42.8315 -42.8053 -42.7512
   -42.6844 -42.6731 -42.6385 -42.5636 -42.4709 -42.3673 -42.1372 -42.1239
   -19.3950 -19.3271 -19.3153 -19.2691 -19.1237 -19.0494 -19.0199 -19.0002
   -18.9083 -18.8641 -18.8458 -18.7899 -18.7807 -18.7354 -18.6972 -18.6660
   -18.6209 -18.5251 -18.4504 -18.4293 -18.3974 -18.3700 -18.3292 -18.3229
   -18.2758 -18.2340 -18.2100 -18.1819 -18.1172 -18.1099 -18.0894 -18.0704
   -18.0360 -18.0180 -17.9832 -17.9544 -17.9226 -17.8771 -17.8655 -17.8516
   -17.8010 -17.7723 -17.7339 -17.7080 -17.6474 -17.6015 -17.5910 -17.5827
   -17.5768  -6.9693  -6.8683  -6.7773  -6.6762  -6.6515  -6.6099  -6.5402
    -6.4846  -6.4641  -6.4102  -6.3898  -6.3684  -6.3621  -6.3069  -6.2434
    -6.2336  -6.1955  -6.1737  -6.1690  -6.0947  -6.0605  -6.0490  -5.9898
    -5.9413  -5.9290  -5.9190  -5.8999  -5.8753  -5.8023  -5.7907  -5.7652
    -5.7439  -5.6778  -5.6587  -5.6335  -5.6162  -5.5560  -5.5290  -5.5014
    -5.4799  -5.4522  -5.4249  -5.3842  -5.3729  -5.3345  -5.3273  -5.2367
    -5.1919  -5.1534  -5.1212  -5.0793  -5.0618  -5.0403  -4.9866  -4.9789
    -4.9296  -4.8910  -4.8245  -4.8151  -4.7471  -4.7337  -4.7147  -4.6646
    -4.6140  -4.6000  -4.5734  -4.5634  -4.5352  -4.5032  -4.4933  -4.4664
    -4.4335  -4.4062  -4.3474  -4.3324  -4.2649  -4.2216  -4.1897  -4.1456
    -4.1070  -4.0889  -4.0640  -4.0204  -3.9995  -3.9594  -3.9346  -3.9155
    -3.8867  -3.8506  -3.8307  -3.8076  -3.7877  -3.7791  -3.7622  -3.7318
    -3.7141  -3.6786  -3.6538  -3.6092  -3.5853  -3.5614  -3.5237  -3.4820
    -3.4649  -3.4190  -3.4123  -3.3632  -3.2958  -3.2664  -3.1889  -3.1208
    -3.1034  -3.0540  -3.0320  -3.0038  -2.9779  -2.9498  -2.9278  -2.9017
    -2.8363  -2.8275  -2.7756  -2.7180  -2.6866  -2.6627  -2.6340  -2.5769
    -2.5348  -2.5273  -2.4997  -2.4598  -2.4071  -2.3807  -2.3507  -2.3105
    -2.3079  -2.2414  -2.2125  -2.1591  -2.1303  -2.0922  -2.0591  -2.0247
    -1.9901  -1.9730  -1.9282  -1.8996  -1.8612  -1.8224  -1.7882  -1.7747
    -1.7140  -1.6751  -1.6700  -1.5523  -1.5176  -1.4978  -1.4340  -1.3709
    -1.3535  -1.3210  -1.3086  -1.2552  -1.2235  -1.1441  -1.0019  -0.9286
    -0.8503  -0.7539  -0.6435  -0.5969  -0.1943  -0.1670  -0.1169   0.0079
     0.1105   0.1568   0.1905   0.3124   0.4672   0.5156   0.8636   0.8753
     0.9617   1.0081   1.1462   1.2302   1.2779   1.3253   1.3830   1.4694
     1.4952   1.5619   1.6319   1.6572   1.8823   1.9919   2.0151   2.0750
     2.0801   2.1066   2.1792   2.2060   2.2300   2.2498   2.2860   2.3021
     2.3231   2.3639   2.3689   2.3793   2.4226   2.4434   2.4500   2.4732
     2.4874   2.4915   2.5200   2.5544   2.5841   2.5867   2.6079   2.6377
     2.6671   2.6945   2.7312   2.7464   2.7768   2.8151   2.8252   2.8812
     2.9005   2.9271   2.9419   2.9973   3.0165   3.0342   3.0689   3.0949
     3.1398   3.1499   3.1713   3.1845   3.2016   3.2099   3.2329   3.2582
     3.2928   3.3193   3.3651   3.4247   3.4538   3.5109   3.5727   3.6171
     3.6794   3.7249   3.8013

          k =-0.2500 0.0000 0.0000 (150396 PWs)   bands (ev):

   -95.8621 -95.6932 -95.6823 -95.5325 -95.4589 -95.4531 -95.2755 -94.9155
   -78.8493 -78.7580 -78.7423 -78.7364 -78.7265 -78.7110 -78.5608 -78.4282
   -71.6870 -71.5839 -71.4988 -71.4712 -71.2831 -70.9480 -59.3445 -59.1471
   -59.0612 -59.0278 -59.0160 -59.0105 -58.9281 -58.8876 -58.8609 -58.8354
   -58.8353 -58.8310 -58.8224 -58.7942 -58.7679 -58.6864 -58.6723 -58.6200
   -58.6196 -58.6002 -58.4761 -58.4018 -58.2823 -58.0058 -47.7498 -47.6245
   -47.6218 -47.6079 -47.6050 -47.6043 -47.5615 -47.5307 -47.5261 -47.5201
   -47.5149 -47.4949 -47.4859 -47.4813 -47.4515 -47.4466 -47.4349 -47.4153
   -47.3986 -47.3797 -47.3707 -47.3070 -47.1672 -46.9305 -43.4678 -43.2417
   -43.1864 -43.0613 -42.9500 -42.9355 -42.8831 -42.8315 -42.8054 -42.7512
   -42.6844 -42.6727 -42.6385 -42.5638 -42.4710 -42.3674 -42.1372 -42.1239
   -19.7431 -19.4604 -19.3822 -19.2760 -19.1612 -19.1011 -18.9905 -18.9513
   -18.9082 -18.8471 -18.8022 -18.7486 -18.6897 -18.6675 -18.6446 -18.6042
   -18.5177 -18.5030 -18.4449 -18.4000 -18.3618 -18.3263 -18.2920 -18.2445
   -18.2344 -18.2143 -18.1812 -18.1413 -18.1256 -18.1154 -18.1037 -18.0942
   -18.0673 -18.0482 -18.0085 -17.9843 -17.8933 -17.8852 -17.8752 -17.8450
   -17.8145 -17.7968 -17.7225 -17.6931 -17.6609 -17.6209 -17.6038 -17.5809
   -17.5422  -7.3438  -7.1603  -6.9900  -6.8668  -6.7127  -6.6358  -6.5970
    -6.5435  -6.5109  -6.4841  -6.4384  -6.3910  -6.3715  -6.3336  -6.2780
    -6.2628  -6.2266  -6.1879  -6.1604  -6.1195  -6.0789  -6.0593  -6.0250
    -6.0077  -5.9712  -5.9299  -5.8846  -5.8728  -5.7940  -5.7772  -5.7494
    -5.7172  -5.6806  -5.6632  -5.6187  -5.5934  -5.5662  -5.5302  -5.4798
    -5.4265  -5.4080  -5.3770  -5.3545  -5.3181  -5.3026  -5.2844  -5.2579
    -5.2362  -5.1876  -5.1663  -5.1383  -5.1141  -5.1011  -5.0359  -4.9989
    -4.9257  -4.8983  -4.8686  -4.8191  -4.7936  -4.7386  -4.6517  -4.6135
    -4.5790  -4.5688  -4.5330  -4.4992  -4.4629  -4.4479  -4.4258  -4.3802
    -4.3724  -4.3443  -4.3201  -4.2433  -4.1854  -4.1694  -4.1195  -4.0976
    -4.0793  -4.0364  -4.0195  -3.9939  -3.9558  -3.9325  -3.8847  -3.8696
    -3.8500  -3.8331  -3.7808  -3.7593  -3.7128  -3.7014  -3.6830  -3.6505
    -3.6276  -3.6104  -3.5896  -3.5737  -3.4717  -3.4617  -3.4360  -3.4045
    -3.3507  -3.3255  -3.3036  -3.2708  -3.2518  -3.2180  -3.1822  -3.1301
    -3.1033  -3.0599  -3.0427  -3.0021  -2.9414  -2.8988  -2.8718  -2.8540
    -2.8194  -2.7966  -2.7563  -2.7398  -2.7036  -2.6872  -2.6091  -2.5668
    -2.5192  -2.4974  -2.4655  -2.4320  -2.4003  -2.3658  -2.3322  -2.3024
    -2.2506  -2.2276  -2.2096  -2.1676  -2.1662  -2.1164  -2.0951  -2.0625
    -2.0290  -2.0006  -1.9814  -1.9384  -1.9164  -1.8838  -1.8453  -1.8148
    -1.7659  -1.7562  -1.6790  -1.6422  -1.6118  -1.5758  -1.5370  -1.4520
    -1.4120  -1.3799  -1.3170  -1.2370  -1.2085  -1.1499  -1.1129  -1.0614
    -0.9472  -0.6292  -0.5177  -0.5055  -0.1963  -0.1652  -0.1181  -0.1135
     0.1149   0.2120   0.2675   0.3407   0.4152   0.4897   0.7471   0.8822
     0.9128   0.9917   1.0342   1.0780   1.2130   1.4041   1.4291   1.4741
     1.5366   1.6352   1.6643   1.8069   1.8534   1.9729   2.0153   2.0548
     2.1088   2.1243   2.1434   2.1735   2.2103   2.2386   2.2864   2.3051
     2.3175   2.3484   2.3541   2.3770   2.4026   2.4150   2.4384   2.4659
     2.4820   2.4995   2.5236   2.5430   2.5564   2.5634   2.6079   2.6290
     2.6706   2.6978   2.7398   2.7620   2.7754   2.7881   2.8097   2.8230
     2.8382   2.8642   2.8863   2.9293   2.9631   3.0349   3.0609   3.1027
     3.1268   3.1473   3.1921   3.2559   3.2839   3.3036   3.3196   3.3460
     3.3771   3.4019   3.4277   3.4955   3.5502   3.5771   3.6081   3.6605
     3.7418   3.8169   3.8971

          k =-0.2500-0.2340 0.0000 (150352 PWs)   bands (ev):

   -95.8621 -95.6932 -95.6823 -95.5325 -95.4589 -95.4531 -95.2755 -94.9155
   -78.8493 -78.7580 -78.7423 -78.7364 -78.7265 -78.7110 -78.5608 -78.4282
   -71.6870 -71.5839 -71.4988 -71.4712 -71.2831 -70.9480 -59.3445 -59.1471
   -59.0612 -59.0278 -59.0160 -59.0105 -58.9281 -58.8876 -58.8609 -58.8354
   -58.8353 -58.8310 -58.8224 -58.7942 -58.7679 -58.6864 -58.6723 -58.6200
   -58.6196 -58.6002 -58.4761 -58.4018 -58.2823 -58.0058 -47.7498 -47.6245
   -47.6218 -47.6079 -47.6050 -47.6043 -47.5615 -47.5307 -47.5261 -47.5201
   -47.5149 -47.4949 -47.4859 -47.4813 -47.4515 -47.4466 -47.4349 -47.4153
   -47.3986 -47.3797 -47.3707 -47.3070 -47.1672 -46.9305 -43.4678 -43.2417
   -43.1864 -43.0613 -42.9500 -42.9355 -42.8831 -42.8315 -42.8054 -42.7512
   -42.6844 -42.6727 -42.6385 -42.5638 -42.4710 -42.3674 -42.1372 -42.1239
   -19.6662 -19.6127 -19.3463 -19.2839 -19.0954 -19.0788 -18.9968 -18.9487
   -18.9431 -18.8739 -18.8408 -18.7026 -18.6793 -18.6592 -18.5829 -18.5579
   -18.5317 -18.4943 -18.4559 -18.4406 -18.3751 -18.3589 -18.3115 -18.2568
   -18.2347 -18.2185 -18.1868 -18.1768 -18.1300 -18.1180 -18.1036 -18.0868
   -18.0414 -18.0212 -17.9844 -17.9538 -17.9293 -17.8896 -17.8718 -17.8569
   -17.8045 -17.7941 -17.7234 -17.6940 -17.6606 -17.6191 -17.6015 -17.5798
   -17.5474  -7.2143  -7.0656  -6.9752  -6.8209  -6.7719  -6.6702  -6.6158
    -6.5738  -6.5086  -6.4772  -6.4365  -6.3946  -6.3859  -6.3182  -6.2981
    -6.2789  -6.2494  -6.2015  -6.1943  -6.1576  -6.1435  -6.1247  -6.0697
    -6.0194  -5.9981  -5.9846  -5.9552  -5.9273  -5.8956  -5.8317  -5.7471
    -5.7219  -5.6881  -5.6477  -5.6079  -5.5822  -5.5433  -5.5041  -5.4716
    -5.4535  -5.4213  -5.4067  -5.3785  -5.3566  -5.3431  -5.3119  -5.2681
    -5.2090  -5.1647  -5.1291  -5.1002  -5.0328  -5.0020  -4.9783  -4.9494
    -4.9246  -4.8771  -4.8410  -4.7678  -4.7446  -4.7081  -4.6405  -4.6140
    -4.5470  -4.5217  -4.5091  -4.4440  -4.3942  -4.3731  -4.3276  -4.3036
    -4.2600  -4.2372  -4.2196  -4.1803  -4.1755  -4.1454  -4.1332  -4.1188
    -4.1021  -4.0461  -4.0301  -4.0128  -3.9864  -3.9658  -3.9137  -3.8912
    -3.8614  -3.8497  -3.8247  -3.7885  -3.7763  -3.7536  -3.7308  -3.7162
    -3.6697  -3.6488  -3.6161  -3.5928  -3.5449  -3.4842  -3.4676  -3.4088
    -3.3727  -3.3289  -3.3001  -3.2617  -3.2024  -3.1739  -3.1638  -3.1230
    -3.0751  -3.0643  -3.0088  -2.9870  -2.9559  -2.9262  -2.8799  -2.8503
    -2.8331  -2.7939  -2.7591  -2.7521  -2.6939  -2.6880  -2.6294  -2.6011
    -2.5830  -2.5386  -2.5038  -2.4481  -2.4067  -2.3783  -2.3360  -2.3169
    -2.2726  -2.2568  -2.2357  -2.1654  -2.1445  -2.0995  -2.0593  -2.0437
    -2.0253  -2.0083  -1.9895  -1.9245  -1.9042  -1.8786  -1.8408  -1.8297
    -1.7912  -1.7457  -1.7138  -1.6429  -1.6156  -1.5592  -1.5123  -1.4650
    -1.4202  -1.3831  -1.2702  -1.2369  -1.1892  -1.1638  -1.1142  -1.0845
    -0.9547  -0.6468  -0.5198  -0.5050  -0.1963  -0.1580  -0.1191  -0.1043
     0.1285   0.1865   0.2756   0.3300   0.4299   0.4966   0.8139   0.8869
     0.9751   1.0338   1.0773   1.1283   1.2140   1.2896   1.4114   1.4335
     1.5608   1.6597   1.6715   1.8122   1.8741   1.9943   2.0234   2.0576
     2.0801   2.1163   2.1399   2.1550   2.1777   2.2206   2.2566   2.2801
     2.2987   2.3385   2.3469   2.3786   2.3952   2.4163   2.4394   2.4668
     2.4774   2.5031   2.5207   2.5319   2.5652   2.5885   2.6071   2.6465
     2.6654   2.7075   2.7341   2.7614   2.7786   2.7915   2.8130   2.8215
     2.8554   2.8862   2.9133   2.9303   2.9883   3.0092   3.0587   3.0839
     3.1264   3.1494   3.2000   3.2258   3.2828   3.3084   3.3374   3.3500
     3.3902   3.4074   3.4344   3.4930   3.5457   3.5784   3.5899   3.7137
     3.7724   3.8074   3.9274

     the Fermi energy is    -0.7554 ev

!    total energy              =   -7594.59338992 Ry
     estimated scf accuracy    <       0.00000095 Ry
     smearing contrib. (-TS)   =      -0.00013360 Ry
     internal energy E=F+TS    =   -7594.59325632 Ry

     The total energy is F=E-TS. E is the sum of the following terms:
     one-electron contribution =  -67131.29234000 Ry
     hartree contribution      =   33676.32633871 Ry
     xc contribution           =   -1057.36108492 Ry
     ewald contribution        =   27560.19789410 Ry
     Hubbard energy            =       3.94804709 Ry
     one-center paw contrib.   =    -646.41211130 Ry

     total magnetization       =    46.52 Bohr mag/cell
     absolute magnetization    =    66.45 Bohr mag/cell

     convergence has been achieved in  80 iterations

     negative rho (up, down):  8.177E-03 2.526E-02
     force_hub    :     39.96s CPU     40.33s WALL (       1 calls)
     dndtau       :     35.93s CPU     36.18s WALL (     444 calls)
     dprojdtau    :      2.88s CPU      2.90s WALL (    9768 calls)
     matel_dSdtau :     32.92s CPU     33.14s WALL (     444 calls)

     Forces acting on atoms (cartesian axes, Ry/au):

     atom    1 type  2   force =    -0.00416314    0.01374586    0.10181642
     atom    2 type  1   force =    -0.01326076   -0.00828993    0.05773938
     atom    3 type  4   force =     0.00594616    0.01013191    0.02831230
     atom    4 type  3   force =     0.00943079    0.00418716   -0.01211158
     atom    5 type  4   force =     0.01006551    0.00771824   -0.03339768
     atom    6 type  2   force =     0.01366244   -0.01565719   -0.03237467
     atom    7 type  3   force =    -0.00139357    0.01368762   -0.00273459
     atom    8 type  4   force =    -0.00866919   -0.00661147   -0.02192674
     atom    9 type  4   force =    -0.01041364    0.00952413    0.01185813
     atom   10 type  4   force =    -0.00442560   -0.00350678   -0.00730517
     atom   11 type  2   force =     0.00301441    0.01930172    0.00029425
     atom   12 type  1   force =     0.01188718   -0.02448739   -0.02731352
     atom   13 type  1   force =     0.00804006   -0.00903020    0.00233593
     atom   14 type  2   force =    -0.00142977    0.00960354    0.00688172
     atom   15 type  4   force =    -0.01370315   -0.00619309    0.00030816
     atom   16 type  1   force =     0.02618229    0.00618591    0.03671152
     atom   17 type  4   force =     0.00690243    0.01268698   -0.00755762
     atom   18 type  2   force =     0.00002705   -0.01047452   -0.02464063
     atom   19 type  2   force =     0.02184581   -0.00737990    0.02179218
     atom   20 type  1   force =    -0.00972850   -0.02348072   -0.02992361
     atom   21 type  1   force =     0.00453473    0.01077804   -0.06395889
     atom   22 type  1   force =    -0.01011950   -0.00114165   -0.06294443
     atom   23 type  1   force =    -0.00475610   -0.00966992   -0.08371856
     atom   24 type  4   force =     0.00205072   -0.00463585   -0.00861707
     atom   25 type  5   force =     0.00532474    0.00006089    0.01122649
     atom   26 type  5   force =     0.00934817    0.00133272    0.02951756
     atom   27 type  5   force =    -0.00663435    0.00354868    0.02537214
     atom   28 type  5   force =    -0.01302567   -0.00088886    0.03950645
     atom   29 type  5   force =     0.00532497    0.00085202    0.01873944
     atom   30 type  5   force =     0.01130424    0.00163281    0.02035102
     atom   31 type  5   force =    -0.00924058    0.00146369    0.01260720
     atom   32 type  5   force =    -0.01266710    0.00075428    0.02371436
     atom   33 type  5   force =    -0.00310961    0.00727861   -0.03992264
     atom   34 type  5   force =    -0.01338111    0.02433396   -0.03556013
     atom   35 type  5   force =    -0.00218150    0.00889356   -0.04269181
     atom   36 type  5   force =     0.01150474    0.05338621   -0.03712088
     atom   37 type  5   force =     0.00195669   -0.01307924   -0.03903659
     atom   38 type  5   force =    -0.01405394   -0.02486564   -0.03385602
     atom   39 type  5   force =    -0.00221196   -0.04572428   -0.03787373
     atom   40 type  5   force =     0.01387003   -0.03477239   -0.03851943
     atom   41 type  5   force =     0.00237063   -0.00074634   -0.00888220
     atom   42 type  5   force =     0.00120874    0.00296804   -0.02952119
     atom   43 type  5   force =     0.00977543   -0.00312379   -0.01757378
     atom   44 type  5   force =    -0.01151326    0.00193160    0.00864487
     atom   45 type  5   force =     0.00507179   -0.00381936   -0.00009547
     atom   46 type  5   force =    -0.00334278    0.00633150    0.03091951
     atom   47 type  5   force =    -0.00547232    0.00047125    0.04428105
     atom   48 type  5   force =    -0.00767105   -0.00036916    0.04852253
     atom   49 type  5   force =     0.00136886    0.00369667   -0.00664737
     atom   50 type  5   force =     0.00149412    0.01121298    0.00042551
     atom   51 type  5   force =    -0.00232875   -0.00154518   -0.00072968
     atom   52 type  5   force =    -0.00522866    0.01872129    0.00420707
     atom   53 type  5   force =     0.00540929   -0.02111786   -0.00680877
     atom   54 type  5   force =     0.00213453    0.00454067   -0.00131902
     atom   55 type  5   force =    -0.00097986   -0.01871162   -0.00014011
     atom   56 type  5   force =    -0.00178393    0.00583662    0.00284350
     atom   57 type  5   force =     0.00131875    0.00115523    0.01648685
     atom   58 type  5   force =     0.00615830    0.00294760    0.01659543
     atom   59 type  5   force =    -0.00558517    0.00101587    0.05818430
     atom   60 type  5   force =     0.00261373   -0.00218129    0.01243680
     atom   61 type  5   force =     0.00391483   -0.00455887    0.03153410
     atom   62 type  5   force =     0.00660878   -0.00063328    0.01427703
     atom   63 type  5   force =    -0.00006125    0.00413198    0.04557866
     atom   64 type  5   force =    -0.00947849   -0.00192739    0.01363708
     atom   65 type  5   force =    -0.01955716    0.01812609   -0.00344545
     atom   66 type  5   force =    -0.01298877    0.02022566    0.00223342
     atom   67 type  5   force =     0.00811480   -0.01769521    0.00385264
     atom   68 type  5   force =     0.01630319    0.02419223    0.00336866
     atom   69 type  5   force =    -0.02242864   -0.01732174   -0.00286573
     atom   70 type  5   force =    -0.00787400   -0.01184356    0.00961979
     atom   71 type  5   force =     0.00517715   -0.01215737   -0.00304711
     atom   72 type  5   force =     0.01684963    0.01530531    0.00552025
     atom   73 type  5   force =    -0.00060958    0.00294194   -0.02145941
     atom   74 type  6   force =    -0.00264330    0.00080002    0.00338757

     Total force =     0.199461     Total SCF correction =     0.001015

     Writing all to output data dir /anvil/projects/x-che260157/sts_arm_c_2026-10-07/runs/hea/arm_c_2026-10-07/Cu8Cr23Mn35Co34__s20_site2/tmp_OH__atomic/OH__atomic.save/ :
     XML data file, charge density, pseudopotentials, collected wavefunctions

     init_run     :     33.21s CPU     34.16s WALL (       1 calls)
     electrons    :   4022.01s CPU   4137.21s WALL (       1 calls)
     forces       :     53.73s CPU     54.55s WALL (       1 calls)

     Called by init_run:
     wfcinit      :     21.99s CPU     22.53s WALL (       1 calls)
     potinit      :      2.97s CPU      3.05s WALL (       1 calls)
     hinit0       :      1.55s CPU      1.59s WALL (       1 calls)

     Called by electrons:
     c_bands      :   3237.45s CPU   3309.36s WALL (      80 calls)
     sum_band     :    513.24s CPU    537.60s WALL (      80 calls)
     v_of_rho     :    112.50s CPU    115.38s WALL (      81 calls)
     newd         :     62.33s CPU     77.22s WALL (      81 calls)
     PAW_pot      :     26.05s CPU     26.19s WALL (      81 calls)
     mix_rho      :     53.32s CPU     54.17s WALL (      80 calls)

     Called by c_bands:
     init_us_2    :     62.23s CPU     63.71s WALL (     328 calls)
     cegterg      :   3015.19s CPU   3082.58s WALL (     160 calls)

     Called by *egterg:
     cdiaghg      :     52.59s CPU     53.26s WALL (     589 calls)
     h_psi        :   1694.55s CPU   1727.13s WALL (     591 calls)
     s_psi        :    272.26s CPU    275.01s WALL (     595 calls)
     g_psi        :      5.54s CPU      5.60s WALL (     429 calls)

     Called by h_psi:
     h_psi:calbec :    292.90s CPU    296.32s WALL (     591 calls)
     vloc_psi     :    743.27s CPU    754.62s WALL (     591 calls)
                                        0.00s GPU  (     591 calls)
     add_vuspsi   :    277.43s CPU    280.56s WALL (     591 calls)
     vhpsi        :    370.72s CPU    376.76s WALL (     591 calls)

     General routines
     calbec       :    547.67s CPU    554.05s WALL (    3292 calls)
     fft          :     92.76s CPU     93.99s WALL (    2038 calls)
     ffts         :     30.50s CPU     30.88s WALL (   10039 calls)
     fftw         :    838.07s CPU    851.05s WALL (  343046 calls)
     interpolate  :     10.53s CPU     10.63s WALL (     162 calls)

     Parallel routines

     Hubbard U routines
     new_ns       :     33.32s CPU     33.86s WALL (      80 calls)
     vhpsi        :    370.72s CPU    376.76s WALL (     591 calls)
     force_hub    :     39.96s CPU     40.33s WALL (       1 calls)

     PWSCF        :      1h 8m CPU      1h10m WALL


   This run was terminated on:  14:20:29   7Oct2026            

=------------------------------------------------------------------------------=
   JOB DONE.
=------------------------------------------------------------------------------=
Note: The following floating-point exceptions are signalling: IEEE_DENORMAL
Note: The following floating-point exceptions are signalling: IEEE_DENORMAL
Note: The following floating-point exceptions are signalling: IEEE_UNDERFLOW_FLAG IEEE_DENORMAL
Note: The following floating-point exceptions are signalling: IEEE_UNDERFLOW_FLAG IEEE_DENORMAL
Note: The following floating-point exceptions are signalling: IEEE_DENORMAL
Note: The following floating-point exceptions are signalling: IEEE_DENORMAL
Note: The following floating-point exceptions are signalling: IEEE_UNDERFLOW_FLAG IEEE_DENORMAL
Note: The following floating-point exceptions are signalling: IEEE_DENORMAL
Note: The following floating-point exceptions are signalling: IEEE_UNDERFLOW_FLAG IEEE_DENORMAL
Note: The following floating-point exceptions are signalling: IEEE_UNDERFLOW_FLAG IEEE_DENORMAL
Note: The following floating-point exceptions are signalling: IEEE_UNDERFLOW_FLAG IEEE_DENORMAL
Note: The following floating-point exceptions are signalling: IEEE_DENORMAL
Note: The following floating-point exceptions are signalling: IEEE_UNDERFLOW_FLAG IEEE_DENORMAL
Note: The following floating-point exceptions are signalling: IEEE_UNDERFLOW_FLAG IEEE_DENORMAL
Note: The following floating-point exceptions are signalling: IEEE_UNDERFLOW_FLAG IEEE_DENORMAL
Note: The following floating-point exceptions are signalling: IEEE_UNDERFLOW_FLAG IEEE_DENORMAL
Note: The following floating-point exceptions are signalling: IEEE_UNDERFLOW_FLAG IEEE_DENORMAL
Note: The following floating-point exceptions are signalling: IEEE_DENORMAL
Note: The following floating-point exceptions are signalling: IEEE_DENORMAL
Note: The following floating-point exceptions are signalling: IEEE_DENORMAL
Note: The following floating-point exceptions are signalling: IEEE_DENORMAL
Note: The following floating-point exceptions are signalling: IEEE_UNDERFLOW_FLAG IEEE_DENORMAL
Note: The following floating-point exceptions are signalling: IEEE_UNDERFLOW_FLAG IEEE_DENORMAL
Note: The following floating-point exceptions are signalling: IEEE_DENORMAL
Note: The following floating-point exceptions are signalling: IEEE_UNDERFLOW_FLAG IEEE_DENORMAL
Note: The following floating-point exceptions are signalling: IEEE_DENORMAL
Note: The following floating-point exceptions are signalling: IEEE_UNDERFLOW_FLAG IEEE_DENORMAL
Note: The following floating-point exceptions are signalling: IEEE_DENORMAL
Note: The following floating-point exceptions are signalling: IEEE_UNDERFLOW_FLAG IEEE_DENORMAL
Note: The following floating-point exceptions are signalling: IEEE_UNDERFLOW_FLAG IEEE_DENORMAL
Note: The following floating-point exceptions are signalling: IEEE_UNDERFLOW_FLAG IEEE_DENORMAL
Note: The following floating-point exceptions are signalling: IEEE_DENORMAL
Note: The following floating-point exceptions are signalling: IEEE_UNDERFLOW_FLAG IEEE_DENORMAL
Note: The following floating-point exceptions are signalling: IEEE_UNDERFLOW_FLAG IEEE_DENORMAL
Note: The following floating-point exceptions are signalling: IEEE_UNDERFLOW_FLAG IEEE_DENORMAL
Note: The following floating-point exceptions are signalling: IEEE_DENORMAL
Note: The following floating-point exceptions are signalling: IEEE_UNDERFLOW_FLAG IEEE_DENORMAL
Note: The following floating-point exceptions are signalling: IEEE_UNDERFLOW_FLAG IEEE_DENORMAL
Note: The following floating-point exceptions are signalling: IEEE_DENORMAL
Note: The following floating-point exceptions are signalling: IEEE_UNDERFLOW_FLAG IEEE_DENORMAL
Note: The following floating-point exceptions are signalling: IEEE_UNDERFLOW_FLAG IEEE_DENORMAL
Note: The following floating-point exceptions are signalling: IEEE_UNDERFLOW_FLAG IEEE_DENORMAL
Note: The following floating-point exceptions are signalling: IEEE_DENORMAL
Note: The following floating-point exceptions are signalling: IEEE_UNDERFLOW_FLAG IEEE_DENORMAL
Note: The following floating-point exceptions are signalling: IEEE_UNDERFLOW_FLAG IEEE_DENORMAL
Note: The following floating-point exceptions are signalling: IEEE_UNDERFLOW_FLAG IEEE_DENORMAL
Note: The following floating-point exceptions are signalling: IEEE_UNDERFLOW_FLAG IEEE_DENORMAL
Note: The following floating-point exceptions are signalling: IEEE_UNDERFLOW_FLAG IEEE_DENORMAL
Note: The following floating-point exceptions are signalling: IEEE_DENORMAL
Note: The following floating-point exceptions are signalling: IEEE_UNDERFLOW_FLAG IEEE_DENORMAL
Note: The following floating-point exceptions are signalling: IEEE_DENORMAL
Note: The following floating-point exceptions are signalling: IEEE_UNDERFLOW_FLAG IEEE_DENORMAL
Note: The following floating-point exceptions are signalling: IEEE_UNDERFLOW_FLAG IEEE_DENORMAL
Note: The following floating-point exceptions are signalling: IEEE_UNDERFLOW_FLAG IEEE_DENORMAL
Note: The following floating-point exceptions are signalling: IEEE_UNDERFLOW_FLAG IEEE_DENORMAL
Note: The following floating-point exceptions are signalling: IEEE_UNDERFLOW_FLAG IEEE_DENORMAL
Note: The following floating-point exceptions are signalling: IEEE_UNDERFLOW_FLAG IEEE_DENORMAL
Note: The following floating-point exceptions are signalling: IEEE_UNDERFLOW_FLAG IEEE_DENORMAL
Note: The following floating-point exceptions are signalling: IEEE_UNDERFLOW_FLAG IEEE_DENORMAL
Note: The following floating-point exceptions are signalling: IEEE_UNDERFLOW_FLAG IEEE_DENORMAL
Note: The following floating-point exceptions are signalling: IEEE_UNDERFLOW_FLAG IEEE_DENORMAL
Note: The following floating-point exceptions are signalling: IEEE_UNDERFLOW_FLAG IEEE_DENORMAL
Note: The following floating-point exceptions are signalling: IEEE_DENORMAL
Note: The following floating-point exceptions are signalling: IEEE_DENORMAL
Note: The following floating-point exceptions are signalling: IEEE_DENORMAL
Note: The following floating-point exceptions are signalling: IEEE_UNDERFLOW_FLAG IEEE_DENORMAL
Note: The following floating-point exceptions are signalling: IEEE_UNDERFLOW_FLAG IEEE_DENORMAL
Note: The following floating-point exceptions are signalling: IEEE_UNDERFLOW_FLAG IEEE_DENORMAL
Note: The following floating-point exceptions are signalling: IEEE_UNDERFLOW_FLAG IEEE_DENORMAL
Note: The following floating-point exceptions are signalling: IEEE_UNDERFLOW_FLAG IEEE_DENORMAL
Note: The following floating-point exceptions are signalling: IEEE_UNDERFLOW_FLAG IEEE_DENORMAL
Note: The following floating-point exceptions are signalling: IEEE_UNDERFLOW_FLAG IEEE_DENORMAL
Note: The following floating-point exceptions are signalling: IEEE_DENORMAL
Note: The following floating-point exceptions are signalling: IEEE_DENORMAL
Note: The following floating-point exceptions are signalling: IEEE_UNDERFLOW_FLAG IEEE_DENORMAL
Note: The following floating-point exceptions are signalling: IEEE_UNDERFLOW_FLAG IEEE_DENORMAL
Note: The following floating-point exceptions are signalling: IEEE_DENORMAL
Note: The following floating-point exceptions are signalling: IEEE_DENORMAL
Note: The following floating-point exceptions are signalling: IEEE_DENORMAL
Note: The following floating-point exceptions are signalling: IEEE_UNDERFLOW_FLAG IEEE_DENORMAL
Note: The following floating-point exceptions are signalling: IEEE_UNDERFLOW_FLAG IEEE_DENORMAL
Note: The following floating-point exceptions are signalling: IEEE_UNDERFLOW_FLAG IEEE_DENORMAL
Note: The following floating-point exceptions are signalling: IEEE_DENORMAL
Note: The following floating-point exceptions are signalling: IEEE_UNDERFLOW_FLAG IEEE_DENORMAL
Note: The following floating-point exceptions are signalling: IEEE_DENORMAL
Note: The following floating-point exceptions are signalling: IEEE_UNDERFLOW_FLAG IEEE_DENORMAL
Note: The following floating-point exceptions are signalling: IEEE_DENORMAL
