
     Program PWSCF v.7.5 starts on 23Aug2026 at 13:38:21 

     This program is part of the open-source Quantum ESPRESSO suite
     for quantum simulation of materials; please cite
         "P. Giannozzi et al., J. Phys.:Condens. Matter 21 395502 (2009);
         "P. Giannozzi et al., J. Phys.:Condens. Matter 29 465901 (2017);
         "P. Giannozzi et al., J. Chem. Phys. 152 154105 (2020);
          URL http://www.quantum-espresso.org", 
     in publications or presentations arising from this work. More details at
     http://www.quantum-espresso.org/quote

     Parallel version (MPI & OpenMP), running on      20 processor cores
     Number of MPI processes:                20
     Threads/MPI process:                     1

     MPI processes distributed on     1 nodes
     217597 MiB available memory on the printing compute node when the environment starts

     Reading input from sno2__ecut120.run.in

     Current dimensions of program PWSCF are:
     Max number of different atomic species (ntypx) = 10
     Max number of k-points (npk) =  40000
     Max angular momentum in pseudopotentials (lmaxx) =  4
     file O.pbe-n-kjpaw_psl.0.1.UPF: wavefunction(s)  2P renormalized

     K-points division:     npool     =       2
     R & G space division:  proc/nbgrp/npool/nimage =      10
     Subspace diagonalization in iterative solution of the eigenvalue problem:
     a serial algorithm will be used


     Parallelization info
     --------------------
     sticks:   dense  smooth     PW     G-vecs:    dense   smooth      PW
     Min         612     306     86                24230     8564    1292
     Max         613     307     87                24233     8567    1295
     Sum        6125    3061    869               242311    85653   12931

     Using Slab Decomposition



     bravais-lattice index     =            6
     lattice parameter (alat)  =       8.9524  a.u.
     unit-cell volume          =     482.5922 (a.u.)^3
     number of atoms/cell      =            6
     number of atomic types    =            2
     number of electrons       =        52.00
     number of Kohn-Sham states=           26
     kinetic-energy cutoff     =     120.0000  Ry
     charge density cutoff     =     960.0000  Ry
     scf convergence threshold =      1.0E-10
     mixing beta               =       0.3000
     number of iterations used =            8  plain     mixing
     Exchange-correlation= SLA  PW   PBX  PBC
                           (   1   4   3   4   0   0   0)

     celldm(1)=   8.952390  celldm(2)=   0.000000  celldm(3)=   0.672610
     celldm(4)=   0.000000  celldm(5)=   0.000000  celldm(6)=   0.000000

     crystal axes: (cart. coord. in units of alat)
               a(1) = (   1.000000   0.000000   0.000000 )  
               a(2) = (   0.000000   1.000000   0.000000 )  
               a(3) = (   0.000000   0.000000   0.672610 )  

     reciprocal axes: (cart. coord. in units 2 pi/alat)
               b(1) = (  1.000000  0.000000  0.000000 )  
               b(2) = (  0.000000  1.000000  0.000000 )  
               b(3) = (  0.000000  0.000000  1.486746 )  


     PseudoPot. # 1 for Sn read from file:
     /anvil/projects/x-che260157/pseudo/Sn_pbe_v1.uspp.F.UPF
     MD5 check sum: 4cf58ce39ec5d5d420df3dd08604eb00
     Pseudo is Ultrasoft + core correction, Zval = 14.0
     Generated by new atomic code, or converted to UPF format
     Using radial grid of  891 points,  6 beta functions with: 
                l(1) =   0
                l(2) =   0
                l(3) =   1
                l(4) =   1
                l(5) =   2
                l(6) =   2
     Q(r) pseudized with  6 coefficients,  rinner =    1.200   1.200   1.200
                                                       1.200   1.200

     PseudoPot. # 2 for O  read from file:
     /anvil/projects/x-che260157/pseudo/O.pbe-n-kjpaw_psl.0.1.UPF
     MD5 check sum: 0234752ac141de4415c5fc33072bef88
     Pseudo is Projector augmented-wave + core cor, Zval =  6.0
     Generated using "atomic" code by A. Dal Corso  v.5.0.99 svn rev. 10869
     Shape of augmentation charge: BESSEL
     Using radial grid of 1095 points,  4 beta functions with: 
                l(1) =   0
                l(2) =   0
                l(3) =   1
                l(4) =   1
     Q(r) pseudized with 0 coefficients 


     atomic species   valence    mass     pseudopotential
     Sn               14.00   118.71000     Sn( 1.00)
     O                 6.00    15.99900     O ( 1.00)

     16 Sym. Ops., with inversion, found ( 8 have fractional translation)


                                    s                        frac. trans.

      isym =  1     identity                                     

 cryst.   s( 1) = (     1          0          0      )
                  (     0          1          0      )
                  (     0          0          1      )

 cart.    s( 1) = (  1.0000000  0.0000000  0.0000000 )
                  (  0.0000000  1.0000000  0.0000000 )
                  (  0.0000000  0.0000000  1.0000000 )


      isym =  2     180 deg rotation - cart. axis [0,0,1]        

 cryst.   s( 2) = (    -1          0          0      )
                  (     0         -1          0      )
                  (     0          0          1      )

 cart.    s( 2) = ( -1.0000000  0.0000000  0.0000000 )
                  (  0.0000000 -1.0000000  0.0000000 )
                  (  0.0000000  0.0000000  1.0000000 )


      isym =  3     180 deg rotation - cart. axis [0,1,0]        

 cryst.   s( 3) = (    -1          0          0      )    f =(  0.5000000 )
                  (     0          1          0      )       ( -0.5000000 )
                  (     0          0         -1      )       (  0.5000000 )

 cart.    s( 3) = ( -1.0000000  0.0000000  0.0000000 )    f =(  0.5000000 )
                  (  0.0000000  1.0000000  0.0000000 )       ( -0.5000000 )
                  (  0.0000000  0.0000000 -1.0000000 )       (  0.3363050 )


      isym =  4     180 deg rotation - cart. axis [1,0,0]        

 cryst.   s( 4) = (     1          0          0      )    f =( -0.5000000 )
                  (     0         -1          0      )       (  0.5000000 )
                  (     0          0         -1      )       (  0.5000000 )

 cart.    s( 4) = (  1.0000000  0.0000000  0.0000000 )    f =( -0.5000000 )
                  (  0.0000000 -1.0000000  0.0000000 )       (  0.5000000 )
                  (  0.0000000  0.0000000 -1.0000000 )       (  0.3363050 )


      isym =  5     180 deg rotation - cart. axis [1,1,0]        

 cryst.   s( 5) = (     0          1          0      )
                  (     1          0          0      )
                  (     0          0         -1      )

 cart.    s( 5) = (  0.0000000  1.0000000  0.0000000 )
                  (  1.0000000  0.0000000  0.0000000 )
                  (  0.0000000  0.0000000 -1.0000000 )


      isym =  6     180 deg rotation - cart. axis [1,-1,0]       

 cryst.   s( 6) = (     0         -1          0      )
                  (    -1          0          0      )
                  (     0          0         -1      )

 cart.    s( 6) = (  0.0000000 -1.0000000  0.0000000 )
                  ( -1.0000000  0.0000000  0.0000000 )
                  (  0.0000000  0.0000000 -1.0000000 )


      isym =  7      90 deg rotation - cart. axis [0,0,-1]       

 cryst.   s( 7) = (     0         -1          0      )    f =( -0.5000000 )
                  (     1          0          0      )       (  0.5000000 )
                  (     0          0          1      )       ( -0.5000000 )

 cart.    s( 7) = (  0.0000000  1.0000000  0.0000000 )    f =( -0.5000000 )
                  ( -1.0000000  0.0000000  0.0000000 )       (  0.5000000 )
                  (  0.0000000  0.0000000  1.0000000 )       ( -0.3363050 )


      isym =  8      90 deg rotation - cart. axis [0,0,1]        

 cryst.   s( 8) = (     0          1          0      )    f =(  0.5000000 )
                  (    -1          0          0      )       ( -0.5000000 )
                  (     0          0          1      )       ( -0.5000000 )

 cart.    s( 8) = (  0.0000000 -1.0000000  0.0000000 )    f =(  0.5000000 )
                  (  1.0000000  0.0000000  0.0000000 )       ( -0.5000000 )
                  (  0.0000000  0.0000000  1.0000000 )       ( -0.3363050 )


      isym =  9     inversion                                    

 cryst.   s( 9) = (    -1          0          0      )
                  (     0         -1          0      )
                  (     0          0         -1      )

 cart.    s( 9) = ( -1.0000000  0.0000000  0.0000000 )
                  (  0.0000000 -1.0000000  0.0000000 )
                  (  0.0000000  0.0000000 -1.0000000 )


      isym = 10     inv. 180 deg rotation - cart. axis [0,0,1]   

 cryst.   s(10) = (     1          0          0      )
                  (     0          1          0      )
                  (     0          0         -1      )

 cart.    s(10) = (  1.0000000  0.0000000  0.0000000 )
                  (  0.0000000  1.0000000  0.0000000 )
                  (  0.0000000  0.0000000 -1.0000000 )


      isym = 11     inv. 180 deg rotation - cart. axis [0,1,0]   

 cryst.   s(11) = (     1          0          0      )    f =( -0.5000000 )
                  (     0         -1          0      )       (  0.5000000 )
                  (     0          0          1      )       ( -0.5000000 )

 cart.    s(11) = (  1.0000000  0.0000000  0.0000000 )    f =( -0.5000000 )
                  (  0.0000000 -1.0000000  0.0000000 )       (  0.5000000 )
                  (  0.0000000  0.0000000  1.0000000 )       ( -0.3363050 )


      isym = 12     inv. 180 deg rotation - cart. axis [1,0,0]   

 cryst.   s(12) = (    -1          0          0      )    f =(  0.5000000 )
                  (     0          1          0      )       ( -0.5000000 )
                  (     0          0          1      )       ( -0.5000000 )

 cart.    s(12) = ( -1.0000000  0.0000000  0.0000000 )    f =(  0.5000000 )
                  (  0.0000000  1.0000000  0.0000000 )       ( -0.5000000 )
                  (  0.0000000  0.0000000  1.0000000 )       ( -0.3363050 )


      isym = 13     inv. 180 deg rotation - cart. axis [1,1,0]   

 cryst.   s(13) = (     0         -1          0      )
                  (    -1          0          0      )
                  (     0          0          1      )

 cart.    s(13) = (  0.0000000 -1.0000000  0.0000000 )
                  ( -1.0000000  0.0000000  0.0000000 )
                  (  0.0000000  0.0000000  1.0000000 )


      isym = 14     inv. 180 deg rotation - cart. axis [1,-1,0]  

 cryst.   s(14) = (     0          1          0      )
                  (     1          0          0      )
                  (     0          0          1      )

 cart.    s(14) = (  0.0000000  1.0000000  0.0000000 )
                  (  1.0000000  0.0000000  0.0000000 )
                  (  0.0000000  0.0000000  1.0000000 )


      isym = 15     inv.  90 deg rotation - cart. axis [0,0,-1]  

 cryst.   s(15) = (     0          1          0      )    f =(  0.5000000 )
                  (    -1          0          0      )       ( -0.5000000 )
                  (     0          0         -1      )       (  0.5000000 )

 cart.    s(15) = (  0.0000000 -1.0000000  0.0000000 )    f =(  0.5000000 )
                  (  1.0000000  0.0000000  0.0000000 )       ( -0.5000000 )
                  (  0.0000000  0.0000000 -1.0000000 )       (  0.3363050 )


      isym = 16     inv.  90 deg rotation - cart. axis [0,0,1]   

 cryst.   s(16) = (     0         -1          0      )    f =( -0.5000000 )
                  (     1          0          0      )       (  0.5000000 )
                  (     0          0         -1      )       (  0.5000000 )

 cart.    s(16) = (  0.0000000  1.0000000  0.0000000 )    f =( -0.5000000 )
                  ( -1.0000000  0.0000000  0.0000000 )       (  0.5000000 )
                  (  0.0000000  0.0000000 -1.0000000 )       (  0.3363050 )


     point group D_4h(4/mmm)
     there are 10 classes
     the character table:

       E     2C4   C2    2C2'  2C2'' i     2S4   s_h   2s_v  2s_d 
A_1g   1.00  1.00  1.00  1.00  1.00  1.00  1.00  1.00  1.00  1.00
A_2g   1.00  1.00  1.00 -1.00 -1.00  1.00  1.00  1.00 -1.00 -1.00
B_1g   1.00 -1.00  1.00  1.00 -1.00  1.00 -1.00  1.00  1.00 -1.00
B_2g   1.00 -1.00  1.00 -1.00  1.00  1.00 -1.00  1.00 -1.00  1.00
E_g    2.00  0.00 -2.00  0.00  0.00  2.00  0.00 -2.00  0.00  0.00
A_1u   1.00  1.00  1.00  1.00  1.00 -1.00 -1.00 -1.00 -1.00 -1.00
A_2u   1.00  1.00  1.00 -1.00 -1.00 -1.00 -1.00 -1.00  1.00  1.00
B_1u   1.00 -1.00  1.00  1.00 -1.00 -1.00  1.00 -1.00 -1.00  1.00
B_2u   1.00 -1.00  1.00 -1.00  1.00 -1.00  1.00 -1.00  1.00 -1.00
E_u    2.00  0.00 -2.00  0.00  0.00 -2.00  0.00  2.00  0.00  0.00

     the symmetry operations in each class and the name of the first element:

     E        1
          identity                                               
     2C4      7    8
           90 deg rotation - cart. axis [0,0,-1]                 
     C2       2
          180 deg rotation - cart. axis [0,0,1]                  
     2C2'     3    4
          180 deg rotation - cart. axis [0,1,0]                  
     2C2''    5    6
          180 deg rotation - cart. axis [1,1,0]                  
     i        9
          inversion                                              
     2S4     15   16
          inv.  90 deg rotation - cart. axis [0,0,-1]            
     s_h     10
          inv. 180 deg rotation - cart. axis [0,0,1]             
     2s_v    11   12
          inv. 180 deg rotation - cart. axis [0,1,0]             
     2s_d    13   14
          inv. 180 deg rotation - cart. axis [1,1,0]             

   Cartesian axes

     site n.     atom                  positions (alat units)
         1        Sn     tau(   1) = (   0.0000000   0.0000000   0.0000000  )
         2        Sn     tau(   2) = (   0.5000000   0.5000000   0.3363050  )
         3        O      tau(   3) = (   0.3056000   0.3056000   0.0000000  )
         4        O      tau(   4) = (   0.6944000   0.6944000   0.0000000  )
         5        O      tau(   5) = (   0.8056000   0.1944000   0.3363050  )
         6        O      tau(   6) = (   0.1944000   0.8056000   0.3363050  )

   Crystallographic axes

     site n.     atom                  positions (cryst. coord.)
         1        Sn     tau(   1) = (  0.0000000  0.0000000  0.0000000  )
         2        Sn     tau(   2) = (  0.5000000  0.5000000  0.5000000  )
         3        O      tau(   3) = (  0.3056000  0.3056000  0.0000000  )
         4        O      tau(   4) = (  0.6944000  0.6944000  0.0000000  )
         5        O      tau(   5) = (  0.8056000  0.1944000  0.5000000  )
         6        O      tau(   6) = (  0.1944000  0.8056000  0.5000000  )

     number of k points=    50
                       cart. coord. in units 2pi/alat
        k(    1) = (   0.0000000   0.0000000   0.0000000), wk =   0.0069444
        k(    2) = (   0.0000000   0.0000000   0.1858432), wk =   0.0138889
        k(    3) = (   0.0000000   0.0000000   0.3716864), wk =   0.0138889
        k(    4) = (   0.0000000   0.0000000   0.5575296), wk =   0.0138889
        k(    5) = (   0.0000000   0.0000000  -0.7433728), wk =   0.0069444
        k(    6) = (   0.0000000   0.1666667   0.0000000), wk =   0.0277778
        k(    7) = (   0.0000000   0.1666667   0.1858432), wk =   0.0555556
        k(    8) = (   0.0000000   0.1666667   0.3716864), wk =   0.0555556
        k(    9) = (   0.0000000   0.1666667   0.5575296), wk =   0.0555556
        k(   10) = (   0.0000000   0.1666667  -0.7433728), wk =   0.0277778
        k(   11) = (   0.0000000   0.3333333   0.0000000), wk =   0.0277778
        k(   12) = (   0.0000000   0.3333333   0.1858432), wk =   0.0555556
        k(   13) = (   0.0000000   0.3333333   0.3716864), wk =   0.0555556
        k(   14) = (   0.0000000   0.3333333   0.5575296), wk =   0.0555556
        k(   15) = (   0.0000000   0.3333333  -0.7433728), wk =   0.0277778
        k(   16) = (   0.0000000  -0.5000000   0.0000000), wk =   0.0138889
        k(   17) = (   0.0000000  -0.5000000   0.1858432), wk =   0.0277778
        k(   18) = (   0.0000000  -0.5000000   0.3716864), wk =   0.0277778
        k(   19) = (   0.0000000  -0.5000000   0.5575296), wk =   0.0277778
        k(   20) = (   0.0000000  -0.5000000  -0.7433728), wk =   0.0138889
        k(   21) = (   0.1666667   0.1666667   0.0000000), wk =   0.0277778
        k(   22) = (   0.1666667   0.1666667   0.1858432), wk =   0.0555556
        k(   23) = (   0.1666667   0.1666667   0.3716864), wk =   0.0555556
        k(   24) = (   0.1666667   0.1666667   0.5575296), wk =   0.0555556
        k(   25) = (   0.1666667   0.1666667  -0.7433728), wk =   0.0277778
        k(   26) = (   0.1666667   0.3333333   0.0000000), wk =   0.0555556
        k(   27) = (   0.1666667   0.3333333   0.1858432), wk =   0.1111111
        k(   28) = (   0.1666667   0.3333333   0.3716864), wk =   0.1111111
        k(   29) = (   0.1666667   0.3333333   0.5575296), wk =   0.1111111
        k(   30) = (   0.1666667   0.3333333  -0.7433728), wk =   0.0555556
        k(   31) = (   0.1666667  -0.5000000   0.0000000), wk =   0.0277778
        k(   32) = (   0.1666667  -0.5000000   0.1858432), wk =   0.0555556
        k(   33) = (   0.1666667  -0.5000000   0.3716864), wk =   0.0555556
        k(   34) = (   0.1666667  -0.5000000   0.5575296), wk =   0.0555556
        k(   35) = (   0.1666667  -0.5000000  -0.7433728), wk =   0.0277778
        k(   36) = (   0.3333333   0.3333333   0.0000000), wk =   0.0277778
        k(   37) = (   0.3333333   0.3333333   0.1858432), wk =   0.0555556
        k(   38) = (   0.3333333   0.3333333   0.3716864), wk =   0.0555556
        k(   39) = (   0.3333333   0.3333333   0.5575296), wk =   0.0555556
        k(   40) = (   0.3333333   0.3333333  -0.7433728), wk =   0.0277778
        k(   41) = (   0.3333333  -0.5000000   0.0000000), wk =   0.0277778
        k(   42) = (   0.3333333  -0.5000000   0.1858432), wk =   0.0555556
        k(   43) = (   0.3333333  -0.5000000   0.3716864), wk =   0.0555556
        k(   44) = (   0.3333333  -0.5000000   0.5575296), wk =   0.0555556
        k(   45) = (   0.3333333  -0.5000000  -0.7433728), wk =   0.0277778
        k(   46) = (  -0.5000000  -0.5000000   0.0000000), wk =   0.0069444
        k(   47) = (  -0.5000000  -0.5000000   0.1858432), wk =   0.0138889
        k(   48) = (  -0.5000000  -0.5000000   0.3716864), wk =   0.0138889
        k(   49) = (  -0.5000000  -0.5000000   0.5575296), wk =   0.0138889
        k(   50) = (  -0.5000000  -0.5000000  -0.7433728), wk =   0.0069444

                       cryst. coord.
        k(    1) = (   0.0000000   0.0000000   0.0000000), wk =   0.0069444
        k(    2) = (   0.0000000   0.0000000   0.1250000), wk =   0.0138889
        k(    3) = (   0.0000000   0.0000000   0.2500000), wk =   0.0138889
        k(    4) = (   0.0000000   0.0000000   0.3750000), wk =   0.0138889
        k(    5) = (   0.0000000   0.0000000  -0.5000000), wk =   0.0069444
        k(    6) = (   0.0000000   0.1666667   0.0000000), wk =   0.0277778
        k(    7) = (   0.0000000   0.1666667   0.1250000), wk =   0.0555556
        k(    8) = (   0.0000000   0.1666667   0.2500000), wk =   0.0555556
        k(    9) = (   0.0000000   0.1666667   0.3750000), wk =   0.0555556
        k(   10) = (   0.0000000   0.1666667  -0.5000000), wk =   0.0277778
        k(   11) = (   0.0000000   0.3333333   0.0000000), wk =   0.0277778
        k(   12) = (   0.0000000   0.3333333   0.1250000), wk =   0.0555556
        k(   13) = (   0.0000000   0.3333333   0.2500000), wk =   0.0555556
        k(   14) = (   0.0000000   0.3333333   0.3750000), wk =   0.0555556
        k(   15) = (   0.0000000   0.3333333  -0.5000000), wk =   0.0277778
        k(   16) = (   0.0000000  -0.5000000   0.0000000), wk =   0.0138889
        k(   17) = (   0.0000000  -0.5000000   0.1250000), wk =   0.0277778
        k(   18) = (   0.0000000  -0.5000000   0.2500000), wk =   0.0277778
        k(   19) = (   0.0000000  -0.5000000   0.3750000), wk =   0.0277778
        k(   20) = (   0.0000000  -0.5000000  -0.5000000), wk =   0.0138889
        k(   21) = (   0.1666667   0.1666667   0.0000000), wk =   0.0277778
        k(   22) = (   0.1666667   0.1666667   0.1250000), wk =   0.0555556
        k(   23) = (   0.1666667   0.1666667   0.2500000), wk =   0.0555556
        k(   24) = (   0.1666667   0.1666667   0.3750000), wk =   0.0555556
        k(   25) = (   0.1666667   0.1666667  -0.5000000), wk =   0.0277778
        k(   26) = (   0.1666667   0.3333333   0.0000000), wk =   0.0555556
        k(   27) = (   0.1666667   0.3333333   0.1250000), wk =   0.1111111
        k(   28) = (   0.1666667   0.3333333   0.2500000), wk =   0.1111111
        k(   29) = (   0.1666667   0.3333333   0.3750000), wk =   0.1111111
        k(   30) = (   0.1666667   0.3333333  -0.5000000), wk =   0.0555556
        k(   31) = (   0.1666667  -0.5000000   0.0000000), wk =   0.0277778
        k(   32) = (   0.1666667  -0.5000000   0.1250000), wk =   0.0555556
        k(   33) = (   0.1666667  -0.5000000   0.2500000), wk =   0.0555556
        k(   34) = (   0.1666667  -0.5000000   0.3750000), wk =   0.0555556
        k(   35) = (   0.1666667  -0.5000000  -0.5000000), wk =   0.0277778
        k(   36) = (   0.3333333   0.3333333   0.0000000), wk =   0.0277778
        k(   37) = (   0.3333333   0.3333333   0.1250000), wk =   0.0555556
        k(   38) = (   0.3333333   0.3333333   0.2500000), wk =   0.0555556
        k(   39) = (   0.3333333   0.3333333   0.3750000), wk =   0.0555556
        k(   40) = (   0.3333333   0.3333333  -0.5000000), wk =   0.0277778
        k(   41) = (   0.3333333  -0.5000000   0.0000000), wk =   0.0277778
        k(   42) = (   0.3333333  -0.5000000   0.1250000), wk =   0.0555556
        k(   43) = (   0.3333333  -0.5000000   0.2500000), wk =   0.0555556
        k(   44) = (   0.3333333  -0.5000000   0.3750000), wk =   0.0555556
        k(   45) = (   0.3333333  -0.5000000  -0.5000000), wk =   0.0277778
        k(   46) = (  -0.5000000  -0.5000000   0.0000000), wk =   0.0069444
        k(   47) = (  -0.5000000  -0.5000000   0.1250000), wk =   0.0138889
        k(   48) = (  -0.5000000  -0.5000000   0.2500000), wk =   0.0138889
        k(   49) = (  -0.5000000  -0.5000000   0.3750000), wk =   0.0138889
        k(   50) = (  -0.5000000  -0.5000000  -0.5000000), wk =   0.0069444

     Dense  grid:   242311 G-vectors     FFT dimensions: (  90,  90,  60)

     Smooth grid:    85653 G-vectors     FFT dimensions: (  64,  64,  48)

     Dynamical RAM for                 wfc:       0.42 MB

     Dynamical RAM for     wfc (w. buffer):      11.05 MB

     Dynamical RAM for           str. fact:       0.74 MB

     Dynamical RAM for           local pot:       0.00 MB

     Dynamical RAM for          nlocal pot:       1.11 MB

     Dynamical RAM for                qrad:       4.97 MB

     Dynamical RAM for          rho,v,vnew:       2.22 MB

     Dynamical RAM for               rhoin:       0.74 MB

     Dynamical RAM for            rho*nmix:       5.92 MB

     Dynamical RAM for           G-vectors:       1.45 MB

     Dynamical RAM for          h,s,v(r/c):       0.12 MB

     Dynamical RAM for          <psi|beta>:       0.03 MB

     Dynamical RAM for                 psi:       0.85 MB

     Dynamical RAM for                hpsi:       0.85 MB

     Dynamical RAM for                spsi:       0.85 MB

     Dynamical RAM for      wfcinit/wfcrot:       0.87 MB

     Dynamical RAM for           addusdens:      35.31 MB

     Dynamical RAM for          addusforce:      36.44 MB

     Estimated static dynamical RAM per process >      25.25 MB

     Estimated max dynamical RAM per process >      67.60 MB

     Estimated total dynamical RAM >       1.26 GB

     Initial potential from superposition of free atoms

     starting charge      49.9999, renormalised to      52.0000
     Starting wfcs are   34 randomized atomic wfcs
     Checking if some PAW data can be deallocated... 
       PAW data deallocated on    8 nodes for type:  2

     total cpu time spent up to now is        1.5 secs

     per-process dynamical memory:    84.9 Mb

     Self-consistent Calculation

     iteration #  1     ecut=   120.00 Ry     beta= 0.30
     Davidson diagonalization with overlap

---- Real-time Memory Report at c_bands before calling an iterative solver
           156 MiB given to the printing process from OS
            82 MiB allocation reported by mallinfo(arena+hblkhd)
        216822 MiB available memory on the node where the printing process lives
------------------
     ethr =  1.00E-02,  avg # of iterations =  2.0

     total cpu time spent up to now is        2.6 secs

     total energy              =    -493.07000739 Ry
     estimated scf accuracy    <       1.78408277 Ry

     iteration #  2     ecut=   120.00 Ry     beta= 0.30
     Davidson diagonalization with overlap

---- Real-time Memory Report at c_bands before calling an iterative solver
           178 MiB given to the printing process from OS
           118 MiB allocation reported by mallinfo(arena+hblkhd)
        216112 MiB available memory on the node where the printing process lives
------------------
     ethr =  3.43E-03,  avg # of iterations =  2.0

     total cpu time spent up to now is        3.9 secs

     total energy              =    -493.22798277 Ry
     estimated scf accuracy    <       0.22296844 Ry

     iteration #  3     ecut=   120.00 Ry     beta= 0.30
     Davidson diagonalization with overlap

---- Real-time Memory Report at c_bands before calling an iterative solver
           179 MiB given to the printing process from OS
           118 MiB allocation reported by mallinfo(arena+hblkhd)
        216105 MiB available memory on the node where the printing process lives
------------------
     ethr =  4.29E-04,  avg # of iterations =  4.0

     total cpu time spent up to now is        5.3 secs

     total energy              =    -493.26450134 Ry
     estimated scf accuracy    <       0.05200573 Ry

     iteration #  4     ecut=   120.00 Ry     beta= 0.30
     Davidson diagonalization with overlap

---- Real-time Memory Report at c_bands before calling an iterative solver
           179 MiB given to the printing process from OS
           119 MiB allocation reported by mallinfo(arena+hblkhd)
        216076 MiB available memory on the node where the printing process lives
------------------
     ethr =  1.00E-04,  avg # of iterations =  3.1

     total cpu time spent up to now is        6.6 secs

     total energy              =    -493.27694250 Ry
     estimated scf accuracy    <       0.01908776 Ry

     iteration #  5     ecut=   120.00 Ry     beta= 0.30
     Davidson diagonalization with overlap

---- Real-time Memory Report at c_bands before calling an iterative solver
           180 MiB given to the printing process from OS
           119 MiB allocation reported by mallinfo(arena+hblkhd)
        216085 MiB available memory on the node where the printing process lives
------------------
     ethr =  3.67E-05,  avg # of iterations =  2.0

     total cpu time spent up to now is        7.7 secs

     total energy              =    -493.27197601 Ry
     estimated scf accuracy    <       0.00786323 Ry

     iteration #  6     ecut=   120.00 Ry     beta= 0.30
     Davidson diagonalization with overlap

---- Real-time Memory Report at c_bands before calling an iterative solver
           180 MiB given to the printing process from OS
           119 MiB allocation reported by mallinfo(arena+hblkhd)
        216082 MiB available memory on the node where the printing process lives
------------------
     ethr =  1.51E-05,  avg # of iterations =  5.1

     total cpu time spent up to now is        9.3 secs

     total energy              =    -493.27351613 Ry
     estimated scf accuracy    <       0.02986108 Ry

     iteration #  7     ecut=   120.00 Ry     beta= 0.30
     Davidson diagonalization with overlap

---- Real-time Memory Report at c_bands before calling an iterative solver
           181 MiB given to the printing process from OS
           120 MiB allocation reported by mallinfo(arena+hblkhd)
        216060 MiB available memory on the node where the printing process lives
------------------
     ethr =  1.51E-05,  avg # of iterations =  4.0

     total cpu time spent up to now is       10.7 secs

     total energy              =    -493.27677349 Ry
     estimated scf accuracy    <       0.00149047 Ry

     iteration #  8     ecut=   120.00 Ry     beta= 0.30
     Davidson diagonalization with overlap

---- Real-time Memory Report at c_bands before calling an iterative solver
           181 MiB given to the printing process from OS
           120 MiB allocation reported by mallinfo(arena+hblkhd)
        216077 MiB available memory on the node where the printing process lives
------------------
     ethr =  2.87E-06,  avg # of iterations =  2.9

     total cpu time spent up to now is       12.0 secs

     total energy              =    -493.27721417 Ry
     estimated scf accuracy    <       0.00001554 Ry

     iteration #  9     ecut=   120.00 Ry     beta= 0.30
     Davidson diagonalization with overlap

---- Real-time Memory Report at c_bands before calling an iterative solver
           181 MiB given to the printing process from OS
           120 MiB allocation reported by mallinfo(arena+hblkhd)
        216077 MiB available memory on the node where the printing process lives
------------------
     ethr =  2.99E-08,  avg # of iterations =  5.4

     total cpu time spent up to now is       13.8 secs

     total energy              =    -493.27729130 Ry
     estimated scf accuracy    <       0.00007127 Ry

     iteration # 10     ecut=   120.00 Ry     beta= 0.30
     Davidson diagonalization with overlap

---- Real-time Memory Report at c_bands before calling an iterative solver
           181 MiB given to the printing process from OS
           120 MiB allocation reported by mallinfo(arena+hblkhd)
        216074 MiB available memory on the node where the printing process lives
------------------
     ethr =  2.99E-08,  avg # of iterations =  3.2

     total cpu time spent up to now is       15.1 secs

     total energy              =    -493.27731576 Ry
     estimated scf accuracy    <       0.00001150 Ry

     iteration # 11     ecut=   120.00 Ry     beta= 0.30
     Davidson diagonalization with overlap

---- Real-time Memory Report at c_bands before calling an iterative solver
           181 MiB given to the printing process from OS
           120 MiB allocation reported by mallinfo(arena+hblkhd)
        216071 MiB available memory on the node where the printing process lives
------------------
     ethr =  2.21E-08,  avg # of iterations =  2.8

     total cpu time spent up to now is       16.4 secs

     total energy              =    -493.27733087 Ry
     estimated scf accuracy    <       0.00000001 Ry

     iteration # 12     ecut=   120.00 Ry     beta= 0.30
     Davidson diagonalization with overlap

---- Real-time Memory Report at c_bands before calling an iterative solver
           181 MiB given to the printing process from OS
           120 MiB allocation reported by mallinfo(arena+hblkhd)
        216070 MiB available memory on the node where the printing process lives
------------------
     ethr =  2.07E-11,  avg # of iterations =  6.6

     total cpu time spent up to now is       18.5 secs

     total energy              =    -493.27733693 Ry
     estimated scf accuracy    <          3.6E-09 Ry

     iteration # 13     ecut=   120.00 Ry     beta= 0.30
     Davidson diagonalization with overlap

---- Real-time Memory Report at c_bands before calling an iterative solver
           181 MiB given to the printing process from OS
           120 MiB allocation reported by mallinfo(arena+hblkhd)
        216071 MiB available memory on the node where the printing process lives
------------------
     ethr =  6.85E-12,  avg # of iterations =  5.0

     total cpu time spent up to now is       20.1 secs

     total energy              =    -493.27733982 Ry
     estimated scf accuracy    <       0.00000004 Ry

     iteration # 14     ecut=   120.00 Ry     beta= 0.30
     Davidson diagonalization with overlap

---- Real-time Memory Report at c_bands before calling an iterative solver
           181 MiB given to the printing process from OS
           120 MiB allocation reported by mallinfo(arena+hblkhd)
        216073 MiB available memory on the node where the printing process lives
------------------
     ethr =  6.85E-12,  avg # of iterations =  5.9

     total cpu time spent up to now is       22.0 secs

     total energy              =    -493.27734126 Ry
     estimated scf accuracy    <       0.00000001 Ry

     iteration # 15     ecut=   120.00 Ry     beta= 0.30
     Davidson diagonalization with overlap

---- Real-time Memory Report at c_bands before calling an iterative solver
           181 MiB given to the printing process from OS
           120 MiB allocation reported by mallinfo(arena+hblkhd)
        216076 MiB available memory on the node where the printing process lives
------------------
     ethr =  6.85E-12,  avg # of iterations =  1.8

     total cpu time spent up to now is       23.1 secs

     total energy              =    -493.27734196 Ry
     estimated scf accuracy    <          7.2E-09 Ry

     iteration # 16     ecut=   120.00 Ry     beta= 0.30
     Davidson diagonalization with overlap

---- Real-time Memory Report at c_bands before calling an iterative solver
           181 MiB given to the printing process from OS
           120 MiB allocation reported by mallinfo(arena+hblkhd)
        216077 MiB available memory on the node where the printing process lives
------------------
     ethr =  6.85E-12,  avg # of iterations =  3.8

     total cpu time spent up to now is       24.5 secs

     total energy              =    -493.27734230 Ry
     estimated scf accuracy    <          4.0E-10 Ry

     iteration # 17     ecut=   120.00 Ry     beta= 0.30
     Davidson diagonalization with overlap

---- Real-time Memory Report at c_bands before calling an iterative solver
           182 MiB given to the printing process from OS
           120 MiB allocation reported by mallinfo(arena+hblkhd)
        216077 MiB available memory on the node where the printing process lives
------------------
     ethr =  7.67E-13,  avg # of iterations =  2.0

     total cpu time spent up to now is       25.6 secs

     End of self-consistent calculation

          k = 0.0000 0.0000 0.0000 ( 10741 PWs)   bands (ev):

   -11.5421 -10.7531 -10.4969 -10.4673 -10.4673 -10.4015 -10.3465 -10.2579
   -10.2242 -10.2242  -9.3550  -7.5192  -7.5192  -5.6625   1.4305   5.5083
     5.5083   5.6535   6.4779   7.6061   7.7047   8.3633   8.3633   8.8266
     8.8266   9.5931

     occupation numbers 
     1.0000   1.0000   1.0000   1.0000   1.0000   1.0000   1.0000   1.0000
     1.0000   1.0000   1.0000   1.0000   1.0000   1.0000   1.0000   1.0000
     1.0000   1.0000   1.0000   1.0000   1.0000   1.0000   1.0000   1.0000
     1.0000   1.0000

          k = 0.0000 0.0000 0.1858 ( 10745 PWs)   bands (ev):

   -11.4689 -10.6638 -10.6180 -10.6180 -10.4682 -10.4158 -10.3402 -10.2584
   -10.2451 -10.2451  -9.2706  -7.2717  -7.2717  -5.7824   1.4221   5.5253
     5.6522   5.6522   6.5811   6.6031   7.5817   7.7920   7.7920   8.8567
     8.8567   9.4629

     occupation numbers 
     1.0000   1.0000   1.0000   1.0000   1.0000   1.0000   1.0000   1.0000
     1.0000   1.0000   1.0000   1.0000   1.0000   1.0000   1.0000   1.0000
     1.0000   1.0000   1.0000   1.0000   1.0000   1.0000   1.0000   1.0000
     1.0000   1.0000

          k = 0.0000 0.0000 0.3717 ( 10721 PWs)   bands (ev):

   -11.2762 -10.9243 -10.9243 -10.5378 -10.3974 -10.3916 -10.3236 -10.2848
   -10.2848 -10.2612  -8.9736  -6.7287  -6.7287  -6.1594   1.4589   4.9950
     5.3551   5.9930   5.9930   6.7791   6.7791   6.8820   7.1018   8.7528
     8.7528   9.0942

     occupation numbers 
     1.0000   1.0000   1.0000   1.0000   1.0000   1.0000   1.0000   1.0000
     1.0000   1.0000   1.0000   1.0000   1.0000   1.0000   1.0000   1.0000
     1.0000   1.0000   1.0000   1.0000   1.0000   1.0000   1.0000   1.0000
     1.0000   1.0000

          k = 0.0000 0.0000 0.5575 ( 10681 PWs)   bands (ev):

   -11.1752 -11.1752 -11.0308 -10.6271 -10.3213 -10.3213 -10.3023 -10.2976
   -10.2686 -10.2671  -8.3962  -6.7983  -6.2216  -6.2216   1.7213   3.5156
     5.4370   5.6824   5.6824   6.4504   6.6931   6.6931   7.3522   8.5155
     8.5155   8.5525

     occupation numbers 
     1.0000   1.0000   1.0000   1.0000   1.0000   1.0000   1.0000   1.0000
     1.0000   1.0000   1.0000   1.0000   1.0000   1.0000   1.0000   1.0000
     1.0000   1.0000   1.0000   1.0000   1.0000   1.0000   1.0000   1.0000
     1.0000   1.0000

          k = 0.0000 0.0000-0.7434 ( 10668 PWs)   bands (ev):

   -11.2680 -11.2680 -10.8012 -10.8012 -10.3361 -10.3361 -10.2826 -10.2826
   -10.2369 -10.2369  -7.6067  -7.6067  -6.0151  -6.0151   2.3922   2.3922
     5.3580   5.3580   5.8351   5.8351   6.9507   6.9507   7.9370   7.9370
     8.3432   8.3432

     occupation numbers 
     1.0000   1.0000   1.0000   1.0000   1.0000   1.0000   1.0000   1.0000
     1.0000   1.0000   1.0000   1.0000   1.0000   1.0000   1.0000   1.0000
     1.0000   1.0000   1.0000   1.0000   1.0000   1.0000   1.0000   1.0000
     1.0000   1.0000

          k = 0.0000 0.1667 0.0000 ( 10719 PWs)   bands (ev):

   -11.4991 -10.8025 -10.4967 -10.4653 -10.4652 -10.4387 -10.3398 -10.2629
   -10.2266 -10.2265  -9.2706  -7.7006  -7.3489  -5.7303   1.6126   5.0267
     5.6513   5.7600   6.6368   7.4271   7.8716   8.2845   8.3710   8.3898
     8.8455   9.4544

     occupation numbers 
     1.0000   1.0000   1.0000   1.0000   1.0000   1.0000   1.0000   1.0000
     1.0000   1.0000   1.0000   1.0000   1.0000   1.0000   1.0000   1.0000
     1.0000   1.0000   1.0000   1.0000   1.0000   1.0000   1.0000   1.0000
     1.0000   1.0000

          k = 0.0000 0.1667 0.1858 ( 10722 PWs)   bands (ev):

   -11.4307 -10.7584 -10.6178 -10.6089 -10.4618 -10.4058 -10.3340 -10.2634
   -10.2461 -10.2435  -9.1816  -7.4783  -7.1264  -5.8093   1.6129   5.1259
     5.2617   6.1388   6.3830   6.6975   7.6417   7.8611   7.9607   8.6324
     8.8526   9.3805

     occupation numbers 
     1.0000   1.0000   1.0000   1.0000   1.0000   1.0000   1.0000   1.0000
     1.0000   1.0000   1.0000   1.0000   1.0000   1.0000   1.0000   1.0000
     1.0000   1.0000   1.0000   1.0000   1.0000   1.0000   1.0000   1.0000
     1.0000   1.0000

          k = 0.0000 0.1667 0.3717 ( 10730 PWs)   bands (ev):

   -11.2775 -10.9943 -10.8802 -10.5176 -10.3912 -10.3901 -10.3197 -10.2838
   -10.2827 -10.2628  -8.9017  -7.0609  -6.6263  -6.0146   1.6504   4.7649
     4.9269   5.4743   6.4963   6.5881   6.6352   7.2972   7.5980   8.7240
     8.7440   9.0970

     occupation numbers 
     1.0000   1.0000   1.0000   1.0000   1.0000   1.0000   1.0000   1.0000
     1.0000   1.0000   1.0000   1.0000   1.0000   1.0000   1.0000   1.0000
     1.0000   1.0000   1.0000   1.0000   1.0000   1.0000   1.0000   1.0000
     1.0000   1.0000

          k = 0.0000 0.1667 0.5575 ( 10715 PWs)   bands (ev):

   -11.2768 -11.2375 -10.8870 -10.5624 -10.3316 -10.3245 -10.2984 -10.2869
   -10.2695 -10.2654  -8.3815  -7.0832  -6.1539  -6.0506   1.8677   3.4425
     4.8627   5.4864   5.6971   5.7765   7.1997   7.4228   7.5659   8.4759
     8.5929   8.6229

     occupation numbers 
     1.0000   1.0000   1.0000   1.0000   1.0000   1.0000   1.0000   1.0000
     1.0000   1.0000   1.0000   1.0000   1.0000   1.0000   1.0000   1.0000
     1.0000   1.0000   1.0000   1.0000   1.0000   1.0000   1.0000   1.0000
     1.0000   1.0000

          k = 0.0000 0.1667-0.7434 ( 10704 PWs)   bands (ev):

   -11.3341 -11.3341 -10.7058 -10.7058 -10.3399 -10.3399 -10.2805 -10.2805
   -10.2326 -10.2326  -7.6881  -7.6881  -5.9536  -5.9536   2.4444   2.4444
     5.0311   5.0311   5.5406   5.5406   7.5016   7.5016   8.0457   8.0457
     8.3754   8.3754

     occupation numbers 
     1.0000   1.0000   1.0000   1.0000   1.0000   1.0000   1.0000   1.0000
     1.0000   1.0000   1.0000   1.0000   1.0000   1.0000   1.0000   1.0000
     1.0000   1.0000   1.0000   1.0000   1.0000   1.0000   1.0000   1.0000
     1.0000   1.0000

          k = 0.0000 0.3333 0.0000 ( 10703 PWs)   bands (ev):

   -11.3742 -10.9649 -10.4963 -10.4813 -10.4612 -10.4610 -10.3219 -10.2773
   -10.2316 -10.2314  -9.0155  -8.1290  -6.9253  -5.9808   2.1566   4.0401
     6.0450   6.0622   7.0050   7.0694   7.4102   7.9603   8.3905   8.4154
     8.8946   9.1590

     occupation numbers 
     1.0000   1.0000   1.0000   1.0000   1.0000   1.0000   1.0000   1.0000
     1.0000   1.0000   1.0000   1.0000   1.0000   1.0000   1.0000   1.0000
     1.0000   1.0000   1.0000   1.0000   1.0000   1.0000   1.0000   1.0000
     1.0000   1.0000

          k = 0.0000 0.3333 0.1858 ( 10717 PWs)   bands (ev):

   -11.3198 -10.9454 -10.6169 -10.6105 -10.4449 -10.4067 -10.3177 -10.2770
   -10.2477 -10.2442  -8.9068  -7.9496  -6.7618  -5.9774   2.1729   4.0945
     5.2417   5.9259   6.6673   7.1242   7.4900   8.0362   8.1689   8.2396
     8.8502   9.1381

     occupation numbers 
     1.0000   1.0000   1.0000   1.0000   1.0000   1.0000   1.0000   1.0000
     1.0000   1.0000   1.0000   1.0000   1.0000   1.0000   1.0000   1.0000
     1.0000   1.0000   1.0000   1.0000   1.0000   1.0000   1.0000   1.0000
     1.0000   1.0000

          k = 0.0000 0.3333 0.3717 ( 10724 PWs)   bands (ev):

   -11.2634 -11.1151 -10.7723 -10.5470 -10.3860 -10.3796 -10.3091 -10.2847
   -10.2771 -10.2657  -8.6488  -7.6365  -6.3760  -5.9573   2.2014   4.0216
     4.5775   4.8277   6.3841   6.5069   7.4674   7.8299   7.9457   8.6353
     8.6734   9.0191

     occupation numbers 
     1.0000   1.0000   1.0000   1.0000   1.0000   1.0000   1.0000   1.0000
     1.0000   1.0000   1.0000   1.0000   1.0000   1.0000   1.0000   1.0000
     1.0000   1.0000   1.0000   1.0000   1.0000   1.0000   1.0000   1.0000
     1.0000   1.0000

          k = 0.0000 0.3333 0.5575 ( 10741 PWs)   bands (ev):

   -11.3667 -11.3357 -10.6853 -10.4905 -10.3415 -10.3293 -10.2905 -10.2740
   -10.2724 -10.2637  -8.2765  -7.5612  -6.0036  -5.8878   2.2804   3.2457
     4.2915   4.5569   5.6691   5.6952   7.7905   7.8669   8.0587   8.4790
     8.6457   8.8521

     occupation numbers 
     1.0000   1.0000   1.0000   1.0000   1.0000   1.0000   1.0000   1.0000
     1.0000   1.0000   1.0000   1.0000   1.0000   1.0000   1.0000   1.0000
     1.0000   1.0000   1.0000   1.0000   1.0000   1.0000   1.0000   1.0000
     1.0000   1.0000

          k = 0.0000 0.3333-0.7434 ( 10718 PWs)   bands (ev):

   -11.4269 -11.4269 -10.5544 -10.5544 -10.3428 -10.3428 -10.2769 -10.2769
   -10.2238 -10.2238  -7.8435  -7.8435  -5.8425  -5.8425   2.5894   2.5894
     4.3354   4.3354   5.4226   5.4226   7.8593   7.8593   8.3467   8.3467
     8.6510   8.6510

     occupation numbers 
     1.0000   1.0000   1.0000   1.0000   1.0000   1.0000   1.0000   1.0000
     1.0000   1.0000   1.0000   1.0000   1.0000   1.0000   1.0000   1.0000
     1.0000   1.0000   1.0000   1.0000   1.0000   1.0000   1.0000   1.0000
     1.0000   1.0000

          k = 0.0000-0.5000 0.0000 ( 10700 PWs)   bands (ev):

   -11.1827 -11.1827 -10.4940 -10.4940 -10.4590 -10.4590 -10.2988 -10.2988
   -10.2340 -10.2340  -8.6116  -8.6116  -6.4162  -6.4162   3.0095   3.0095
     6.5072   6.5072   6.6417   6.6417   7.6151   7.6151   8.4110   8.4110
     8.9734   8.9734

     occupation numbers 
     1.0000   1.0000   1.0000   1.0000   1.0000   1.0000   1.0000   1.0000
     1.0000   1.0000   1.0000   1.0000   1.0000   1.0000   1.0000   1.0000
     1.0000   1.0000   1.0000   1.0000   1.0000   1.0000   1.0000   1.0000
     1.0000   1.0000

          k = 0.0000-0.5000 0.1858 ( 10718 PWs)   bands (ev):

   -11.1487 -11.1487 -10.6144 -10.6144 -10.4237 -10.4237 -10.2966 -10.2966
   -10.2471 -10.2471  -8.4705  -8.4705  -6.3280  -6.3280   3.0411   3.0411
     5.4936   5.4936   7.1044   7.1044   7.7190   7.7190   8.2164   8.2164
     8.9100   8.9100

     occupation numbers 
     1.0000   1.0000   1.0000   1.0000   1.0000   1.0000   1.0000   1.0000
     1.0000   1.0000   1.0000   1.0000   1.0000   1.0000   1.0000   1.0000
     1.0000   1.0000   1.0000   1.0000   1.0000   1.0000   1.0000   1.0000
     1.0000   1.0000

          k = 0.0000-0.5000 0.3717 ( 10738 PWs)   bands (ev):

   -11.2110 -11.2110 -10.6456 -10.6456 -10.3807 -10.3807 -10.2953 -10.2953
   -10.2701 -10.2701  -8.2037  -8.2037  -6.1070  -6.1070   3.0396   3.0396
     4.5488   4.5488   6.4112   6.4112   7.9796   7.9796   8.3112   8.3112
     8.7716   8.7716

     occupation numbers 
     1.0000   1.0000   1.0000   1.0000   1.0000   1.0000   1.0000   1.0000
     1.0000   1.0000   1.0000   1.0000   1.0000   1.0000   1.0000   1.0000
     1.0000   1.0000   1.0000   1.0000   1.0000   1.0000   1.0000   1.0000
     1.0000   1.0000

          k = 0.0000-0.5000 0.5575 ( 10722 PWs)   bands (ev):

   -11.3868 -11.3868 -10.5310 -10.5310 -10.3393 -10.3393 -10.2816 -10.2816
   -10.2646 -10.2646  -7.9956  -7.9956  -5.8826  -5.8826   2.8392   2.8392
     4.1090   4.1090   5.6573   5.6573   7.9232   7.9232   8.4973   8.4973
     8.7976   8.7976

     occupation numbers 
     1.0000   1.0000   1.0000   1.0000   1.0000   1.0000   1.0000   1.0000
     1.0000   1.0000   1.0000   1.0000   1.0000   1.0000   1.0000   1.0000
     1.0000   1.0000   1.0000   1.0000   1.0000   1.0000   1.0000   1.0000
     1.0000   1.0000

          k = 0.0000-0.5000-0.7434 ( 10700 PWs)   bands (ev):

   -11.4634 -11.4634 -10.4914 -10.4914 -10.3393 -10.3393 -10.2750 -10.2750
   -10.2188 -10.2188  -7.9191  -7.9191  -5.7914  -5.7914   2.7012   2.7012
     4.0028   4.0028   5.3898   5.3898   7.8610   7.8610   8.5018   8.5018
     8.8919   8.8919

     occupation numbers 
     1.0000   1.0000   1.0000   1.0000   1.0000   1.0000   1.0000   1.0000
     1.0000   1.0000   1.0000   1.0000   1.0000   1.0000   1.0000   1.0000
     1.0000   1.0000   1.0000   1.0000   1.0000   1.0000   1.0000   1.0000
     1.0000   1.0000

          k = 0.1667 0.1667 0.0000 ( 10728 PWs)   bands (ev):

   -11.4661 -10.8599 -10.4966 -10.4679 -10.4608 -10.4564 -10.3337 -10.2670
   -10.2316 -10.2239  -9.1777  -7.5501  -7.5165  -5.8200   1.8081   4.9378
     5.5236   5.8570   6.7626   7.2978   7.9041   7.9947   8.3432   8.4165
     8.7997   9.3416

     occupation numbers 
     1.0000   1.0000   1.0000   1.0000   1.0000   1.0000   1.0000   1.0000
     1.0000   1.0000   1.0000   1.0000   1.0000   1.0000   1.0000   1.0000
     1.0000   1.0000   1.0000   1.0000   1.0000   1.0000   1.0000   1.0000
     1.0000   1.0000

          k = 0.1667 0.1667 0.1858 ( 10718 PWs)   bands (ev):

   -11.3999 -10.8278 -10.6196 -10.6083 -10.4617 -10.4013 -10.3285 -10.2672
   -10.2464 -10.2444  -9.0821  -7.3585  -7.3008  -5.8645   1.8090   4.6830
     5.6779   5.9915   6.2414   6.7519   7.6210   7.8281   8.1507   8.4735
     8.8310   9.3248

     occupation numbers 
     1.0000   1.0000   1.0000   1.0000   1.0000   1.0000   1.0000   1.0000
     1.0000   1.0000   1.0000   1.0000   1.0000   1.0000   1.0000   1.0000
     1.0000   1.0000   1.0000   1.0000   1.0000   1.0000   1.0000   1.0000
     1.0000   1.0000

          k = 0.1667 0.1667 0.3717 ( 10723 PWs)   bands (ev):

   -11.2745 -10.9728 -10.9273 -10.5207 -10.3951 -10.3761 -10.3163 -10.2854
   -10.2802 -10.2647  -8.8130  -7.0853  -6.7543  -5.9570   1.8211   4.2032
     4.9254   6.0688   6.0892   6.3039   6.7310   7.4589   7.9151   8.6975
     8.7505   9.1025

     occupation numbers 
     1.0000   1.0000   1.0000   1.0000   1.0000   1.0000   1.0000   1.0000
     1.0000   1.0000   1.0000   1.0000   1.0000   1.0000   1.0000   1.0000
     1.0000   1.0000   1.0000   1.0000   1.0000   1.0000   1.0000   1.0000
     1.0000   1.0000

          k = 0.1667 0.1667 0.5575 ( 10707 PWs)   bands (ev):

   -11.3536 -11.1788 -10.9063 -10.5065 -10.3356 -10.3268 -10.2932 -10.2854
   -10.2693 -10.2656  -8.3491  -7.1687  -6.2437  -5.9169   1.9366   3.3492
     4.4440   5.4491   5.4537   6.4594   6.6567   7.7167   7.9330   8.5692
     8.5822   8.6668

     occupation numbers 
     1.0000   1.0000   1.0000   1.0000   1.0000   1.0000   1.0000   1.0000
     1.0000   1.0000   1.0000   1.0000   1.0000   1.0000   1.0000   1.0000
     1.0000   1.0000   1.0000   1.0000   1.0000   1.0000   1.0000   1.0000
     1.0000   1.0000

          k = 0.1667 0.1667-0.7434 ( 10690 PWs)   bands (ev):

   -11.4254 -11.2717 -10.8066 -10.5467 -10.3438 -10.3403 -10.2808 -10.2774
   -10.2323 -10.2267  -7.8631  -7.5618  -6.0356  -5.8351   2.1591   2.7502
     4.4446   5.0546   5.1203   6.3817   6.9579   8.1403   8.1583   8.2035
     8.3048   8.4463

     occupation numbers 
     1.0000   1.0000   1.0000   1.0000   1.0000   1.0000   1.0000   1.0000
     1.0000   1.0000   1.0000   1.0000   1.0000   1.0000   1.0000   1.0000
     1.0000   1.0000   1.0000   1.0000   1.0000   1.0000   1.0000   1.0000
     1.0000   1.0000

          k = 0.1667 0.3333 0.0000 ( 10726 PWs)   bands (ev):

   -11.3672 -11.0182 -10.4939 -10.4769 -10.4663 -10.4590 -10.3179 -10.2792
   -10.2340 -10.2261  -8.9025  -7.9736  -7.1092  -6.1152   2.3745   4.1872
     5.8534   6.1308   6.9583   7.1206   7.2129   7.9466   8.3468   8.4131
     8.8155   9.0830

     occupation numbers 
     1.0000   1.0000   1.0000   1.0000   1.0000   1.0000   1.0000   1.0000
     1.0000   1.0000   1.0000   1.0000   1.0000   1.0000   1.0000   1.0000
     1.0000   1.0000   1.0000   1.0000   1.0000   1.0000   1.0000   1.0000
     1.0000   1.0000

          k = 0.1667 0.3333 0.1858 ( 10734 PWs)   bands (ev):

   -11.3085 -10.9873 -10.6196 -10.6118 -10.4509 -10.4098 -10.3139 -10.2785
   -10.2482 -10.2446  -8.7865  -7.8025  -6.9506  -6.0897   2.3672   4.0487
     5.4633   5.8966   6.5383   7.0049   7.3945   7.9947   8.0940   8.3318
     8.8191   9.1317

     occupation numbers 
     1.0000   1.0000   1.0000   1.0000   1.0000   1.0000   1.0000   1.0000
     1.0000   1.0000   1.0000   1.0000   1.0000   1.0000   1.0000   1.0000
     1.0000   1.0000   1.0000   1.0000   1.0000   1.0000   1.0000   1.0000
     1.0000   1.0000

          k = 0.1667 0.3333 0.3717 ( 10727 PWs)   bands (ev):

   -11.2500 -11.0810 -10.8361 -10.5811 -10.3890 -10.3710 -10.3068 -10.2859
   -10.2785 -10.2685  -8.5289  -7.5246  -6.5561  -6.0046   2.2888   3.5624
     4.8274   5.3441   6.1662   6.4002   7.2282   7.8597   8.2114   8.5337
     8.7260   9.0400

     occupation numbers 
     1.0000   1.0000   1.0000   1.0000   1.0000   1.0000   1.0000   1.0000
     1.0000   1.0000   1.0000   1.0000   1.0000   1.0000   1.0000   1.0000
     1.0000   1.0000   1.0000   1.0000   1.0000   1.0000   1.0000   1.0000
     1.0000   1.0000

          k = 0.1667 0.3333 0.5575 ( 10701 PWs)   bands (ev):

   -11.3886 -11.2574 -10.7821 -10.4932 -10.3409 -10.3297 -10.2877 -10.2769
   -10.2724 -10.2654  -8.1935  -7.4759  -6.1501  -5.8665   2.1408   2.9476
     4.3414   5.0688   5.3699   5.9808   7.5180   8.0080   8.2475   8.5148
     8.6834   8.8162

     occupation numbers 
     1.0000   1.0000   1.0000   1.0000   1.0000   1.0000   1.0000   1.0000
     1.0000   1.0000   1.0000   1.0000   1.0000   1.0000   1.0000   1.0000
     1.0000   1.0000   1.0000   1.0000   1.0000   1.0000   1.0000   1.0000
     1.0000   1.0000

          k = 0.1667 0.3333-0.7434 ( 10682 PWs)   bands (ev):

   -11.4633 -11.3389 -10.7154 -10.4844 -10.3460 -10.3412 -10.2782 -10.2749
   -10.2249 -10.2223  -7.9195  -7.6245  -5.9794  -5.7895   2.0849   2.6512
     4.2467   4.7835   5.0646   5.9872   7.6145   8.1980   8.3235   8.4623
     8.4891   8.7423

     occupation numbers 
     1.0000   1.0000   1.0000   1.0000   1.0000   1.0000   1.0000   1.0000
     1.0000   1.0000   1.0000   1.0000   1.0000   1.0000   1.0000   1.0000
     1.0000   1.0000   1.0000   1.0000   1.0000   1.0000   1.0000   1.0000
     1.0000   1.0000

          k = 0.1667-0.5000 0.0000 ( 10728 PWs)   bands (ev):

   -11.2088 -11.2088 -10.4873 -10.4873 -10.4618 -10.4618 -10.2976 -10.2976
   -10.2311 -10.2311  -8.4753  -8.4753  -6.5857  -6.5857   3.2238   3.2238
     6.4687   6.4687   6.5282   6.5282   7.6082   7.6082   8.3802   8.3802
     8.8966   8.8966

     occupation numbers 
     1.0000   1.0000   1.0000   1.0000   1.0000   1.0000   1.0000   1.0000
     1.0000   1.0000   1.0000   1.0000   1.0000   1.0000   1.0000   1.0000
     1.0000   1.0000   1.0000   1.0000   1.0000   1.0000   1.0000   1.0000
     1.0000   1.0000

          k = 0.1667-0.5000 0.1858 ( 10732 PWs)   bands (ev):

   -11.1635 -11.1635 -10.6167 -10.6167 -10.4307 -10.4307 -10.2954 -10.2954
   -10.2469 -10.2469  -8.3324  -8.3324  -6.4890  -6.4890   3.1823   3.1823
     5.5616   5.5616   6.9949   6.9949   7.5723   7.5723   8.2494   8.2494
     8.9128   8.9128

     occupation numbers 
     1.0000   1.0000   1.0000   1.0000   1.0000   1.0000   1.0000   1.0000
     1.0000   1.0000   1.0000   1.0000   1.0000   1.0000   1.0000   1.0000
     1.0000   1.0000   1.0000   1.0000   1.0000   1.0000   1.0000   1.0000
     1.0000   1.0000

          k = 0.1667-0.5000 0.3717 ( 10716 PWs)   bands (ev):

   -11.1860 -11.1860 -10.7010 -10.7010 -10.3792 -10.3792 -10.2947 -10.2947
   -10.2733 -10.2733  -8.0699  -8.0699  -6.2370  -6.2370   2.9229   2.9229
     4.8972   4.8972   6.2413   6.2413   7.9783   7.9783   8.2480   8.2480
     8.8316   8.8316

     occupation numbers 
     1.0000   1.0000   1.0000   1.0000   1.0000   1.0000   1.0000   1.0000
     1.0000   1.0000   1.0000   1.0000   1.0000   1.0000   1.0000   1.0000
     1.0000   1.0000   1.0000   1.0000   1.0000   1.0000   1.0000   1.0000
     1.0000   1.0000

          k = 0.1667-0.5000 0.5575 ( 10696 PWs)   bands (ev):

   -11.3528 -11.3528 -10.6051 -10.6051 -10.3370 -10.3370 -10.2807 -10.2807
   -10.2674 -10.2674  -7.8745  -7.8745  -5.9676  -5.9676   2.4815   2.4815
     4.6256   4.6256   5.5572   5.5572   8.0619   8.0619   8.4629   8.4629
     8.7374   8.7374

     occupation numbers 
     1.0000   1.0000   1.0000   1.0000   1.0000   1.0000   1.0000   1.0000
     1.0000   1.0000   1.0000   1.0000   1.0000   1.0000   1.0000   1.0000
     1.0000   1.0000   1.0000   1.0000   1.0000   1.0000   1.0000   1.0000
     1.0000   1.0000

          k = 0.1667-0.5000-0.7434 ( 10692 PWs)   bands (ev):

   -11.4296 -11.4296 -10.5616 -10.5616 -10.3430 -10.3430 -10.2753 -10.2753
   -10.2217 -10.2217  -7.8048  -7.8048  -5.8538  -5.8538   2.2793   2.2793
     4.4809   4.4809   5.3926   5.3926   8.0254   8.0254   8.5581   8.5581
     8.7297   8.7297

     occupation numbers 
     1.0000   1.0000   1.0000   1.0000   1.0000   1.0000   1.0000   1.0000
     1.0000   1.0000   1.0000   1.0000   1.0000   1.0000   1.0000   1.0000
     1.0000   1.0000   1.0000   1.0000   1.0000   1.0000   1.0000   1.0000
     1.0000   1.0000

          k = 0.3333 0.3333 0.0000 ( 10728 PWs)   bands (ev):

   -11.3341 -11.1384 -10.4849 -10.4735 -10.4693 -10.4622 -10.3076 -10.2852
   -10.2310 -10.2233  -8.5802  -7.6123  -7.5137  -6.4944   2.9651   4.2969
     5.6191   6.3187   6.6720   6.8091   7.3144   7.8480   8.3036   8.3700
     8.7330   8.8979

     occupation numbers 
     1.0000   1.0000   1.0000   1.0000   1.0000   1.0000   1.0000   1.0000
     1.0000   1.0000   1.0000   1.0000   1.0000   1.0000   1.0000   1.0000
     1.0000   1.0000   1.0000   1.0000   1.0000   1.0000   1.0000   1.0000
     1.0000   1.0000

          k = 0.3333 0.3333 0.1858 ( 10711 PWs)   bands (ev):

   -11.2687 -11.0869 -10.6226 -10.6166 -10.4525 -10.4246 -10.3043 -10.2835
   -10.2482 -10.2447  -8.4493  -7.4669  -7.3591  -6.4239   2.8758   3.8939
     5.7704   5.8049   6.4183   6.9252   7.1383   7.7259   8.1350   8.4881
     8.7557   9.0240

     occupation numbers 
     1.0000   1.0000   1.0000   1.0000   1.0000   1.0000   1.0000   1.0000
     1.0000   1.0000   1.0000   1.0000   1.0000   1.0000   1.0000   1.0000
     1.0000   1.0000   1.0000   1.0000   1.0000   1.0000   1.0000   1.0000
     1.0000   1.0000

          k = 0.3333 0.3333 0.3717 ( 10696 PWs)   bands (ev):

   -11.2023 -11.0206 -10.9328 -10.6870 -10.3848 -10.3701 -10.3005 -10.2856
   -10.2822 -10.2740  -8.1956  -7.3902  -6.8053  -6.2176   2.5052   3.1000
     5.1798   5.9082   5.9338   6.2455   6.8966   8.1576   8.1728   8.5032
     8.7385   9.0268

     occupation numbers 
     1.0000   1.0000   1.0000   1.0000   1.0000   1.0000   1.0000   1.0000
     1.0000   1.0000   1.0000   1.0000   1.0000   1.0000   1.0000   1.0000
     1.0000   1.0000   1.0000   1.0000   1.0000   1.0000   1.0000   1.0000
     1.0000   1.0000

          k = 0.3333 0.3333 0.5575 ( 10685 PWs)   bands (ev):

   -11.3545 -11.1855 -10.8794 -10.5960 -10.3363 -10.3272 -10.2826 -10.2802
   -10.2740 -10.2694  -7.9408  -7.4011  -6.2876  -5.9691   1.9964   2.4057
     5.0566   5.0780   5.0820   6.7252   6.9872   8.3133   8.4212   8.4848
     8.6870   8.8168

     occupation numbers 
     1.0000   1.0000   1.0000   1.0000   1.0000   1.0000   1.0000   1.0000
     1.0000   1.0000   1.0000   1.0000   1.0000   1.0000   1.0000   1.0000
     1.0000   1.0000   1.0000   1.0000   1.0000   1.0000   1.0000   1.0000
     1.0000   1.0000

          k = 0.3333 0.3333-0.7434 ( 10682 PWs)   bands (ev):

   -11.4308 -11.2787 -10.8151 -10.5612 -10.3444 -10.3415 -10.2775 -10.2743
   -10.2271 -10.2239  -7.7859  -7.4700  -6.0761  -5.8576   1.7700   2.1370
     4.7283   4.7385   5.0856   6.9961   7.0057   8.4470   8.4970   8.5308
     8.5499   8.6629

     occupation numbers 
     1.0000   1.0000   1.0000   1.0000   1.0000   1.0000   1.0000   1.0000
     1.0000   1.0000   1.0000   1.0000   1.0000   1.0000   1.0000   1.0000
     1.0000   1.0000   1.0000   1.0000   1.0000   1.0000   1.0000   1.0000
     1.0000   1.0000

          k = 0.3333-0.5000 0.0000 ( 10736 PWs)   bands (ev):

   -11.2567 -11.2567 -10.4764 -10.4764 -10.4673 -10.4673 -10.2953 -10.2953
   -10.2257 -10.2257  -8.1038  -8.1038  -7.0216  -7.0216   3.7404   3.7404
     6.0186   6.0186   6.5721   6.5721   7.6028   7.6028   8.3169   8.3169
     8.7557   8.7557

     occupation numbers 
     1.0000   1.0000   1.0000   1.0000   1.0000   1.0000   1.0000   1.0000
     1.0000   1.0000   1.0000   1.0000   1.0000   1.0000   1.0000   1.0000
     1.0000   1.0000   1.0000   1.0000   1.0000   1.0000   1.0000   1.0000
     1.0000   1.0000

          k = 0.3333-0.5000 0.1858 ( 10716 PWs)   bands (ev):

   -11.1923 -11.1923 -10.6215 -10.6215 -10.4423 -10.4423 -10.2928 -10.2928
   -10.2461 -10.2461  -7.9609  -7.9609  -6.9066  -6.9066   3.4830   3.4830
     5.7265   5.7265   6.7890   6.7890   7.2169   7.2169   8.3924   8.3924
     8.8375   8.8375

     occupation numbers 
     1.0000   1.0000   1.0000   1.0000   1.0000   1.0000   1.0000   1.0000
     1.0000   1.0000   1.0000   1.0000   1.0000   1.0000   1.0000   1.0000
     1.0000   1.0000   1.0000   1.0000   1.0000   1.0000   1.0000   1.0000
     1.0000   1.0000

          k = 0.3333-0.5000 0.3717 ( 10706 PWs)   bands (ev):

   -11.1140 -11.1140 -10.8298 -10.8298 -10.3770 -10.3770 -10.2916 -10.2916
   -10.2794 -10.2794  -7.7373  -7.7373  -6.5665  -6.5665   2.7745   2.7745
     5.6098   5.6098   5.9981   5.9981   7.5091   7.5091   8.4671   8.4671
     8.8656   8.8656

     occupation numbers 
     1.0000   1.0000   1.0000   1.0000   1.0000   1.0000   1.0000   1.0000
     1.0000   1.0000   1.0000   1.0000   1.0000   1.0000   1.0000   1.0000
     1.0000   1.0000   1.0000   1.0000   1.0000   1.0000   1.0000   1.0000
     1.0000   1.0000

          k = 0.3333-0.5000 0.5575 ( 10688 PWs)   bands (ev):

   -11.2622 -11.2622 -10.7696 -10.7696 -10.3292 -10.3292 -10.2795 -10.2795
   -10.2748 -10.2748  -7.6039  -7.6039  -6.1738  -6.1738   2.0677   2.0677
     4.9783   4.9783   5.9630   5.9630   7.8227   7.8227   8.5278   8.5278
     8.7721   8.7721

     occupation numbers 
     1.0000   1.0000   1.0000   1.0000   1.0000   1.0000   1.0000   1.0000
     1.0000   1.0000   1.0000   1.0000   1.0000   1.0000   1.0000   1.0000
     1.0000   1.0000   1.0000   1.0000   1.0000   1.0000   1.0000   1.0000
     1.0000   1.0000

          k = 0.3333-0.5000-0.7434 ( 10676 PWs)   bands (ev):

   -11.3434 -11.3434 -10.7216 -10.7216 -10.3414 -10.3414 -10.2757 -10.2757
   -10.2271 -10.2271  -7.5605  -7.5605  -6.0029  -6.0029   1.7856   1.7856
     4.6425   4.6425   6.0741   6.0741   7.9490   7.9490   8.5648   8.5648
     8.6887   8.6887

     occupation numbers 
     1.0000   1.0000   1.0000   1.0000   1.0000   1.0000   1.0000   1.0000
     1.0000   1.0000   1.0000   1.0000   1.0000   1.0000   1.0000   1.0000
     1.0000   1.0000   1.0000   1.0000   1.0000   1.0000   1.0000   1.0000
     1.0000   1.0000

          k =-0.5000-0.5000 0.0000 ( 10756 PWs)   bands (ev):

   -11.2789 -11.2789 -10.4717 -10.4717 -10.4699 -10.4699 -10.2941 -10.2941
   -10.2230 -10.2230  -7.6435  -7.6435  -7.5131  -7.5131   4.0974   4.0974
     5.6886   5.6886   6.5952   6.5952   7.6035   7.6035   8.2841   8.2841
     8.6903   8.6903

     occupation numbers 
     1.0000   1.0000   1.0000   1.0000   1.0000   1.0000   1.0000   1.0000
     1.0000   1.0000   1.0000   1.0000   1.0000   1.0000   1.0000   1.0000
     1.0000   1.0000   1.0000   1.0000   1.0000   1.0000   1.0000   1.0000
     1.0000   1.0000

          k =-0.5000-0.5000 0.1858 ( 10708 PWs)   bands (ev):

   -11.2063 -11.2063 -10.6239 -10.6239 -10.4471 -10.4471 -10.2915 -10.2915
   -10.2457 -10.2457  -7.5024  -7.5024  -7.3883  -7.3883   3.6460   3.6460
     5.8271   5.8271   6.7464   6.7464   6.9500   6.9500   8.5582   8.5582
     8.7009   8.7009

     occupation numbers 
     1.0000   1.0000   1.0000   1.0000   1.0000   1.0000   1.0000   1.0000
     1.0000   1.0000   1.0000   1.0000   1.0000   1.0000   1.0000   1.0000
     1.0000   1.0000   1.0000   1.0000   1.0000   1.0000   1.0000   1.0000
     1.0000   1.0000

          k =-0.5000-0.5000 0.3717 ( 10700 PWs)   bands (ev):

   -11.0350 -11.0350 -10.9355 -10.9355 -10.3761 -10.3761 -10.2867 -10.2867
   -10.2851 -10.2851  -7.4736  -7.4736  -6.8307  -6.8307   2.7236   2.7236
     5.7563   5.7563   6.3470   6.3470   6.9869   6.9869   8.7265   8.7265
     8.7311   8.7311

     occupation numbers 
     1.0000   1.0000   1.0000   1.0000   1.0000   1.0000   1.0000   1.0000
     1.0000   1.0000   1.0000   1.0000   1.0000   1.0000   1.0000   1.0000
     1.0000   1.0000   1.0000   1.0000   1.0000   1.0000   1.0000   1.0000
     1.0000   1.0000

          k =-0.5000-0.5000 0.5575 ( 10712 PWs)   bands (ev):

   -11.1888 -11.1888 -10.8770 -10.8770 -10.3239 -10.3239 -10.2800 -10.2800
   -10.2787 -10.2787  -7.4393  -7.4393  -6.3094  -6.3094   1.9177   1.9177
     4.9184   4.9184   6.7805   6.7805   7.1547   7.1547   8.7088   8.7088
     8.7526   8.7526

     occupation numbers 
     1.0000   1.0000   1.0000   1.0000   1.0000   1.0000   1.0000   1.0000
     1.0000   1.0000   1.0000   1.0000   1.0000   1.0000   1.0000   1.0000
     1.0000   1.0000   1.0000   1.0000   1.0000   1.0000   1.0000   1.0000
     1.0000   1.0000

          k =-0.5000-0.5000-0.7434 ( 10688 PWs)   bands (ev):

   -11.2822 -11.2822 -10.8181 -10.8181 -10.3388 -10.3388 -10.2761 -10.2761
   -10.2299 -10.2299  -7.4231  -7.4231  -6.0962  -6.0962   1.6028   1.6028
     4.5767   4.5767   7.0227   7.0227   7.2145   7.2145   8.6451   8.6451
     8.7636   8.7636

     occupation numbers 
     1.0000   1.0000   1.0000   1.0000   1.0000   1.0000   1.0000   1.0000
     1.0000   1.0000   1.0000   1.0000   1.0000   1.0000   1.0000   1.0000
     1.0000   1.0000   1.0000   1.0000   1.0000   1.0000   1.0000   1.0000
     1.0000   1.0000

     highest occupied level (ev):     9.5931

!    total energy              =    -493.27734263 Ry
     estimated scf accuracy    <          5.4E-11 Ry

     The total energy is the sum of the following terms:
     one-electron contribution =    -127.68430013 Ry
     hartree contribution      =     105.75025463 Ry
     xc contribution           =    -125.66186852 Ry
     ewald contribution        =    -307.63056806 Ry
     one-center paw contrib.   =     -38.05086055 Ry
      -> PAW hartree energy AE =       0.00000000 Ry
      -> PAW hartree energy PS =       0.00000000 Ry
      -> PAW xc energy AE      =       0.00000000 Ry
      -> PAW xc energy PS      =       0.00000000 Ry
      -> total E_H with PAW    =     105.75025463 Ry
      -> total E_XC with PAW   =    -125.66186852 Ry

     convergence has been achieved in  17 iterations

     Forces acting on atoms (cartesian axes, Ry/au):

     atom    1 type  1   force =     0.00000000    0.00000000    0.00000000
     atom    2 type  1   force =     0.00000000    0.00000000    0.00000000
     atom    3 type  2   force =    -0.00103469   -0.00103469   -0.00000000
     atom    4 type  2   force =     0.00103469    0.00103469   -0.00000000
     atom    5 type  2   force =    -0.00103469    0.00103469   -0.00000000
     atom    6 type  2   force =     0.00103469   -0.00103469    0.00000000
     The non-local contrib.  to forces
     atom    1 type  1   force =     0.00000000    0.00000000    0.00000000
     atom    2 type  1   force =     0.00000000    0.00000000    0.00000000
     atom    3 type  2   force =     0.10200808    0.10200808    0.00000000
     atom    4 type  2   force =    -0.10200808   -0.10200808    0.00000000
     atom    5 type  2   force =     0.10200808   -0.10200808    0.00000000
     atom    6 type  2   force =    -0.10200808    0.10200808    0.00000000
     The ionic contribution  to forces
     atom    1 type  1   force =     0.00000000    0.00000000    0.00000000
     atom    2 type  1   force =     0.00000000    0.00000000    0.00000000
     atom    3 type  2   force =    -1.46479975   -1.46479975   -0.00000000
     atom    4 type  2   force =     1.46479975    1.46479975    0.00000000
     atom    5 type  2   force =    -1.46479975    1.46479975    0.00000000
     atom    6 type  2   force =     1.46479975   -1.46479975    0.00000000
     The local contribution  to forces
     atom    1 type  1   force =     0.00000000    0.00000000    0.00000000
     atom    2 type  1   force =     0.00000000    0.00000000    0.00000000
     atom    3 type  2   force =     1.36262585    1.36262585    0.00000000
     atom    4 type  2   force =    -1.36262585   -1.36262585    0.00000000
     atom    5 type  2   force =     1.36262585   -1.36262585    0.00000000
     atom    6 type  2   force =    -1.36262585    1.36262585    0.00000000
     The core correction contribution to forces
     atom    1 type  1   force =     0.00000000    0.00000000    0.00000000
     atom    2 type  1   force =     0.00000000    0.00000000    0.00000000
     atom    3 type  2   force =    -0.00086891   -0.00086891    0.00000000
     atom    4 type  2   force =     0.00086891    0.00086891    0.00000000
     atom    5 type  2   force =    -0.00086891    0.00086891    0.00000000
     atom    6 type  2   force =     0.00086891   -0.00086891    0.00000000
     The Hubbard contrib.    to forces
     atom    1 type  1   force =     0.00000000    0.00000000    0.00000000
     atom    2 type  1   force =     0.00000000    0.00000000    0.00000000
     atom    3 type  2   force =     0.00000000    0.00000000    0.00000000
     atom    4 type  2   force =     0.00000000    0.00000000    0.00000000
     atom    5 type  2   force =     0.00000000    0.00000000    0.00000000
     atom    6 type  2   force =     0.00000000    0.00000000    0.00000000
     The SCF correction term to forces
     atom    1 type  1   force =     0.00000000    0.00000000   -0.00000000
     atom    2 type  1   force =    -0.00000000   -0.00000000    0.00000000
     atom    3 type  2   force =     0.00000004    0.00000004   -0.00000000
     atom    4 type  2   force =    -0.00000004   -0.00000004   -0.00000000
     atom    5 type  2   force =     0.00000004   -0.00000004   -0.00000000
     atom    6 type  2   force =    -0.00000004    0.00000004   -0.00000000

     Total force =     0.002927     Total SCF correction =     0.000000

     Writing all to output data dir ./tmp_sno2__ecut120/sno2__ecut120.save/ :
     XML data file, charge density, pseudopotentials, collected wavefunctions

     init_run     :      1.08s CPU      1.13s WALL (       1 calls)
     electrons    :     23.63s CPU     24.23s WALL (       1 calls)
     forces       :      0.21s CPU      0.22s WALL (       1 calls)

     Called by init_run:
     wfcinit      :      0.41s CPU      0.43s WALL (       1 calls)
     wfcinit:atom :      0.01s CPU      0.01s WALL (      25 calls)
     wfcinit:wfcr :      0.35s CPU      0.37s WALL (      25 calls)
     potinit      :      0.23s CPU      0.24s WALL (       1 calls)
     hinit0       :      0.31s CPU      0.32s WALL (       1 calls)

     Called by electrons:
     c_bands      :     17.99s CPU     18.42s WALL (      17 calls)
     sum_band     :      3.74s CPU      3.84s WALL (      17 calls)
     v_of_rho     :      0.59s CPU      0.60s WALL (      18 calls)
     v_h          :      0.04s CPU      0.04s WALL (      18 calls)
     v_xc         :      0.58s CPU      0.59s WALL (      19 calls)
     newd         :      0.93s CPU      0.95s WALL (      18 calls)
     PAW_pot      :      0.31s CPU      0.32s WALL (      18 calls)
     mix_rho      :      0.05s CPU      0.05s WALL (      17 calls)

     Called by c_bands:
     init_us_2    :      0.38s CPU      0.39s WALL (     900 calls)
     cegterg      :     16.73s CPU     17.13s WALL (     425 calls)

     Called by sum_band:
     sum_band:wei :      0.00s CPU      0.00s WALL (      17 calls)
     sum_band:loo :      2.18s CPU      2.24s WALL (      17 calls)
     sum_band:buf :      0.05s CPU      0.05s WALL (     425 calls)
     sum_band:ini :      0.17s CPU      0.17s WALL (     425 calls)
     sum_band:cal :      0.23s CPU      0.24s WALL (     425 calls)
     sum_band:bec :      0.00s CPU      0.01s WALL (     425 calls)
     addusdens    :      1.45s CPU      1.48s WALL (      17 calls)
                                        0.00s GPU  (      17 calls)
     addusd:skk   :      0.00s CPU      0.01s WALL (      34 calls)
                                        0.00s GPU  (      34 calls)

     Called by *egterg:
     cdiaghg      :      1.22s CPU      1.24s WALL (    2001 calls)
     cegterg:over :      0.80s CPU      0.81s WALL (    1576 calls)
     cegterg:upda :      0.40s CPU      0.40s WALL (    1576 calls)
     cegterg:last :      0.88s CPU      0.89s WALL (    1097 calls)
     h_psi        :     12.44s CPU     12.79s WALL (    2026 calls)
     s_psi        :      0.62s CPU      0.63s WALL (    2026 calls)
     g_psi        :      0.16s CPU      0.16s WALL (    1576 calls)

     Called by h_psi:
     h_psi:calbec :      1.02s CPU      1.04s WALL (    2026 calls)
     vloc_psi     :     10.69s CPU     11.01s WALL (    2026 calls)
                                        0.00s GPU  (    2026 calls)
     add_vuspsi   :      0.65s CPU      0.66s WALL (    2026 calls)

     General routines
     calbec       :      1.30s CPU      1.33s WALL (    2551 calls)
     fft          :      0.53s CPU      0.54s WALL (     243 calls)
     ffts         :      0.18s CPU      0.18s WALL (      35 calls)
     fftw         :     11.12s CPU     11.43s WALL (   79732 calls)
     interpolate  :      0.20s CPU      0.20s WALL (      18 calls)

     Parallel routines

     PAW routines
     PAW_pot      :      0.31s CPU      0.32s WALL (      18 calls)
     PAW_symme    :      0.00s CPU      0.00s WALL (      35 calls)

     PWSCF        :     25.16s CPU     26.07s WALL


   This run was terminated on:  13:38:47  23Aug2026            

=------------------------------------------------------------------------------=
   JOB DONE.
=------------------------------------------------------------------------------=
