
     Program PWSCF v.7.5 starts on 21Aug2026 at 11:42:56 

     This program is part of the open-source Quantum ESPRESSO suite
     for quantum simulation of materials; please cite
         "P. Giannozzi et al., J. Phys.:Condens. Matter 21 395502 (2009);
         "P. Giannozzi et al., J. Phys.:Condens. Matter 29 465901 (2017);
         "P. Giannozzi et al., J. Chem. Phys. 152 154105 (2020);
          URL http://www.quantum-espresso.org", 
     in publications or presentations arising from this work. More details at
     http://www.quantum-espresso.org/quote

     Parallel version (MPI & OpenMP), running on      20 processor cores
     Number of MPI processes:                20
     Threads/MPI process:                     1

     MPI processes distributed on     1 nodes
     48054 MiB available memory on the printing compute node when the environment starts

     Reading input from tio2__ecut120.run.in

     Current dimensions of program PWSCF are:
     Max number of different atomic species (ntypx) = 10
     Max number of k-points (npk) =  40000
     Max angular momentum in pseudopotentials (lmaxx) =  4
     file O.pbe-n-kjpaw_psl.0.1.UPF: wavefunction(s)  2P renormalized

     K-points division:     npool     =       2
     R & G space division:  proc/nbgrp/npool/nimage =      10
     Subspace diagonalization in iterative solution of the eigenvalue problem:
     a serial algorithm will be used


     Parallelization info
     --------------------
     sticks:   dense  smooth     PW     G-vecs:    dense   smooth      PW
     Min         575     288     82                21169     7477    1140
     Max         577     290     83                21170     7478    1141
     Sum        5761    2885    829               211695    74779   11409

     Using Slab Decomposition



     bravais-lattice index     =            6
     lattice parameter (alat)  =       8.6808  a.u.
     unit-cell volume          =     421.3311 (a.u.)^3
     number of atoms/cell      =            6
     number of atomic types    =            2
     number of electrons       =        48.00
     number of Kohn-Sham states=           24
     kinetic-energy cutoff     =     120.0000  Ry
     charge density cutoff     =     960.0000  Ry
     scf convergence threshold =      1.0E-10
     mixing beta               =       0.3000
     number of iterations used =            8  plain     mixing
     Exchange-correlation= SLA  PW   PBX  PBC
                           (   1   4   3   4   0   0   0)

     celldm(1)=   8.680830  celldm(2)=   0.000000  celldm(3)=   0.644080
     celldm(4)=   0.000000  celldm(5)=   0.000000  celldm(6)=   0.000000

     crystal axes: (cart. coord. in units of alat)
               a(1) = (   1.000000   0.000000   0.000000 )  
               a(2) = (   0.000000   1.000000   0.000000 )  
               a(3) = (   0.000000   0.000000   0.644080 )  

     reciprocal axes: (cart. coord. in units 2 pi/alat)
               b(1) = (  1.000000  0.000000  0.000000 )  
               b(2) = (  0.000000  1.000000  0.000000 )  
               b(3) = (  0.000000  0.000000  1.552602 )  


     PseudoPot. # 1 for Ti read from file:
     /usr/share/espresso/pseudo/ti_pbe_v1.4.uspp.F.UPF
     MD5 check sum: 88a00a6731bd790ddea75d31a80cb452
     Pseudo is Ultrasoft + core correction, Zval = 12.0
     Generated by new atomic code, or converted to UPF format
     Using radial grid of  851 points,  6 beta functions with: 
                l(1) =   0
                l(2) =   0
                l(3) =   1
                l(4) =   1
                l(5) =   2
                l(6) =   2
     Q(r) pseudized with  6 coefficients,  rinner =    1.000   1.000   1.000
                                                       1.000   1.000

     PseudoPot. # 2 for O  read from file:
     /usr/share/espresso/pseudo/O.pbe-n-kjpaw_psl.0.1.UPF
     MD5 check sum: 0234752ac141de4415c5fc33072bef88
     Pseudo is Projector augmented-wave + core cor, Zval =  6.0
     Generated using "atomic" code by A. Dal Corso  v.5.0.99 svn rev. 10869
     Shape of augmentation charge: BESSEL
     Using radial grid of 1095 points,  4 beta functions with: 
                l(1) =   0
                l(2) =   0
                l(3) =   1
                l(4) =   1
     Q(r) pseudized with 0 coefficients 


     atomic species   valence    mass     pseudopotential
     Ti               12.00    47.86700     Ti( 1.00)
     O                 6.00    15.99900     O ( 1.00)

     16 Sym. Ops., with inversion, found ( 8 have fractional translation)


                                    s                        frac. trans.

      isym =  1     identity                                     

 cryst.   s( 1) = (     1          0          0      )
                  (     0          1          0      )
                  (     0          0          1      )

 cart.    s( 1) = (  1.0000000  0.0000000  0.0000000 )
                  (  0.0000000  1.0000000  0.0000000 )
                  (  0.0000000  0.0000000  1.0000000 )


      isym =  2     180 deg rotation - cart. axis [0,0,1]        

 cryst.   s( 2) = (    -1          0          0      )
                  (     0         -1          0      )
                  (     0          0          1      )

 cart.    s( 2) = ( -1.0000000  0.0000000  0.0000000 )
                  (  0.0000000 -1.0000000  0.0000000 )
                  (  0.0000000  0.0000000  1.0000000 )


      isym =  3     180 deg rotation - cart. axis [0,1,0]        

 cryst.   s( 3) = (    -1          0          0      )    f =(  0.5000000 )
                  (     0          1          0      )       ( -0.5000000 )
                  (     0          0         -1      )       (  0.5000000 )

 cart.    s( 3) = ( -1.0000000  0.0000000  0.0000000 )    f =(  0.5000000 )
                  (  0.0000000  1.0000000  0.0000000 )       ( -0.5000000 )
                  (  0.0000000  0.0000000 -1.0000000 )       (  0.3220400 )


      isym =  4     180 deg rotation - cart. axis [1,0,0]        

 cryst.   s( 4) = (     1          0          0      )    f =( -0.5000000 )
                  (     0         -1          0      )       (  0.5000000 )
                  (     0          0         -1      )       (  0.5000000 )

 cart.    s( 4) = (  1.0000000  0.0000000  0.0000000 )    f =( -0.5000000 )
                  (  0.0000000 -1.0000000  0.0000000 )       (  0.5000000 )
                  (  0.0000000  0.0000000 -1.0000000 )       (  0.3220400 )


      isym =  5     180 deg rotation - cart. axis [1,1,0]        

 cryst.   s( 5) = (     0          1          0      )
                  (     1          0          0      )
                  (     0          0         -1      )

 cart.    s( 5) = (  0.0000000  1.0000000  0.0000000 )
                  (  1.0000000  0.0000000  0.0000000 )
                  (  0.0000000  0.0000000 -1.0000000 )


      isym =  6     180 deg rotation - cart. axis [1,-1,0]       

 cryst.   s( 6) = (     0         -1          0      )
                  (    -1          0          0      )
                  (     0          0         -1      )

 cart.    s( 6) = (  0.0000000 -1.0000000  0.0000000 )
                  ( -1.0000000  0.0000000  0.0000000 )
                  (  0.0000000  0.0000000 -1.0000000 )


      isym =  7      90 deg rotation - cart. axis [0,0,-1]       

 cryst.   s( 7) = (     0         -1          0      )    f =( -0.5000000 )
                  (     1          0          0      )       (  0.5000000 )
                  (     0          0          1      )       ( -0.5000000 )

 cart.    s( 7) = (  0.0000000  1.0000000  0.0000000 )    f =( -0.5000000 )
                  ( -1.0000000  0.0000000  0.0000000 )       (  0.5000000 )
                  (  0.0000000  0.0000000  1.0000000 )       ( -0.3220400 )


      isym =  8      90 deg rotation - cart. axis [0,0,1]        

 cryst.   s( 8) = (     0          1          0      )    f =(  0.5000000 )
                  (    -1          0          0      )       ( -0.5000000 )
                  (     0          0          1      )       ( -0.5000000 )

 cart.    s( 8) = (  0.0000000 -1.0000000  0.0000000 )    f =(  0.5000000 )
                  (  1.0000000  0.0000000  0.0000000 )       ( -0.5000000 )
                  (  0.0000000  0.0000000  1.0000000 )       ( -0.3220400 )


      isym =  9     inversion                                    

 cryst.   s( 9) = (    -1          0          0      )
                  (     0         -1          0      )
                  (     0          0         -1      )

 cart.    s( 9) = ( -1.0000000  0.0000000  0.0000000 )
                  (  0.0000000 -1.0000000  0.0000000 )
                  (  0.0000000  0.0000000 -1.0000000 )


      isym = 10     inv. 180 deg rotation - cart. axis [0,0,1]   

 cryst.   s(10) = (     1          0          0      )
                  (     0          1          0      )
                  (     0          0         -1      )

 cart.    s(10) = (  1.0000000  0.0000000  0.0000000 )
                  (  0.0000000  1.0000000  0.0000000 )
                  (  0.0000000  0.0000000 -1.0000000 )


      isym = 11     inv. 180 deg rotation - cart. axis [0,1,0]   

 cryst.   s(11) = (     1          0          0      )    f =( -0.5000000 )
                  (     0         -1          0      )       (  0.5000000 )
                  (     0          0          1      )       ( -0.5000000 )

 cart.    s(11) = (  1.0000000  0.0000000  0.0000000 )    f =( -0.5000000 )
                  (  0.0000000 -1.0000000  0.0000000 )       (  0.5000000 )
                  (  0.0000000  0.0000000  1.0000000 )       ( -0.3220400 )


      isym = 12     inv. 180 deg rotation - cart. axis [1,0,0]   

 cryst.   s(12) = (    -1          0          0      )    f =(  0.5000000 )
                  (     0          1          0      )       ( -0.5000000 )
                  (     0          0          1      )       ( -0.5000000 )

 cart.    s(12) = ( -1.0000000  0.0000000  0.0000000 )    f =(  0.5000000 )
                  (  0.0000000  1.0000000  0.0000000 )       ( -0.5000000 )
                  (  0.0000000  0.0000000  1.0000000 )       ( -0.3220400 )


      isym = 13     inv. 180 deg rotation - cart. axis [1,1,0]   

 cryst.   s(13) = (     0         -1          0      )
                  (    -1          0          0      )
                  (     0          0          1      )

 cart.    s(13) = (  0.0000000 -1.0000000  0.0000000 )
                  ( -1.0000000  0.0000000  0.0000000 )
                  (  0.0000000  0.0000000  1.0000000 )


      isym = 14     inv. 180 deg rotation - cart. axis [1,-1,0]  

 cryst.   s(14) = (     0          1          0      )
                  (     1          0          0      )
                  (     0          0          1      )

 cart.    s(14) = (  0.0000000  1.0000000  0.0000000 )
                  (  1.0000000  0.0000000  0.0000000 )
                  (  0.0000000  0.0000000  1.0000000 )


      isym = 15     inv.  90 deg rotation - cart. axis [0,0,-1]  

 cryst.   s(15) = (     0          1          0      )    f =(  0.5000000 )
                  (    -1          0          0      )       ( -0.5000000 )
                  (     0          0         -1      )       (  0.5000000 )

 cart.    s(15) = (  0.0000000 -1.0000000  0.0000000 )    f =(  0.5000000 )
                  (  1.0000000  0.0000000  0.0000000 )       ( -0.5000000 )
                  (  0.0000000  0.0000000 -1.0000000 )       (  0.3220400 )


      isym = 16     inv.  90 deg rotation - cart. axis [0,0,1]   

 cryst.   s(16) = (     0         -1          0      )    f =( -0.5000000 )
                  (     1          0          0      )       (  0.5000000 )
                  (     0          0         -1      )       (  0.5000000 )

 cart.    s(16) = (  0.0000000  1.0000000  0.0000000 )    f =( -0.5000000 )
                  ( -1.0000000  0.0000000  0.0000000 )       (  0.5000000 )
                  (  0.0000000  0.0000000 -1.0000000 )       (  0.3220400 )


     point group D_4h(4/mmm)
     there are 10 classes
     the character table:

       E     2C4   C2    2C2'  2C2'' i     2S4   s_h   2s_v  2s_d 
A_1g   1.00  1.00  1.00  1.00  1.00  1.00  1.00  1.00  1.00  1.00
A_2g   1.00  1.00  1.00 -1.00 -1.00  1.00  1.00  1.00 -1.00 -1.00
B_1g   1.00 -1.00  1.00  1.00 -1.00  1.00 -1.00  1.00  1.00 -1.00
B_2g   1.00 -1.00  1.00 -1.00  1.00  1.00 -1.00  1.00 -1.00  1.00
E_g    2.00  0.00 -2.00  0.00  0.00  2.00  0.00 -2.00  0.00  0.00
A_1u   1.00  1.00  1.00  1.00  1.00 -1.00 -1.00 -1.00 -1.00 -1.00
A_2u   1.00  1.00  1.00 -1.00 -1.00 -1.00 -1.00 -1.00  1.00  1.00
B_1u   1.00 -1.00  1.00  1.00 -1.00 -1.00  1.00 -1.00 -1.00  1.00
B_2u   1.00 -1.00  1.00 -1.00  1.00 -1.00  1.00 -1.00  1.00 -1.00
E_u    2.00  0.00 -2.00  0.00  0.00 -2.00  0.00  2.00  0.00  0.00

     the symmetry operations in each class and the name of the first element:

     E        1
          identity                                               
     2C4      7    8
           90 deg rotation - cart. axis [0,0,-1]                 
     C2       2
          180 deg rotation - cart. axis [0,0,1]                  
     2C2'     3    4
          180 deg rotation - cart. axis [0,1,0]                  
     2C2''    5    6
          180 deg rotation - cart. axis [1,1,0]                  
     i        9
          inversion                                              
     2S4     15   16
          inv.  90 deg rotation - cart. axis [0,0,-1]            
     s_h     10
          inv. 180 deg rotation - cart. axis [0,0,1]             
     2s_v    11   12
          inv. 180 deg rotation - cart. axis [0,1,0]             
     2s_d    13   14
          inv. 180 deg rotation - cart. axis [1,1,0]             

   Cartesian axes

     site n.     atom                  positions (alat units)
         1        Ti     tau(   1) = (   0.0000000   0.0000000   0.0000000  )
         2        Ti     tau(   2) = (   0.5000000   0.5000000   0.3220400  )
         3        O      tau(   3) = (   0.3047800   0.3047800   0.0000000  )
         4        O      tau(   4) = (   0.6952200   0.6952200   0.0000000  )
         5        O      tau(   5) = (   0.8047800   0.1952200   0.3220400  )
         6        O      tau(   6) = (   0.1952200   0.8047800   0.3220400  )

   Crystallographic axes

     site n.     atom                  positions (cryst. coord.)
         1        Ti     tau(   1) = (  0.0000000  0.0000000  0.0000000  )
         2        Ti     tau(   2) = (  0.5000000  0.5000000  0.5000000  )
         3        O      tau(   3) = (  0.3047800  0.3047800  0.0000000  )
         4        O      tau(   4) = (  0.6952200  0.6952200  0.0000000  )
         5        O      tau(   5) = (  0.8047800  0.1952200  0.5000000  )
         6        O      tau(   6) = (  0.1952200  0.8047800  0.5000000  )

     number of k points=    50
                       cart. coord. in units 2pi/alat
        k(    1) = (   0.0000000   0.0000000   0.0000000), wk =   0.0069444
        k(    2) = (   0.0000000   0.0000000   0.1940753), wk =   0.0138889
        k(    3) = (   0.0000000   0.0000000   0.3881505), wk =   0.0138889
        k(    4) = (   0.0000000   0.0000000   0.5822258), wk =   0.0138889
        k(    5) = (   0.0000000   0.0000000  -0.7763011), wk =   0.0069444
        k(    6) = (   0.0000000   0.1666667   0.0000000), wk =   0.0277778
        k(    7) = (   0.0000000   0.1666667   0.1940753), wk =   0.0555556
        k(    8) = (   0.0000000   0.1666667   0.3881505), wk =   0.0555556
        k(    9) = (   0.0000000   0.1666667   0.5822258), wk =   0.0555556
        k(   10) = (   0.0000000   0.1666667  -0.7763011), wk =   0.0277778
        k(   11) = (   0.0000000   0.3333333   0.0000000), wk =   0.0277778
        k(   12) = (   0.0000000   0.3333333   0.1940753), wk =   0.0555556
        k(   13) = (   0.0000000   0.3333333   0.3881505), wk =   0.0555556
        k(   14) = (   0.0000000   0.3333333   0.5822258), wk =   0.0555556
        k(   15) = (   0.0000000   0.3333333  -0.7763011), wk =   0.0277778
        k(   16) = (   0.0000000  -0.5000000   0.0000000), wk =   0.0138889
        k(   17) = (   0.0000000  -0.5000000   0.1940753), wk =   0.0277778
        k(   18) = (   0.0000000  -0.5000000   0.3881505), wk =   0.0277778
        k(   19) = (   0.0000000  -0.5000000   0.5822258), wk =   0.0277778
        k(   20) = (   0.0000000  -0.5000000  -0.7763011), wk =   0.0138889
        k(   21) = (   0.1666667   0.1666667   0.0000000), wk =   0.0277778
        k(   22) = (   0.1666667   0.1666667   0.1940753), wk =   0.0555556
        k(   23) = (   0.1666667   0.1666667   0.3881505), wk =   0.0555556
        k(   24) = (   0.1666667   0.1666667   0.5822258), wk =   0.0555556
        k(   25) = (   0.1666667   0.1666667  -0.7763011), wk =   0.0277778
        k(   26) = (   0.1666667   0.3333333   0.0000000), wk =   0.0555556
        k(   27) = (   0.1666667   0.3333333   0.1940753), wk =   0.1111111
        k(   28) = (   0.1666667   0.3333333   0.3881505), wk =   0.1111111
        k(   29) = (   0.1666667   0.3333333   0.5822258), wk =   0.1111111
        k(   30) = (   0.1666667   0.3333333  -0.7763011), wk =   0.0555556
        k(   31) = (   0.1666667  -0.5000000   0.0000000), wk =   0.0277778
        k(   32) = (   0.1666667  -0.5000000   0.1940753), wk =   0.0555556
        k(   33) = (   0.1666667  -0.5000000   0.3881505), wk =   0.0555556
        k(   34) = (   0.1666667  -0.5000000   0.5822258), wk =   0.0555556
        k(   35) = (   0.1666667  -0.5000000  -0.7763011), wk =   0.0277778
        k(   36) = (   0.3333333   0.3333333   0.0000000), wk =   0.0277778
        k(   37) = (   0.3333333   0.3333333   0.1940753), wk =   0.0555556
        k(   38) = (   0.3333333   0.3333333   0.3881505), wk =   0.0555556
        k(   39) = (   0.3333333   0.3333333   0.5822258), wk =   0.0555556
        k(   40) = (   0.3333333   0.3333333  -0.7763011), wk =   0.0277778
        k(   41) = (   0.3333333  -0.5000000   0.0000000), wk =   0.0277778
        k(   42) = (   0.3333333  -0.5000000   0.1940753), wk =   0.0555556
        k(   43) = (   0.3333333  -0.5000000   0.3881505), wk =   0.0555556
        k(   44) = (   0.3333333  -0.5000000   0.5822258), wk =   0.0555556
        k(   45) = (   0.3333333  -0.5000000  -0.7763011), wk =   0.0277778
        k(   46) = (  -0.5000000  -0.5000000   0.0000000), wk =   0.0069444
        k(   47) = (  -0.5000000  -0.5000000   0.1940753), wk =   0.0138889
        k(   48) = (  -0.5000000  -0.5000000   0.3881505), wk =   0.0138889
        k(   49) = (  -0.5000000  -0.5000000   0.5822258), wk =   0.0138889
        k(   50) = (  -0.5000000  -0.5000000  -0.7763011), wk =   0.0069444

                       cryst. coord.
        k(    1) = (   0.0000000   0.0000000   0.0000000), wk =   0.0069444
        k(    2) = (   0.0000000   0.0000000   0.1250000), wk =   0.0138889
        k(    3) = (   0.0000000   0.0000000   0.2500000), wk =   0.0138889
        k(    4) = (   0.0000000   0.0000000   0.3750000), wk =   0.0138889
        k(    5) = (   0.0000000   0.0000000  -0.5000000), wk =   0.0069444
        k(    6) = (   0.0000000   0.1666667   0.0000000), wk =   0.0277778
        k(    7) = (   0.0000000   0.1666667   0.1250000), wk =   0.0555556
        k(    8) = (   0.0000000   0.1666667   0.2500000), wk =   0.0555556
        k(    9) = (   0.0000000   0.1666667   0.3750000), wk =   0.0555556
        k(   10) = (   0.0000000   0.1666667  -0.5000000), wk =   0.0277778
        k(   11) = (   0.0000000   0.3333333   0.0000000), wk =   0.0277778
        k(   12) = (   0.0000000   0.3333333   0.1250000), wk =   0.0555556
        k(   13) = (   0.0000000   0.3333333   0.2500000), wk =   0.0555556
        k(   14) = (   0.0000000   0.3333333   0.3750000), wk =   0.0555556
        k(   15) = (   0.0000000   0.3333333  -0.5000000), wk =   0.0277778
        k(   16) = (   0.0000000  -0.5000000   0.0000000), wk =   0.0138889
        k(   17) = (   0.0000000  -0.5000000   0.1250000), wk =   0.0277778
        k(   18) = (   0.0000000  -0.5000000   0.2500000), wk =   0.0277778
        k(   19) = (   0.0000000  -0.5000000   0.3750000), wk =   0.0277778
        k(   20) = (   0.0000000  -0.5000000  -0.5000000), wk =   0.0138889
        k(   21) = (   0.1666667   0.1666667   0.0000000), wk =   0.0277778
        k(   22) = (   0.1666667   0.1666667   0.1250000), wk =   0.0555556
        k(   23) = (   0.1666667   0.1666667   0.2500000), wk =   0.0555556
        k(   24) = (   0.1666667   0.1666667   0.3750000), wk =   0.0555556
        k(   25) = (   0.1666667   0.1666667  -0.5000000), wk =   0.0277778
        k(   26) = (   0.1666667   0.3333333   0.0000000), wk =   0.0555556
        k(   27) = (   0.1666667   0.3333333   0.1250000), wk =   0.1111111
        k(   28) = (   0.1666667   0.3333333   0.2500000), wk =   0.1111111
        k(   29) = (   0.1666667   0.3333333   0.3750000), wk =   0.1111111
        k(   30) = (   0.1666667   0.3333333  -0.5000000), wk =   0.0555556
        k(   31) = (   0.1666667  -0.5000000   0.0000000), wk =   0.0277778
        k(   32) = (   0.1666667  -0.5000000   0.1250000), wk =   0.0555556
        k(   33) = (   0.1666667  -0.5000000   0.2500000), wk =   0.0555556
        k(   34) = (   0.1666667  -0.5000000   0.3750000), wk =   0.0555556
        k(   35) = (   0.1666667  -0.5000000  -0.5000000), wk =   0.0277778
        k(   36) = (   0.3333333   0.3333333   0.0000000), wk =   0.0277778
        k(   37) = (   0.3333333   0.3333333   0.1250000), wk =   0.0555556
        k(   38) = (   0.3333333   0.3333333   0.2500000), wk =   0.0555556
        k(   39) = (   0.3333333   0.3333333   0.3750000), wk =   0.0555556
        k(   40) = (   0.3333333   0.3333333  -0.5000000), wk =   0.0277778
        k(   41) = (   0.3333333  -0.5000000   0.0000000), wk =   0.0277778
        k(   42) = (   0.3333333  -0.5000000   0.1250000), wk =   0.0555556
        k(   43) = (   0.3333333  -0.5000000   0.2500000), wk =   0.0555556
        k(   44) = (   0.3333333  -0.5000000   0.3750000), wk =   0.0555556
        k(   45) = (   0.3333333  -0.5000000  -0.5000000), wk =   0.0277778
        k(   46) = (  -0.5000000  -0.5000000   0.0000000), wk =   0.0069444
        k(   47) = (  -0.5000000  -0.5000000   0.1250000), wk =   0.0138889
        k(   48) = (  -0.5000000  -0.5000000   0.2500000), wk =   0.0138889
        k(   49) = (  -0.5000000  -0.5000000   0.3750000), wk =   0.0138889
        k(   50) = (  -0.5000000  -0.5000000  -0.5000000), wk =   0.0069444

     Dense  grid:   211695 G-vectors     FFT dimensions: (  90,  90,  60)

     Smooth grid:    74779 G-vectors     FFT dimensions: (  64,  64,  40)

     Dynamical RAM for                 wfc:       0.34 MB

     Dynamical RAM for     wfc (w. buffer):       8.90 MB

     Dynamical RAM for           str. fact:       0.65 MB

     Dynamical RAM for           local pot:       0.00 MB

     Dynamical RAM for          nlocal pot:       0.97 MB

     Dynamical RAM for                qrad:       4.97 MB

     Dynamical RAM for          rho,v,vnew:       2.08 MB

     Dynamical RAM for               rhoin:       0.69 MB

     Dynamical RAM for            rho*nmix:       5.17 MB

     Dynamical RAM for           G-vectors:       1.27 MB

     Dynamical RAM for          h,s,v(r/c):       0.11 MB

     Dynamical RAM for          <psi|beta>:       0.02 MB

     Dynamical RAM for                 psi:       0.68 MB

     Dynamical RAM for                hpsi:       0.68 MB

     Dynamical RAM for                spsi:       0.68 MB

     Dynamical RAM for      wfcinit/wfcrot:       0.70 MB

     Dynamical RAM for           addusdens:      30.85 MB

     Dynamical RAM for          addusforce:      31.83 MB

     Estimated static dynamical RAM per process >      22.36 MB

     Estimated max dynamical RAM per process >      59.36 MB

     Estimated total dynamical RAM >       1.11 GB

     Check: negative core charge=   -0.000002

     Initial potential from superposition of free atoms

     starting charge      45.9999, renormalised to      48.0000

     negative rho (up, down):  3.008E-03 0.000E+00
     Starting wfcs are   36 randomized atomic wfcs
     Checking if some PAW data can be deallocated... 
       PAW data deallocated on    8 nodes for type:  2

     total cpu time spent up to now is        2.3 secs

     per-process dynamical memory:    39.7 Mb

     Self-consistent Calculation

     iteration #  1     ecut=   120.00 Ry     beta= 0.30
     Davidson diagonalization with overlap

---- Real-time Memory Report at c_bands before calling an iterative solver
           107 MiB given to the printing process from OS
            38 MiB allocation reported by mallinfo(arena+hblkhd)
         46898 MiB available memory on the node where the printing process lives
------------------
     ethr =  1.00E-02,  avg # of iterations =  2.0

     negative rho (up, down):  3.639E-03 0.000E+00

     total cpu time spent up to now is        4.8 secs

     total energy              =    -405.60397941 Ry
     estimated scf accuracy    <       1.35516305 Ry

     iteration #  2     ecut=   120.00 Ry     beta= 0.30
     Davidson diagonalization with overlap

---- Real-time Memory Report at c_bands before calling an iterative solver
           118 MiB given to the printing process from OS
            68 MiB allocation reported by mallinfo(arena+hblkhd)
         46571 MiB available memory on the node where the printing process lives
------------------
     ethr =  2.82E-03,  avg # of iterations =  4.0

     negative rho (up, down):  3.466E-03 0.000E+00

     total cpu time spent up to now is        7.8 secs

     total energy              =    -405.91040341 Ry
     estimated scf accuracy    <       0.06737172 Ry

     iteration #  3     ecut=   120.00 Ry     beta= 0.30
     Davidson diagonalization with overlap

---- Real-time Memory Report at c_bands before calling an iterative solver
           120 MiB given to the printing process from OS
            70 MiB allocation reported by mallinfo(arena+hblkhd)
         45776 MiB available memory on the node where the printing process lives
------------------
     ethr =  1.40E-04,  avg # of iterations =  4.5

     negative rho (up, down):  2.923E-03 0.000E+00

     total cpu time spent up to now is       10.7 secs

     total energy              =    -405.89613772 Ry
     estimated scf accuracy    <       0.08306279 Ry

     iteration #  4     ecut=   120.00 Ry     beta= 0.30
     Davidson diagonalization with overlap

---- Real-time Memory Report at c_bands before calling an iterative solver
           120 MiB given to the printing process from OS
            70 MiB allocation reported by mallinfo(arena+hblkhd)
         44403 MiB available memory on the node where the printing process lives
------------------
     ethr =  1.40E-04,  avg # of iterations =  5.0

     negative rho (up, down):  2.981E-03 0.000E+00

     total cpu time spent up to now is       14.5 secs

     total energy              =    -405.90741240 Ry
     estimated scf accuracy    <       0.17403382 Ry

     iteration #  5     ecut=   120.00 Ry     beta= 0.30
     Davidson diagonalization with overlap

---- Real-time Memory Report at c_bands before calling an iterative solver
           120 MiB given to the printing process from OS
            71 MiB allocation reported by mallinfo(arena+hblkhd)
         44067 MiB available memory on the node where the printing process lives
------------------
     ethr =  1.40E-04,  avg # of iterations =  4.0

     negative rho (up, down):  2.997E-03 0.000E+00

     total cpu time spent up to now is       18.0 secs

     total energy              =    -405.93082847 Ry
     estimated scf accuracy    <       0.00217563 Ry

     iteration #  6     ecut=   120.00 Ry     beta= 0.30
     Davidson diagonalization with overlap

---- Real-time Memory Report at c_bands before calling an iterative solver
           120 MiB given to the printing process from OS
            71 MiB allocation reported by mallinfo(arena+hblkhd)
         44617 MiB available memory on the node where the printing process lives
------------------
     ethr =  4.53E-06,  avg # of iterations =  4.9

     negative rho (up, down):  2.888E-03 0.000E+00

     total cpu time spent up to now is       21.6 secs

     total energy              =    -405.93155321 Ry
     estimated scf accuracy    <       0.00178963 Ry

     iteration #  7     ecut=   120.00 Ry     beta= 0.30
     Davidson diagonalization with overlap

---- Real-time Memory Report at c_bands before calling an iterative solver
           120 MiB given to the printing process from OS
            71 MiB allocation reported by mallinfo(arena+hblkhd)
         46098 MiB available memory on the node where the printing process lives
------------------
     ethr =  3.73E-06,  avg # of iterations =  4.0

     negative rho (up, down):  2.871E-03 0.000E+00

     total cpu time spent up to now is       24.7 secs

     total energy              =    -405.93195519 Ry
     estimated scf accuracy    <       0.00001243 Ry

     iteration #  8     ecut=   120.00 Ry     beta= 0.30
     Davidson diagonalization with overlap

---- Real-time Memory Report at c_bands before calling an iterative solver
           120 MiB given to the printing process from OS
            71 MiB allocation reported by mallinfo(arena+hblkhd)
         45922 MiB available memory on the node where the printing process lives
------------------
     ethr =  2.59E-08,  avg # of iterations =  7.6

     negative rho (up, down):  2.893E-03 0.000E+00

     total cpu time spent up to now is       30.5 secs

     total energy              =    -405.93171999 Ry
     estimated scf accuracy    <       0.00215992 Ry

     iteration #  9     ecut=   120.00 Ry     beta= 0.30
     Davidson diagonalization with overlap

---- Real-time Memory Report at c_bands before calling an iterative solver
           120 MiB given to the printing process from OS
            72 MiB allocation reported by mallinfo(arena+hblkhd)
         45837 MiB available memory on the node where the printing process lives
------------------
     ethr =  2.59E-08,  avg # of iterations =  7.1

     negative rho (up, down):  2.896E-03 0.000E+00

     total cpu time spent up to now is       35.7 secs

     total energy              =    -405.93193247 Ry
     estimated scf accuracy    <       0.00005009 Ry

     iteration # 10     ecut=   120.00 Ry     beta= 0.30
     Davidson diagonalization with overlap

---- Real-time Memory Report at c_bands before calling an iterative solver
           120 MiB given to the printing process from OS
            72 MiB allocation reported by mallinfo(arena+hblkhd)
         45986 MiB available memory on the node where the printing process lives
------------------
     ethr =  2.59E-08,  avg # of iterations =  4.6

     negative rho (up, down):  2.897E-03 0.000E+00

     total cpu time spent up to now is       39.2 secs

     total energy              =    -405.93193690 Ry
     estimated scf accuracy    <       0.00000417 Ry

     iteration # 11     ecut=   120.00 Ry     beta= 0.30
     Davidson diagonalization with overlap

---- Real-time Memory Report at c_bands before calling an iterative solver
           120 MiB given to the printing process from OS
            72 MiB allocation reported by mallinfo(arena+hblkhd)
         45791 MiB available memory on the node where the printing process lives
------------------
     ethr =  8.69E-09,  avg # of iterations =  3.1

     negative rho (up, down):  2.898E-03 0.000E+00

     total cpu time spent up to now is       41.7 secs

     total energy              =    -405.93193726 Ry
     estimated scf accuracy    <       0.00000113 Ry

     iteration # 12     ecut=   120.00 Ry     beta= 0.30
     Davidson diagonalization with overlap

---- Real-time Memory Report at c_bands before calling an iterative solver
           120 MiB given to the printing process from OS
            72 MiB allocation reported by mallinfo(arena+hblkhd)
         45724 MiB available memory on the node where the printing process lives
------------------
     ethr =  2.36E-09,  avg # of iterations =  3.9

     negative rho (up, down):  2.898E-03 0.000E+00

     total cpu time spent up to now is       44.6 secs

     total energy              =    -405.93193752 Ry
     estimated scf accuracy    <       0.00000007 Ry

     iteration # 13     ecut=   120.00 Ry     beta= 0.30
     Davidson diagonalization with overlap

---- Real-time Memory Report at c_bands before calling an iterative solver
           120 MiB given to the printing process from OS
            72 MiB allocation reported by mallinfo(arena+hblkhd)
         44737 MiB available memory on the node where the printing process lives
------------------
     ethr =  1.41E-10,  avg # of iterations =  4.3

     negative rho (up, down):  2.898E-03 0.000E+00

     total cpu time spent up to now is       47.7 secs

     total energy              =    -405.93193756 Ry
     estimated scf accuracy    <       0.00000001 Ry

     iteration # 14     ecut=   120.00 Ry     beta= 0.30
     Davidson diagonalization with overlap

---- Real-time Memory Report at c_bands before calling an iterative solver
           120 MiB given to the printing process from OS
            72 MiB allocation reported by mallinfo(arena+hblkhd)
         44703 MiB available memory on the node where the printing process lives
------------------
     ethr =  2.36E-11,  avg # of iterations =  5.0

     negative rho (up, down):  2.898E-03 0.000E+00

     total cpu time spent up to now is       51.6 secs

     total energy              =    -405.93193756 Ry
     estimated scf accuracy    <       0.00000006 Ry

     iteration # 15     ecut=   120.00 Ry     beta= 0.30
     Davidson diagonalization with overlap

---- Real-time Memory Report at c_bands before calling an iterative solver
           120 MiB given to the printing process from OS
            72 MiB allocation reported by mallinfo(arena+hblkhd)
         44725 MiB available memory on the node where the printing process lives
------------------
     ethr =  2.36E-11,  avg # of iterations =  4.7

     negative rho (up, down):  2.898E-03 0.000E+00

     total cpu time spent up to now is       54.9 secs

     total energy              =    -405.93193756 Ry
     estimated scf accuracy    <          6.6E-09 Ry

     iteration # 16     ecut=   120.00 Ry     beta= 0.30
     Davidson diagonalization with overlap

---- Real-time Memory Report at c_bands before calling an iterative solver
           120 MiB given to the printing process from OS
            72 MiB allocation reported by mallinfo(arena+hblkhd)
         45619 MiB available memory on the node where the printing process lives
------------------
     ethr =  1.38E-11,  avg # of iterations =  4.1

     negative rho (up, down):  2.898E-03 0.000E+00

     total cpu time spent up to now is       58.0 secs

     End of self-consistent calculation

          k = 0.0000 0.0000 0.0000 (  9311 PWs)   bands (ev):

   -47.7282 -47.7111 -24.0523 -24.0523 -23.8861 -23.8861 -23.8445 -23.8105
    -9.0589  -7.8882  -7.1476  -7.1476   3.3823   3.8003   4.2361   5.3223
     5.3223   6.5996   6.5996   7.1639   8.4418   8.7005   8.7005   9.1495

     occupation numbers 
     1.0000   1.0000   1.0000   1.0000   1.0000   1.0000   1.0000   1.0000
     1.0000   1.0000   1.0000   1.0000   1.0000   1.0000   1.0000   1.0000
     1.0000   1.0000   1.0000   1.0000   1.0000   1.0000   1.0000   1.0000

          k = 0.0000 0.0000 0.1941 (  9355 PWs)   bands (ev):

   -47.7217 -47.7058 -24.0350 -24.0350 -23.9109 -23.8832 -23.8832 -23.8805
    -8.8967  -7.7967  -7.2239  -7.2239   3.6073   3.9698   4.4151   5.1599
     5.1599   6.7081   6.9058   6.9058   7.8216   8.3923   8.3923   9.0698

     occupation numbers 
     1.0000   1.0000   1.0000   1.0000   1.0000   1.0000   1.0000   1.0000
     1.0000   1.0000   1.0000   1.0000   1.0000   1.0000   1.0000   1.0000
     1.0000   1.0000   1.0000   1.0000   1.0000   1.0000   1.0000   1.0000

          k = 0.0000 0.0000 0.3882 (  9347 PWs)   bands (ev):

   -47.7056 -47.6934 -24.0679 -24.0463 -23.9911 -23.9911 -23.8780 -23.8780
    -8.4774  -7.5982  -7.4073  -7.4073   4.1808   4.3793   4.9382   5.0482
     5.0482   5.8229   6.6966   7.3719   7.3719   7.6684   7.6684   8.6808

     occupation numbers 
     1.0000   1.0000   1.0000   1.0000   1.0000   1.0000   1.0000   1.0000
     1.0000   1.0000   1.0000   1.0000   1.0000   1.0000   1.0000   1.0000
     1.0000   1.0000   1.0000   1.0000   1.0000   1.0000   1.0000   1.0000

          k = 0.0000 0.0000 0.5822 (  9332 PWs)   bands (ev):

   -47.6885 -47.6819 -24.2196 -24.2087 -23.9401 -23.9401 -23.8794 -23.8794
    -7.9730  -7.5893  -7.5893  -7.4740   4.6723   4.7017   5.2142   5.2142
     5.3070   5.7591   5.8449   6.8594   6.8594   7.6482   7.6482   7.8477

     occupation numbers 
     1.0000   1.0000   1.0000   1.0000   1.0000   1.0000   1.0000   1.0000
     1.0000   1.0000   1.0000   1.0000   1.0000   1.0000   1.0000   1.0000
     1.0000   1.0000   1.0000   1.0000   1.0000   1.0000   1.0000   1.0000

          k = 0.0000 0.0000-0.7763 (  9348 PWs)   bands (ev):

   -47.6792 -47.6792 -24.2780 -24.2780 -23.9077 -23.9077 -23.8911 -23.8911
    -7.6641  -7.6641  -7.5913  -7.5913   4.6655   4.6655   5.4409   5.4409
     5.5332   5.5332   6.3998   6.3998   6.7849   6.7849   7.7257   7.7257

     occupation numbers 
     1.0000   1.0000   1.0000   1.0000   1.0000   1.0000   1.0000   1.0000
     1.0000   1.0000   1.0000   1.0000   1.0000   1.0000   1.0000   1.0000
     1.0000   1.0000   1.0000   1.0000   1.0000   1.0000   1.0000   1.0000

          k = 0.0000 0.1667 0.0000 (  9356 PWs)   bands (ev):

   -47.7271 -47.7122 -24.0434 -24.0426 -23.8969 -23.8960 -23.8422 -23.8127
    -8.9612  -7.8936  -7.2433  -7.1850   3.5616   3.9117   4.4160   5.3332
     5.3411   6.4297   6.5547   7.1784   8.2104   8.2652   8.4785   9.0494

     occupation numbers 
     1.0000   1.0000   1.0000   1.0000   1.0000   1.0000   1.0000   1.0000
     1.0000   1.0000   1.0000   1.0000   1.0000   1.0000   1.0000   1.0000
     1.0000   1.0000   1.0000   1.0000   1.0000   1.0000   1.0000   1.0000

          k = 0.0000 0.1667 0.1941 (  9342 PWs)   bands (ev):

   -47.7206 -47.7069 -24.0277 -24.0259 -23.9111 -23.9024 -23.8891 -23.8733
    -8.8052  -7.7954  -7.3173  -7.2569   3.7706   4.0858   4.5379   5.1488
     5.2591   6.5589   6.7072   6.9789   7.5475   8.2260   8.2579   8.9549

     occupation numbers 
     1.0000   1.0000   1.0000   1.0000   1.0000   1.0000   1.0000   1.0000
     1.0000   1.0000   1.0000   1.0000   1.0000   1.0000   1.0000   1.0000
     1.0000   1.0000   1.0000   1.0000   1.0000   1.0000   1.0000   1.0000

          k = 0.0000 0.1667 0.3882 (  9345 PWs)   bands (ev):

   -47.7047 -47.6942 -24.0722 -24.0519 -23.9827 -23.9795 -23.8844 -23.8826
    -8.4096  -7.5891  -7.4831  -7.4235   4.2729   4.5044   4.7852   5.0111
     5.4316   5.7891   6.3298   7.2508   7.2832   7.6944   7.7459   8.6718

     occupation numbers 
     1.0000   1.0000   1.0000   1.0000   1.0000   1.0000   1.0000   1.0000
     1.0000   1.0000   1.0000   1.0000   1.0000   1.0000   1.0000   1.0000
     1.0000   1.0000   1.0000   1.0000   1.0000   1.0000   1.0000   1.0000

          k = 0.0000 0.1667 0.5822 (  9357 PWs)   bands (ev):

   -47.6880 -47.6823 -24.2221 -24.2124 -23.9352 -23.9337 -23.8829 -23.8815
    -7.9820  -7.6959  -7.5451  -7.3979   4.6851   4.7384   4.7661   5.1327
     5.6353   5.6512   6.1449   6.8262   6.9925   7.5299   7.6086   8.0173

     occupation numbers 
     1.0000   1.0000   1.0000   1.0000   1.0000   1.0000   1.0000   1.0000
     1.0000   1.0000   1.0000   1.0000   1.0000   1.0000   1.0000   1.0000
     1.0000   1.0000   1.0000   1.0000   1.0000   1.0000   1.0000   1.0000

          k = 0.0000 0.1667-0.7763 (  9370 PWs)   bands (ev):

   -47.6792 -47.6792 -24.2808 -24.2808 -23.9051 -23.9051 -23.8910 -23.8910
    -7.8075  -7.8075  -7.4413  -7.4413   4.5526   4.5526   5.1031   5.1031
     5.8546   5.8546   6.4495   6.4495   7.0883   7.0883   7.6174   7.6174

     occupation numbers 
     1.0000   1.0000   1.0000   1.0000   1.0000   1.0000   1.0000   1.0000
     1.0000   1.0000   1.0000   1.0000   1.0000   1.0000   1.0000   1.0000
     1.0000   1.0000   1.0000   1.0000   1.0000   1.0000   1.0000   1.0000

          k = 0.0000 0.3333 0.0000 (  9336 PWs)   bands (ev):

   -47.7239 -47.7153 -24.0199 -24.0177 -23.9239 -23.9216 -23.8359 -23.8189
    -8.6902  -7.9978  -7.3950  -7.2801   3.9497   4.1579   4.9980   5.3597
     5.3741   6.1012   6.3353   7.1537   7.2678   7.8792   8.2584   8.7480

     occupation numbers 
     1.0000   1.0000   1.0000   1.0000   1.0000   1.0000   1.0000   1.0000
     1.0000   1.0000   1.0000   1.0000   1.0000   1.0000   1.0000   1.0000
     1.0000   1.0000   1.0000   1.0000   1.0000   1.0000   1.0000   1.0000

          k = 0.0000 0.3333 0.1941 (  9355 PWs)   bands (ev):

   -47.7177 -47.7097 -24.0074 -24.0022 -23.9317 -23.9257 -23.8910 -23.8750
    -8.5509  -7.8845  -7.4636  -7.3416   4.1402   4.3494   4.8703   5.1218
     5.5187   6.3101   6.4500   6.8380   6.9229   7.6798   8.2521   8.7278

     occupation numbers 
     1.0000   1.0000   1.0000   1.0000   1.0000   1.0000   1.0000   1.0000
     1.0000   1.0000   1.0000   1.0000   1.0000   1.0000   1.0000   1.0000
     1.0000   1.0000   1.0000   1.0000   1.0000   1.0000   1.0000   1.0000

          k = 0.0000 0.3333 0.3882 (  9343 PWs)   bands (ev):

   -47.7025 -47.6964 -24.0767 -24.0636 -23.9630 -23.9558 -23.9007 -23.8957
    -8.2220  -7.6889  -7.5594  -7.4651   4.5226   4.7897   4.8221   4.9238
     5.7255   5.7411   6.0042   6.8542   6.9583   7.6506   7.9927   8.5323

     occupation numbers 
     1.0000   1.0000   1.0000   1.0000   1.0000   1.0000   1.0000   1.0000
     1.0000   1.0000   1.0000   1.0000   1.0000   1.0000   1.0000   1.0000
     1.0000   1.0000   1.0000   1.0000   1.0000   1.0000   1.0000   1.0000

          k = 0.0000 0.3333 0.5822 (  9367 PWs)   bands (ev):

   -47.6868 -47.6835 -24.2261 -24.2204 -23.9226 -23.9183 -23.8925 -23.8885
    -7.9804  -7.8337  -7.4511  -7.3465   4.4273   4.5986   4.8286   5.1376
     5.4904   5.9661   6.2901   6.9333   7.0747   7.3739   7.6890   8.2624

     occupation numbers 
     1.0000   1.0000   1.0000   1.0000   1.0000   1.0000   1.0000   1.0000
     1.0000   1.0000   1.0000   1.0000   1.0000   1.0000   1.0000   1.0000
     1.0000   1.0000   1.0000   1.0000   1.0000   1.0000   1.0000   1.0000

          k = 0.0000 0.3333-0.7763 (  9386 PWs)   bands (ev):

   -47.6792 -47.6792 -24.2864 -24.2864 -23.9003 -23.9003 -23.8903 -23.8903
    -7.9312  -7.9312  -7.3042  -7.3042   4.2401   4.2401   5.1145   5.1145
     5.9071   5.9071   6.6129   6.6129   7.3168   7.3168   7.7664   7.7664

     occupation numbers 
     1.0000   1.0000   1.0000   1.0000   1.0000   1.0000   1.0000   1.0000
     1.0000   1.0000   1.0000   1.0000   1.0000   1.0000   1.0000   1.0000
     1.0000   1.0000   1.0000   1.0000   1.0000   1.0000   1.0000   1.0000

          k = 0.0000-0.5000 0.0000 (  9346 PWs)   bands (ev):

   -47.7196 -47.7196 -23.9991 -23.9991 -23.9435 -23.9435 -23.8274 -23.8274
    -8.3181  -8.3181  -7.3829  -7.3829   4.2339   4.2339   5.3817   5.3817
     5.9109   5.9109   6.1064   6.1064   7.5047   7.5047   8.4046   8.4046

     occupation numbers 
     1.0000   1.0000   1.0000   1.0000   1.0000   1.0000   1.0000   1.0000
     1.0000   1.0000   1.0000   1.0000   1.0000   1.0000   1.0000   1.0000
     1.0000   1.0000   1.0000   1.0000   1.0000   1.0000   1.0000   1.0000

          k = 0.0000-0.5000 0.1941 (  9352 PWs)   bands (ev):

   -47.7137 -47.7137 -23.9850 -23.9850 -23.9496 -23.9496 -23.8828 -23.8828
    -8.1979  -8.1979  -7.4386  -7.4386   4.4284   4.4284   5.1107   5.1107
     5.9120   5.9120   6.4259   6.4259   7.0447   7.0447   8.4753   8.4753

     occupation numbers 
     1.0000   1.0000   1.0000   1.0000   1.0000   1.0000   1.0000   1.0000
     1.0000   1.0000   1.0000   1.0000   1.0000   1.0000   1.0000   1.0000
     1.0000   1.0000   1.0000   1.0000   1.0000   1.0000   1.0000   1.0000

          k = 0.0000-0.5000 0.3882 (  9340 PWs)   bands (ev):

   -47.6994 -47.6994 -24.0736 -24.0736 -23.9442 -23.9442 -23.9105 -23.9105
    -7.9594  -7.9594  -7.5157  -7.5157   4.7780   4.7780   4.9686   4.9686
     5.5298   5.5298   6.4323   6.4323   7.1758   7.1758   8.3020   8.3020

     occupation numbers 
     1.0000   1.0000   1.0000   1.0000   1.0000   1.0000   1.0000   1.0000
     1.0000   1.0000   1.0000   1.0000   1.0000   1.0000   1.0000   1.0000
     1.0000   1.0000   1.0000   1.0000   1.0000   1.0000   1.0000   1.0000

          k = 0.0000-0.5000 0.5822 (  9364 PWs)   bands (ev):

   -47.6851 -47.6851 -24.2261 -24.2261 -23.9077 -23.9077 -23.9006 -23.9006
    -7.9338  -7.9338  -7.3698  -7.3698   4.4029   4.4029   4.9979   4.9979
     5.8025   5.8025   6.5045   6.5045   7.3259   7.3259   8.0932   8.0932

     occupation numbers 
     1.0000   1.0000   1.0000   1.0000   1.0000   1.0000   1.0000   1.0000
     1.0000   1.0000   1.0000   1.0000   1.0000   1.0000   1.0000   1.0000
     1.0000   1.0000   1.0000   1.0000   1.0000   1.0000   1.0000   1.0000

          k = 0.0000-0.5000-0.7763 (  9340 PWs)   bands (ev):

   -47.6792 -47.6792 -24.2891 -24.2891 -23.8982 -23.8982 -23.8897 -23.8897
    -7.9760  -7.9760  -7.2525  -7.2525   4.0992   4.0992   5.1746   5.1746
     5.8845   5.8845   6.7724   6.7724   7.1094   7.1094   8.1137   8.1137

     occupation numbers 
     1.0000   1.0000   1.0000   1.0000   1.0000   1.0000   1.0000   1.0000
     1.0000   1.0000   1.0000   1.0000   1.0000   1.0000   1.0000   1.0000
     1.0000   1.0000   1.0000   1.0000   1.0000   1.0000   1.0000   1.0000

          k = 0.1667 0.1667 0.0000 (  9337 PWs)   bands (ev):

   -47.7261 -47.7132 -24.0554 -24.0163 -23.9246 -23.8842 -23.8402 -23.8147
    -8.8788  -7.9129  -7.3363  -7.1812   3.5594   4.1256   4.5744   5.3046
     5.3772   6.2082   6.6534   7.2062   7.8648   8.1700   8.3602   8.9736

     occupation numbers 
     1.0000   1.0000   1.0000   1.0000   1.0000   1.0000   1.0000   1.0000
     1.0000   1.0000   1.0000   1.0000   1.0000   1.0000   1.0000   1.0000
     1.0000   1.0000   1.0000   1.0000   1.0000   1.0000   1.0000   1.0000

          k = 0.1667 0.1667 0.1941 (  9356 PWs)   bands (ev):

   -47.7197 -47.7078 -24.0379 -24.0025 -23.9305 -23.9019 -23.8814 -23.8767
    -8.7275  -7.8076  -7.4052  -7.2558   3.7539   4.3097   4.6184   5.1940
     5.2837   6.3522   6.8060   6.9276   7.3388   8.1550   8.2245   8.8169

     occupation numbers 
     1.0000   1.0000   1.0000   1.0000   1.0000   1.0000   1.0000   1.0000
     1.0000   1.0000   1.0000   1.0000   1.0000   1.0000   1.0000   1.0000
     1.0000   1.0000   1.0000   1.0000   1.0000   1.0000   1.0000   1.0000

          k = 0.1667 0.1667 0.3882 (  9343 PWs)   bands (ev):

   -47.7040 -47.6949 -24.0734 -24.0538 -23.9934 -23.9576 -23.8994 -23.8767
    -8.3493  -7.5826  -7.5471  -7.4355   4.2328   4.6733   4.6994   5.0958
     5.6007   5.6693   6.3010   6.9532   7.3670   7.5968   7.9054   8.6443

     occupation numbers 
     1.0000   1.0000   1.0000   1.0000   1.0000   1.0000   1.0000   1.0000
     1.0000   1.0000   1.0000   1.0000   1.0000   1.0000   1.0000   1.0000
     1.0000   1.0000   1.0000   1.0000   1.0000   1.0000   1.0000   1.0000

          k = 0.1667 0.1667 0.5822 (  9362 PWs)   bands (ev):

   -47.6876 -47.6827 -24.2241 -24.2131 -23.9416 -23.9192 -23.8912 -23.8789
    -7.9867  -7.6589  -7.6141  -7.3575   4.5726   4.7418   4.8462   4.9112
     5.4338   6.0167   6.2856   6.8400   6.8975   7.5445   7.6517   8.1452

     occupation numbers 
     1.0000   1.0000   1.0000   1.0000   1.0000   1.0000   1.0000   1.0000
     1.0000   1.0000   1.0000   1.0000   1.0000   1.0000   1.0000   1.0000
     1.0000   1.0000   1.0000   1.0000   1.0000   1.0000   1.0000   1.0000

          k = 0.1667 0.1667-0.7763 (  9360 PWs)   bands (ev):

   -47.6792 -47.6792 -24.2855 -24.2787 -23.9083 -23.8996 -23.8915 -23.8905
    -7.9316  -7.6877  -7.5623  -7.3064   4.2935   4.8178   5.0150   5.0268
     5.2677   6.3980   6.5032   6.5948   7.0432   7.3787   7.4712   7.7430

     occupation numbers 
     1.0000   1.0000   1.0000   1.0000   1.0000   1.0000   1.0000   1.0000
     1.0000   1.0000   1.0000   1.0000   1.0000   1.0000   1.0000   1.0000
     1.0000   1.0000   1.0000   1.0000   1.0000   1.0000   1.0000   1.0000

          k = 0.1667 0.3333 0.0000 (  9354 PWs)   bands (ev):

   -47.7233 -47.7159 -24.0482 -23.9995 -23.9431 -23.8931 -23.8348 -23.8201
    -8.6511  -8.0475  -7.4120  -7.2501   3.7256   4.2867   5.0842   5.3092
     5.3822   6.0972   6.5106   7.2866   7.3313   7.9094   8.0584   8.6529

     occupation numbers 
     1.0000   1.0000   1.0000   1.0000   1.0000   1.0000   1.0000   1.0000
     1.0000   1.0000   1.0000   1.0000   1.0000   1.0000   1.0000   1.0000
     1.0000   1.0000   1.0000   1.0000   1.0000   1.0000   1.0000   1.0000

          k = 0.1667 0.3333 0.1941 (  9353 PWs)   bands (ev):

   -47.7171 -47.7103 -24.0317 -23.9850 -23.9502 -23.9030 -23.8873 -23.8766
    -8.5124  -7.9332  -7.4741  -7.3185   3.9102   4.4867   4.8228   5.1198
     5.5858   6.3432   6.5705   6.7751   7.2267   7.7265   8.1083   8.5490

     occupation numbers 
     1.0000   1.0000   1.0000   1.0000   1.0000   1.0000   1.0000   1.0000
     1.0000   1.0000   1.0000   1.0000   1.0000   1.0000   1.0000   1.0000
     1.0000   1.0000   1.0000   1.0000   1.0000   1.0000   1.0000   1.0000

          k = 0.1667 0.3333 0.3882 (  9342 PWs)   bands (ev):

   -47.7021 -47.6968 -24.0743 -24.0617 -23.9850 -23.9437 -23.9106 -23.8812
    -8.1836  -7.7230  -7.5549  -7.4713   4.3450   4.6382   4.8402   5.0126
     5.5337   6.0778   6.1502   6.8004   7.2151   7.5589   7.9609   8.4679

     occupation numbers 
     1.0000   1.0000   1.0000   1.0000   1.0000   1.0000   1.0000   1.0000
     1.0000   1.0000   1.0000   1.0000   1.0000   1.0000   1.0000   1.0000
     1.0000   1.0000   1.0000   1.0000   1.0000   1.0000   1.0000   1.0000

          k = 0.1667 0.3333 0.5822 (  9347 PWs)   bands (ev):

   -47.6865 -47.6837 -24.2258 -24.2173 -23.9370 -23.9069 -23.9013 -23.8811
    -7.9677  -7.7775  -7.5179  -7.3464   4.3917   4.5545   4.8112   5.1222
     5.2750   6.1137   6.4438   6.7930   7.0519   7.5293   7.8042   8.3297

     occupation numbers 
     1.0000   1.0000   1.0000   1.0000   1.0000   1.0000   1.0000   1.0000
     1.0000   1.0000   1.0000   1.0000   1.0000   1.0000   1.0000   1.0000
     1.0000   1.0000   1.0000   1.0000   1.0000   1.0000   1.0000   1.0000

          k = 0.1667 0.3333-0.7763 (  9364 PWs)   bands (ev):

   -47.6792 -47.6792 -24.2882 -24.2815 -23.9060 -23.8976 -23.8913 -23.8904
    -7.9783  -7.8166  -7.4238  -7.2500   4.1124   4.4318   5.0295   5.1714
     5.2913   6.2303   6.5476   6.6448   7.2179   7.6613   7.7587   7.9939

     occupation numbers 
     1.0000   1.0000   1.0000   1.0000   1.0000   1.0000   1.0000   1.0000
     1.0000   1.0000   1.0000   1.0000   1.0000   1.0000   1.0000   1.0000
     1.0000   1.0000   1.0000   1.0000   1.0000   1.0000   1.0000   1.0000

          k = 0.1667-0.5000 0.0000 (  9354 PWs)   bands (ev):

   -47.7196 -47.7196 -24.0238 -24.0238 -23.9189 -23.9189 -23.8274 -23.8274
    -8.3376  -8.3376  -7.3555  -7.3555   4.0503   4.0503   5.3467   5.3467
     5.7994   5.7994   6.6260   6.6260   7.5870   7.5870   8.2213   8.2213

     occupation numbers 
     1.0000   1.0000   1.0000   1.0000   1.0000   1.0000   1.0000   1.0000
     1.0000   1.0000   1.0000   1.0000   1.0000   1.0000   1.0000   1.0000
     1.0000   1.0000   1.0000   1.0000   1.0000   1.0000   1.0000   1.0000

          k = 0.1667-0.5000 0.1941 (  9340 PWs)   bands (ev):

   -47.7137 -47.7137 -24.0097 -24.0097 -23.9259 -23.9259 -23.8821 -23.8821
    -8.2147  -8.2147  -7.4148  -7.4148   4.2381   4.2381   5.0120   5.0120
     6.0593   6.0593   6.7699   6.7699   7.1129   7.1129   8.2775   8.2775

     occupation numbers 
     1.0000   1.0000   1.0000   1.0000   1.0000   1.0000   1.0000   1.0000
     1.0000   1.0000   1.0000   1.0000   1.0000   1.0000   1.0000   1.0000
     1.0000   1.0000   1.0000   1.0000   1.0000   1.0000   1.0000   1.0000

          k = 0.1667-0.5000 0.3882 (  9348 PWs)   bands (ev):

   -47.6994 -47.6994 -24.0704 -24.0704 -23.9628 -23.9628 -23.8955 -23.8955
    -7.9547  -7.9547  -7.5163  -7.5163   4.6349   4.6349   4.7550   4.7550
     5.7858   5.7858   6.6657   6.6657   7.2190   7.2190   8.1910   8.1910

     occupation numbers 
     1.0000   1.0000   1.0000   1.0000   1.0000   1.0000   1.0000   1.0000
     1.0000   1.0000   1.0000   1.0000   1.0000   1.0000   1.0000   1.0000
     1.0000   1.0000   1.0000   1.0000   1.0000   1.0000   1.0000   1.0000

          k = 0.1667-0.5000 0.5822 (  9346 PWs)   bands (ev):

   -47.6851 -47.6851 -24.2231 -24.2231 -23.9230 -23.9230 -23.8889 -23.8889
    -7.8963  -7.8963  -7.4066  -7.4066   4.3759   4.3759   4.9433   4.9433
     5.7016   5.7016   6.6422   6.6422   7.3563   7.3563   8.1739   8.1739

     occupation numbers 
     1.0000   1.0000   1.0000   1.0000   1.0000   1.0000   1.0000   1.0000
     1.0000   1.0000   1.0000   1.0000   1.0000   1.0000   1.0000   1.0000
     1.0000   1.0000   1.0000   1.0000   1.0000   1.0000   1.0000   1.0000

          k = 0.1667-0.5000-0.7763 (  9352 PWs)   bands (ev):

   -47.6791 -47.6791 -24.2862 -24.2862 -23.9008 -23.9008 -23.8907 -23.8907
    -7.9357  -7.9357  -7.2938  -7.2938   4.1359   4.1359   5.0981   5.0981
     5.7738   5.7738   6.5829   6.5829   7.4381   7.4381   8.1858   8.1858

     occupation numbers 
     1.0000   1.0000   1.0000   1.0000   1.0000   1.0000   1.0000   1.0000
     1.0000   1.0000   1.0000   1.0000   1.0000   1.0000   1.0000   1.0000
     1.0000   1.0000   1.0000   1.0000   1.0000   1.0000   1.0000   1.0000

          k = 0.3333 0.3333 0.0000 (  9384 PWs)   bands (ev):

   -47.7217 -47.7174 -24.0616 -24.0264 -23.9169 -23.8804 -23.8316 -23.8231
    -8.5396  -8.1901  -7.3802  -7.2464   3.6042   4.0698   5.2693   5.3369
     5.4537   6.3032   6.8192   7.3431   7.5179   7.6568   7.9035   8.4601

     occupation numbers 
     1.0000   1.0000   1.0000   1.0000   1.0000   1.0000   1.0000   1.0000
     1.0000   1.0000   1.0000   1.0000   1.0000   1.0000   1.0000   1.0000
     1.0000   1.0000   1.0000   1.0000   1.0000   1.0000   1.0000   1.0000

          k = 0.3333 0.3333 0.1941 (  9343 PWs)   bands (ev):

   -47.7157 -47.7117 -24.0438 -24.0121 -23.9254 -23.8942 -23.8820 -23.8779
    -8.4041  -8.0711  -7.4403  -7.3179   3.7867   4.2588   4.8279   5.0209
     5.9345   6.6573   6.7992   7.0035   7.2590   7.7489   7.8059   8.2060

     occupation numbers 
     1.0000   1.0000   1.0000   1.0000   1.0000   1.0000   1.0000   1.0000
     1.0000   1.0000   1.0000   1.0000   1.0000   1.0000   1.0000   1.0000
     1.0000   1.0000   1.0000   1.0000   1.0000   1.0000   1.0000   1.0000

          k = 0.3333 0.3333 0.3882 (  9352 PWs)   bands (ev):

   -47.7009 -47.6979 -24.0690 -24.0586 -23.9982 -23.9640 -23.8943 -23.8741
    -8.0808  -7.8159  -7.5406  -7.4905   4.2326   4.5374   4.6816   4.6996
     5.8461   6.3478   6.4730   7.0048   7.3614   7.4995   7.7996   8.2533

     occupation numbers 
     1.0000   1.0000   1.0000   1.0000   1.0000   1.0000   1.0000   1.0000
     1.0000   1.0000   1.0000   1.0000   1.0000   1.0000   1.0000   1.0000
     1.0000   1.0000   1.0000   1.0000   1.0000   1.0000   1.0000   1.0000

          k = 0.3333 0.3333 0.5822 (  9358 PWs)   bands (ev):

   -47.6859 -47.6843 -24.2221 -24.2145 -23.9447 -23.9241 -23.8883 -23.8778
    -7.9076  -7.6627  -7.6387  -7.3960   4.3251   4.5167   4.6608   4.9223
     5.3982   5.9843   6.6625   6.6943   7.2565   7.6768   8.0056   8.4063

     occupation numbers 
     1.0000   1.0000   1.0000   1.0000   1.0000   1.0000   1.0000   1.0000
     1.0000   1.0000   1.0000   1.0000   1.0000   1.0000   1.0000   1.0000
     1.0000   1.0000   1.0000   1.0000   1.0000   1.0000   1.0000   1.0000

          k = 0.3333 0.3333-0.7763 (  9316 PWs)   bands (ev):

   -47.6791 -47.6791 -24.2852 -24.2783 -23.9094 -23.9007 -23.8923 -23.8913
    -7.9406  -7.7339  -7.5045  -7.2858   4.0963   4.5762   4.7456   4.9424
     5.3424   6.0881   6.4161   6.5195   7.5787   7.8063   8.0551   8.3074

     occupation numbers 
     1.0000   1.0000   1.0000   1.0000   1.0000   1.0000   1.0000   1.0000
     1.0000   1.0000   1.0000   1.0000   1.0000   1.0000   1.0000   1.0000
     1.0000   1.0000   1.0000   1.0000   1.0000   1.0000   1.0000   1.0000

          k = 0.3333-0.5000 0.0000 (  9380 PWs)   bands (ev):

   -47.7196 -47.7196 -24.0534 -24.0534 -23.8896 -23.8896 -23.8273 -23.8273
    -8.3739  -8.3739  -7.3032  -7.3032   3.7416   3.7416   5.2820   5.2820
     6.0306   6.0306   7.0913   7.0913   7.7534   7.7534   7.9808   7.9808

     occupation numbers 
     1.0000   1.0000   1.0000   1.0000   1.0000   1.0000   1.0000   1.0000
     1.0000   1.0000   1.0000   1.0000   1.0000   1.0000   1.0000   1.0000
     1.0000   1.0000   1.0000   1.0000   1.0000   1.0000   1.0000   1.0000

          k = 0.3333-0.5000 0.1941 (  9378 PWs)   bands (ev):

   -47.7137 -47.7137 -24.0366 -24.0366 -23.9023 -23.9023 -23.8792 -23.8792
    -8.2458  -8.2458  -7.3697  -7.3697   3.9238   3.9238   4.9065   4.9065
     6.4353   6.4353   7.2013   7.2013   7.3184   7.3184   7.8814   7.8814

     occupation numbers 
     1.0000   1.0000   1.0000   1.0000   1.0000   1.0000   1.0000   1.0000
     1.0000   1.0000   1.0000   1.0000   1.0000   1.0000   1.0000   1.0000
     1.0000   1.0000   1.0000   1.0000   1.0000   1.0000   1.0000   1.0000

          k = 0.3333-0.5000 0.3882 (  9368 PWs)   bands (ev):

   -47.6994 -47.6994 -24.0623 -24.0623 -23.9884 -23.9884 -23.8789 -23.8789
    -7.9456  -7.9456  -7.5171  -7.5171   4.3537   4.3537   4.5650   4.5650
     6.1795   6.1795   6.9999   6.9999   7.3684   7.3684   7.9279   7.9279

     occupation numbers 
     1.0000   1.0000   1.0000   1.0000   1.0000   1.0000   1.0000   1.0000
     1.0000   1.0000   1.0000   1.0000   1.0000   1.0000   1.0000   1.0000
     1.0000   1.0000   1.0000   1.0000   1.0000   1.0000   1.0000   1.0000

          k = 0.3333-0.5000 0.5822 (  9350 PWs)   bands (ev):

   -47.6851 -47.6851 -24.2167 -24.2167 -23.9394 -23.9394 -23.8801 -23.8801
    -7.7951  -7.7951  -7.5063  -7.5063   4.3654   4.3654   4.7354   4.7354
     5.6874   5.6874   6.6974   6.6974   7.5626   7.5626   8.2756   8.2756

     occupation numbers 
     1.0000   1.0000   1.0000   1.0000   1.0000   1.0000   1.0000   1.0000
     1.0000   1.0000   1.0000   1.0000   1.0000   1.0000   1.0000   1.0000
     1.0000   1.0000   1.0000   1.0000   1.0000   1.0000   1.0000   1.0000

          k = 0.3333-0.5000-0.7763 (  9328 PWs)   bands (ev):

   -47.6791 -47.6791 -24.2802 -24.2802 -23.9068 -23.9068 -23.8921 -23.8921
    -7.8336  -7.8336  -7.3978  -7.3978   4.2584   4.2584   4.8420   4.8420
     5.6462   5.6462   6.4656   6.4656   7.7617   7.7617   8.3680   8.3680

     occupation numbers 
     1.0000   1.0000   1.0000   1.0000   1.0000   1.0000   1.0000   1.0000
     1.0000   1.0000   1.0000   1.0000   1.0000   1.0000   1.0000   1.0000
     1.0000   1.0000   1.0000   1.0000   1.0000   1.0000   1.0000   1.0000

          k =-0.5000-0.5000 0.0000 (  9420 PWs)   bands (ev):

   -47.7195 -47.7195 -24.0648 -24.0648 -23.8784 -23.8784 -23.8273 -23.8273
    -8.3909  -8.3909  -7.2781  -7.2781   3.6089   3.6089   5.2518   5.2518
     6.2967   6.2967   6.9684   6.9684   7.8384   7.8384   8.0891   8.0891

     occupation numbers 
     1.0000   1.0000   1.0000   1.0000   1.0000   1.0000   1.0000   1.0000
     1.0000   1.0000   1.0000   1.0000   1.0000   1.0000   1.0000   1.0000
     1.0000   1.0000   1.0000   1.0000   1.0000   1.0000   1.0000   1.0000

          k =-0.5000-0.5000 0.1941 (  9376 PWs)   bands (ev):

   -47.7136 -47.7136 -24.0467 -24.0467 -23.8954 -23.8954 -23.8761 -23.8761
    -8.2604  -8.2604  -7.3482  -7.3482   3.7907   3.7907   4.8687   4.8687
     6.8547   6.8547   7.0760   7.0760   7.3272   7.3272   7.8803   7.8803

     occupation numbers 
     1.0000   1.0000   1.0000   1.0000   1.0000   1.0000   1.0000   1.0000
     1.0000   1.0000   1.0000   1.0000   1.0000   1.0000   1.0000   1.0000
     1.0000   1.0000   1.0000   1.0000   1.0000   1.0000   1.0000   1.0000

          k =-0.5000-0.5000 0.3882 (  9376 PWs)   bands (ev):

   -47.6994 -47.6994 -24.0566 -24.0566 -24.0006 -24.0006 -23.8728 -23.8728
    -7.9411  -7.9411  -7.5174  -7.5174   4.2317   4.2317   4.5031   4.5031
     6.3652   6.3652   7.2144   7.2144   7.3629   7.3629   7.7961   7.7961

     occupation numbers 
     1.0000   1.0000   1.0000   1.0000   1.0000   1.0000   1.0000   1.0000
     1.0000   1.0000   1.0000   1.0000   1.0000   1.0000   1.0000   1.0000
     1.0000   1.0000   1.0000   1.0000   1.0000   1.0000   1.0000   1.0000

          k =-0.5000-0.5000 0.5822 (  9352 PWs)   bands (ev):

   -47.6851 -47.6851 -24.2134 -24.2134 -23.9462 -23.9462 -23.8773 -23.8773
    -7.6866  -7.6866  -7.6141  -7.6141   4.4092   4.4092   4.5774   4.5774
     5.7125   5.7125   6.6866   6.6866   7.7029   7.7029   8.2999   8.2999

     occupation numbers 
     1.0000   1.0000   1.0000   1.0000   1.0000   1.0000   1.0000   1.0000
     1.0000   1.0000   1.0000   1.0000   1.0000   1.0000   1.0000   1.0000
     1.0000   1.0000   1.0000   1.0000   1.0000   1.0000   1.0000   1.0000

          k =-0.5000-0.5000-0.7763 (  9328 PWs)   bands (ev):

   -47.6791 -47.6791 -24.2771 -24.2771 -23.9100 -23.9100 -23.8927 -23.8927
    -7.7566  -7.7566  -7.4756  -7.4756   4.4294   4.4294   4.5860   4.5860
     5.6208   5.6208   6.4291   6.4291   7.8669   7.8669   8.4760   8.4760

     occupation numbers 
     1.0000   1.0000   1.0000   1.0000   1.0000   1.0000   1.0000   1.0000
     1.0000   1.0000   1.0000   1.0000   1.0000   1.0000   1.0000   1.0000
     1.0000   1.0000   1.0000   1.0000   1.0000   1.0000   1.0000   1.0000

     highest occupied level (ev):     9.1495

!    total energy              =    -405.93193757 Ry
     estimated scf accuracy    <          5.0E-11 Ry

     The total energy is the sum of the following terms:
     one-electron contribution =    -123.43259998 Ry
     hartree contribution      =      85.73122244 Ry
     xc contribution           =     -65.86061102 Ry
     ewald contribution        =    -264.31170051 Ry
     one-center paw contrib.   =     -38.05824850 Ry
      -> PAW hartree energy AE =       0.00000000 Ry
      -> PAW hartree energy PS =       0.00000000 Ry
      -> PAW xc energy AE      =       0.00000000 Ry
      -> PAW xc energy PS      =       0.00000000 Ry
      -> total E_H with PAW    =      85.73122244 Ry
      -> total E_XC with PAW   =     -65.86061102 Ry

     convergence has been achieved in  16 iterations

     negative rho (up, down):  2.898E-03 0.000E+00

     Forces acting on atoms (cartesian axes, Ry/au):

     atom    1 type  1   force =     0.00000000    0.00000000    0.00000000
     atom    2 type  1   force =     0.00000000    0.00000000    0.00000000
     atom    3 type  2   force =    -0.00183660   -0.00183660   -0.00000000
     atom    4 type  2   force =     0.00183660    0.00183660   -0.00000000
     atom    5 type  2   force =    -0.00183660    0.00183660   -0.00000000
     atom    6 type  2   force =     0.00183660   -0.00183660   -0.00000000
     The non-local contrib.  to forces
     atom    1 type  1   force =     0.00000000    0.00000000    0.00000000
     atom    2 type  1   force =     0.00000000    0.00000000    0.00000000
     atom    3 type  2   force =     0.12374098    0.12374098    0.00000000
     atom    4 type  2   force =    -0.12374098   -0.12374098    0.00000000
     atom    5 type  2   force =     0.12374098   -0.12374098    0.00000000
     atom    6 type  2   force =    -0.12374098    0.12374098    0.00000000
     The ionic contribution  to forces
     atom    1 type  1   force =    -0.00000000   -0.00000000    0.00000000
     atom    2 type  1   force =    -0.00000000   -0.00000000    0.00000000
     atom    3 type  2   force =    -1.85328434   -1.85328434   -0.00000000
     atom    4 type  2   force =     1.85328434    1.85328434   -0.00000000
     atom    5 type  2   force =    -1.85328434    1.85328434    0.00000000
     atom    6 type  2   force =     1.85328434   -1.85328434    0.00000000
     The local contribution  to forces
     atom    1 type  1   force =     0.00000000    0.00000000    0.00000000
     atom    2 type  1   force =     0.00000000    0.00000000    0.00000000
     atom    3 type  2   force =     1.72855095    1.72855095    0.00000000
     atom    4 type  2   force =    -1.72855095   -1.72855095    0.00000000
     atom    5 type  2   force =     1.72855095   -1.72855095    0.00000000
     atom    6 type  2   force =    -1.72855095    1.72855095    0.00000000
     The core correction contribution to forces
     atom    1 type  1   force =     0.00000000    0.00000000    0.00000000
     atom    2 type  1   force =    -0.00000000   -0.00000000    0.00000000
     atom    3 type  2   force =    -0.00084157   -0.00084157    0.00000000
     atom    4 type  2   force =     0.00084157    0.00084157    0.00000000
     atom    5 type  2   force =    -0.00084157    0.00084157    0.00000000
     atom    6 type  2   force =     0.00084157   -0.00084157    0.00000000
     The Hubbard contrib.    to forces
     atom    1 type  1   force =     0.00000000    0.00000000    0.00000000
     atom    2 type  1   force =     0.00000000    0.00000000    0.00000000
     atom    3 type  2   force =     0.00000000    0.00000000    0.00000000
     atom    4 type  2   force =     0.00000000    0.00000000    0.00000000
     atom    5 type  2   force =     0.00000000    0.00000000    0.00000000
     atom    6 type  2   force =     0.00000000    0.00000000    0.00000000
     The SCF correction term to forces
     atom    1 type  1   force =     0.00000000   -0.00000000    0.00000000
     atom    2 type  1   force =    -0.00000000    0.00000000   -0.00000000
     atom    3 type  2   force =    -0.00000262   -0.00000262   -0.00000000
     atom    4 type  2   force =     0.00000262    0.00000262   -0.00000000
     atom    5 type  2   force =    -0.00000262    0.00000262   -0.00000000
     atom    6 type  2   force =     0.00000262   -0.00000262   -0.00000000

     Total force =     0.005195     Total SCF correction =     0.000007

     Writing all to output data dir ./tmp_tio2__ecut120/tio2__ecut120.save/ :
     XML data file, charge density, pseudopotentials, collected wavefunctions

     init_run     :      1.78s CPU      2.07s WALL (       1 calls)
     electrons    :     45.70s CPU     55.66s WALL (       1 calls)
     forces       :      0.40s CPU      0.44s WALL (       1 calls)

     Called by init_run:
     wfcinit      :      0.81s CPU      0.99s WALL (       1 calls)
     wfcinit:atom :      0.01s CPU      0.01s WALL (      25 calls)
     wfcinit:wfcr :      0.72s CPU      0.90s WALL (      25 calls)
     potinit      :      0.31s CPU      0.33s WALL (       1 calls)
     hinit0       :      0.44s CPU      0.47s WALL (       1 calls)

     Called by electrons:
     c_bands      :     35.29s CPU     43.68s WALL (      16 calls)
     sum_band     :      6.93s CPU      8.28s WALL (      16 calls)
     v_of_rho     :      0.75s CPU      0.88s WALL (      17 calls)
     v_h          :      0.04s CPU      0.06s WALL (      17 calls)
     v_xc         :      0.74s CPU      0.87s WALL (      18 calls)
     newd         :      1.97s CPU      2.04s WALL (      17 calls)
     PAW_pot      :      0.64s CPU      0.65s WALL (      17 calls)
     mix_rho      :      0.12s CPU      0.15s WALL (      16 calls)

     Called by c_bands:
     init_us_2    :      0.51s CPU      0.54s WALL (     850 calls)
     cegterg      :     32.14s CPU     40.52s WALL (     400 calls)

     Called by sum_band:
     sum_band:wei :      0.01s CPU      0.01s WALL (      16 calls)
     sum_band:loo :      4.07s CPU      5.25s WALL (      16 calls)
     sum_band:buf :      0.05s CPU      0.06s WALL (     400 calls)
     sum_band:ini :      0.23s CPU      0.24s WALL (     400 calls)
     sum_band:cal :      0.40s CPU      0.46s WALL (     400 calls)
     sum_band:bec :      0.01s CPU      0.01s WALL (     400 calls)
     addusdens    :      2.24s CPU      2.33s WALL (      16 calls)
                                        0.00s GPU  (      16 calls)
     addusd:skk   :      0.01s CPU      0.01s WALL (      32 calls)
                                        0.00s GPU  (      32 calls)

     Called by *egterg:
     cdiaghg      :      2.13s CPU      2.16s WALL (    2238 calls)
     cegterg:over :      2.01s CPU      2.15s WALL (    1838 calls)
     cegterg:upda :      0.52s CPU      0.53s WALL (    1838 calls)
     cegterg:last :      1.14s CPU      1.15s WALL (    1201 calls)
     h_psi        :     24.75s CPU     33.02s WALL (    2263 calls)
     s_psi        :      0.77s CPU      0.80s WALL (    2263 calls)
     g_psi        :      0.22s CPU      0.23s WALL (    1838 calls)

     Called by h_psi:
     h_psi:calbec :      1.88s CPU      2.19s WALL (    2263 calls)
     vloc_psi     :     22.03s CPU     29.92s WALL (    2263 calls)
                                        0.00s GPU  (    2263 calls)
     add_vuspsi   :      0.75s CPU      0.81s WALL (    2263 calls)

     General routines
     calbec       :      2.36s CPU      2.74s WALL (    2763 calls)
     fft          :      0.75s CPU      0.96s WALL (     230 calls)
     ffts         :      0.22s CPU      0.24s WALL (      33 calls)
     fftw         :     24.12s CPU     32.69s WALL (   76244 calls)
     interpolate  :      0.26s CPU      0.28s WALL (      17 calls)

     Parallel routines

     PAW routines
     PAW_pot      :      0.64s CPU      0.65s WALL (      17 calls)
     PAW_symme    :      0.01s CPU      0.01s WALL (      33 calls)

     PWSCF        :     48.41s CPU     58.92s WALL


   This run was terminated on:  11:43:55  21Aug2026            

=------------------------------------------------------------------------------=
   JOB DONE.
=------------------------------------------------------------------------------=
