
     Program PWSCF v.7.5 starts on 30Aug2026 at 12: 5:56 

     This program is part of the open-source Quantum ESPRESSO suite
     for quantum simulation of materials; please cite
         "P. Giannozzi et al., J. Phys.:Condens. Matter 21 395502 (2009);
         "P. Giannozzi et al., J. Phys.:Condens. Matter 29 465901 (2017);
         "P. Giannozzi et al., J. Chem. Phys. 152 154105 (2020);
          URL http://www.quantum-espresso.org", 
     in publications or presentations arising from this work. More details at
     http://www.quantum-espresso.org/quote

     Parallel version (MPI & OpenMP), running on     128 processor cores
     Number of MPI processes:               128
     Threads/MPI process:                     1

     MPI processes distributed on     1 nodes
     199308 MiB available memory on the printing compute node when the environment starts

     Reading input from ref__2x1v__afm__relax.run.in

     Current dimensions of program PWSCF are:
     Max number of different atomic species (ntypx) = 10
     Max number of k-points (npk) =  40000
     Max angular momentum in pseudopotentials (lmaxx) =  4
     file O.pbe-n-kjpaw_psl.0.1.UPF: wavefunction(s)  2P renormalized
     Found identity + ( -0.5000  0.0000  0.0000) symmetry
     This is a supercell, fractional translations are disabled

     K-points division:     npool     =      16
     R & G space division:  proc/nbgrp/npool/nimage =       8
     Subspace diagonalization in iterative solution of the eigenvalue problem:
     one sub-group per band group will be used
     ELPA distributed-memory algorithm (size of sub-group:  2*  2 procs)


     Parallelization info
     --------------------
     sticks:   dense  smooth     PW     G-vecs:    dense   smooth      PW
     Min         899     449    121               231377    81793   11561
     Max         900     450    122               231384    81797   11567
     Sum        7195    3595    973              1851033   654359   92507

     Using Slab Decomposition



     bravais-lattice index     =            0
     lattice parameter (alat)  =      11.7428  a.u.
     unit-cell volume          =    6769.1998 (a.u.)^3
     number of atoms/cell      =           36
     number of atomic types    =            3
     number of electrons       =       336.00
     number of Kohn-Sham states=          202
     kinetic-energy cutoff     =      80.0000  Ry
     charge density cutoff     =     640.0000  Ry
     scf convergence threshold =      1.0E-06
     mixing beta               =       0.3000
     number of iterations used =            8  local-TF  mixing
     energy convergence thresh.=      1.0E-04
     force convergence thresh. =      2.0E-03
     Exchange-correlation= SLA  PW   PBX  PBC
                           (   1   4   3   4   0   0   0)
     nstep                     =          200


     celldm(1)=  11.742758  celldm(2)=   0.000000  celldm(3)=   0.000000
     celldm(4)=   0.000000  celldm(5)=   0.000000  celldm(6)=   0.000000

     crystal axes: (cart. coord. in units of alat)
               a(1) = (   1.000000   0.000000   0.000000 )  
               a(2) = (   0.000000   1.022312   0.000000 )  
               a(3) = (   0.000000   0.000000   4.089248 )  

     reciprocal axes: (cart. coord. in units 2 pi/alat)
               b(1) = (  1.000000  0.000000  0.000000 )  
               b(2) = (  0.000000  0.978175  0.000000 )  
               b(3) = (  0.000000  0.000000  0.244544 )  


     PseudoPot. # 1 for Ru read from file:
     /anvil/projects/x-che260157/pseudo/Ru_ONCV_PBE-1.0.oncvpsp.upf
     MD5 check sum: be037bb81c227cfb9b1461a9f099f4bd
     Pseudo is Norm-conserving, Zval = 16.0
     Generated using ONCVPSP code by D. R. Hamann
     Using radial grid of 1458 points,  6 beta functions with: 
                l(1) =   0
                l(2) =   0
                l(3) =   1
                l(4) =   1
                l(5) =   2
                l(6) =   2

     PseudoPot. # 2 for Ru read from file:
     /anvil/projects/x-che260157/pseudo/Ru_ONCV_PBE-1.0.oncvpsp.upf
     MD5 check sum: be037bb81c227cfb9b1461a9f099f4bd
     Pseudo is Norm-conserving, Zval = 16.0
     Generated using ONCVPSP code by D. R. Hamann
     Using radial grid of 1458 points,  6 beta functions with: 
                l(1) =   0
                l(2) =   0
                l(3) =   1
                l(4) =   1
                l(5) =   2
                l(6) =   2

     PseudoPot. # 3 for O  read from file:
     /anvil/projects/x-che260157/pseudo/O.pbe-n-kjpaw_psl.0.1.UPF
     MD5 check sum: 0234752ac141de4415c5fc33072bef88
     Pseudo is Projector augmented-wave + core cor, Zval =  6.0
     Generated using "atomic" code by A. Dal Corso  v.5.0.99 svn rev. 10869
     Shape of augmentation charge: BESSEL
     Using radial grid of 1095 points,  4 beta functions with: 
                l(1) =   0
                l(2) =   0
                l(3) =   1
                l(4) =   1
     Q(r) pseudized with 0 coefficients 


     atomic species   valence    mass     pseudopotential
     Ru1              16.00   101.07000     Ru( 1.00)
     Ru2              16.00   101.07000     Ru( 1.00)
     O                 6.00    15.99900     O ( 1.00)

     Starting magnetic structure 
     atomic species   magnetization
     Ru1             0.500
     Ru2            -0.500
     O               0.000

     No symmetry found



   Cartesian axes

     site n.     atom                  positions (alat units)
         1        Ru1    tau(   1) = (   0.0000000   0.2555780   1.5334681  )
         2        Ru2    tau(   2) = (   0.2500000   0.7667341   1.5334681  )
         3        Ru1    tau(   3) = (  -0.0000000   0.7667341   2.0515824  )
         4        Ru2    tau(   4) = (   0.2500000   0.2555780   2.0405073  )
         5        Ru1    tau(   5) = (  -0.0000000   0.2555780   2.5432701  )
         6        Ru2    tau(   6) = (   0.2500000   0.7667340   2.5800866  )
         7        O      tau(   7) = (   0.0000000   0.7667341   1.7328190  )
         8        O      tau(   8) = (   0.0000000   0.7667341   1.3341173  )
         9        O      tau(   9) = (   0.2500000   0.0562272   1.5334681  )
        10        O      tau(  10) = (   0.2500000   0.4549289   1.5334681  )
        11        O      tau(  11) = (  -0.0000001   0.2555779   2.2404116  )
        12        O      tau(  12) = (   0.0000000   0.2555780   1.8452733  )
        13        O      tau(  13) = (   0.2500000   0.5689835   2.0472273  )
        14        O      tau(  14) = (   0.2500000   0.9644846   2.0472273  )
        15        O      tau(  15) = (   0.0000000   0.7667341   2.7569156  )
        16        O      tau(  16) = (   0.0000001   0.7667341   2.3642513  )
        17        O      tau(  17) = (   0.2500000   0.0610709   2.5697463  )
        18        O      tau(  18) = (   0.2500000   0.4500850   2.5697463  )
        19        Ru1    tau(  19) = (   0.5000000   0.2555780   1.5334681  )
        20        Ru2    tau(  20) = (   0.7500000   0.7667341   1.5334681  )
        21        Ru1    tau(  21) = (   0.5000000   0.7667341   2.0515824  )
        22        Ru2    tau(  22) = (   0.7500000   0.2555780   2.0405073  )
        23        Ru1    tau(  23) = (   0.5000000   0.2555780   2.5432701  )
        24        Ru2    tau(  24) = (   0.7500000   0.7667340   2.5800866  )
        25        O      tau(  25) = (   0.5000000   0.7667341   1.7328190  )
        26        O      tau(  26) = (   0.5000000   0.7667341   1.3341173  )
        27        O      tau(  27) = (   0.7500000   0.0562272   1.5334681  )
        28        O      tau(  28) = (   0.7500000   0.4549289   1.5334681  )
        29        O      tau(  29) = (   0.4999999   0.2555779   2.2404116  )
        30        O      tau(  30) = (   0.5000000   0.2555780   1.8452733  )
        31        O      tau(  31) = (   0.7500000   0.5689835   2.0472273  )
        32        O      tau(  32) = (   0.7500000   0.9644846   2.0472273  )
        33        O      tau(  33) = (   0.5000000   0.7667341   2.7569156  )
        34        O      tau(  34) = (   0.5000001   0.7667341   2.3642513  )
        35        O      tau(  35) = (   0.7500000   0.0610709   2.5697463  )
        36        O      tau(  36) = (   0.7500000   0.4500850   2.5697463  )

     number of k points=    16  Marzari-Vanderbilt smearing, width (Ry)=  0.0100
                       cart. coord. in units 2pi/alat
        k(    1) = (   0.0000000   0.0000000   0.0000000), wk =   0.0625000
        k(    2) = (   0.0000000   0.2445437   0.0000000), wk =   0.0625000
        k(    3) = (   0.0000000  -0.4890874   0.0000000), wk =   0.0625000
        k(    4) = (   0.0000000  -0.2445437   0.0000000), wk =   0.0625000
        k(    5) = (   0.2500000   0.0000000   0.0000000), wk =   0.0625000
        k(    6) = (   0.2500000   0.2445437   0.0000000), wk =   0.0625000
        k(    7) = (   0.2500000  -0.4890874   0.0000000), wk =   0.0625000
        k(    8) = (   0.2500000  -0.2445437   0.0000000), wk =   0.0625000
        k(    9) = (  -0.5000000   0.0000000   0.0000000), wk =   0.0625000
        k(   10) = (  -0.5000000   0.2445437   0.0000000), wk =   0.0625000
        k(   11) = (  -0.5000000  -0.4890874   0.0000000), wk =   0.0625000
        k(   12) = (  -0.5000000  -0.2445437   0.0000000), wk =   0.0625000
        k(   13) = (  -0.2500000   0.0000000   0.0000000), wk =   0.0625000
        k(   14) = (  -0.2500000   0.2445437   0.0000000), wk =   0.0625000
        k(   15) = (  -0.2500000  -0.4890874   0.0000000), wk =   0.0625000
        k(   16) = (  -0.2500000  -0.2445437   0.0000000), wk =   0.0625000

     Dense  grid:  1851033 G-vectors     FFT dimensions: (  96, 100, 400)

     Smooth grid:   654359 G-vectors     FFT dimensions: (  72,  72, 288)

     Estimated max dynamical RAM per process >     587.56 MB

     Estimated total dynamical RAM >      60.20 GB
     Generating pointlists ...
     new r_m :   0.1249 (alat units)  1.4670 (a.u.) for type    1
     new r_m :   0.1263 (alat units)  1.4833 (a.u.) for type    2
     new r_m :   0.1249 (alat units)  1.4670 (a.u.) for type    3

     Initial potential from superposition of free atoms

     starting charge     335.9933, renormalised to     336.0000

     negative rho (up, down):  9.092E-05 9.102E-05
     Starting wfcs are  216 randomized atomic wfcs
     Checking if some PAW data can be deallocated... 

     total cpu time spent up to now is       10.6 secs

     per-process dynamical memory:   369.2 Mb

     Self-consistent Calculation

     iteration #  1     ecut=    80.00 Ry     beta= 0.30
     Davidson diagonalization with overlap
     ethr =  1.00E-02,  avg # of iterations =  2.0

     negative rho (up, down):  1.732E-07 2.215E-07

     total cpu time spent up to now is       29.3 secs

     total energy              =   -3257.67932871 Ry
     estimated scf accuracy    <      15.36718296 Ry

     total magnetization       =     3.61 Bohr mag/cell
     absolute magnetization    =    43.48 Bohr mag/cell

     iteration #  2     ecut=    80.00 Ry     beta= 0.30
     Davidson diagonalization with overlap
     ethr =  4.57E-03,  avg # of iterations =  1.0

     total cpu time spent up to now is       44.6 secs

     total energy              =   -3259.09114003 Ry
     estimated scf accuracy    <       4.97116493 Ry

     total magnetization       =     2.32 Bohr mag/cell
     absolute magnetization    =    37.94 Bohr mag/cell

     iteration #  3     ecut=    80.00 Ry     beta= 0.30
     Davidson diagonalization with overlap
     ethr =  1.48E-03,  avg # of iterations =  2.6

     total cpu time spent up to now is       63.4 secs

     total energy              =   -3260.24546208 Ry
     estimated scf accuracy    <       2.02077409 Ry

     total magnetization       =     0.64 Bohr mag/cell
     absolute magnetization    =    26.96 Bohr mag/cell

     iteration #  4     ecut=    80.00 Ry     beta= 0.30
     Davidson diagonalization with overlap
     ethr =  6.01E-04,  avg # of iterations =  1.2

     negative rho (up, down):  1.053E-07 1.272E-07

     total cpu time spent up to now is       80.0 secs

     total energy              =   -3260.83876876 Ry
     estimated scf accuracy    <       1.33209903 Ry

     total magnetization       =     0.22 Bohr mag/cell
     absolute magnetization    =    26.58 Bohr mag/cell

     iteration #  5     ecut=    80.00 Ry     beta= 0.30
     Davidson diagonalization with overlap
     ethr =  3.96E-04,  avg # of iterations =  2.2

     negative rho (up, down):  2.032E-08 2.418E-08

     total cpu time spent up to now is       97.5 secs

     total energy              =   -3261.16050491 Ry
     estimated scf accuracy    <       0.48817458 Ry

     total magnetization       =    -2.22 Bohr mag/cell
     absolute magnetization    =    21.28 Bohr mag/cell

     iteration #  6     ecut=    80.00 Ry     beta= 0.30
     Davidson diagonalization with overlap
     ethr =  1.45E-04,  avg # of iterations =  3.0

     total cpu time spent up to now is      115.4 secs

     total energy              =   -3261.24892403 Ry
     estimated scf accuracy    <       0.34611480 Ry

     total magnetization       =    -2.57 Bohr mag/cell
     absolute magnetization    =    19.48 Bohr mag/cell

     iteration #  7     ecut=    80.00 Ry     beta= 0.30
     Davidson diagonalization with overlap
     ethr =  1.03E-04,  avg # of iterations =  7.7

     total cpu time spent up to now is      135.8 secs

     total energy              =   -3261.31415097 Ry
     estimated scf accuracy    <       0.07844186 Ry

     total magnetization       =    -2.77 Bohr mag/cell
     absolute magnetization    =    15.76 Bohr mag/cell

     iteration #  8     ecut=    80.00 Ry     beta= 0.30
     Davidson diagonalization with overlap
     ethr =  2.33E-05,  avg # of iterations =  4.3

     total cpu time spent up to now is      155.3 secs

     total energy              =   -3261.32423081 Ry
     estimated scf accuracy    <       0.05260847 Ry

     total magnetization       =    -2.70 Bohr mag/cell
     absolute magnetization    =    13.96 Bohr mag/cell

     iteration #  9     ecut=    80.00 Ry     beta= 0.30
     Davidson diagonalization with overlap
     ethr =  1.57E-05,  avg # of iterations =  2.6

     total cpu time spent up to now is      173.5 secs

     total energy              =   -3261.34037387 Ry
     estimated scf accuracy    <       0.05122900 Ry

     total magnetization       =    -2.83 Bohr mag/cell
     absolute magnetization    =    11.92 Bohr mag/cell

     iteration # 10     ecut=    80.00 Ry     beta= 0.30
     Davidson diagonalization with overlap
     ethr =  1.52E-05,  avg # of iterations =  1.0

     total cpu time spent up to now is      188.8 secs

     total energy              =   -3261.34040136 Ry
     estimated scf accuracy    <       0.03181537 Ry

     total magnetization       =    -2.73 Bohr mag/cell
     absolute magnetization    =    11.30 Bohr mag/cell

     iteration # 11     ecut=    80.00 Ry     beta= 0.30
     Davidson diagonalization with overlap
     ethr =  9.47E-06,  avg # of iterations =  2.3

     total cpu time spent up to now is      209.4 secs

     total energy              =   -3261.34205004 Ry
     estimated scf accuracy    <       0.01729794 Ry

     total magnetization       =    -2.56 Bohr mag/cell
     absolute magnetization    =     9.87 Bohr mag/cell

     iteration # 12     ecut=    80.00 Ry     beta= 0.30
     Davidson diagonalization with overlap
     ethr =  5.15E-06,  avg # of iterations =  4.7

     negative rho (up, down):  1.133E-06 1.021E-09

     total cpu time spent up to now is      227.8 secs

     total energy              =   -3261.34294899 Ry
     estimated scf accuracy    <       0.01118018 Ry

     total magnetization       =    -2.39 Bohr mag/cell
     absolute magnetization    =     8.33 Bohr mag/cell

     iteration # 13     ecut=    80.00 Ry     beta= 0.30
     Davidson diagonalization with overlap
     ethr =  3.33E-06,  avg # of iterations =  5.3

     negative rho (up, down):  7.410E-08 0.000E+00

     total cpu time spent up to now is      248.2 secs

     total energy              =   -3261.34709499 Ry
     estimated scf accuracy    <       0.00617022 Ry

     total magnetization       =    -2.16 Bohr mag/cell
     absolute magnetization    =     6.81 Bohr mag/cell

     iteration # 14     ecut=    80.00 Ry     beta= 0.30
     Davidson diagonalization with overlap
     ethr =  1.84E-06,  avg # of iterations =  2.4

     negative rho (up, down):  2.215E-03 1.963E-03

     total cpu time spent up to now is      267.4 secs

     total energy              =   -3261.34183918 Ry
     estimated scf accuracy    <       0.00500918 Ry

     total magnetization       =    -2.14 Bohr mag/cell
     absolute magnetization    =     6.63 Bohr mag/cell

     iteration # 15     ecut=    80.00 Ry     beta= 0.30
     Davidson diagonalization with overlap
     ethr =  1.49E-06,  avg # of iterations =  2.8

     negative rho (up, down):  3.440E-03 3.141E-03

     total cpu time spent up to now is      286.5 secs

     total energy              =   -3261.34455272 Ry
     estimated scf accuracy    <       0.00394032 Ry

     total magnetization       =    -1.99 Bohr mag/cell
     absolute magnetization    =     5.11 Bohr mag/cell

     iteration # 16     ecut=    80.00 Ry     beta= 0.30
     Davidson diagonalization with overlap
     ethr =  1.17E-06,  avg # of iterations =  2.0

     negative rho (up, down):  3.075E-03 2.818E-03

     total cpu time spent up to now is      303.9 secs

     total energy              =   -3261.34486716 Ry
     estimated scf accuracy    <       0.00245360 Ry

     total magnetization       =    -2.01 Bohr mag/cell
     absolute magnetization    =     4.59 Bohr mag/cell

     iteration # 17     ecut=    80.00 Ry     beta= 0.30
     Davidson diagonalization with overlap
     ethr =  7.30E-07,  avg # of iterations =  1.3

     negative rho (up, down):  4.326E-03 4.095E-03

     total cpu time spent up to now is      321.2 secs

     total energy              =   -3261.34400633 Ry
     estimated scf accuracy    <       0.00223296 Ry

     total magnetization       =    -2.07 Bohr mag/cell
     absolute magnetization    =     4.56 Bohr mag/cell

     iteration # 18     ecut=    80.00 Ry     beta= 0.30
     Davidson diagonalization with overlap
     ethr =  6.65E-07,  avg # of iterations =  2.7

     negative rho (up, down):  4.342E-03 4.139E-03

     total cpu time spent up to now is      338.6 secs

     total energy              =   -3261.34409190 Ry
     estimated scf accuracy    <       0.00105737 Ry

     total magnetization       =    -2.14 Bohr mag/cell
     absolute magnetization    =     4.13 Bohr mag/cell

     iteration # 19     ecut=    80.00 Ry     beta= 0.30
     Davidson diagonalization with overlap
     ethr =  3.15E-07,  avg # of iterations =  2.1

     negative rho (up, down):  2.036E-03 1.961E-03

     total cpu time spent up to now is      355.9 secs

     total energy              =   -3261.34446309 Ry
     estimated scf accuracy    <       0.00055308 Ry

     total magnetization       =    -2.19 Bohr mag/cell
     absolute magnetization    =     3.95 Bohr mag/cell

     iteration # 20     ecut=    80.00 Ry     beta= 0.30
     Davidson diagonalization with overlap
     ethr =  1.65E-07,  avg # of iterations =  2.0

     negative rho (up, down):  1.156E-03 1.122E-03

     total cpu time spent up to now is      374.6 secs

     total energy              =   -3261.34481113 Ry
     estimated scf accuracy    <       0.00038856 Ry

     total magnetization       =    -2.30 Bohr mag/cell
     absolute magnetization    =     4.24 Bohr mag/cell

     iteration # 21     ecut=    80.00 Ry     beta= 0.30
     Davidson diagonalization with overlap
     ethr =  1.16E-07,  avg # of iterations =  1.1

     negative rho (up, down):  2.090E-04 2.094E-04

     total cpu time spent up to now is      390.4 secs

     total energy              =   -3261.34499461 Ry
     estimated scf accuracy    <       0.00018528 Ry

     total magnetization       =    -2.30 Bohr mag/cell
     absolute magnetization    =     4.33 Bohr mag/cell

     iteration # 22     ecut=    80.00 Ry     beta= 0.30
     Davidson diagonalization with overlap
     ethr =  5.51E-08,  avg # of iterations =  2.2

     negative rho (up, down):  8.812E-04 8.813E-04

     total cpu time spent up to now is      409.6 secs

     total energy              =   -3261.34530736 Ry
     estimated scf accuracy    <       0.00010607 Ry

     total magnetization       =    -2.28 Bohr mag/cell
     absolute magnetization    =     4.70 Bohr mag/cell

     iteration # 23     ecut=    80.00 Ry     beta= 0.30
     Davidson diagonalization with overlap
     ethr =  3.16E-08,  avg # of iterations =  2.2

     negative rho (up, down):  1.199E-03 1.199E-03

     total cpu time spent up to now is      430.4 secs

     total energy              =   -3261.34561294 Ry
     estimated scf accuracy    <       0.00006138 Ry

     total magnetization       =    -2.25 Bohr mag/cell
     absolute magnetization    =     5.06 Bohr mag/cell

     iteration # 24     ecut=    80.00 Ry     beta= 0.30
     Davidson diagonalization with overlap
     ethr =  1.83E-08,  avg # of iterations =  2.8

     negative rho (up, down):  9.819E-04 9.822E-04

     total cpu time spent up to now is      450.1 secs

     total energy              =   -3261.34566192 Ry
     estimated scf accuracy    <       0.00004003 Ry

     total magnetization       =    -2.22 Bohr mag/cell
     absolute magnetization    =     5.26 Bohr mag/cell

     iteration # 25     ecut=    80.00 Ry     beta= 0.30
     Davidson diagonalization with overlap
     ethr =  1.19E-08,  avg # of iterations =  4.7

     negative rho (up, down):  3.388E-04 3.279E-04

     total cpu time spent up to now is      472.8 secs

     total energy              =   -3261.34579672 Ry
     estimated scf accuracy    <       0.00001811 Ry

     total magnetization       =    -2.17 Bohr mag/cell
     absolute magnetization    =     5.62 Bohr mag/cell

     iteration # 26     ecut=    80.00 Ry     beta= 0.30
     Davidson diagonalization with overlap
     ethr =  5.39E-09,  avg # of iterations =  4.7

     negative rho (up, down):  2.088E-04 2.008E-04

     total cpu time spent up to now is      497.0 secs

     total energy              =   -3261.34596898 Ry
     estimated scf accuracy    <       0.00000726 Ry

     total magnetization       =    -2.12 Bohr mag/cell
     absolute magnetization    =     5.95 Bohr mag/cell

     iteration # 27     ecut=    80.00 Ry     beta= 0.30
     Davidson diagonalization with overlap
     ethr =  2.16E-09,  avg # of iterations =  4.5

     negative rho (up, down):  1.907E-04 1.831E-04

     total cpu time spent up to now is      519.6 secs

     total energy              =   -3261.34602737 Ry
     estimated scf accuracy    <       0.00000379 Ry

     total magnetization       =    -2.10 Bohr mag/cell
     absolute magnetization    =     6.12 Bohr mag/cell

     iteration # 28     ecut=    80.00 Ry     beta= 0.30
     Davidson diagonalization with overlap
     ethr =  1.13E-09,  avg # of iterations =  2.2

     negative rho (up, down):  2.299E-04 2.224E-04

     total cpu time spent up to now is      539.0 secs

     total energy              =   -3261.34603208 Ry
     estimated scf accuracy    <       0.00000135 Ry

     total magnetization       =    -2.09 Bohr mag/cell
     absolute magnetization    =     6.16 Bohr mag/cell

     iteration # 29     ecut=    80.00 Ry     beta= 0.30
     Davidson diagonalization with overlap
     ethr =  4.03E-10,  avg # of iterations =  2.6

     negative rho (up, down):  1.040E-04 1.041E-04

     Magnetic moment per site  (integrated on atomic sphere of radius R)
     atom   1 (R=0.125)  charge= 10.7451  magn=  0.1838
     atom   2 (R=0.126)  charge= 10.7730  magn= -0.4986
     atom   3 (R=0.125)  charge= 10.6796  magn=  0.1855
     atom   4 (R=0.126)  charge= 10.8211  magn= -0.1099
     atom   5 (R=0.125)  charge= 10.7386  magn=  0.2142
     atom   6 (R=0.126)  charge= 10.7879  magn= -0.4394
     atom   7 (R=0.125)  charge=  5.2069  magn= -0.0316
     atom   8 (R=0.125)  charge=  5.0795  magn= -0.1788
     atom   9 (R=0.125)  charge=  5.2089  magn=  0.0185
     atom  10 (R=0.125)  charge=  5.2089  magn=  0.0185
     atom  11 (R=0.125)  charge=  5.2143  magn=  0.0066
     atom  12 (R=0.125)  charge=  5.1993  magn= -0.0068
     atom  13 (R=0.125)  charge=  5.2170  magn=  0.0104
     atom  14 (R=0.125)  charge=  5.2170  magn=  0.0104
     atom  15 (R=0.125)  charge=  5.1396  magn= -0.1819
     atom  16 (R=0.125)  charge=  5.1868  magn= -0.0135
     atom  17 (R=0.125)  charge=  5.2088  magn=  0.0196
     atom  18 (R=0.125)  charge=  5.2088  magn=  0.0196
     atom  19 (R=0.125)  charge= 10.7449  magn=  0.1838
     atom  20 (R=0.126)  charge= 10.7730  magn= -0.4986
     atom  21 (R=0.125)  charge= 10.6796  magn=  0.1855
     atom  22 (R=0.126)  charge= 10.8211  magn= -0.1099
     atom  23 (R=0.125)  charge= 10.7386  magn=  0.2142
     atom  24 (R=0.126)  charge= 10.7879  magn= -0.4394
     atom  25 (R=0.125)  charge=  5.2069  magn= -0.0316
     atom  26 (R=0.125)  charge=  5.0795  magn= -0.1788
     atom  27 (R=0.125)  charge=  5.2089  magn=  0.0185
     atom  28 (R=0.125)  charge=  5.2089  magn=  0.0185
     atom  29 (R=0.125)  charge=  5.2143  magn=  0.0066
     atom  30 (R=0.125)  charge=  5.1993  magn= -0.0068
     atom  31 (R=0.125)  charge=  5.2170  magn=  0.0104
     atom  32 (R=0.125)  charge=  5.2170  magn=  0.0104
     atom  33 (R=0.125)  charge=  5.1396  magn= -0.1819
     atom  34 (R=0.125)  charge=  5.1868  magn= -0.0135
     atom  35 (R=0.125)  charge=  5.2088  magn=  0.0196
     atom  36 (R=0.125)  charge=  5.2088  magn=  0.0196

     total cpu time spent up to now is      557.3 secs

     End of self-consistent calculation

 ------ SPIN UP ------------


          k = 0.0000 0.0000 0.0000 ( 81707 PWs)   bands (ev):

   -72.1726 -72.1617 -72.1247 -72.1143 -72.1031 -72.0996 -72.0912 -72.0901
   -72.0010 -71.9902 -71.7790 -71.7684 -42.4193 -42.4083 -42.3302 -42.3111
   -42.2996 -42.2480 -42.2301 -42.2154 -42.2004 -42.1839 -42.1751 -42.1578
   -42.1519 -42.1425 -42.1413 -42.1192 -42.0625 -42.0393 -41.9988 -41.9959
   -41.9740 -41.9684 -41.9536 -41.9449 -41.9423 -41.9225 -41.9187 -41.8908
   -41.8748 -41.8737 -41.8563 -41.8444 -41.8286 -41.6903 -41.6558 -41.6265
   -18.7639 -18.3861 -18.2418 -18.1101 -18.0237 -17.7180 -17.5491 -17.5244
   -17.4732 -17.4667 -17.4344 -17.4045 -17.3855 -17.3608 -17.3585 -17.2972
   -16.9783 -16.9078 -16.8562 -16.7686 -16.5470 -16.3743 -15.7350 -15.7013
    -6.9971  -6.9436  -6.9046  -6.8164  -6.0364  -5.9167  -5.7326  -5.6996
    -5.6498  -5.5007  -5.4870  -5.4728  -5.4677  -5.4190  -5.3808  -5.3090
    -5.2775  -5.2731  -5.2155  -5.1492  -5.0515  -5.0427  -4.9312  -4.7885
    -4.7838  -4.7794  -4.7324  -4.6903  -4.3107  -4.3081  -3.9171  -3.5807
    -3.4283  -3.3764  -3.3594  -3.3511  -3.2496  -3.1851  -3.1262  -3.0868
    -3.0541  -3.0363  -2.9660  -2.9254  -2.7198  -2.6487  -2.6355  -2.5042
    -2.4284  -2.3645  -2.3518  -2.2149  -2.1827  -2.0940  -2.0597  -2.0500
    -1.9358  -1.9312  -1.8247  -1.7091  -1.5189  -1.5122  -1.3723  -1.3075
    -1.2823  -1.2531  -1.1218  -0.9208  -0.7466  -0.6428  -0.5639  -0.4350
    -0.0466   0.0985   0.1242   0.1630   0.1718   0.2085   0.2610   0.2972
     0.3546   0.3585   0.5026   0.6900   0.6998   0.7078   0.7938   0.8075
     0.8639   0.9841   1.0911   1.1313   1.1376   1.2556   1.3230   1.4446
     1.5806   1.5940   1.7302   1.7972   1.9433   2.0928   2.1376   2.2844
     2.3968   2.4048   2.6488   2.6830   2.7225   2.7714   2.9369   3.0769
     3.4993   4.1330   4.5091   4.5389   4.6078   4.6501   4.7388   4.8467
     4.9938   5.1068   5.1499   5.3089   5.5431   5.8994   5.9414   5.9822
     6.0347   6.0829

          k = 0.0000 0.2445 0.0000 ( 81832 PWs)   bands (ev):

   -72.1726 -72.1617 -72.1247 -72.1143 -72.1026 -72.1000 -72.0912 -72.0901
   -72.0010 -71.9902 -71.7790 -71.7684 -42.4193 -42.4083 -42.3304 -42.3112
   -42.2996 -42.2453 -42.2356 -42.2139 -42.2019 -42.1842 -42.1727 -42.1725
   -42.1463 -42.1412 -42.1277 -42.1194 -42.0625 -42.0393 -41.9982 -41.9959
   -41.9740 -41.9690 -41.9537 -41.9478 -41.9422 -41.9225 -41.9183 -41.8909
   -41.8748 -41.8721 -41.8588 -41.8444 -41.8284 -41.6904 -41.6575 -41.6263
   -18.6928 -18.2581 -18.1473 -18.0550 -18.0226 -17.7126 -17.6767 -17.6385
   -17.5940 -17.5771 -17.4986 -17.4417 -17.3663 -17.2654 -17.1516 -17.1198
   -17.0217 -16.9848 -16.9798 -16.9441 -16.5467 -16.3725 -15.7345 -15.6986
    -6.8557  -6.5457  -6.4812  -6.4406  -6.0168  -5.9106  -5.9055  -5.7703
    -5.7323  -5.6740  -5.6305  -5.4296  -5.3906  -5.3434  -5.3250  -5.3223
    -5.2718  -5.2359  -5.2315  -5.2137  -5.1571  -4.9953  -4.9297  -4.9294
    -4.9289  -4.5196  -4.3990  -4.0981  -4.0665  -3.9297  -3.8871  -3.6423
    -3.6175  -3.5885  -3.5271  -3.4704  -3.4428  -3.3395  -3.2483  -3.2331
    -3.2024  -3.0723  -3.0312  -2.8849  -2.8406  -2.6928  -2.6909  -2.5646
    -2.4818  -2.4430  -2.4107  -2.3625  -2.3324  -2.2820  -2.1778  -2.1752
    -1.9968  -1.9683  -1.8235  -1.7836  -1.7473  -1.6493  -1.5479  -1.4248
    -1.2919  -1.2572  -1.2181  -1.2084  -0.8191  -0.7790  -0.7651  -0.5247
     0.0604   0.0710   0.0763   0.2657   0.4500   0.4574   0.4986   0.6117
     0.6554   0.6961   0.7118   0.7183   0.7240   0.7431   0.7505   0.8122
     0.8202   0.8507   0.8908   0.9552   1.0087   1.0148   1.1399   1.4171
     1.5817   1.8079   1.9722   2.1026   2.1512   2.2383   2.2929   2.3200
     2.4189   2.4394   2.5018   2.6477   2.6995   2.8012   2.8245   3.2005
     3.5491   3.7133   3.7710   3.9075   4.4302   4.6141   4.7563   5.2323
     5.4239   5.5415   5.7304   5.7843   5.8079   5.8243   5.9015   5.9307
     6.0038   6.1200

          k = 0.0000-0.4891 0.0000 ( 81886 PWs)   bands (ev):

   -72.1726 -72.1617 -72.1247 -72.1143 -72.1017 -72.1009 -72.0912 -72.0901
   -72.0010 -71.9902 -71.7790 -71.7684 -42.4193 -42.4083 -42.3305 -42.3112
   -42.2997 -42.2426 -42.2405 -42.2125 -42.2033 -42.1846 -42.1808 -42.1702
   -42.1413 -42.1411 -42.1196 -42.1193 -42.0625 -42.0393 -41.9976 -41.9959
   -41.9740 -41.9696 -41.9538 -41.9506 -41.9421 -41.9226 -41.9179 -41.8909
   -41.8749 -41.8706 -41.8613 -41.8444 -41.8282 -41.6905 -41.6591 -41.6261
   -18.6152 -18.0922 -18.0467 -18.0215 -17.8805 -17.7552 -17.7289 -17.7071
   -17.6871 -17.6842 -17.6129 -17.4409 -17.3718 -17.1827 -17.1571 -17.1553
   -17.0876 -17.0520 -17.0227 -16.9812 -16.5463 -16.3719 -15.7340 -15.6964
    -6.8499  -6.0856  -5.9985  -5.9643  -5.9595  -5.8839  -5.8403  -5.7633
    -5.7318  -5.6739  -5.6417  -5.3505  -5.3380  -5.2579  -5.2439  -5.2315
    -5.2292  -5.2224  -5.2160  -5.1881  -5.1418  -5.0787  -4.9274  -4.9238
    -4.6378  -4.5911  -4.4848  -4.1864  -4.1783  -4.1162  -4.0928  -3.8631
    -3.8629  -3.8471  -3.6028  -3.5841  -3.5269  -3.3158  -3.1975  -3.1809
    -3.1722  -3.0343  -3.0253  -2.9650  -2.9141  -2.8857  -2.7973  -2.7940
    -2.7474  -2.6821  -2.5730  -2.5480  -2.4705  -2.2793  -2.1915  -2.0923
    -2.0676  -1.7623  -1.7086  -1.6774  -1.6507  -1.5921  -1.5699  -1.3884
    -1.3392  -1.3141  -1.3073  -1.2698  -0.9919  -0.8418  -0.7383  -0.6303
    -0.2173  -0.2096   0.0233   0.0294   0.0620   0.1184   0.5820   0.6850
     0.6870   0.6973   0.7108   0.8117   0.8299   0.8802   0.9297   0.9967
     1.0247   1.0767   1.1399   1.1585   1.2479   1.3092   1.3119   1.4423
     1.5745   1.6686   1.8259   2.0765   2.1391   2.2511   2.2700   2.3027
     2.4284   2.5554   2.6113   2.6875   2.7090   2.8473   2.8934   3.3572
     3.3720   3.3786   3.5225   3.5872   4.6188   4.6197   4.7739   5.4828
     5.4951   5.5426   5.5575   5.5702   5.6148   5.8948   6.0638   6.1226
     6.1511   6.3598

          k = 0.0000-0.2445 0.0000 ( 81832 PWs)   bands (ev):

   -72.1726 -72.1617 -72.1247 -72.1143 -72.1026 -72.1000 -72.0912 -72.0901
   -72.0010 -71.9902 -71.7790 -71.7684 -42.4193 -42.4083 -42.3304 -42.3112
   -42.2996 -42.2453 -42.2356 -42.2139 -42.2019 -42.1842 -42.1727 -42.1725
   -42.1463 -42.1412 -42.1277 -42.1194 -42.0625 -42.0393 -41.9982 -41.9959
   -41.9740 -41.9690 -41.9537 -41.9478 -41.9422 -41.9225 -41.9183 -41.8909
   -41.8748 -41.8721 -41.8588 -41.8444 -41.8284 -41.6904 -41.6575 -41.6263
   -18.6928 -18.2581 -18.1473 -18.0550 -18.0226 -17.7126 -17.6767 -17.6385
   -17.5940 -17.5771 -17.4986 -17.4417 -17.3663 -17.2654 -17.1516 -17.1198
   -17.0217 -16.9848 -16.9798 -16.9441 -16.5467 -16.3725 -15.7345 -15.6986
    -6.8557  -6.5457  -6.4812  -6.4406  -6.0168  -5.9106  -5.9055  -5.7703
    -5.7323  -5.6740  -5.6305  -5.4296  -5.3906  -5.3434  -5.3250  -5.3223
    -5.2718  -5.2359  -5.2315  -5.2137  -5.1571  -4.9953  -4.9297  -4.9294
    -4.9289  -4.5196  -4.3990  -4.0981  -4.0665  -3.9297  -3.8871  -3.6423
    -3.6175  -3.5885  -3.5271  -3.4704  -3.4428  -3.3395  -3.2483  -3.2331
    -3.2024  -3.0723  -3.0312  -2.8849  -2.8406  -2.6928  -2.6909  -2.5646
    -2.4818  -2.4430  -2.4107  -2.3625  -2.3324  -2.2820  -2.1778  -2.1752
    -1.9968  -1.9683  -1.8235  -1.7836  -1.7473  -1.6493  -1.5479  -1.4248
    -1.2919  -1.2572  -1.2181  -1.2084  -0.8191  -0.7790  -0.7651  -0.5247
     0.0604   0.0710   0.0763   0.2657   0.4500   0.4574   0.4986   0.6117
     0.6554   0.6961   0.7118   0.7183   0.7240   0.7431   0.7505   0.8122
     0.8202   0.8507   0.8908   0.9552   1.0087   1.0148   1.1399   1.4171
     1.5817   1.8079   1.9722   2.1026   2.1512   2.2383   2.2929   2.3200
     2.4189   2.4394   2.5018   2.6477   2.6995   2.8012   2.8245   3.2005
     3.5491   3.7133   3.7710   3.9075   4.4302   4.6141   4.7563   5.2323
     5.4239   5.5415   5.7304   5.7843   5.8079   5.8243   5.9015   5.9307
     6.0038   6.1200

          k = 0.2500 0.0000 0.0000 ( 81703 PWs)   bands (ev):

   -72.1710 -72.1633 -72.1232 -72.1159 -72.1014 -72.0981 -72.0931 -72.0914
   -71.9994 -71.9918 -71.7775 -71.7700 -42.4175 -42.4095 -42.3092 -42.3036
   -42.3004 -42.2453 -42.2327 -42.2132 -42.2026 -42.1726 -42.1696 -42.1603
   -42.1581 -42.1254 -42.1153 -42.0936 -42.0606 -42.0421 -42.0249 -41.9957
   -41.9937 -41.9806 -41.9772 -41.9685 -41.9411 -41.9226 -41.9177 -41.8954
   -41.8704 -41.8523 -41.8489 -41.8473 -41.8327 -41.7176 -41.6516 -41.6308
   -18.6343 -18.2698 -18.1356 -18.0086 -17.9986 -17.8789 -17.6431 -17.5686
   -17.5426 -17.5053 -17.4730 -17.3604 -17.3183 -17.3109 -17.2878 -17.2231
   -16.9882 -16.9578 -16.9328 -16.8496 -16.6167 -16.4465 -15.7724 -15.7439
    -6.8186  -6.7668  -6.7252  -6.6127  -5.9768  -5.9173  -5.7673  -5.7604
    -5.7032  -5.6506  -5.5687  -5.5335  -5.5284  -5.5225  -5.4897  -5.3893
    -5.3297  -5.2235  -5.1853  -5.1790  -5.1456  -4.9573  -4.7128  -4.7060
    -4.5928  -4.4718  -4.4380  -4.3432  -4.2610  -4.0309  -4.0127  -3.9187
    -3.7845  -3.6749  -3.4283  -3.3413  -3.1224  -3.1143  -3.0838  -3.0642
    -3.0297  -3.0081  -2.9152  -2.8468  -2.7988  -2.7907  -2.6130  -2.6095
    -2.5783  -2.4850  -2.4268  -2.4095  -2.3363  -2.2818  -2.1708  -2.1038
    -2.0656  -2.0407  -1.9463  -1.7426  -1.7173  -1.7142  -1.6222  -1.5433
    -1.5232  -1.4690  -1.1736  -0.9761  -0.9591  -0.6715  -0.5946  -0.5234
     0.0080   0.0384   0.0659   0.2388   0.3873   0.3937   0.5048   0.5741
     0.5766   0.5936   0.6613   0.7539   0.7988   0.8288   0.8291   1.0141
     1.0272   1.0291   1.2481   1.2790   1.3050   1.4175   1.4749   1.5606
     1.5616   1.7869   1.7934   1.8070   1.9100   1.9907   2.0391   2.2613
     2.4561   2.5266   2.5664   2.5665   2.6305   2.7848   2.9260   2.9414
     3.7393   4.2602   4.6258   4.6487   4.6703   4.7007   4.7750   4.8839
     4.9736   5.1410   5.1649   5.3553   5.3715   5.4433   5.6664   5.6776
     5.7085   5.7680

          k = 0.2500 0.2445 0.0000 ( 81774 PWs)   bands (ev):

   -72.1710 -72.1633 -72.1232 -72.1159 -72.1010 -72.0986 -72.0930 -72.0915
   -71.9994 -71.9918 -71.7775 -71.7700 -42.4175 -42.4095 -42.3092 -42.3036
   -42.3006 -42.2433 -42.2359 -42.2121 -42.2035 -42.1710 -42.1694 -42.1672
   -42.1584 -42.1219 -42.1080 -42.0938 -42.0606 -42.0421 -42.0246 -41.9960
   -41.9937 -41.9804 -41.9771 -41.9685 -41.9433 -41.9226 -41.9178 -41.8954
   -41.8704 -41.8543 -41.8489 -41.8461 -41.8329 -41.7175 -41.6529 -41.6309
   -18.5693 -18.1476 -18.0492 -17.9935 -17.9472 -17.8664 -17.6742 -17.6297
   -17.5454 -17.5441 -17.4945 -17.3834 -17.3765 -17.3295 -17.2178 -17.1560
   -17.0863 -17.0440 -17.0145 -16.9589 -16.6172 -16.4450 -15.7725 -15.7418
    -6.6700  -6.3750  -6.3172  -6.2854  -5.9124  -5.9023  -5.7737  -5.7647
    -5.7050  -5.6385  -5.5827  -5.4970  -5.4320  -5.3924  -5.3902  -5.3497
    -5.3410  -5.3006  -5.2368  -5.2214  -5.1055  -4.9590  -4.7028  -4.5925
    -4.5754  -4.3891  -4.3633  -4.3137  -4.1546  -4.1287  -3.9580  -3.9361
    -3.7317  -3.6656  -3.6115  -3.4774  -3.4236  -3.3933  -3.2254  -3.2196
    -3.0920  -3.0782  -2.9942  -2.9290  -2.8980  -2.8890  -2.8450  -2.7401
    -2.7290  -2.6485  -2.6350  -2.5126  -2.4525  -2.4067  -2.4052  -2.2147
    -2.1833  -1.9369  -1.9329  -1.8620  -1.7539  -1.6546  -1.6465  -1.5975
    -1.5337  -1.3082  -1.2756  -0.9469  -0.8632  -0.7356  -0.7031  -0.6337
    -0.0520   0.0412   0.2300   0.2940   0.4168   0.4408   0.5955   0.6380
     0.6891   0.7318   0.7579   0.7715   0.9215   0.9286   0.9601   0.9839
     1.0202   1.1499   1.2174   1.2920   1.2981   1.3753   1.4126   1.5082
     1.8033   1.8312   1.9040   1.9563   2.0034   2.0941   2.1543   2.2454
     2.3299   2.3660   2.4509   2.6193   2.7448   2.7875   2.9029   3.1565
     3.7198   3.9377   3.9680   4.0790   4.5045   4.6743   4.7339   5.0351
     5.1565   5.2740   5.3412   5.5025   5.5874   5.5977   5.6874   5.7318
     5.8493   6.0102

          k = 0.2500-0.4891 0.0000 ( 81830 PWs)   bands (ev):

   -72.1710 -72.1633 -72.1232 -72.1159 -72.1002 -72.0993 -72.0928 -72.0917
   -71.9994 -71.9918 -71.7775 -71.7700 -42.4175 -42.4095 -42.3092 -42.3036
   -42.3008 -42.2413 -42.2389 -42.2110 -42.2044 -42.1727 -42.1695 -42.1691
   -42.1587 -42.1185 -42.1020 -42.0940 -42.0606 -42.0421 -42.0243 -41.9961
   -41.9937 -41.9801 -41.9771 -41.9685 -41.9456 -41.9226 -41.9178 -41.8954
   -41.8704 -41.8564 -41.8489 -41.8449 -41.8330 -41.7174 -41.6543 -41.6309
   -18.4993 -17.9881 -17.9818 -17.9399 -17.8493 -17.7853 -17.7053 -17.6839
   -17.6176 -17.5750 -17.5474 -17.4891 -17.4014 -17.3083 -17.2278 -17.2092
   -17.1684 -17.1150 -17.1131 -16.9597 -16.6177 -16.4443 -15.7727 -15.7400
    -6.6593  -5.9404  -5.8143  -5.8131  -5.7685  -5.6835  -5.6584  -5.5794
    -5.5637  -5.4978  -5.4960  -5.4606  -5.4354  -5.4238  -5.3795  -5.3633
    -5.3448  -5.3409  -5.3118  -5.2744  -5.2577  -4.7253  -4.6132  -4.5717
    -4.5099  -4.4824  -4.3351  -4.2605  -4.1976  -4.1137  -4.0662  -3.9665
    -3.8255  -3.8254  -3.7765  -3.7659  -3.7301  -3.5647  -3.5570  -3.4384
    -3.3726  -3.2169  -3.1908  -3.1349  -3.0865  -3.0237  -3.0224  -2.9402
    -2.9021  -2.8777  -2.7422  -2.7044  -2.6013  -2.4378  -2.4116  -2.1492
    -1.9725  -1.8958  -1.8819  -1.7145  -1.6607  -1.5871  -1.5157  -1.3879
    -1.2939  -1.2683  -1.2051  -1.0633  -0.9817  -0.9600  -0.6970  -0.6557
    -0.1213  -0.0479   0.0543   0.1173   0.1995   0.3402   0.4992   0.6733
     0.7147   0.7865   0.8231   0.9640   1.0333   1.0850   1.0911   1.1147
     1.2734   1.3324   1.3419   1.3735   1.4442   1.4874   1.6092   1.6442
     1.6516   1.8109   2.0034   2.0074   2.0293   2.0443   2.1166   2.1903
     2.2956   2.4073   2.4585   2.4694   2.8748   2.9263   3.0142   3.3035
     3.4901   3.5001   3.6479   3.8440   4.6798   4.6805   4.7521   4.9089
     4.9141   5.0243   5.2592   5.4693   5.6638   5.7728   5.8189   5.8393
     6.2182   6.2369

          k = 0.2500-0.2445 0.0000 ( 81774 PWs)   bands (ev):

   -72.1710 -72.1633 -72.1232 -72.1159 -72.1010 -72.0986 -72.0930 -72.0915
   -71.9994 -71.9918 -71.7775 -71.7700 -42.4175 -42.4095 -42.3092 -42.3036
   -42.3006 -42.2433 -42.2359 -42.2121 -42.2035 -42.1710 -42.1694 -42.1672
   -42.1584 -42.1219 -42.1080 -42.0938 -42.0606 -42.0421 -42.0246 -41.9960
   -41.9937 -41.9804 -41.9771 -41.9685 -41.9433 -41.9226 -41.9178 -41.8954
   -41.8704 -41.8543 -41.8489 -41.8461 -41.8329 -41.7175 -41.6529 -41.6309
   -18.5693 -18.1476 -18.0492 -17.9935 -17.9472 -17.8664 -17.6742 -17.6297
   -17.5454 -17.5441 -17.4945 -17.3834 -17.3765 -17.3295 -17.2178 -17.1560
   -17.0863 -17.0440 -17.0145 -16.9589 -16.6172 -16.4450 -15.7725 -15.7418
    -6.6700  -6.3750  -6.3172  -6.2854  -5.9124  -5.9023  -5.7737  -5.7647
    -5.7050  -5.6385  -5.5827  -5.4970  -5.4320  -5.3924  -5.3902  -5.3497
    -5.3410  -5.3006  -5.2368  -5.2214  -5.1055  -4.9590  -4.7028  -4.5925
    -4.5754  -4.3891  -4.3633  -4.3137  -4.1546  -4.1287  -3.9580  -3.9361
    -3.7317  -3.6656  -3.6115  -3.4774  -3.4236  -3.3933  -3.2254  -3.2196
    -3.0920  -3.0782  -2.9942  -2.9290  -2.8980  -2.8890  -2.8450  -2.7401
    -2.7290  -2.6485  -2.6350  -2.5126  -2.4525  -2.4067  -2.4052  -2.2147
    -2.1833  -1.9369  -1.9329  -1.8620  -1.7539  -1.6546  -1.6465  -1.5975
    -1.5337  -1.3082  -1.2756  -0.9469  -0.8632  -0.7356  -0.7031  -0.6337
    -0.0520   0.0412   0.2300   0.2940   0.4168   0.4408   0.5955   0.6380
     0.6891   0.7318   0.7579   0.7715   0.9215   0.9286   0.9601   0.9839
     1.0202   1.1499   1.2174   1.2920   1.2981   1.3753   1.4126   1.5082
     1.8033   1.8312   1.9040   1.9563   2.0034   2.0941   2.1543   2.2454
     2.3299   2.3660   2.4509   2.6193   2.7448   2.7875   2.9029   3.1565
     3.7198   3.9377   3.9680   4.0790   4.5045   4.6743   4.7339   5.0351
     5.1565   5.2740   5.3412   5.5025   5.5874   5.5977   5.6874   5.7318
     5.8493   6.0102

          k =-0.5000 0.0000 0.0000 ( 81894 PWs)   bands (ev):

   -72.1672 -72.1672 -72.1195 -72.1195 -72.0973 -72.0973 -72.0947 -72.0947
   -71.9956 -71.9956 -71.7738 -71.7737 -42.4133 -42.4133 -42.3046 -42.3046
   -42.2390 -42.2390 -42.2370 -42.2370 -42.2079 -42.2079 -42.1664 -42.1664
   -42.0953 -42.0953 -42.0611 -42.0611 -42.0496 -42.0496 -42.0476 -42.0475
   -42.0314 -42.0314 -41.9847 -41.9847 -41.9319 -41.9319 -41.9065 -41.9065
   -41.8596 -41.8596 -41.8425 -41.8425 -41.7829 -41.7828 -41.6413 -41.6412
   -18.3043 -18.3043 -17.9975 -17.9975 -17.8893 -17.8893 -17.7616 -17.7616
   -17.6733 -17.6733 -17.3477 -17.3477 -17.1774 -17.1774 -17.1133 -17.1133
   -17.0831 -17.0831 -17.0398 -17.0398 -16.5966 -16.5966 -15.7994 -15.7994
    -6.3720  -6.3719  -6.2979  -6.2979  -6.2543  -6.2543  -6.0803  -6.0803
    -5.7563  -5.7563  -5.7164  -5.7164  -5.5840  -5.5840  -5.3924  -5.3924
    -5.2253  -5.2253  -5.0816  -5.0816  -4.8529  -4.8529  -4.7333  -4.7333
    -4.2523  -4.2523  -4.1409  -4.1409  -3.9049  -3.9049  -3.8171  -3.8171
    -3.7492  -3.7492  -3.6594  -3.6594  -3.5502  -3.5502  -3.3137  -3.3137
    -3.0640  -3.0640  -2.8637  -2.8637  -2.7648  -2.7648  -2.6361  -2.6361
    -2.6270  -2.6270  -2.5341  -2.5341  -2.4130  -2.4130  -2.2670  -2.2670
    -2.0897  -2.0897  -1.9328  -1.9328  -1.9072  -1.9072  -1.8096  -1.8096
    -1.5785  -1.5785  -1.0367  -1.0367  -0.8348  -0.8348  -0.6860  -0.6860
     0.1321   0.1321   0.2219   0.2219   0.3697   0.3697   0.5543   0.5543
     0.7013   0.7013   0.8923   0.8923   1.0043   1.0043   1.1296   1.1296
     1.1458   1.1459   1.3403   1.3403   1.5276   1.5276   1.5627   1.5627
     1.7693   1.7693   1.8176   1.8176   2.0738   2.0738   2.0793   2.0793
     2.3188   2.3188   2.5121   2.5121   2.7499   2.7500   2.9132   2.9132
     4.2851   4.2851   4.6702   4.6702   4.8141   4.8141   5.0196   5.0196
     5.0761   5.0761   5.0999   5.0999   5.1836   5.1836   5.2258   5.2258
     5.4174   5.4174

          k =-0.5000 0.2445 0.0000 ( 81810 PWs)   bands (ev):

   -72.1672 -72.1672 -72.1195 -72.1195 -72.0970 -72.0970 -72.0950 -72.0950
   -71.9956 -71.9956 -71.7738 -71.7737 -42.4133 -42.4133 -42.3047 -42.3047
   -42.2390 -42.2390 -42.2371 -42.2371 -42.2077 -42.2077 -42.1671 -42.1671
   -42.0953 -42.0953 -42.0600 -42.0600 -42.0486 -42.0486 -42.0468 -42.0467
   -42.0315 -42.0315 -41.9847 -41.9847 -41.9330 -41.9330 -41.9065 -41.9065
   -41.8596 -41.8596 -41.8436 -41.8436 -41.7823 -41.7822 -41.6420 -41.6418
   -18.2602 -18.2602 -17.9162 -17.9162 -17.8324 -17.8324 -17.6995 -17.6995
   -17.6564 -17.6564 -17.3783 -17.3783 -17.3005 -17.3005 -17.2051 -17.2051
   -17.1510 -17.1510 -17.0596 -17.0596 -16.5957 -16.5957 -15.7989 -15.7989
    -6.2056  -6.2056  -5.9756  -5.9756  -5.9430  -5.9430  -5.9360  -5.9360
    -5.7504  -5.7504  -5.7122  -5.7122  -5.4287  -5.4287  -5.2553  -5.2553
    -5.2255  -5.2255  -5.0753  -5.0753  -4.8838  -4.8838  -4.5623  -4.5623
    -4.2939  -4.2939  -4.2502  -4.2502  -4.1310  -4.1310  -4.0889  -4.0889
    -3.9060  -3.9060  -3.8022  -3.8022  -3.6283  -3.6283  -3.5382  -3.5382
    -3.1502  -3.1502  -2.9735  -2.9735  -2.8855  -2.8855  -2.7865  -2.7865
    -2.6925  -2.6925  -2.6364  -2.6364  -2.5959  -2.5959  -2.3954  -2.3954
    -2.1615  -2.1615  -1.8424  -1.8424  -1.8007  -1.8007  -1.7469  -1.7469
    -1.5539  -1.5539  -1.0561  -1.0561  -0.8500  -0.8500  -0.7287  -0.7287
    -0.0332  -0.0331   0.3375   0.3375   0.4127   0.4127   0.6437   0.6437
     0.9247   0.9247   1.0464   1.0464   1.1396   1.1396   1.2214   1.2214
     1.2620   1.2620   1.3110   1.3110   1.5638   1.5639   1.6757   1.6757
     1.8161   1.8161   1.8439   1.8439   1.9782   1.9782   2.1178   2.1178
     2.1989   2.1989   2.3337   2.3337   2.8912   2.8913   3.0576   3.0576
     4.3244   4.3244   4.4018   4.4018   4.4955   4.4955   4.5709   4.5709
     4.8468   4.8468   5.0269   5.0269   5.2545   5.2545   5.6830   5.6830
     5.8473   5.8474

          k =-0.5000-0.4891 0.0000 ( 81784 PWs)   bands (ev):

   -72.1672 -72.1671 -72.1195 -72.1195 -72.0965 -72.0965 -72.0955 -72.0955
   -71.9956 -71.9956 -71.7738 -71.7737 -42.4133 -42.4133 -42.3047 -42.3047
   -42.2390 -42.2390 -42.2372 -42.2372 -42.2076 -42.2076 -42.1677 -42.1677
   -42.0954 -42.0954 -42.0588 -42.0588 -42.0484 -42.0483 -42.0452 -42.0452
   -42.0316 -42.0316 -41.9847 -41.9847 -41.9340 -41.9340 -41.9066 -41.9066
   -41.8597 -41.8597 -41.8447 -41.8447 -41.7817 -41.7816 -41.6426 -41.6425
   -18.2139 -18.2139 -17.8139 -17.8139 -17.7458 -17.7458 -17.5894 -17.5894
   -17.5876 -17.5876 -17.4608 -17.4608 -17.4218 -17.4218 -17.4002 -17.4002
   -17.2424 -17.2424 -17.0541 -17.0541 -16.5952 -16.5952 -15.7985 -15.7985
    -6.1626  -6.1626  -5.7734  -5.7734  -5.7126  -5.7126  -5.5001  -5.5001
    -5.4619  -5.4619  -5.4543  -5.4543  -5.2840  -5.2840  -5.1394  -5.1394
    -5.0682  -5.0682  -4.9911  -4.9911  -4.8355  -4.8355  -4.7421  -4.7421
    -4.7194  -4.7194  -4.6167  -4.6167  -4.3141  -4.3141  -4.1729  -4.1729
    -3.9864  -3.9864  -3.8457  -3.8457  -3.5631  -3.5630  -3.4096  -3.4096
    -3.3497  -3.3497  -3.3456  -3.3456  -3.2403  -3.2403  -3.1607  -3.1607
    -3.0105  -3.0105  -2.9977  -2.9977  -2.8220  -2.8220  -2.3067  -2.3067
    -1.9258  -1.9258  -1.7247  -1.7247  -1.5598  -1.5597  -1.4872  -1.4872
    -1.4247  -1.4247  -1.1582  -1.1582  -0.9381  -0.9381  -0.7525  -0.7525
     0.1637   0.1637   0.1677   0.1677   0.4711   0.4712   0.6061   0.6062
     0.6862   0.6863   1.0718   1.0718   1.3523   1.3523   1.3524   1.3524
     1.3712   1.3712   1.5698   1.5698   1.7179   1.7179   1.8247   1.8247
     1.8726   1.8726   1.9402   1.9403   1.9679   1.9679   2.0093   2.0093
     2.1451   2.1451   2.2435   2.2435   2.9933   2.9934   3.1709   3.1709
     4.0411   4.0411   4.0446   4.0446   4.1565   4.1566   4.3973   4.3973
     4.8553   4.8553   5.0294   5.0294   5.4121   5.4121   5.9488   5.9488
     6.0371   6.0371

          k =-0.5000-0.2445 0.0000 ( 81810 PWs)   bands (ev):

   -72.1672 -72.1672 -72.1195 -72.1195 -72.0970 -72.0970 -72.0950 -72.0950
   -71.9956 -71.9956 -71.7738 -71.7737 -42.4133 -42.4133 -42.3047 -42.3047
   -42.2390 -42.2390 -42.2371 -42.2371 -42.2077 -42.2077 -42.1671 -42.1671
   -42.0953 -42.0953 -42.0600 -42.0600 -42.0486 -42.0486 -42.0468 -42.0467
   -42.0315 -42.0315 -41.9847 -41.9847 -41.9330 -41.9330 -41.9065 -41.9065
   -41.8596 -41.8596 -41.8436 -41.8436 -41.7823 -41.7822 -41.6420 -41.6418
   -18.2602 -18.2602 -17.9162 -17.9162 -17.8324 -17.8324 -17.6995 -17.6995
   -17.6564 -17.6564 -17.3783 -17.3783 -17.3005 -17.3005 -17.2051 -17.2051
   -17.1510 -17.1510 -17.0596 -17.0596 -16.5957 -16.5957 -15.7989 -15.7989
    -6.2056  -6.2056  -5.9756  -5.9756  -5.9430  -5.9430  -5.9360  -5.9360
    -5.7504  -5.7504  -5.7122  -5.7122  -5.4287  -5.4287  -5.2553  -5.2553
    -5.2255  -5.2255  -5.0753  -5.0753  -4.8838  -4.8838  -4.5623  -4.5623
    -4.2939  -4.2939  -4.2502  -4.2502  -4.1310  -4.1310  -4.0889  -4.0889
    -3.9060  -3.9060  -3.8022  -3.8022  -3.6283  -3.6283  -3.5382  -3.5382
    -3.1502  -3.1502  -2.9735  -2.9735  -2.8855  -2.8855  -2.7865  -2.7865
    -2.6925  -2.6925  -2.6364  -2.6364  -2.5959  -2.5959  -2.3954  -2.3954
    -2.1615  -2.1615  -1.8424  -1.8424  -1.8007  -1.8007  -1.7469  -1.7469
    -1.5539  -1.5539  -1.0561  -1.0561  -0.8500  -0.8500  -0.7287  -0.7287
    -0.0332  -0.0331   0.3375   0.3375   0.4127   0.4127   0.6437   0.6437
     0.9247   0.9247   1.0464   1.0464   1.1396   1.1396   1.2214   1.2214
     1.2620   1.2620   1.3110   1.3110   1.5638   1.5639   1.6757   1.6757
     1.8161   1.8161   1.8439   1.8439   1.9782   1.9782   2.1178   2.1178
     2.1989   2.1989   2.3337   2.3337   2.8912   2.8913   3.0576   3.0576
     4.3244   4.3244   4.4018   4.4018   4.4955   4.4955   4.5709   4.5709
     4.8468   4.8468   5.0269   5.0269   5.2545   5.2545   5.6830   5.6830
     5.8473   5.8474

          k =-0.2500 0.0000 0.0000 ( 81703 PWs)   bands (ev):

   -72.1710 -72.1633 -72.1232 -72.1159 -72.1014 -72.0981 -72.0931 -72.0914
   -71.9994 -71.9918 -71.7775 -71.7700 -42.4175 -42.4095 -42.3092 -42.3036
   -42.3004 -42.2453 -42.2327 -42.2132 -42.2026 -42.1726 -42.1696 -42.1603
   -42.1581 -42.1254 -42.1153 -42.0936 -42.0606 -42.0421 -42.0249 -41.9957
   -41.9937 -41.9806 -41.9772 -41.9685 -41.9411 -41.9226 -41.9177 -41.8954
   -41.8704 -41.8523 -41.8489 -41.8473 -41.8327 -41.7176 -41.6516 -41.6308
   -18.6343 -18.2698 -18.1356 -18.0086 -17.9986 -17.8789 -17.6431 -17.5686
   -17.5426 -17.5053 -17.4730 -17.3604 -17.3183 -17.3109 -17.2878 -17.2231
   -16.9882 -16.9578 -16.9328 -16.8496 -16.6167 -16.4465 -15.7724 -15.7439
    -6.8186  -6.7668  -6.7252  -6.6127  -5.9768  -5.9173  -5.7673  -5.7604
    -5.7032  -5.6506  -5.5687  -5.5335  -5.5284  -5.5225  -5.4897  -5.3893
    -5.3297  -5.2235  -5.1853  -5.1790  -5.1456  -4.9573  -4.7128  -4.7060
    -4.5928  -4.4718  -4.4380  -4.3432  -4.2610  -4.0309  -4.0127  -3.9187
    -3.7845  -3.6749  -3.4283  -3.3413  -3.1224  -3.1143  -3.0838  -3.0642
    -3.0297  -3.0081  -2.9152  -2.8468  -2.7988  -2.7907  -2.6130  -2.6095
    -2.5783  -2.4850  -2.4268  -2.4095  -2.3363  -2.2818  -2.1708  -2.1038
    -2.0656  -2.0407  -1.9463  -1.7426  -1.7173  -1.7142  -1.6222  -1.5433
    -1.5232  -1.4690  -1.1736  -0.9761  -0.9591  -0.6715  -0.5946  -0.5234
     0.0080   0.0384   0.0659   0.2388   0.3873   0.3937   0.5048   0.5741
     0.5766   0.5936   0.6613   0.7539   0.7988   0.8288   0.8291   1.0141
     1.0272   1.0291   1.2481   1.2790   1.3050   1.4175   1.4749   1.5606
     1.5616   1.7869   1.7934   1.8070   1.9100   1.9907   2.0391   2.2613
     2.4561   2.5266   2.5664   2.5665   2.6305   2.7848   2.9260   2.9414
     3.7393   4.2602   4.6258   4.6487   4.6703   4.7007   4.7750   4.8839
     4.9736   5.1410   5.1649   5.3553   5.3715   5.4433   5.6664   5.6776
     5.7085   5.7680

          k =-0.2500 0.2445 0.0000 ( 81774 PWs)   bands (ev):

   -72.1710 -72.1633 -72.1232 -72.1159 -72.1010 -72.0986 -72.0930 -72.0915
   -71.9994 -71.9918 -71.7775 -71.7700 -42.4175 -42.4095 -42.3092 -42.3036
   -42.3006 -42.2433 -42.2359 -42.2121 -42.2035 -42.1710 -42.1694 -42.1672
   -42.1584 -42.1219 -42.1080 -42.0938 -42.0606 -42.0421 -42.0246 -41.9960
   -41.9937 -41.9804 -41.9771 -41.9685 -41.9433 -41.9226 -41.9178 -41.8954
   -41.8704 -41.8543 -41.8489 -41.8461 -41.8329 -41.7175 -41.6529 -41.6309
   -18.5693 -18.1476 -18.0492 -17.9935 -17.9472 -17.8664 -17.6742 -17.6297
   -17.5454 -17.5441 -17.4945 -17.3834 -17.3765 -17.3295 -17.2178 -17.1560
   -17.0863 -17.0440 -17.0145 -16.9589 -16.6172 -16.4450 -15.7725 -15.7418
    -6.6700  -6.3750  -6.3172  -6.2854  -5.9124  -5.9023  -5.7737  -5.7647
    -5.7050  -5.6385  -5.5827  -5.4970  -5.4320  -5.3924  -5.3902  -5.3497
    -5.3410  -5.3006  -5.2368  -5.2214  -5.1055  -4.9590  -4.7028  -4.5925
    -4.5754  -4.3891  -4.3633  -4.3137  -4.1546  -4.1287  -3.9580  -3.9361
    -3.7317  -3.6656  -3.6115  -3.4774  -3.4236  -3.3933  -3.2254  -3.2196
    -3.0920  -3.0782  -2.9942  -2.9290  -2.8980  -2.8890  -2.8450  -2.7401
    -2.7290  -2.6485  -2.6350  -2.5126  -2.4525  -2.4067  -2.4052  -2.2147
    -2.1833  -1.9369  -1.9329  -1.8620  -1.7539  -1.6546  -1.6465  -1.5975
    -1.5337  -1.3082  -1.2756  -0.9469  -0.8632  -0.7356  -0.7031  -0.6337
    -0.0520   0.0412   0.2300   0.2940   0.4168   0.4408   0.5955   0.6380
     0.6891   0.7318   0.7579   0.7715   0.9215   0.9286   0.9601   0.9839
     1.0202   1.1499   1.2174   1.2920   1.2981   1.3753   1.4126   1.5082
     1.8033   1.8312   1.9040   1.9563   2.0034   2.0941   2.1543   2.2454
     2.3299   2.3660   2.4509   2.6193   2.7448   2.7875   2.9029   3.1565
     3.7198   3.9377   3.9680   4.0790   4.5045   4.6743   4.7339   5.0351
     5.1565   5.2740   5.3412   5.5025   5.5874   5.5977   5.6874   5.7318
     5.8493   6.0102

          k =-0.2500-0.4891 0.0000 ( 81830 PWs)   bands (ev):

   -72.1710 -72.1633 -72.1232 -72.1159 -72.1002 -72.0993 -72.0928 -72.0917
   -71.9994 -71.9918 -71.7775 -71.7700 -42.4175 -42.4095 -42.3092 -42.3036
   -42.3008 -42.2413 -42.2389 -42.2110 -42.2044 -42.1727 -42.1695 -42.1691
   -42.1587 -42.1185 -42.1020 -42.0940 -42.0606 -42.0421 -42.0243 -41.9961
   -41.9937 -41.9801 -41.9771 -41.9685 -41.9456 -41.9226 -41.9178 -41.8954
   -41.8704 -41.8564 -41.8489 -41.8449 -41.8330 -41.7174 -41.6543 -41.6309
   -18.4993 -17.9881 -17.9818 -17.9399 -17.8493 -17.7853 -17.7053 -17.6839
   -17.6176 -17.5750 -17.5474 -17.4891 -17.4014 -17.3083 -17.2278 -17.2092
   -17.1684 -17.1150 -17.1131 -16.9597 -16.6177 -16.4443 -15.7727 -15.7400
    -6.6593  -5.9404  -5.8143  -5.8131  -5.7685  -5.6835  -5.6584  -5.5794
    -5.5637  -5.4978  -5.4960  -5.4606  -5.4354  -5.4238  -5.3795  -5.3633
    -5.3448  -5.3409  -5.3118  -5.2744  -5.2577  -4.7253  -4.6132  -4.5717
    -4.5099  -4.4824  -4.3351  -4.2605  -4.1976  -4.1137  -4.0662  -3.9665
    -3.8255  -3.8254  -3.7765  -3.7659  -3.7301  -3.5647  -3.5570  -3.4384
    -3.3726  -3.2169  -3.1908  -3.1349  -3.0865  -3.0237  -3.0224  -2.9402
    -2.9021  -2.8777  -2.7422  -2.7044  -2.6013  -2.4378  -2.4116  -2.1492
    -1.9725  -1.8958  -1.8819  -1.7145  -1.6607  -1.5871  -1.5157  -1.3879
    -1.2939  -1.2683  -1.2051  -1.0633  -0.9817  -0.9600  -0.6970  -0.6557
    -0.1213  -0.0479   0.0543   0.1173   0.1995   0.3402   0.4992   0.6733
     0.7147   0.7865   0.8231   0.9640   1.0333   1.0850   1.0911   1.1147
     1.2734   1.3324   1.3419   1.3735   1.4442   1.4874   1.6092   1.6442
     1.6516   1.8109   2.0034   2.0074   2.0293   2.0443   2.1166   2.1903
     2.2956   2.4073   2.4585   2.4694   2.8748   2.9263   3.0142   3.3035
     3.4901   3.5001   3.6479   3.8440   4.6798   4.6805   4.7521   4.9089
     4.9141   5.0243   5.2592   5.4693   5.6638   5.7728   5.8189   5.8393
     6.2182   6.2369

          k =-0.2500-0.2445 0.0000 ( 81774 PWs)   bands (ev):

   -72.1710 -72.1633 -72.1232 -72.1159 -72.1010 -72.0986 -72.0930 -72.0915
   -71.9994 -71.9918 -71.7775 -71.7700 -42.4175 -42.4095 -42.3092 -42.3036
   -42.3006 -42.2433 -42.2359 -42.2121 -42.2035 -42.1710 -42.1694 -42.1672
   -42.1584 -42.1219 -42.1080 -42.0938 -42.0606 -42.0421 -42.0246 -41.9960
   -41.9937 -41.9804 -41.9771 -41.9685 -41.9433 -41.9226 -41.9178 -41.8954
   -41.8704 -41.8543 -41.8489 -41.8461 -41.8329 -41.7175 -41.6529 -41.6309
   -18.5693 -18.1476 -18.0492 -17.9935 -17.9472 -17.8664 -17.6742 -17.6297
   -17.5454 -17.5441 -17.4945 -17.3834 -17.3765 -17.3295 -17.2178 -17.1560
   -17.0863 -17.0440 -17.0145 -16.9589 -16.6172 -16.4450 -15.7725 -15.7418
    -6.6700  -6.3750  -6.3172  -6.2854  -5.9124  -5.9023  -5.7737  -5.7647
    -5.7050  -5.6385  -5.5827  -5.4970  -5.4320  -5.3924  -5.3902  -5.3497
    -5.3410  -5.3006  -5.2368  -5.2214  -5.1055  -4.9590  -4.7028  -4.5925
    -4.5754  -4.3891  -4.3633  -4.3137  -4.1546  -4.1287  -3.9580  -3.9361
    -3.7317  -3.6656  -3.6115  -3.4774  -3.4236  -3.3933  -3.2254  -3.2196
    -3.0920  -3.0782  -2.9942  -2.9290  -2.8980  -2.8890  -2.8450  -2.7401
    -2.7290  -2.6485  -2.6350  -2.5126  -2.4525  -2.4067  -2.4052  -2.2147
    -2.1833  -1.9369  -1.9329  -1.8620  -1.7539  -1.6546  -1.6465  -1.5975
    -1.5337  -1.3082  -1.2756  -0.9469  -0.8632  -0.7356  -0.7031  -0.6337
    -0.0520   0.0412   0.2300   0.2940   0.4168   0.4408   0.5955   0.6380
     0.6891   0.7318   0.7579   0.7715   0.9215   0.9286   0.9601   0.9839
     1.0202   1.1499   1.2174   1.2920   1.2981   1.3753   1.4126   1.5082
     1.8033   1.8312   1.9040   1.9563   2.0034   2.0941   2.1543   2.2454
     2.3299   2.3660   2.4509   2.6193   2.7448   2.7875   2.9029   3.1565
     3.7198   3.9377   3.9680   4.0790   4.5045   4.6743   4.7339   5.0351
     5.1565   5.2740   5.3412   5.5025   5.5874   5.5977   5.6874   5.7318
     5.8493   6.0102

 ------ SPIN DOWN ----------


          k = 0.0000 0.0000 0.0000 ( 81707 PWs)   bands (ev):

   -72.5221 -72.5207 -72.5113 -72.5105 -72.1863 -72.1755 -71.9523 -71.9417
   -71.8313 -71.8204 -71.6332 -71.6226 -42.7308 -42.6582 -42.6452 -42.6330
   -42.6084 -42.5946 -42.5559 -42.5437 -42.5302 -42.5260 -42.4992 -42.4594
   -42.3972 -42.3825 -42.2880 -42.1559 -42.1444 -42.1182 -42.0997 -42.0781
   -42.0135 -42.0059 -41.9831 -41.9487 -41.7988 -41.7888 -41.7776 -41.7590
   -41.7510 -41.7211 -41.7195 -41.6321 -41.6003 -41.5340 -41.4635 -41.4319
   -18.7591 -18.3752 -18.2323 -18.1052 -18.0190 -17.7236 -17.6346 -17.5096
   -17.4953 -17.4701 -17.4412 -17.4161 -17.3996 -17.3650 -17.3285 -17.2722
   -17.0663 -16.8754 -16.8261 -16.8084 -16.7455 -16.5691 -16.0431 -15.9819
    -6.9963  -6.9370  -6.9238  -6.8203  -6.0822  -6.0333  -5.7598  -5.7456
    -5.6327  -5.5422  -5.5200  -5.4636  -5.4631  -5.3982  -5.3882  -5.3810
    -5.3312  -5.3084  -5.2889  -5.2803  -5.2034  -5.1349  -5.1101  -4.9174
    -4.7644  -4.7513  -4.7354  -4.7122  -4.4632  -4.3073  -3.8869  -3.6706
    -3.4059  -3.3842  -3.3321  -3.3281  -3.3130  -3.1982  -3.1733  -3.0937
    -3.0512  -3.0190  -2.9656  -2.8768  -2.8551  -2.7206  -2.6873  -2.5192
    -2.5074  -2.4428  -2.4066  -2.2191  -2.1997  -2.1616  -2.1387  -2.1380
    -2.0371  -1.9337  -1.8678  -1.8191  -1.8142  -1.5532  -1.5346  -1.4031
    -1.3522  -1.2503  -1.2012  -1.0146  -0.9957  -0.7622  -0.6710  -0.5128
    -0.2794  -0.1891  -0.0545  -0.0343   0.0608   0.1337   0.1443   0.2120
     0.3495   0.4209   0.4224   0.4610   0.5269   0.5959   0.8026   0.8937
     0.9058   0.9278   0.9786   0.9814   1.0243   1.1410   1.1825   1.2086
     1.2427   1.3336   1.8210   1.8573   1.9110   1.9395   2.2990   2.3652
     2.4148   2.4225   2.4342   2.4551   2.6503   2.8039   2.9738   3.0342
     3.3034   4.1353   4.2895   4.6228   4.6446   4.6648   4.7132   4.7723
     4.8327   4.9046   4.9746   5.0935   5.5087   5.6298   5.8837   5.8859
     5.8939   6.0643

          k = 0.0000 0.2445 0.0000 ( 81832 PWs)   bands (ev):

   -72.5221 -72.5207 -72.5113 -72.5105 -72.1863 -72.1755 -71.9523 -71.9417
   -71.8313 -71.8204 -71.6332 -71.6226 -42.7308 -42.6576 -42.6456 -42.6330
   -42.6077 -42.5953 -42.5559 -42.5437 -42.5302 -42.5260 -42.4992 -42.4594
   -42.3960 -42.3836 -42.2881 -42.1558 -42.1444 -42.1183 -42.0996 -42.0781
   -42.0135 -42.0059 -41.9819 -41.9480 -41.7989 -41.7888 -41.7776 -41.7590
   -41.7523 -41.7210 -41.7190 -41.6329 -41.6002 -41.5340 -41.4643 -41.4318
   -18.6883 -18.2484 -18.1541 -18.0375 -18.0178 -17.7175 -17.6605 -17.6449
   -17.6104 -17.5732 -17.5596 -17.4561 -17.4222 -17.2321 -17.1211 -17.1000
   -17.0675 -17.0003 -16.9675 -16.9243 -16.8084 -16.5663 -16.0426 -15.9789
    -6.8601  -6.5366  -6.4613  -6.4530  -6.0735  -6.0043  -5.9176  -5.8259
    -5.7451  -5.7387  -5.6986  -5.4591  -5.4203  -5.3944  -5.3769  -5.3416
    -5.2997  -5.2810  -5.2449  -5.2023  -5.1973  -5.1758  -5.1041  -4.9371
    -4.8899  -4.5505  -4.5377  -4.1146  -4.1048  -3.9624  -3.8915  -3.6449
    -3.6295  -3.6216  -3.5924  -3.5130  -3.4203  -3.3451  -3.3088  -3.2801
    -3.1995  -3.0455  -2.9890  -2.8708  -2.7912  -2.7772  -2.7367  -2.6446
    -2.6326  -2.5177  -2.4058  -2.3965  -2.3859  -2.2990  -2.2066  -2.1973
    -2.0965  -2.0278  -2.0174  -1.8659  -1.8433  -1.8201  -1.7920  -1.5590
    -1.4133  -1.3650  -1.3405  -1.2419  -1.0201  -0.9773  -0.8579  -0.6296
     0.0452   0.0515   0.0765   0.1662   0.2106   0.2239   0.2309   0.3918
     0.5030   0.5273   0.5502   0.6001   0.6018   0.6336   0.6610   0.7142
     0.7870   0.9345   0.9346   0.9921   1.0725   1.0771   1.1614   1.2038
     1.2060   1.3565   1.8356   1.8878   2.2473   2.2847   2.2930   2.3288
     2.3689   2.3729   2.5064   2.5932   2.6321   2.7991   2.8978   3.2230
     3.3431   3.7188   3.8259   3.8940   4.2931   4.3945   4.7331   5.0725
     5.2008   5.5083   5.6175   5.7094   5.8155   5.8748   5.8846   5.9053
     5.9359   5.9523

          k = 0.0000-0.4891 0.0000 ( 81886 PWs)   bands (ev):

   -72.5221 -72.5207 -72.5113 -72.5105 -72.1863 -72.1755 -71.9523 -71.9417
   -71.8313 -71.8204 -71.6332 -71.6226 -42.7309 -42.6570 -42.6461 -42.6331
   -42.6070 -42.5959 -42.5559 -42.5436 -42.5302 -42.5260 -42.4992 -42.4594
   -42.3948 -42.3847 -42.2883 -42.1557 -42.1444 -42.1184 -42.0996 -42.0781
   -42.0135 -42.0059 -41.9807 -41.9472 -41.7990 -41.7888 -41.7776 -41.7590
   -41.7537 -41.7208 -41.7184 -41.6338 -41.6001 -41.5340 -41.4651 -41.4317
   -18.6104 -18.1202 -18.0197 -18.0167 -17.8539 -17.7794 -17.7231 -17.7111
   -17.7006 -17.6634 -17.6417 -17.4369 -17.4286 -17.1495 -17.1495 -17.1373
   -17.1037 -17.0687 -17.0213 -17.0034 -16.8084 -16.5661 -16.0422 -15.9767
    -6.8557  -6.1038  -6.0954  -6.0256  -5.9769  -5.9169  -5.8325  -5.7494
    -5.7443  -5.7144  -5.6373  -5.4198  -5.4132  -5.3909  -5.2883  -5.2573
    -5.2485  -5.2281  -5.2251  -5.2069  -5.1383  -5.0610  -5.0232  -4.9297
    -4.6785  -4.6388  -4.6160  -4.2873  -4.2715  -4.1780  -4.1625  -3.8584
    -3.8426  -3.7465  -3.6821  -3.6561  -3.5182  -3.3510  -3.2020  -3.1825
    -3.1801  -3.0366  -3.0341  -2.9781  -2.9584  -2.8805  -2.8459  -2.7708
    -2.7539  -2.7449  -2.6361  -2.5974  -2.5668  -2.4713  -2.3626  -2.1454
    -2.1072  -2.0847  -1.8171  -1.7818  -1.7170  -1.7097  -1.5690  -1.5394
    -1.4738  -1.4630  -1.4210  -1.2678  -1.0080  -1.0078  -0.9237  -0.8143
    -0.5283  -0.2570  -0.0704  -0.0104   0.0823   0.1873   0.1983   0.2415
     0.6010   0.6467   0.6951   0.7601   0.8637   0.8905   0.9742   0.9799
     1.0020   1.0232   1.0348   1.0832   1.0961   1.1668   1.1748   1.1756
     1.3587   1.4223   1.6396   1.8552   1.9806   2.1453   2.2513   2.3860
     2.4011   2.5504   2.5826   2.7199   2.7311   2.8832   2.9687   3.3736
     3.3785   3.4332   3.4446   3.5097   4.2963   4.4943   4.7529   5.2925
     5.5065   5.5426   5.5821   5.6146   5.6404   5.6961   5.9130   6.0158
     6.0261   6.2083

          k = 0.0000-0.2445 0.0000 ( 81832 PWs)   bands (ev):

   -72.5221 -72.5207 -72.5113 -72.5105 -72.1863 -72.1755 -71.9523 -71.9417
   -71.8313 -71.8204 -71.6332 -71.6226 -42.7308 -42.6576 -42.6456 -42.6330
   -42.6077 -42.5953 -42.5559 -42.5437 -42.5302 -42.5260 -42.4992 -42.4594
   -42.3960 -42.3836 -42.2881 -42.1558 -42.1444 -42.1183 -42.0996 -42.0781
   -42.0135 -42.0059 -41.9819 -41.9480 -41.7989 -41.7888 -41.7776 -41.7590
   -41.7523 -41.7210 -41.7190 -41.6329 -41.6002 -41.5340 -41.4643 -41.4318
   -18.6883 -18.2484 -18.1541 -18.0375 -18.0178 -17.7175 -17.6605 -17.6449
   -17.6104 -17.5732 -17.5596 -17.4561 -17.4222 -17.2321 -17.1211 -17.1000
   -17.0675 -17.0003 -16.9675 -16.9243 -16.8084 -16.5663 -16.0426 -15.9789
    -6.8601  -6.5366  -6.4613  -6.4530  -6.0735  -6.0043  -5.9176  -5.8259
    -5.7451  -5.7387  -5.6986  -5.4591  -5.4203  -5.3944  -5.3769  -5.3416
    -5.2997  -5.2810  -5.2449  -5.2023  -5.1973  -5.1758  -5.1041  -4.9371
    -4.8899  -4.5505  -4.5377  -4.1146  -4.1048  -3.9624  -3.8915  -3.6449
    -3.6295  -3.6216  -3.5924  -3.5130  -3.4203  -3.3451  -3.3088  -3.2801
    -3.1995  -3.0455  -2.9890  -2.8708  -2.7912  -2.7772  -2.7367  -2.6446
    -2.6326  -2.5177  -2.4058  -2.3965  -2.3859  -2.2990  -2.2066  -2.1973
    -2.0965  -2.0278  -2.0174  -1.8659  -1.8433  -1.8201  -1.7920  -1.5590
    -1.4133  -1.3650  -1.3405  -1.2419  -1.0201  -0.9773  -0.8579  -0.6296
     0.0452   0.0515   0.0765   0.1662   0.2106   0.2239   0.2309   0.3918
     0.5030   0.5273   0.5502   0.6001   0.6018   0.6336   0.6610   0.7142
     0.7870   0.9345   0.9346   0.9921   1.0725   1.0771   1.1614   1.2038
     1.2060   1.3565   1.8356   1.8878   2.2473   2.2847   2.2930   2.3288
     2.3689   2.3729   2.5064   2.5932   2.6321   2.7991   2.8978   3.2230
     3.3431   3.7188   3.8259   3.8940   4.2931   4.3945   4.7331   5.0725
     5.2008   5.5083   5.6175   5.7094   5.8155   5.8748   5.8846   5.9053
     5.9359   5.9523

          k = 0.2500 0.0000 0.0000 ( 81703 PWs)   bands (ev):

   -72.5205 -72.5192 -72.5128 -72.5120 -72.1847 -72.1771 -71.9507 -71.9433
   -71.8297 -71.8220 -71.6317 -71.6241 -42.7038 -42.6563 -42.6471 -42.6079
   -42.6064 -42.5967 -42.5720 -42.5516 -42.5304 -42.5252 -42.5037 -42.4851
   -42.3951 -42.3846 -42.2609 -42.1542 -42.1460 -42.1280 -42.1125 -42.0842
   -42.0119 -42.0067 -41.9565 -41.9213 -41.8262 -41.7875 -41.7868 -41.7792
   -41.7466 -41.7255 -41.6927 -41.6274 -41.6049 -41.5615 -41.4589 -41.4366
   -18.6292 -18.2572 -18.1253 -18.0022 -17.9874 -17.8858 -17.6185 -17.5591
   -17.5459 -17.5407 -17.4910 -17.4198 -17.3532 -17.3258 -17.2578 -17.1984
   -17.0053 -16.9552 -16.9153 -16.9028 -16.8262 -16.6470 -16.0820 -16.0319
    -6.8211  -6.7657  -6.7459  -6.6161  -6.0512  -5.9970  -5.8219  -5.7698
    -5.7292  -5.6391  -5.5778  -5.5711  -5.5266  -5.5072  -5.4762  -5.3911
    -5.3730  -5.3314  -5.2873  -5.1725  -5.1596  -5.0423  -4.9299  -4.8434
    -4.6817  -4.4998  -4.4627  -4.3741  -4.2726  -4.1142  -4.0168  -3.8739
    -3.8675  -3.6456  -3.5201  -3.3463  -3.2058  -3.1344  -3.1103  -3.0912
    -3.0664  -3.0018  -2.9557  -2.9460  -2.8850  -2.7819  -2.7000  -2.6968
    -2.6871  -2.5272  -2.4988  -2.4860  -2.4238  -2.2823  -2.2421  -2.2166
    -2.0510  -2.0437  -1.9183  -1.9129  -1.8720  -1.8409  -1.7345  -1.6229
    -1.6019  -1.5866  -1.2400  -1.2042  -1.0661  -0.8752  -0.7808  -0.5661
    -0.0852   0.0615   0.1339   0.2225   0.2616   0.4210   0.5038   0.5394
     0.5665   0.5748   0.5751   0.6493   0.6639   0.7165   0.7305   0.9125
     0.9579   0.9890   1.1281   1.1402   1.1470   1.1848   1.2295   1.2745
     1.4986   1.6082   1.6806   1.7523   1.7579   1.8559   1.9601   2.2639
     2.2794   2.3027   2.5051   2.6085   2.6786   2.8838   2.8884   3.0098
     3.5290   4.2522   4.3578   4.5978   4.7295   4.7725   4.7816   4.8305
     4.8790   4.9851   5.0111   5.1372   5.1490   5.3436   5.4535   5.7502
     5.7912   5.8257

          k = 0.2500 0.2445 0.0000 ( 81774 PWs)   bands (ev):

   -72.5205 -72.5192 -72.5128 -72.5120 -72.1847 -72.1771 -71.9507 -71.9433
   -71.8297 -71.8220 -71.6317 -71.6241 -42.7039 -42.6558 -42.6474 -42.6079
   -42.6059 -42.5971 -42.5720 -42.5516 -42.5304 -42.5252 -42.5037 -42.4851
   -42.3942 -42.3854 -42.2611 -42.1541 -42.1460 -42.1280 -42.1126 -42.0842
   -42.0119 -42.0067 -41.9555 -41.9207 -41.8261 -41.7874 -41.7868 -41.7792
   -41.7477 -41.7256 -41.6923 -41.6281 -41.6050 -41.5615 -41.4596 -41.4366
   -18.5646 -18.1359 -18.0538 -17.9824 -17.9303 -17.8727 -17.6479 -17.6107
   -17.5615 -17.5503 -17.5305 -17.4515 -17.4101 -17.2966 -17.1894 -17.1429
   -17.0680 -17.0320 -17.0053 -16.9946 -16.9163 -16.6444 -16.0823 -16.0294
    -6.6719  -6.3733  -6.3112  -6.2954  -6.0419  -5.9076  -5.8026  -5.7728
    -5.7546  -5.6548  -5.6035  -5.5134  -5.4656  -5.4197  -5.4028  -5.3639
    -5.3628  -5.3559  -5.2370  -5.2345  -5.1620  -4.9964  -4.9050  -4.8440
    -4.5558  -4.4216  -4.4063  -4.3199  -4.2287  -4.1280  -4.0308  -3.9362
    -3.7601  -3.6535  -3.5991  -3.5237  -3.4709  -3.4342  -3.3060  -3.2623
    -3.1478  -3.1439  -3.0293  -3.0052  -2.9145  -2.8963  -2.8604  -2.8330
    -2.7485  -2.7177  -2.6837  -2.5528  -2.5001  -2.4756  -2.3950  -2.3592
    -2.3041  -2.0946  -2.0095  -1.9422  -1.8634  -1.7737  -1.7215  -1.6807
    -1.6420  -1.3908  -1.3883  -1.1583  -0.9222  -0.9156  -0.8953  -0.7236
    -0.0477   0.0716   0.1329   0.1737   0.3935   0.4440   0.4970   0.5614
     0.5879   0.6051   0.6339   0.6966   0.7457   0.8479   0.8507   0.9638
     1.0278   1.0717   1.0795   1.1348   1.2330   1.2724   1.2907   1.4289
     1.5080   1.5179   1.6625   1.8059   1.9527   2.1074   2.1242   2.2161
     2.2246   2.2661   2.3494   2.6404   2.7941   2.8082   2.9881   3.2024
     3.5312   3.9258   4.0090   4.0675   4.3766   4.4608   4.7090   4.9099
     5.0660   5.1471   5.2983   5.4498   5.5045   5.5150   5.6321   5.6861
     5.7687   5.8896

          k = 0.2500-0.4891 0.0000 ( 81830 PWs)   bands (ev):

   -72.5205 -72.5192 -72.5128 -72.5120 -72.1847 -72.1771 -71.9507 -71.9433
   -71.8297 -71.8220 -71.6317 -71.6241 -42.7040 -42.6554 -42.6476 -42.6080
   -42.6053 -42.5975 -42.5720 -42.5516 -42.5304 -42.5252 -42.5037 -42.4851
   -42.3933 -42.3861 -42.2612 -42.1540 -42.1460 -42.1280 -42.1126 -42.0842
   -42.0119 -42.0067 -41.9546 -41.9201 -41.8260 -41.7874 -41.7868 -41.7792
   -41.7489 -41.7256 -41.6918 -41.6289 -41.6050 -41.5614 -41.4602 -41.4366
   -18.4944 -18.0084 -17.9771 -17.9152 -17.8555 -17.7595 -17.6879 -17.6796
   -17.6590 -17.5618 -17.5576 -17.4819 -17.4400 -17.2756 -17.2096 -17.2083
   -17.1478 -17.1386 -17.1073 -17.0043 -16.9173 -16.6441 -16.0827 -16.0275
    -6.6629  -6.0674  -5.8245  -5.8113  -5.7760  -5.7151  -5.6291  -5.6115
    -5.5691  -5.5539  -5.5013  -5.4885  -5.4859  -5.4277  -5.4027  -5.3991
    -5.3534  -5.3435  -5.3091  -5.2792  -5.2358  -4.9318  -4.8508  -4.5515
    -4.5380  -4.5161  -4.4401  -4.3314  -4.2091  -4.1680  -4.0414  -3.9523
    -3.8768  -3.8336  -3.8334  -3.8289  -3.8074  -3.6489  -3.6074  -3.4982
    -3.4300  -3.3106  -3.2392  -3.1000  -3.0598  -3.0469  -3.0162  -2.9444
    -2.9025  -2.8873  -2.7542  -2.7515  -2.7113  -2.6036  -2.4498  -2.3685
    -2.1344  -2.1307  -2.0249  -1.8252  -1.7852  -1.6091  -1.5094  -1.4367
    -1.3644  -1.3511  -1.3333  -1.1422  -1.0918  -1.0878  -0.8986  -0.8149
    -0.3257  -0.0638  -0.0611   0.0706   0.2644   0.3210   0.5366   0.6008
     0.6039   0.6678   0.6868   0.6928   0.7310   1.0237   1.0277   1.0774
     1.2050   1.2348   1.2476   1.2611   1.2924   1.4039   1.4642   1.5289
     1.5685   1.6845   1.7001   1.7847   1.8823   2.0188   2.0585   2.2269
     2.2460   2.2768   2.4309   2.5661   2.9175   2.9699   3.0865   3.3674
     3.4553   3.5843   3.6430   3.6649   4.3755   4.5598   4.7293   4.8851
     4.9771   5.0296   5.2274   5.3104   5.4705   5.6405   5.7596   5.7744
     6.1279   6.1566

          k = 0.2500-0.2445 0.0000 ( 81774 PWs)   bands (ev):

   -72.5205 -72.5192 -72.5128 -72.5120 -72.1847 -72.1771 -71.9507 -71.9433
   -71.8297 -71.8220 -71.6317 -71.6241 -42.7039 -42.6558 -42.6474 -42.6079
   -42.6059 -42.5971 -42.5720 -42.5516 -42.5304 -42.5252 -42.5037 -42.4851
   -42.3942 -42.3854 -42.2611 -42.1541 -42.1460 -42.1280 -42.1126 -42.0842
   -42.0119 -42.0067 -41.9555 -41.9207 -41.8261 -41.7874 -41.7868 -41.7792
   -41.7477 -41.7256 -41.6923 -41.6281 -41.6050 -41.5615 -41.4596 -41.4366
   -18.5646 -18.1359 -18.0538 -17.9824 -17.9303 -17.8727 -17.6479 -17.6107
   -17.5615 -17.5503 -17.5305 -17.4515 -17.4101 -17.2966 -17.1894 -17.1429
   -17.0680 -17.0320 -17.0053 -16.9946 -16.9163 -16.6444 -16.0823 -16.0294
    -6.6719  -6.3733  -6.3112  -6.2954  -6.0419  -5.9076  -5.8026  -5.7728
    -5.7546  -5.6548  -5.6035  -5.5134  -5.4656  -5.4197  -5.4028  -5.3639
    -5.3628  -5.3559  -5.2370  -5.2345  -5.1620  -4.9964  -4.9050  -4.8440
    -4.5558  -4.4216  -4.4063  -4.3199  -4.2287  -4.1280  -4.0308  -3.9362
    -3.7601  -3.6535  -3.5991  -3.5237  -3.4709  -3.4342  -3.3060  -3.2623
    -3.1478  -3.1439  -3.0293  -3.0052  -2.9145  -2.8963  -2.8604  -2.8330
    -2.7485  -2.7177  -2.6837  -2.5528  -2.5001  -2.4756  -2.3950  -2.3592
    -2.3041  -2.0946  -2.0095  -1.9422  -1.8634  -1.7737  -1.7215  -1.6807
    -1.6420  -1.3908  -1.3883  -1.1583  -0.9222  -0.9156  -0.8953  -0.7236
    -0.0477   0.0716   0.1329   0.1737   0.3935   0.4440   0.4970   0.5614
     0.5879   0.6051   0.6339   0.6966   0.7457   0.8479   0.8507   0.9638
     1.0278   1.0717   1.0795   1.1348   1.2330   1.2724   1.2907   1.4289
     1.5080   1.5179   1.6625   1.8059   1.9527   2.1074   2.1242   2.2161
     2.2246   2.2661   2.3494   2.6404   2.7941   2.8082   2.9881   3.2024
     3.5312   3.9258   4.0090   4.0675   4.3766   4.4608   4.7090   4.9099
     5.0660   5.1471   5.2983   5.4498   5.5045   5.5150   5.6321   5.6861
     5.7687   5.8896

          k =-0.5000 0.0000 0.0000 ( 81894 PWs)   bands (ev):

   -72.5167 -72.5167 -72.5156 -72.5156 -72.1809 -72.1809 -71.9470 -71.9470
   -71.8258 -71.8258 -71.6280 -71.6278 -42.6517 -42.6517 -42.6383 -42.6383
   -42.6015 -42.6015 -42.5469 -42.5469 -42.5409 -42.5409 -42.5144 -42.5144
   -42.3899 -42.3899 -42.1950 -42.1950 -42.1501 -42.1501 -42.0986 -42.0986
   -42.0089 -42.0089 -41.8917 -41.8917 -41.8546 -41.8546 -41.7832 -41.7830
   -41.7361 -41.7361 -41.6276 -41.6274 -41.6162 -41.6162 -41.4478 -41.4477
   -18.2982 -18.2982 -17.9839 -17.9839 -17.8761 -17.8761 -17.7515 -17.7515
   -17.6715 -17.6715 -17.3898 -17.3898 -17.1878 -17.1878 -17.1436 -17.1436
   -17.0832 -17.0832 -17.0158 -17.0158 -16.8267 -16.8267 -16.1033 -16.1032
    -6.3834  -6.3834  -6.3168  -6.3168  -6.2786  -6.2786  -6.0830  -6.0830
    -5.8383  -5.8383  -5.7142  -5.7142  -5.5897  -5.5897  -5.4227  -5.4227
    -5.2462  -5.2462  -5.1651  -5.1651  -4.8154  -4.8154  -4.7339  -4.7339
    -4.3815  -4.3815  -4.2375  -4.2375  -3.9413  -3.9413  -3.9350  -3.9350
    -3.8374  -3.8374  -3.7145  -3.7145  -3.5425  -3.5425  -3.3637  -3.3637
    -3.1625  -3.1625  -3.0661  -3.0661  -2.8335  -2.8335  -2.6386  -2.6386
    -2.6339  -2.6339  -2.5270  -2.5270  -2.5050  -2.5050  -2.3033  -2.3033
    -2.0906  -2.0906  -2.0821  -2.0821  -2.0005  -2.0005  -1.9411  -1.9411
    -1.6184  -1.6184  -1.0993  -1.0993  -1.0550  -1.0550  -0.7920  -0.7920
     0.0914   0.0914   0.1770   0.1771   0.3972   0.3972   0.6370   0.6370
     0.8120   0.8120   0.9110   0.9110   1.0740   1.0740   1.0822   1.0822
     1.1002   1.1003   1.1977   1.1977   1.2072   1.2072   1.3653   1.3653
     1.5051   1.5052   1.5328   1.5328   1.6719   1.6719   1.9863   1.9863
     2.2038   2.2038   2.4814   2.4814   2.8317   2.8318   3.0093   3.0093
     4.1219   4.1219   4.5549   4.5549   4.6974   4.6974   4.7805   4.7805
     5.0871   5.0871   5.1724   5.1724   5.1943   5.1943   5.2299   5.2299
     5.2564   5.2564

          k =-0.5000 0.2445 0.0000 ( 81810 PWs)   bands (ev):

   -72.5167 -72.5167 -72.5156 -72.5156 -72.1809 -72.1809 -71.9470 -71.9470
   -71.8258 -71.8258 -71.6280 -71.6278 -42.6516 -42.6516 -42.6384 -42.6384
   -42.6014 -42.6014 -42.5470 -42.5470 -42.5409 -42.5409 -42.5144 -42.5144
   -42.3897 -42.3897 -42.1951 -42.1951 -42.1500 -42.1500 -42.0986 -42.0986
   -42.0089 -42.0089 -41.8912 -41.8912 -41.8543 -41.8543 -41.7832 -41.7830
   -41.7367 -41.7367 -41.6273 -41.6272 -41.6166 -41.6166 -41.4482 -41.4480
   -18.2543 -18.2543 -17.9055 -17.9055 -17.8268 -17.8268 -17.6941 -17.6941
   -17.6446 -17.6446 -17.3988 -17.3988 -17.2967 -17.2967 -17.1866 -17.1866
   -17.1366 -17.1366 -17.1314 -17.1314 -16.8252 -16.8252 -16.1026 -16.1026
    -6.2032  -6.2032  -5.9949  -5.9949  -5.9794  -5.9794  -5.9374  -5.9374
    -5.8239  -5.8239  -5.7091  -5.7091  -5.4307  -5.4307  -5.2862  -5.2862
    -5.2792  -5.2792  -5.1050  -5.1050  -4.8562  -4.8562  -4.5705  -4.5705
    -4.4057  -4.4057  -4.3034  -4.3034  -4.1499  -4.1499  -4.1187  -4.1187
    -4.0541  -4.0541  -3.9145  -3.9145  -3.7127  -3.7127  -3.6318  -3.6318
    -3.2310  -3.2310  -3.1758  -3.1758  -2.8537  -2.8537  -2.7417  -2.7417
    -2.6997  -2.6997  -2.6434  -2.6434  -2.6041  -2.6041  -2.4506  -2.4506
    -2.2566  -2.2566  -1.9911  -1.9911  -1.9221  -1.9221  -1.8423  -1.8423
    -1.6336  -1.6336  -1.1048  -1.1048  -1.0728  -1.0728  -0.8492  -0.8492
    -0.0860  -0.0860   0.2737   0.2737   0.4240   0.4240   0.6701   0.6701
     0.9256   0.9256   1.0169   1.0169   1.0672   1.0672   1.1551   1.1551
     1.2218   1.2218   1.2484   1.2484   1.2915   1.2915   1.3980   1.3980
     1.5310   1.5310   1.7284   1.7284   1.8737   1.8737   1.9406   1.9406
     2.1053   2.1053   2.3427   2.3427   2.9439   2.9440   3.1314   3.1314
     4.1397   4.1397   4.3739   4.3739   4.5031   4.5031   4.5547   4.5547
     4.7787   4.7787   4.8362   4.8362   5.2001   5.2001   5.6198   5.6198
     5.7194   5.7194

          k =-0.5000-0.4891 0.0000 ( 81784 PWs)   bands (ev):

   -72.5167 -72.5167 -72.5156 -72.5156 -72.1809 -72.1809 -71.9470 -71.9470
   -71.8258 -71.8258 -71.6280 -71.6278 -42.6515 -42.6515 -42.6384 -42.6384
   -42.6014 -42.6014 -42.5470 -42.5470 -42.5409 -42.5409 -42.5144 -42.5144
   -42.3896 -42.3896 -42.1952 -42.1952 -42.1500 -42.1500 -42.0987 -42.0987
   -42.0089 -42.0089 -41.8908 -41.8908 -41.8540 -41.8540 -41.7832 -41.7830
   -41.7372 -41.7372 -41.6270 -41.6269 -41.6170 -41.6170 -41.4485 -41.4484
   -18.2078 -18.2078 -17.8115 -17.8115 -17.7637 -17.7637 -17.5852 -17.5852
   -17.5572 -17.5572 -17.4398 -17.4398 -17.3966 -17.3966 -17.3816 -17.3816
   -17.2638 -17.2638 -17.1402 -17.1402 -16.8250 -16.8250 -16.1020 -16.1020
    -6.1589  -6.1589  -5.8568  -5.8568  -5.7091  -5.7091  -5.4925  -5.4925
    -5.4819  -5.4819  -5.4701  -5.4701  -5.3326  -5.3326  -5.1437  -5.1437
    -5.0772  -5.0772  -4.9785  -4.9785  -4.8603  -4.8603  -4.7583  -4.7583
    -4.7197  -4.7197  -4.6390  -4.6390  -4.4425  -4.4425  -4.2325  -4.2325
    -4.1592  -4.1592  -4.0158  -4.0158  -3.6392  -3.6392  -3.5152  -3.5152
    -3.3458  -3.3458  -3.3436  -3.3436  -3.2465  -3.2465  -3.2110  -3.2110
    -3.1896  -3.1896  -2.9524  -2.9524  -2.8255  -2.8255  -2.3569  -2.3568
    -2.1630  -2.1630  -1.7743  -1.7743  -1.5777  -1.5777  -1.5733  -1.5733
    -1.5058  -1.5058  -1.1952  -1.1952  -1.1124  -1.1124  -0.9885  -0.9885
     0.0843   0.0843   0.2024   0.2024   0.3999   0.3999   0.5375   0.5375
     0.6407   0.6407   1.0459   1.0459   1.0729   1.0729   1.1781   1.1781
     1.2298   1.2298   1.5014   1.5014   1.5380   1.5380   1.7097   1.7098
     1.7332   1.7333   1.8224   1.8224   1.8447   1.8447   2.0471   2.0471
     2.0698   2.0698   2.2172   2.2172   3.0392   3.0393   3.2344   3.2345
     4.0296   4.0296   4.1226   4.1226   4.1583   4.1584   4.2187   4.2187
     4.7736   4.7736   4.8274   4.8274   5.3058   5.3058   5.8776   5.8776
     5.9478   5.9478

          k =-0.5000-0.2445 0.0000 ( 81810 PWs)   bands (ev):

   -72.5167 -72.5167 -72.5156 -72.5156 -72.1809 -72.1809 -71.9470 -71.9470
   -71.8258 -71.8258 -71.6280 -71.6278 -42.6516 -42.6516 -42.6384 -42.6384
   -42.6014 -42.6014 -42.5470 -42.5470 -42.5409 -42.5409 -42.5144 -42.5144
   -42.3897 -42.3897 -42.1951 -42.1951 -42.1500 -42.1500 -42.0986 -42.0986
   -42.0089 -42.0089 -41.8912 -41.8912 -41.8543 -41.8543 -41.7832 -41.7830
   -41.7367 -41.7367 -41.6273 -41.6272 -41.6166 -41.6166 -41.4482 -41.4480
   -18.2543 -18.2543 -17.9055 -17.9055 -17.8268 -17.8268 -17.6941 -17.6941
   -17.6446 -17.6446 -17.3988 -17.3988 -17.2967 -17.2967 -17.1866 -17.1866
   -17.1366 -17.1366 -17.1314 -17.1314 -16.8252 -16.8252 -16.1026 -16.1026
    -6.2032  -6.2032  -5.9949  -5.9949  -5.9794  -5.9794  -5.9374  -5.9374
    -5.8239  -5.8239  -5.7091  -5.7091  -5.4307  -5.4307  -5.2862  -5.2862
    -5.2792  -5.2792  -5.1050  -5.1050  -4.8562  -4.8562  -4.5705  -4.5705
    -4.4057  -4.4057  -4.3034  -4.3034  -4.1499  -4.1499  -4.1187  -4.1187
    -4.0541  -4.0541  -3.9145  -3.9145  -3.7127  -3.7127  -3.6318  -3.6318
    -3.2310  -3.2310  -3.1758  -3.1758  -2.8537  -2.8537  -2.7417  -2.7417
    -2.6997  -2.6997  -2.6434  -2.6434  -2.6041  -2.6041  -2.4506  -2.4506
    -2.2566  -2.2566  -1.9911  -1.9911  -1.9221  -1.9221  -1.8423  -1.8423
    -1.6336  -1.6336  -1.1048  -1.1048  -1.0728  -1.0728  -0.8492  -0.8492
    -0.0860  -0.0860   0.2737   0.2737   0.4240   0.4240   0.6701   0.6701
     0.9256   0.9256   1.0169   1.0169   1.0672   1.0672   1.1551   1.1551
     1.2218   1.2218   1.2484   1.2484   1.2915   1.2915   1.3980   1.3980
     1.5310   1.5310   1.7284   1.7284   1.8737   1.8737   1.9406   1.9406
     2.1053   2.1053   2.3427   2.3427   2.9439   2.9440   3.1314   3.1314
     4.1397   4.1397   4.3739   4.3739   4.5031   4.5031   4.5547   4.5547
     4.7787   4.7787   4.8362   4.8362   5.2001   5.2001   5.6198   5.6198
     5.7194   5.7194

          k =-0.2500 0.0000 0.0000 ( 81703 PWs)   bands (ev):

   -72.5205 -72.5192 -72.5128 -72.5120 -72.1847 -72.1771 -71.9507 -71.9433
   -71.8297 -71.8220 -71.6317 -71.6241 -42.7038 -42.6563 -42.6471 -42.6079
   -42.6064 -42.5967 -42.5720 -42.5516 -42.5304 -42.5252 -42.5037 -42.4851
   -42.3951 -42.3846 -42.2609 -42.1542 -42.1460 -42.1280 -42.1125 -42.0842
   -42.0119 -42.0067 -41.9565 -41.9213 -41.8262 -41.7875 -41.7868 -41.7792
   -41.7466 -41.7255 -41.6927 -41.6274 -41.6049 -41.5615 -41.4589 -41.4366
   -18.6292 -18.2572 -18.1253 -18.0022 -17.9874 -17.8858 -17.6185 -17.5591
   -17.5459 -17.5407 -17.4910 -17.4198 -17.3532 -17.3258 -17.2578 -17.1984
   -17.0053 -16.9552 -16.9153 -16.9028 -16.8262 -16.6470 -16.0820 -16.0319
    -6.8211  -6.7657  -6.7459  -6.6161  -6.0512  -5.9970  -5.8219  -5.7698
    -5.7292  -5.6391  -5.5778  -5.5711  -5.5266  -5.5072  -5.4762  -5.3911
    -5.3730  -5.3314  -5.2873  -5.1725  -5.1596  -5.0423  -4.9299  -4.8434
    -4.6817  -4.4998  -4.4627  -4.3741  -4.2726  -4.1142  -4.0168  -3.8739
    -3.8675  -3.6456  -3.5201  -3.3463  -3.2058  -3.1344  -3.1103  -3.0912
    -3.0664  -3.0018  -2.9557  -2.9460  -2.8850  -2.7819  -2.7000  -2.6968
    -2.6871  -2.5272  -2.4988  -2.4860  -2.4238  -2.2823  -2.2421  -2.2166
    -2.0510  -2.0437  -1.9183  -1.9129  -1.8720  -1.8409  -1.7345  -1.6229
    -1.6019  -1.5866  -1.2400  -1.2042  -1.0661  -0.8752  -0.7808  -0.5661
    -0.0852   0.0615   0.1339   0.2225   0.2616   0.4210   0.5038   0.5394
     0.5665   0.5748   0.5751   0.6493   0.6639   0.7165   0.7305   0.9125
     0.9579   0.9890   1.1281   1.1402   1.1470   1.1848   1.2295   1.2745
     1.4986   1.6082   1.6806   1.7523   1.7579   1.8559   1.9601   2.2639
     2.2794   2.3027   2.5051   2.6085   2.6786   2.8838   2.8884   3.0098
     3.5290   4.2522   4.3578   4.5978   4.7295   4.7725   4.7816   4.8305
     4.8790   4.9851   5.0111   5.1372   5.1490   5.3436   5.4535   5.7502
     5.7912   5.8257

          k =-0.2500 0.2445 0.0000 ( 81774 PWs)   bands (ev):

   -72.5205 -72.5192 -72.5128 -72.5120 -72.1847 -72.1771 -71.9507 -71.9433
   -71.8297 -71.8220 -71.6317 -71.6241 -42.7039 -42.6558 -42.6474 -42.6079
   -42.6059 -42.5971 -42.5720 -42.5516 -42.5304 -42.5252 -42.5037 -42.4851
   -42.3942 -42.3854 -42.2611 -42.1541 -42.1460 -42.1280 -42.1126 -42.0842
   -42.0119 -42.0067 -41.9555 -41.9207 -41.8261 -41.7874 -41.7868 -41.7792
   -41.7477 -41.7256 -41.6923 -41.6281 -41.6050 -41.5615 -41.4596 -41.4366
   -18.5646 -18.1359 -18.0538 -17.9824 -17.9303 -17.8727 -17.6479 -17.6107
   -17.5615 -17.5503 -17.5305 -17.4515 -17.4101 -17.2966 -17.1894 -17.1429
   -17.0680 -17.0320 -17.0053 -16.9946 -16.9163 -16.6444 -16.0823 -16.0294
    -6.6719  -6.3733  -6.3112  -6.2954  -6.0419  -5.9076  -5.8026  -5.7728
    -5.7546  -5.6548  -5.6035  -5.5134  -5.4656  -5.4197  -5.4028  -5.3639
    -5.3628  -5.3559  -5.2370  -5.2345  -5.1620  -4.9964  -4.9050  -4.8440
    -4.5558  -4.4216  -4.4063  -4.3199  -4.2287  -4.1280  -4.0308  -3.9362
    -3.7601  -3.6535  -3.5991  -3.5237  -3.4709  -3.4342  -3.3060  -3.2623
    -3.1478  -3.1439  -3.0293  -3.0052  -2.9145  -2.8963  -2.8604  -2.8330
    -2.7485  -2.7177  -2.6837  -2.5528  -2.5001  -2.4756  -2.3950  -2.3592
    -2.3041  -2.0946  -2.0095  -1.9422  -1.8634  -1.7737  -1.7215  -1.6807
    -1.6420  -1.3908  -1.3883  -1.1583  -0.9222  -0.9156  -0.8953  -0.7236
    -0.0477   0.0716   0.1329   0.1737   0.3935   0.4440   0.4970   0.5614
     0.5879   0.6051   0.6339   0.6966   0.7457   0.8479   0.8507   0.9638
     1.0278   1.0717   1.0795   1.1348   1.2330   1.2724   1.2907   1.4289
     1.5080   1.5179   1.6625   1.8059   1.9527   2.1074   2.1242   2.2161
     2.2246   2.2661   2.3494   2.6404   2.7941   2.8082   2.9881   3.2024
     3.5312   3.9258   4.0090   4.0675   4.3766   4.4608   4.7090   4.9099
     5.0660   5.1471   5.2983   5.4498   5.5045   5.5150   5.6321   5.6861
     5.7687   5.8896

          k =-0.2500-0.4891 0.0000 ( 81830 PWs)   bands (ev):

   -72.5205 -72.5192 -72.5128 -72.5120 -72.1847 -72.1771 -71.9507 -71.9433
   -71.8297 -71.8220 -71.6317 -71.6241 -42.7040 -42.6554 -42.6476 -42.6080
   -42.6053 -42.5975 -42.5720 -42.5516 -42.5304 -42.5252 -42.5037 -42.4851
   -42.3933 -42.3861 -42.2612 -42.1540 -42.1460 -42.1280 -42.1126 -42.0842
   -42.0119 -42.0067 -41.9546 -41.9201 -41.8260 -41.7874 -41.7868 -41.7792
   -41.7489 -41.7256 -41.6918 -41.6289 -41.6050 -41.5614 -41.4602 -41.4366
   -18.4944 -18.0084 -17.9771 -17.9152 -17.8555 -17.7595 -17.6879 -17.6796
   -17.6590 -17.5618 -17.5576 -17.4819 -17.4400 -17.2756 -17.2096 -17.2083
   -17.1478 -17.1386 -17.1073 -17.0043 -16.9173 -16.6441 -16.0827 -16.0275
    -6.6629  -6.0674  -5.8245  -5.8113  -5.7760  -5.7151  -5.6291  -5.6115
    -5.5691  -5.5539  -5.5013  -5.4885  -5.4859  -5.4277  -5.4027  -5.3991
    -5.3534  -5.3435  -5.3091  -5.2792  -5.2358  -4.9318  -4.8508  -4.5515
    -4.5380  -4.5161  -4.4401  -4.3314  -4.2091  -4.1680  -4.0414  -3.9523
    -3.8768  -3.8336  -3.8334  -3.8289  -3.8074  -3.6489  -3.6074  -3.4982
    -3.4300  -3.3106  -3.2392  -3.1000  -3.0598  -3.0469  -3.0162  -2.9444
    -2.9025  -2.8873  -2.7542  -2.7515  -2.7113  -2.6036  -2.4498  -2.3685
    -2.1344  -2.1307  -2.0249  -1.8252  -1.7852  -1.6091  -1.5094  -1.4367
    -1.3644  -1.3511  -1.3333  -1.1422  -1.0918  -1.0878  -0.8986  -0.8149
    -0.3257  -0.0638  -0.0611   0.0706   0.2644   0.3210   0.5366   0.6008
     0.6039   0.6678   0.6868   0.6928   0.7310   1.0237   1.0277   1.0774
     1.2050   1.2348   1.2476   1.2611   1.2924   1.4039   1.4642   1.5289
     1.5685   1.6845   1.7001   1.7847   1.8823   2.0188   2.0585   2.2269
     2.2460   2.2768   2.4309   2.5661   2.9175   2.9699   3.0865   3.3674
     3.4553   3.5843   3.6430   3.6649   4.3755   4.5598   4.7293   4.8851
     4.9771   5.0296   5.2274   5.3104   5.4705   5.6405   5.7596   5.7744
     6.1279   6.1566

          k =-0.2500-0.2445 0.0000 ( 81774 PWs)   bands (ev):

   -72.5205 -72.5192 -72.5128 -72.5120 -72.1847 -72.1771 -71.9507 -71.9433
   -71.8297 -71.8220 -71.6317 -71.6241 -42.7039 -42.6558 -42.6474 -42.6079
   -42.6059 -42.5971 -42.5720 -42.5516 -42.5304 -42.5252 -42.5037 -42.4851
   -42.3942 -42.3854 -42.2611 -42.1541 -42.1460 -42.1280 -42.1126 -42.0842
   -42.0119 -42.0067 -41.9555 -41.9207 -41.8261 -41.7874 -41.7868 -41.7792
   -41.7477 -41.7256 -41.6923 -41.6281 -41.6050 -41.5615 -41.4596 -41.4366
   -18.5646 -18.1359 -18.0538 -17.9824 -17.9303 -17.8727 -17.6479 -17.6107
   -17.5615 -17.5503 -17.5305 -17.4515 -17.4101 -17.2966 -17.1894 -17.1429
   -17.0680 -17.0320 -17.0053 -16.9946 -16.9163 -16.6444 -16.0823 -16.0294
    -6.6719  -6.3733  -6.3112  -6.2954  -6.0419  -5.9076  -5.8026  -5.7728
    -5.7546  -5.6548  -5.6035  -5.5134  -5.4656  -5.4197  -5.4028  -5.3639
    -5.3628  -5.3559  -5.2370  -5.2345  -5.1620  -4.9964  -4.9050  -4.8440
    -4.5558  -4.4216  -4.4063  -4.3199  -4.2287  -4.1280  -4.0308  -3.9362
    -3.7601  -3.6535  -3.5991  -3.5237  -3.4709  -3.4342  -3.3060  -3.2623
    -3.1478  -3.1439  -3.0293  -3.0052  -2.9145  -2.8963  -2.8604  -2.8330
    -2.7485  -2.7177  -2.6837  -2.5528  -2.5001  -2.4756  -2.3950  -2.3592
    -2.3041  -2.0946  -2.0095  -1.9422  -1.8634  -1.7737  -1.7215  -1.6807
    -1.6420  -1.3908  -1.3883  -1.1583  -0.9222  -0.9156  -0.8953  -0.7236
    -0.0477   0.0716   0.1329   0.1737   0.3935   0.4440   0.4970   0.5614
     0.5879   0.6051   0.6339   0.6966   0.7457   0.8479   0.8507   0.9638
     1.0278   1.0717   1.0795   1.1348   1.2330   1.2724   1.2907   1.4289
     1.5080   1.5179   1.6625   1.8059   1.9527   2.1074   2.1242   2.2161
     2.2246   2.2661   2.3494   2.6404   2.7941   2.8082   2.9881   3.2024
     3.5312   3.9258   4.0090   4.0675   4.3766   4.4608   4.7090   4.9099
     5.0660   5.1471   5.2983   5.4498   5.5045   5.5150   5.6321   5.6861
     5.7687   5.8896

     the Fermi energy is     1.5475 ev

!    total energy              =   -3261.34603350 Ry
     estimated scf accuracy    <       0.00000077 Ry
     smearing contrib. (-TS)   =       0.00208476 Ry
     internal energy E=F+TS    =   -3261.34811826 Ry

     The total energy is F=E-TS. E is the sum of the following terms:
     one-electron contribution =  -33206.90742742 Ry
     hartree contribution      =   16646.41579011 Ry
     xc contribution           =    -413.89505998 Ry
     ewald contribution        =   13941.51417500 Ry
     one-center paw contrib.   =    -228.47559598 Ry

     total magnetization       =    -2.09 Bohr mag/cell
     absolute magnetization    =     6.19 Bohr mag/cell

     convergence has been achieved in  29 iterations

     negative rho (up, down):  1.040E-04 1.041E-04

     Forces acting on atoms (cartesian axes, Ry/au):

     atom    1 type  1   force =     0.00000006   -0.00000003    0.06172954
     atom    2 type  2   force =    -0.00000083   -0.00000004   -0.09166426
     atom    3 type  1   force =    -0.00000010   -0.00000017    0.00102060
     atom    4 type  2   force =     0.00000048    0.00000025    0.00231544
     atom    5 type  1   force =     0.00000009    0.00000015   -0.00133043
     atom    6 type  2   force =    -0.00000001    0.00000002   -0.00589891
     atom    7 type  3   force =     0.00000026   -0.00000016    0.02883576
     atom    8 type  3   force =     0.00000044   -0.00000026    0.06591970
     atom    9 type  3   force =     0.00000914    0.02303910   -0.02460757
     atom   10 type  3   force =     0.00000928   -0.02303904   -0.02460778
     atom   11 type  3   force =     0.00000010   -0.00000004    0.00211768
     atom   12 type  3   force =     0.00000012    0.00000022   -0.02489914
     atom   13 type  3   force =     0.00000008    0.00037985    0.00066868
     atom   14 type  3   force =    -0.00000008   -0.00038030    0.00066917
     atom   15 type  3   force =     0.00000036   -0.00000002    0.00067946
     atom   16 type  3   force =     0.00000014    0.00000027    0.00556169
     atom   17 type  3   force =     0.00000089   -0.00009898    0.00174498
     atom   18 type  3   force =     0.00000065    0.00009877    0.00174508
     atom   19 type  1   force =    -0.00000006    0.00000003    0.06174188
     atom   20 type  2   force =     0.00000086   -0.00000001   -0.09166346
     atom   21 type  1   force =     0.00000019   -0.00000035    0.00102039
     atom   22 type  2   force =    -0.00000039    0.00000026    0.00231553
     atom   23 type  1   force =    -0.00000006    0.00000010   -0.00133174
     atom   24 type  2   force =    -0.00000001   -0.00000004   -0.00589922
     atom   25 type  3   force =    -0.00000058   -0.00000005    0.02883451
     atom   26 type  3   force =    -0.00000055    0.00000010    0.06592126
     atom   27 type  3   force =    -0.00000912    0.02303912   -0.02460793
     atom   28 type  3   force =    -0.00000946   -0.02303911   -0.02460777
     atom   29 type  3   force =     0.00000014    0.00000002    0.00211923
     atom   30 type  3   force =    -0.00000015    0.00000002   -0.02491125
     atom   31 type  3   force =    -0.00000024    0.00038007    0.00066890
     atom   32 type  3   force =     0.00000022   -0.00038005    0.00066908
     atom   33 type  3   force =    -0.00000019    0.00000002    0.00067925
     atom   34 type  3   force =    -0.00000028    0.00000009    0.00556187
     atom   35 type  3   force =    -0.00000076   -0.00009862    0.00174495
     atom   36 type  3   force =    -0.00000062    0.00009877    0.00174478

     Total force =     0.013126     Total SCF correction =     0.001902
     SCF correction compared to forces is large: reduce conv_thr to get better values

     BFGS Geometry Optimization
     Energy error            =      9.5E-05 Ry
     Gradient error          =      5.9E-03 Ry/Bohr

     number of scf cycles    =   1
     number of bfgs steps    =   0

     energy             new  =   -3261.3460335012 Ry

     new trust radius        =       0.0058992158 bohr
     new conv_thr            =       0.0000010000 Ry


ATOMIC_POSITIONS (angstrom)
Ru1              0.0000000000        1.5881618300        9.5289709800    0   0   0
Ru2              1.5535000000        4.7644854900        9.5289709800    0   0   0
Ru1             -0.0000000847        4.7644854878       12.7490731769
Ru2              1.5534999641        1.5881618441       12.6809378298
Ru1             -0.0000001748        1.5881615689       15.8031761160
Ru2              1.5535000821        4.7644852732       16.0295365393
O                0.0000000000        4.7644854900       10.7677372100    0   0   0
O                0.0000000000        4.7644854900        8.2902047600    0   0   0
O                1.5535000000        0.3493956000        9.5289709800    0   0   0
O                1.5535000000        2.8269280600        9.5289709800    0   0   0
O               -0.0000004559        1.5881613591       13.9230385802
O                0.0000000000        1.5881618300       11.4665284200    0   0   0
O                1.5535000529        3.5358646776       12.7218243929
O                1.5534997858        5.9931061043       12.7218246706
O                0.0000001916        4.7644854880       17.1318327835
O                0.0000003924        4.7644855946       14.6944008408
O                1.5535002900        0.3794423508       15.9693266862
O                1.5535001530        2.7968806579       15.9693266792
Ru1              3.1070000000        1.5881618300        9.5289709800    0   0   0
Ru2              4.6605000000        4.7644854900        9.5289709800    0   0   0
Ru1              3.1070000716        4.7644853970       12.7490730688
Ru2              4.6604995053        1.5881618492       12.6809378745
Ru1              3.1069997473        1.5881615438       15.8031754257
Ru2              4.6605000826        4.7644852394       16.0295363795
O                3.1070000000        4.7644854900       10.7677372100    0   0   0
O                3.1070000000        4.7644854900        8.2902047600    0   0   0
O                4.6605000000        0.3493956000        9.5289709800    0   0   0
O                4.6605000000        2.8269280600        9.5289709800    0   0   0
O                3.1069995628        1.5881613931       13.9230393966
O                3.1070000000        1.5881618300       11.4665284200    0   0   0
O                4.6604998812        3.5358647960       12.7218245077
O                4.6604999442        5.9931062337       12.7218246219
O                3.1069999010        4.7644855125       17.1318326724
O                3.1070001740        4.7644854969       14.6944009371
O                4.6604994187        0.3794425425       15.9693266668
O                4.6604994832        2.7968806552       15.9693265170



     Writing config-only to output data dir ./tmp_ref__2x1v__afm__relax/ref__2x1v__afm__relax.save/ :
     XML data file
     NEW-OLD atomic charge density approx. for the potential

     negative rho (up, down):  1.050E-04 1.030E-04
     Generating pointlists ...

     total cpu time spent up to now is      568.1 secs

     per-process dynamical memory:   384.2 Mb

     Self-consistent Calculation

     iteration #  1     ecut=    80.00 Ry     beta= 0.30
     Davidson diagonalization with overlap
     ethr =  1.00E-06,  avg # of iterations =  3.0

     negative rho (up, down):  1.194E-04 1.170E-04

     total cpu time spent up to now is      592.6 secs

     total energy              =   -3261.34614327 Ry
     estimated scf accuracy    <       0.00052757 Ry

     total magnetization       =    -2.11 Bohr mag/cell
     absolute magnetization    =     6.22 Bohr mag/cell

     iteration #  2     ecut=    80.00 Ry     beta= 0.30
     Davidson diagonalization with overlap
     ethr =  1.57E-07,  avg # of iterations =  1.1

     negative rho (up, down):  1.340E-04 1.307E-04

     total cpu time spent up to now is      608.3 secs

     total energy              =   -3261.34615644 Ry
     estimated scf accuracy    <       0.00004066 Ry

     total magnetization       =    -2.10 Bohr mag/cell
     absolute magnetization    =     6.22 Bohr mag/cell

     iteration #  3     ecut=    80.00 Ry     beta= 0.30
     Davidson diagonalization with overlap
     ethr =  1.21E-08,  avg # of iterations =  2.1

     negative rho (up, down):  1.587E-04 1.536E-04

     total cpu time spent up to now is      625.6 secs

     total energy              =   -3261.34615689 Ry
     estimated scf accuracy    <       0.00003018 Ry

     total magnetization       =    -2.10 Bohr mag/cell
     absolute magnetization    =     6.22 Bohr mag/cell

     iteration #  4     ecut=    80.00 Ry     beta= 0.30
     Davidson diagonalization with overlap
     ethr =  8.98E-09,  avg # of iterations =  1.0

     negative rho (up, down):  1.870E-04 1.801E-04

     total cpu time spent up to now is      641.0 secs

     total energy              =   -3261.34615727 Ry
     estimated scf accuracy    <       0.00001197 Ry

     total magnetization       =    -2.11 Bohr mag/cell
     absolute magnetization    =     6.23 Bohr mag/cell

     iteration #  5     ecut=    80.00 Ry     beta= 0.30
     Davidson diagonalization with overlap
     ethr =  3.56E-09,  avg # of iterations =  2.1

     negative rho (up, down):  1.974E-04 1.903E-04

     total cpu time spent up to now is      658.3 secs

     total energy              =   -3261.34615826 Ry
     estimated scf accuracy    <       0.00000301 Ry

     total magnetization       =    -2.11 Bohr mag/cell
     absolute magnetization    =     6.24 Bohr mag/cell

     iteration #  6     ecut=    80.00 Ry     beta= 0.30
     Davidson diagonalization with overlap
     ethr =  8.95E-10,  avg # of iterations =  1.9

     negative rho (up, down):  2.024E-04 1.963E-04

     total cpu time spent up to now is      676.3 secs

     total energy              =   -3261.34615865 Ry
     estimated scf accuracy    <       0.00000179 Ry

     total magnetization       =    -2.11 Bohr mag/cell
     absolute magnetization    =     6.25 Bohr mag/cell

     iteration #  7     ecut=    80.00 Ry     beta= 0.30
     Davidson diagonalization with overlap
     ethr =  5.32E-10,  avg # of iterations =  2.2

     negative rho (up, down):  1.039E-04 1.040E-04

     Magnetic moment per site  (integrated on atomic sphere of radius R)
     atom   1 (R=0.125)  charge= 10.7448  magn=  0.1861
     atom   2 (R=0.126)  charge= 10.7730  magn= -0.5001
     atom   3 (R=0.125)  charge= 10.6799  magn=  0.1844
     atom   4 (R=0.126)  charge= 10.8213  magn= -0.1118
     atom   5 (R=0.125)  charge= 10.7385  magn=  0.2210
     atom   6 (R=0.126)  charge= 10.7877  magn= -0.4473
     atom   7 (R=0.125)  charge=  5.2066  magn= -0.0319
     atom   8 (R=0.125)  charge=  5.0794  magn= -0.1790
     atom   9 (R=0.125)  charge=  5.2089  magn=  0.0188
     atom  10 (R=0.125)  charge=  5.2089  magn=  0.0188
     atom  11 (R=0.125)  charge=  5.2149  magn=  0.0072
     atom  12 (R=0.125)  charge=  5.1989  magn= -0.0073
     atom  13 (R=0.125)  charge=  5.2169  magn=  0.0104
     atom  14 (R=0.125)  charge=  5.2169  magn=  0.0104
     atom  15 (R=0.125)  charge=  5.1382  magn= -0.1842
     atom  16 (R=0.125)  charge=  5.1879  magn= -0.0150
     atom  17 (R=0.125)  charge=  5.2089  magn=  0.0200
     atom  18 (R=0.125)  charge=  5.2089  magn=  0.0200
     atom  19 (R=0.125)  charge= 10.7448  magn=  0.1861
     atom  20 (R=0.126)  charge= 10.7730  magn= -0.5001
     atom  21 (R=0.125)  charge= 10.6799  magn=  0.1844
     atom  22 (R=0.126)  charge= 10.8213  magn= -0.1118
     atom  23 (R=0.125)  charge= 10.7385  magn=  0.2210
     atom  24 (R=0.126)  charge= 10.7877  magn= -0.4473
     atom  25 (R=0.125)  charge=  5.2066  magn= -0.0319
     atom  26 (R=0.125)  charge=  5.0794  magn= -0.1790
     atom  27 (R=0.125)  charge=  5.2089  magn=  0.0188
     atom  28 (R=0.125)  charge=  5.2089  magn=  0.0188
     atom  29 (R=0.125)  charge=  5.2149  magn=  0.0072
     atom  30 (R=0.125)  charge=  5.1989  magn= -0.0073
     atom  31 (R=0.125)  charge=  5.2169  magn=  0.0104
     atom  32 (R=0.125)  charge=  5.2169  magn=  0.0104
     atom  33 (R=0.125)  charge=  5.1382  magn= -0.1842
     atom  34 (R=0.125)  charge=  5.1879  magn= -0.0150
     atom  35 (R=0.125)  charge=  5.2089  magn=  0.0200
     atom  36 (R=0.125)  charge=  5.2089  magn=  0.0200

     total cpu time spent up to now is      694.2 secs

     End of self-consistent calculation

 ------ SPIN UP ------------


          k = 0.0000 0.0000 0.0000 ( 81707 PWs)   bands (ev):

   -72.1683 -72.1574 -72.1282 -72.1179 -72.1024 -72.0986 -72.0905 -72.0892
   -72.0089 -71.9981 -71.7841 -71.7735 -42.4146 -42.4035 -42.3233 -42.3220
   -42.3115 -42.2477 -42.2299 -42.2187 -42.2038 -42.1838 -42.1741 -42.1566
   -42.1505 -42.1502 -42.1331 -42.1231 -42.0674 -42.0448 -41.9985 -41.9972
   -41.9746 -41.9670 -41.9613 -41.9461 -41.9435 -41.9172 -41.9151 -41.8834
   -41.8787 -41.8776 -41.8639 -41.8473 -41.8363 -41.6954 -41.6608 -41.6315
   -18.7678 -18.3876 -18.2458 -18.1144 -18.0325 -17.7189 -17.5512 -17.5267
   -17.4776 -17.4703 -17.4355 -17.4054 -17.3894 -17.3633 -17.3621 -17.3013
   -16.9868 -16.9097 -16.8597 -16.7725 -16.5240 -16.3567 -15.7387 -15.7047
    -6.9999  -6.9461  -6.9082  -6.8200  -6.0405  -5.9188  -5.7336  -5.7023
    -5.6536  -5.5019  -5.4888  -5.4764  -5.4727  -5.4221  -5.3838  -5.3126
    -5.2808  -5.2776  -5.2098  -5.1504  -5.0518  -5.0449  -4.9332  -4.7910
    -4.7872  -4.7817  -4.7356  -4.6948  -4.3114  -4.3105  -3.9253  -3.5794
    -3.4325  -3.3799  -3.3618  -3.3427  -3.2525  -3.1849  -3.1281  -3.0932
    -3.0597  -3.0427  -2.9651  -2.9291  -2.7198  -2.6489  -2.6365  -2.5055
    -2.4308  -2.3533  -2.3445  -2.2178  -2.1854  -2.0936  -2.0613  -2.0489
    -1.9416  -1.9345  -1.8215  -1.6953  -1.5209  -1.5182  -1.3756  -1.3112
    -1.2857  -1.2370  -1.1255  -0.9124  -0.7445  -0.6465  -0.5672  -0.4389
    -0.0487   0.0950   0.1254   0.1575   0.1759   0.2035   0.2570   0.2934
     0.3498   0.3552   0.4997   0.6904   0.6937   0.7032   0.7893   0.8067
     0.8722   0.9794   1.0891   1.1257   1.1344   1.2572   1.3207   1.4423
     1.5773   1.5913   1.7235   1.7961   1.9396   2.0876   2.1358   2.2820
     2.3936   2.4031   2.6480   2.6806   2.7235   2.7709   2.9388   3.0753
     3.5141   4.1285   4.5036   4.5383   4.6128   4.6458   4.7369   4.8466
     4.9946   5.1088   5.1473   5.3052   5.5359   5.9013   5.9336   5.9743
     6.0352   6.0788

          k = 0.0000 0.2445 0.0000 ( 81832 PWs)   bands (ev):

   -72.1683 -72.1574 -72.1282 -72.1179 -72.1020 -72.0991 -72.0905 -72.0892
   -72.0089 -71.9981 -71.7841 -71.7735 -42.4146 -42.4035 -42.3233 -42.3221
   -42.3116 -42.2450 -42.2353 -42.2172 -42.2052 -42.1841 -42.1747 -42.1716
   -42.1449 -42.1330 -42.1321 -42.1233 -42.0674 -42.0448 -41.9979 -41.9972
   -41.9746 -41.9676 -41.9614 -41.9463 -41.9461 -41.9168 -41.9151 -41.8834
   -41.8776 -41.8772 -41.8664 -41.8473 -41.8361 -41.6955 -41.6624 -41.6312
   -18.6968 -18.2594 -18.1517 -18.0589 -18.0314 -17.7135 -17.6783 -17.6421
   -17.5980 -17.5789 -17.5017 -17.4444 -17.3688 -17.2671 -17.1552 -17.1242
   -17.0243 -16.9883 -16.9876 -16.9480 -16.5237 -16.3548 -15.7382 -15.7020
    -6.8598  -6.5474  -6.4842  -6.4442  -6.0215  -5.9128  -5.9074  -5.7726
    -5.7334  -5.6764  -5.6333  -5.4308  -5.3948  -5.3466  -5.3279  -5.3266
    -5.2742  -5.2412  -5.2346  -5.2086  -5.1591  -4.9973  -4.9333  -4.9314
    -4.9310  -4.5240  -4.3996  -4.1010  -4.0673  -3.9372  -3.8901  -3.6429
    -3.6217  -3.5887  -3.5203  -3.4715  -3.4454  -3.3423  -3.2518  -3.2360
    -3.2053  -3.0786  -3.0356  -2.8856  -2.8472  -2.6934  -2.6924  -2.5672
    -2.4770  -2.4461  -2.4128  -2.3656  -2.3323  -2.2648  -2.1825  -2.1781
    -1.9906  -1.9700  -1.8252  -1.7752  -1.7466  -1.6408  -1.5535  -1.4210
    -1.2908  -1.2604  -1.2215  -1.1974  -0.8243  -0.7822  -0.7651  -0.5279
     0.0560   0.0651   0.0727   0.2647   0.4454   0.4562   0.4972   0.6119
     0.6534   0.6962   0.7062   0.7157   0.7176   0.7400   0.7515   0.8083
     0.8199   0.8468   0.8949   0.9560   1.0039   1.0090   1.1368   1.4135
     1.5785   1.8062   1.9674   2.1009   2.1503   2.2357   2.2910   2.3159
     2.4161   2.4383   2.4983   2.6475   2.7009   2.7992   2.8218   3.2038
     3.5643   3.7120   3.7697   3.9034   4.4248   4.6190   4.7541   5.2331
     5.4222   5.5345   5.7259   5.7848   5.8072   5.8202   5.9010   5.9301
     5.9955   6.1280

          k = 0.0000-0.4891 0.0000 ( 81886 PWs)   bands (ev):

   -72.1683 -72.1574 -72.1282 -72.1179 -72.1013 -72.0997 -72.0905 -72.0892
   -72.0089 -71.9981 -71.7841 -71.7735 -42.4146 -42.4035 -42.3234 -42.3222
   -42.3116 -42.2423 -42.2401 -42.2158 -42.2066 -42.1845 -42.1833 -42.1691
   -42.1400 -42.1329 -42.1235 -42.1234 -42.0674 -42.0448 -41.9973 -41.9972
   -41.9746 -41.9681 -41.9615 -41.9492 -41.9460 -41.9164 -41.9152 -41.8834
   -41.8777 -41.8757 -41.8690 -41.8473 -41.8359 -41.6956 -41.6641 -41.6310
   -18.6194 -18.0959 -18.0477 -18.0303 -17.8848 -17.7567 -17.7325 -17.7080
   -17.6882 -17.6880 -17.6160 -17.4453 -17.3744 -17.1844 -17.1601 -17.1591
   -17.0898 -17.0555 -17.0271 -16.9897 -16.5233 -16.3541 -15.7377 -15.6998
    -6.8539  -6.0872  -6.0037  -5.9661  -5.9612  -5.8855  -5.8436  -5.7671
    -5.7329  -5.6775  -5.6438  -5.3517  -5.3413  -5.2613  -5.2462  -5.2422
    -5.2267  -5.2232  -5.2105  -5.1925  -5.1452  -5.0833  -4.9292  -4.9260
    -4.6400  -4.5936  -4.4864  -4.1894  -4.1807  -4.1204  -4.0967  -3.8676
    -3.8641  -3.8513  -3.6040  -3.5751  -3.5299  -3.3192  -3.1966  -3.1822
    -3.1748  -3.0375  -3.0324  -2.9777  -2.9199  -2.8877  -2.7992  -2.7939
    -2.7484  -2.6859  -2.5736  -2.5515  -2.4727  -2.2563  -2.1807  -2.0958
    -2.0606  -1.7654  -1.7080  -1.6637  -1.6449  -1.5976  -1.5694  -1.3919
    -1.3293  -1.3172  -1.3106  -1.2720  -1.0010  -0.8451  -0.7371  -0.6337
    -0.2179  -0.2143   0.0215   0.0305   0.0552   0.1152   0.5781   0.6814
     0.6816   0.6976   0.7057   0.8038   0.8300   0.8865   0.9296   0.9934
     1.0199   1.0722   1.1368   1.1575   1.2515   1.3051   1.3070   1.4415
     1.5712   1.6630   1.8235   2.0770   2.1365   2.2525   2.2658   2.3000
     2.4274   2.5508   2.6103   2.6883   2.7050   2.8462   2.8907   3.3567
     3.3760   3.3768   3.5183   3.6030   4.6138   4.6246   4.7715   5.4769
     5.4947   5.5384   5.5516   5.5730   5.6106   5.8953   6.0551   6.1306
     6.1481   6.3556

          k = 0.0000-0.2445 0.0000 ( 81832 PWs)   bands (ev):

   -72.1683 -72.1574 -72.1282 -72.1179 -72.1020 -72.0991 -72.0905 -72.0892
   -72.0089 -71.9981 -71.7841 -71.7735 -42.4146 -42.4035 -42.3233 -42.3221
   -42.3116 -42.2450 -42.2353 -42.2172 -42.2052 -42.1841 -42.1747 -42.1716
   -42.1449 -42.1330 -42.1321 -42.1233 -42.0674 -42.0448 -41.9979 -41.9972
   -41.9746 -41.9676 -41.9614 -41.9463 -41.9461 -41.9168 -41.9151 -41.8834
   -41.8776 -41.8772 -41.8664 -41.8473 -41.8361 -41.6955 -41.6624 -41.6312
   -18.6968 -18.2594 -18.1517 -18.0589 -18.0314 -17.7135 -17.6783 -17.6421
   -17.5980 -17.5789 -17.5017 -17.4444 -17.3688 -17.2671 -17.1552 -17.1242
   -17.0243 -16.9883 -16.9876 -16.9480 -16.5237 -16.3548 -15.7382 -15.7020
    -6.8598  -6.5474  -6.4842  -6.4442  -6.0215  -5.9128  -5.9074  -5.7726
    -5.7334  -5.6764  -5.6333  -5.4308  -5.3948  -5.3466  -5.3279  -5.3266
    -5.2742  -5.2412  -5.2346  -5.2086  -5.1591  -4.9973  -4.9333  -4.9314
    -4.9310  -4.5240  -4.3996  -4.1010  -4.0673  -3.9372  -3.8901  -3.6429
    -3.6217  -3.5887  -3.5203  -3.4715  -3.4454  -3.3423  -3.2518  -3.2360
    -3.2053  -3.0786  -3.0356  -2.8856  -2.8472  -2.6934  -2.6924  -2.5672
    -2.4770  -2.4461  -2.4128  -2.3656  -2.3323  -2.2648  -2.1825  -2.1781
    -1.9906  -1.9700  -1.8252  -1.7752  -1.7466  -1.6408  -1.5535  -1.4210
    -1.2908  -1.2604  -1.2215  -1.1974  -0.8243  -0.7822  -0.7651  -0.5279
     0.0560   0.0651   0.0727   0.2647   0.4454   0.4562   0.4972   0.6119
     0.6534   0.6962   0.7062   0.7157   0.7176   0.7400   0.7515   0.8083
     0.8199   0.8468   0.8949   0.9560   1.0039   1.0090   1.1368   1.4135
     1.5785   1.8062   1.9674   2.1009   2.1503   2.2357   2.2910   2.3159
     2.4161   2.4383   2.4983   2.6475   2.7009   2.7992   2.8218   3.2038
     3.5643   3.7120   3.7697   3.9034   4.4248   4.6190   4.7541   5.2331
     5.4222   5.5345   5.7259   5.7848   5.8072   5.8202   5.9010   5.9301
     5.9955   6.1280

          k = 0.2500 0.0000 0.0000 ( 81703 PWs)   bands (ev):

   -72.1667 -72.1590 -72.1267 -72.1194 -72.1007 -72.0972 -72.0924 -72.0905
   -72.0073 -71.9997 -71.7825 -71.7750 -42.4128 -42.4048 -42.3213 -42.3129
   -42.2949 -42.2451 -42.2325 -42.2165 -42.2059 -42.1716 -42.1614 -42.1592
   -42.1580 -42.1240 -42.1230 -42.0975 -42.0654 -42.0474 -42.0248 -41.9958
   -41.9943 -41.9875 -41.9779 -41.9724 -41.9397 -41.9211 -41.9103 -41.8880
   -41.8732 -41.8599 -41.8523 -41.8517 -41.8404 -41.7227 -41.6565 -41.6358
   -18.6384 -18.2714 -18.1398 -18.0130 -18.0108 -17.8768 -17.6457 -17.5709
   -17.5468 -17.5093 -17.4752 -17.3616 -17.3211 -17.3122 -17.2914 -17.2272
   -16.9899 -16.9688 -16.9364 -16.8535 -16.5908 -16.4287 -15.7761 -15.7474
    -6.8216  -6.7692  -6.7288  -6.6166  -5.9798  -5.9166  -5.7698  -5.7626
    -5.7062  -5.6583  -5.5688  -5.5355  -5.5311  -5.5277  -5.4912  -5.3929
    -5.3307  -5.2221  -5.1862  -5.1828  -5.1493  -4.9602  -4.7128  -4.7087
    -4.5949  -4.4734  -4.4422  -4.3430  -4.2641  -4.0297  -4.0172  -3.9289
    -3.7876  -3.6782  -3.4269  -3.3450  -3.1216  -3.1157  -3.0822  -3.0674
    -3.0318  -3.0066  -2.9211  -2.8459  -2.7961  -2.7939  -2.6155  -2.6096
    -2.5803  -2.4867  -2.4266  -2.4151  -2.3351  -2.2864  -2.1571  -2.1035
    -2.0704  -2.0438  -1.9476  -1.7436  -1.7189  -1.7151  -1.6058  -1.5493
    -1.5197  -1.4634  -1.1683  -0.9776  -0.9617  -0.6713  -0.5980  -0.5271
     0.0023   0.0394   0.0625   0.2352   0.3857   0.3926   0.5012   0.5722
     0.5724   0.5914   0.6561   0.7484   0.7952   0.8285   0.8322   1.0097
     1.0233   1.0258   1.2555   1.2767   1.3045   1.4128   1.4713   1.5560
     1.5609   1.7835   1.7899   1.8033   1.9085   1.9875   2.0380   2.2591
     2.4541   2.5270   2.5631   2.5633   2.6294   2.7842   2.9241   2.9438
     3.7502   4.2553   4.6288   4.6431   4.6700   4.7016   4.7708   4.8816
     4.9732   5.1380   5.1668   5.3517   5.3737   5.4412   5.6595   5.6830
     5.7086   5.7639

          k = 0.2500 0.2445 0.0000 ( 81774 PWs)   bands (ev):

   -72.1667 -72.1590 -72.1267 -72.1194 -72.1003 -72.0976 -72.0923 -72.0906
   -72.0073 -71.9997 -71.7825 -71.7750 -42.4128 -42.4048 -42.3214 -42.3129
   -42.2951 -42.2431 -42.2356 -42.2154 -42.2069 -42.1698 -42.1673 -42.1613
   -42.1582 -42.1204 -42.1144 -42.0977 -42.0654 -42.0475 -42.0245 -41.9958
   -41.9945 -41.9873 -41.9779 -41.9724 -41.9419 -41.9211 -41.9104 -41.8880
   -41.8732 -41.8620 -41.8517 -41.8511 -41.8406 -41.7226 -41.6579 -41.6358
   -18.5737 -18.1489 -18.0538 -18.0057 -17.9510 -17.8643 -17.6763 -17.6326
   -17.5491 -17.5486 -17.4964 -17.3848 -17.3795 -17.3310 -17.2214 -17.1600
   -17.0891 -17.0467 -17.0184 -16.9700 -16.5913 -16.4271 -15.7763 -15.7453
    -6.6744  -6.3766  -6.3201  -6.2890  -5.9118  -5.9058  -5.7760  -5.7669
    -5.7081  -5.6442  -5.5847  -5.5013  -5.4345  -5.3933  -5.3920  -5.3517
    -5.3436  -5.3021  -5.2392  -5.2236  -5.1082  -4.9607  -4.7031  -4.5946
    -4.5795  -4.3936  -4.3654  -4.3149  -4.1509  -4.1310  -3.9668  -3.9398
    -3.7343  -3.6683  -3.6161  -3.4788  -3.4228  -3.3929  -3.2260  -3.2216
    -3.0930  -3.0810  -2.9978  -2.9280  -2.9025  -2.8928  -2.8472  -2.7379
    -2.7316  -2.6530  -2.6355  -2.5154  -2.4557  -2.4098  -2.4043  -2.2182
    -2.1692  -1.9388  -1.9282  -1.8608  -1.7517  -1.6485  -1.6480  -1.6043
    -1.5237  -1.3049  -1.2678  -0.9494  -0.8669  -0.7392  -0.7036  -0.6369
    -0.0553   0.0357   0.2293   0.2922   0.4131   0.4393   0.5943   0.6366
     0.6901   0.7278   0.7545   0.7670   0.9184   0.9248   0.9586   0.9839
     1.0163   1.1454   1.2136   1.2918   1.3018   1.3715   1.4086   1.5061
     1.8000   1.8264   1.9024   1.9532   2.0024   2.0922   2.1513   2.2434
     2.3273   2.3640   2.4504   2.6171   2.7419   2.7856   2.9030   3.1601
     3.7305   3.9378   3.9657   4.0750   4.4991   4.6785   4.7317   5.0354
     5.1535   5.2734   5.3366   5.5019   5.5849   5.5957   5.6899   5.7319
     5.8493   6.0052

          k = 0.2500-0.4891 0.0000 ( 81830 PWs)   bands (ev):

   -72.1667 -72.1590 -72.1267 -72.1194 -72.0997 -72.0982 -72.0921 -72.0908
   -72.0073 -71.9997 -71.7825 -71.7750 -42.4128 -42.4048 -42.3214 -42.3129
   -42.2953 -42.2411 -42.2386 -42.2143 -42.2078 -42.1734 -42.1680 -42.1613
   -42.1585 -42.1171 -42.1079 -42.0979 -42.0654 -42.0475 -42.0242 -41.9957
   -41.9946 -41.9871 -41.9779 -41.9724 -41.9441 -41.9212 -41.9104 -41.8880
   -41.8732 -41.8642 -41.8517 -41.8499 -41.8408 -41.7225 -41.6592 -41.6359
   -18.5040 -18.0004 -17.9854 -17.9411 -17.8468 -17.7899 -17.7072 -17.6871
   -17.6191 -17.5788 -17.5506 -17.4928 -17.4044 -17.3100 -17.2316 -17.2121
   -17.1719 -17.1189 -17.1155 -16.9709 -16.5918 -16.4263 -15.7765 -15.7435
    -6.6637  -5.9395  -5.8202  -5.8143  -5.7707  -5.6880  -5.6600  -5.5831
    -5.5665  -5.5028  -5.5004  -5.4640  -5.4368  -5.4211  -5.3825  -5.3662
    -5.3451  -5.3425  -5.3154  -5.2755  -5.2597  -4.7241  -4.6156  -4.5768
    -4.5143  -4.4852  -4.3381  -4.2651  -4.1983  -4.1070  -4.0709  -3.9699
    -3.8288  -3.8284  -3.7806  -3.7689  -3.7311  -3.5677  -3.5576  -3.4412
    -3.3738  -3.2170  -3.1956  -3.1365  -3.0874  -3.0308  -3.0257  -2.9397
    -2.9043  -2.8802  -2.7440  -2.7091  -2.6043  -2.4311  -2.4173  -2.1362
    -1.9664  -1.8930  -1.8703  -1.7130  -1.6605  -1.5921  -1.5182  -1.3821
    -1.2983  -1.2685  -1.1940  -1.0688  -0.9842  -0.9633  -0.6970  -0.6597
    -0.1210  -0.0496   0.0490   0.1121   0.1983   0.3371   0.4967   0.6721
     0.7150   0.7858   0.8212   0.9610   1.0273   1.0812   1.0909   1.1104
     1.2688   1.3284   1.3447   1.3689   1.4404   1.4858   1.6091   1.6410
     1.6493   1.8074   2.0006   2.0062   2.0283   2.0435   2.1140   2.1862
     2.2936   2.4052   2.4558   2.4681   2.8716   2.9244   3.0146   3.3077
     3.4923   3.4997   3.6438   3.8515   4.6758   4.6845   4.7492   4.9086
     4.9122   5.0204   5.2529   5.4713   5.6663   5.7693   5.8213   5.8341
     6.2139   6.2335

          k = 0.2500-0.2445 0.0000 ( 81774 PWs)   bands (ev):

   -72.1667 -72.1590 -72.1267 -72.1194 -72.1003 -72.0976 -72.0923 -72.0906
   -72.0073 -71.9997 -71.7825 -71.7750 -42.4128 -42.4048 -42.3214 -42.3129
   -42.2951 -42.2431 -42.2356 -42.2154 -42.2069 -42.1698 -42.1673 -42.1613
   -42.1582 -42.1204 -42.1144 -42.0977 -42.0654 -42.0475 -42.0245 -41.9958
   -41.9945 -41.9873 -41.9779 -41.9724 -41.9419 -41.9211 -41.9104 -41.8880
   -41.8732 -41.8620 -41.8517 -41.8511 -41.8406 -41.7226 -41.6579 -41.6358
   -18.5737 -18.1489 -18.0538 -18.0057 -17.9510 -17.8643 -17.6763 -17.6326
   -17.5491 -17.5486 -17.4964 -17.3848 -17.3795 -17.3310 -17.2214 -17.1600
   -17.0891 -17.0467 -17.0184 -16.9700 -16.5913 -16.4271 -15.7763 -15.7453
    -6.6744  -6.3766  -6.3201  -6.2890  -5.9118  -5.9058  -5.7760  -5.7669
    -5.7081  -5.6442  -5.5847  -5.5013  -5.4345  -5.3933  -5.3920  -5.3517
    -5.3436  -5.3021  -5.2392  -5.2236  -5.1082  -4.9607  -4.7031  -4.5946
    -4.5795  -4.3936  -4.3654  -4.3149  -4.1509  -4.1310  -3.9668  -3.9398
    -3.7343  -3.6683  -3.6161  -3.4788  -3.4228  -3.3929  -3.2260  -3.2216
    -3.0930  -3.0810  -2.9978  -2.9280  -2.9025  -2.8928  -2.8472  -2.7379
    -2.7316  -2.6530  -2.6355  -2.5154  -2.4557  -2.4098  -2.4043  -2.2182
    -2.1692  -1.9388  -1.9282  -1.8608  -1.7517  -1.6485  -1.6480  -1.6043
    -1.5237  -1.3049  -1.2678  -0.9494  -0.8669  -0.7392  -0.7036  -0.6369
    -0.0553   0.0357   0.2293   0.2922   0.4131   0.4393   0.5943   0.6366
     0.6901   0.7278   0.7545   0.7670   0.9184   0.9248   0.9586   0.9839
     1.0163   1.1454   1.2136   1.2918   1.3018   1.3715   1.4086   1.5061
     1.8000   1.8264   1.9024   1.9532   2.0024   2.0922   2.1513   2.2434
     2.3273   2.3640   2.4504   2.6171   2.7419   2.7856   2.9030   3.1601
     3.7305   3.9378   3.9657   4.0750   4.4991   4.6785   4.7317   5.0354
     5.1535   5.2734   5.3366   5.5019   5.5849   5.5957   5.6899   5.7319
     5.8493   6.0052

          k =-0.5000 0.0000 0.0000 ( 81894 PWs)   bands (ev):

   -72.1629 -72.1629 -72.1231 -72.1231 -72.0966 -72.0966 -72.0938 -72.0938
   -72.0035 -72.0035 -71.7788 -71.7788 -42.4086 -42.4086 -42.3168 -42.3168
   -42.2388 -42.2387 -42.2288 -42.2288 -42.2112 -42.2112 -42.1653 -42.1653
   -42.0954 -42.0954 -42.0598 -42.0598 -42.0569 -42.0569 -42.0526 -42.0525
   -42.0354 -42.0354 -41.9857 -41.9857 -41.9305 -41.9305 -41.8991 -41.8991
   -41.8624 -41.8624 -41.8502 -41.8502 -41.7879 -41.7879 -41.6462 -41.6462
   -18.3095 -18.3095 -17.9999 -17.9999 -17.8945 -17.8945 -17.7661 -17.7661
   -17.6747 -17.6747 -17.3504 -17.3504 -17.1789 -17.1789 -17.1169 -17.1169
   -17.0886 -17.0886 -17.0439 -17.0439 -16.5753 -16.5752 -15.8031 -15.8031
    -6.3754  -6.3754  -6.2999  -6.2999  -6.2578  -6.2578  -6.0850  -6.0850
    -5.7528  -5.7528  -5.7203  -5.7203  -5.5865  -5.5865  -5.3939  -5.3939
    -5.2288  -5.2288  -5.0832  -5.0832  -4.8595  -4.8595  -4.7373  -4.7373
    -4.2503  -4.2503  -4.1380  -4.1380  -3.9088  -3.9088  -3.8282  -3.8282
    -3.7498  -3.7498  -3.6600  -3.6600  -3.5530  -3.5530  -3.3128  -3.3128
    -3.0619  -3.0619  -2.8654  -2.8654  -2.7655  -2.7655  -2.6405  -2.6405
    -2.6301  -2.6301  -2.5364  -2.5364  -2.4129  -2.4129  -2.2687  -2.2687
    -2.0920  -2.0920  -1.9400  -1.9400  -1.9081  -1.9081  -1.7852  -1.7852
    -1.5814  -1.5814  -1.0341  -1.0341  -0.8356  -0.8356  -0.6893  -0.6893
     0.1300   0.1300   0.2201   0.2201   0.3641   0.3641   0.5509   0.5509
     0.7003   0.7003   0.8884   0.8884   0.9986   0.9987   1.1292   1.1292
     1.1415   1.1415   1.3365   1.3365   1.5315   1.5315   1.5636   1.5636
     1.7666   1.7666   1.8151   1.8151   2.0712   2.0712   2.0787   2.0787
     2.3156   2.3156   2.5098   2.5098   2.7458   2.7458   2.9161   2.9161
     4.2855   4.2855   4.6699   4.6700   4.8156   4.8156   5.0222   5.0222
     5.0705   5.0705   5.0997   5.0997   5.1794   5.1794   5.2262   5.2262
     5.4141   5.4141

          k =-0.5000 0.2445 0.0000 ( 81810 PWs)   bands (ev):

   -72.1629 -72.1629 -72.1231 -72.1231 -72.0963 -72.0963 -72.0941 -72.0941
   -72.0035 -72.0035 -71.7788 -71.7788 -42.4086 -42.4086 -42.3168 -42.3168
   -42.2387 -42.2387 -42.2288 -42.2288 -42.2111 -42.2111 -42.1661 -42.1661
   -42.0954 -42.0954 -42.0586 -42.0586 -42.0550 -42.0550 -42.0526 -42.0526
   -42.0354 -42.0354 -41.9857 -41.9857 -41.9315 -41.9315 -41.8991 -41.8991
   -41.8625 -41.8625 -41.8513 -41.8513 -41.7874 -41.7873 -41.6469 -41.6468
   -18.2660 -18.2660 -17.9188 -17.9188 -17.8369 -17.8369 -17.7020 -17.7020
   -17.6598 -17.6598 -17.3813 -17.3813 -17.3019 -17.3019 -17.2087 -17.2087
   -17.1550 -17.1550 -17.0651 -17.0651 -16.5744 -16.5744 -15.8026 -15.8026
    -6.2108  -6.2108  -5.9773  -5.9773  -5.9453  -5.9453  -5.9393  -5.9393
    -5.7475  -5.7475  -5.7162  -5.7162  -5.4316  -5.4316  -5.2570  -5.2570
    -5.2281  -5.2281  -5.0781  -5.0781  -4.8903  -4.8903  -4.5661  -4.5661
    -4.2928  -4.2928  -4.2487  -4.2487  -4.1321  -4.1321  -4.0912  -4.0912
    -3.9131  -3.9131  -3.8056  -3.8056  -3.6265  -3.6265  -3.5370  -3.5370
    -3.1522  -3.1522  -2.9744  -2.9744  -2.8883  -2.8883  -2.7920  -2.7920
    -2.6952  -2.6952  -2.6400  -2.6400  -2.5988  -2.5988  -2.3969  -2.3969
    -2.1631  -2.1631  -1.8369  -1.8369  -1.8083  -1.8083  -1.7256  -1.7256
    -1.5530  -1.5530  -1.0562  -1.0562  -0.8518  -0.8518  -0.7308  -0.7308
    -0.0346  -0.0346   0.3346   0.3346   0.4080   0.4080   0.6415   0.6415
     0.9206   0.9206   1.0457   1.0457   1.1398   1.1398   1.2175   1.2175
     1.2586   1.2586   1.3077   1.3077   1.5620   1.5620   1.6751   1.6751
     1.8163   1.8163   1.8407   1.8407   1.9762   1.9762   2.1156   2.1156
     2.1956   2.1956   2.3308   2.3308   2.8874   2.8874   3.0614   3.0614
     4.3292   4.3292   4.3999   4.3999   4.4931   4.4931   4.5672   4.5672
     4.8424   4.8424   5.0320   5.0320   5.2520   5.2520   5.6825   5.6825
     5.8439   5.8439

          k =-0.5000-0.4891 0.0000 ( 81784 PWs)   bands (ev):

   -72.1628 -72.1628 -72.1231 -72.1231 -72.0959 -72.0959 -72.0945 -72.0945
   -72.0035 -72.0035 -71.7788 -71.7788 -42.4086 -42.4086 -42.3169 -42.3168
   -42.2387 -42.2387 -42.2289 -42.2289 -42.2109 -42.2109 -42.1669 -42.1669
   -42.0955 -42.0955 -42.0573 -42.0573 -42.0535 -42.0535 -42.0522 -42.0522
   -42.0355 -42.0355 -41.9857 -41.9857 -41.9326 -41.9326 -41.8992 -41.8992
   -41.8625 -41.8625 -41.8525 -41.8524 -41.7868 -41.7868 -41.6475 -41.6475
   -18.2203 -18.2203 -17.8166 -17.8165 -17.7490 -17.7490 -17.5916 -17.5916
   -17.5900 -17.5900 -17.4644 -17.4644 -17.4249 -17.4249 -17.4039 -17.4039
   -17.2454 -17.2454 -17.0600 -17.0600 -16.5738 -16.5738 -15.8022 -15.8022
    -6.1684  -6.1684  -5.7694  -5.7694  -5.7166  -5.7166  -5.5022  -5.5022
    -5.4641  -5.4641  -5.4572  -5.4572  -5.2869  -5.2869  -5.1417  -5.1417
    -5.0699  -5.0699  -4.9970  -4.9970  -4.8400  -4.8400  -4.7440  -4.7440
    -4.7223  -4.7223  -4.6186  -4.6186  -4.3085  -4.3085  -4.1740  -4.1740
    -3.9915  -3.9915  -3.8495  -3.8495  -3.5591  -3.5591  -3.4117  -3.4117
    -3.3532  -3.3532  -3.3508  -3.3508  -3.2430  -3.2430  -3.1642  -3.1642
    -3.0117  -3.0117  -2.9998  -2.9998  -2.8283  -2.8283  -2.3080  -2.3080
    -1.9108  -1.9108  -1.7308  -1.7308  -1.5555  -1.5555  -1.4898  -1.4898
    -1.4101  -1.4101  -1.1647  -1.1647  -0.9415  -0.9415  -0.7534  -0.7534
     0.1613   0.1613   0.1688   0.1688   0.4683   0.4683   0.6018   0.6018
     0.6845   0.6845   1.0688   1.0688   1.3488   1.3488   1.3491   1.3491
     1.3695   1.3695   1.5659   1.5659   1.7154   1.7154   1.8246   1.8246
     1.8710   1.8710   1.9414   1.9414   1.9637   1.9637   2.0067   2.0067
     2.1414   2.1414   2.2406   2.2406   2.9895   2.9895   3.1752   3.1752
     4.0418   4.0418   4.0442   4.0442   4.1524   4.1524   4.3980   4.3980
     4.8510   4.8510   5.0345   5.0345   5.4097   5.4097   5.9447   5.9447
     6.0364   6.0364

          k =-0.5000-0.2445 0.0000 ( 81810 PWs)   bands (ev):

   -72.1629 -72.1629 -72.1231 -72.1231 -72.0963 -72.0963 -72.0941 -72.0941
   -72.0035 -72.0035 -71.7788 -71.7788 -42.4086 -42.4086 -42.3168 -42.3168
   -42.2387 -42.2387 -42.2288 -42.2288 -42.2111 -42.2111 -42.1661 -42.1661
   -42.0954 -42.0954 -42.0586 -42.0586 -42.0550 -42.0550 -42.0526 -42.0526
   -42.0354 -42.0354 -41.9857 -41.9857 -41.9315 -41.9315 -41.8991 -41.8991
   -41.8625 -41.8625 -41.8513 -41.8513 -41.7874 -41.7873 -41.6469 -41.6468
   -18.2660 -18.2660 -17.9188 -17.9188 -17.8369 -17.8369 -17.7020 -17.7020
   -17.6598 -17.6598 -17.3813 -17.3813 -17.3019 -17.3019 -17.2087 -17.2087
   -17.1550 -17.1550 -17.0651 -17.0651 -16.5744 -16.5744 -15.8026 -15.8026
    -6.2108  -6.2108  -5.9773  -5.9773  -5.9453  -5.9453  -5.9393  -5.9393
    -5.7475  -5.7475  -5.7162  -5.7162  -5.4316  -5.4316  -5.2570  -5.2570
    -5.2281  -5.2281  -5.0781  -5.0781  -4.8903  -4.8903  -4.5661  -4.5661
    -4.2928  -4.2928  -4.2487  -4.2487  -4.1321  -4.1321  -4.0912  -4.0912
    -3.9131  -3.9131  -3.8056  -3.8056  -3.6265  -3.6265  -3.5370  -3.5370
    -3.1522  -3.1522  -2.9744  -2.9744  -2.8883  -2.8883  -2.7920  -2.7920
    -2.6952  -2.6952  -2.6400  -2.6400  -2.5988  -2.5988  -2.3969  -2.3969
    -2.1631  -2.1631  -1.8369  -1.8369  -1.8083  -1.8083  -1.7256  -1.7256
    -1.5530  -1.5530  -1.0562  -1.0562  -0.8518  -0.8518  -0.7308  -0.7308
    -0.0346  -0.0346   0.3346   0.3346   0.4080   0.4080   0.6415   0.6415
     0.9206   0.9206   1.0457   1.0457   1.1398   1.1398   1.2175   1.2175
     1.2586   1.2586   1.3077   1.3077   1.5620   1.5620   1.6751   1.6751
     1.8163   1.8163   1.8407   1.8407   1.9762   1.9762   2.1156   2.1156
     2.1956   2.1956   2.3308   2.3308   2.8874   2.8874   3.0614   3.0614
     4.3292   4.3292   4.3999   4.3999   4.4931   4.4931   4.5672   4.5672
     4.8424   4.8424   5.0320   5.0320   5.2520   5.2520   5.6825   5.6825
     5.8439   5.8439

          k =-0.2500 0.0000 0.0000 ( 81703 PWs)   bands (ev):

   -72.1667 -72.1590 -72.1267 -72.1194 -72.1007 -72.0972 -72.0924 -72.0905
   -72.0073 -71.9997 -71.7825 -71.7750 -42.4128 -42.4048 -42.3213 -42.3129
   -42.2949 -42.2451 -42.2325 -42.2165 -42.2059 -42.1716 -42.1614 -42.1592
   -42.1580 -42.1240 -42.1230 -42.0975 -42.0654 -42.0474 -42.0248 -41.9958
   -41.9943 -41.9875 -41.9779 -41.9724 -41.9397 -41.9211 -41.9103 -41.8880
   -41.8732 -41.8599 -41.8523 -41.8517 -41.8404 -41.7227 -41.6565 -41.6358
   -18.6384 -18.2714 -18.1398 -18.0130 -18.0108 -17.8768 -17.6457 -17.5709
   -17.5468 -17.5093 -17.4752 -17.3616 -17.3211 -17.3122 -17.2914 -17.2272
   -16.9899 -16.9688 -16.9364 -16.8535 -16.5908 -16.4287 -15.7761 -15.7474
    -6.8216  -6.7692  -6.7288  -6.6166  -5.9798  -5.9166  -5.7698  -5.7626
    -5.7062  -5.6583  -5.5688  -5.5355  -5.5311  -5.5277  -5.4912  -5.3929
    -5.3307  -5.2221  -5.1862  -5.1828  -5.1493  -4.9602  -4.7128  -4.7087
    -4.5949  -4.4734  -4.4422  -4.3430  -4.2641  -4.0297  -4.0172  -3.9289
    -3.7876  -3.6782  -3.4269  -3.3450  -3.1216  -3.1157  -3.0822  -3.0674
    -3.0318  -3.0066  -2.9211  -2.8459  -2.7961  -2.7939  -2.6155  -2.6096
    -2.5803  -2.4867  -2.4266  -2.4151  -2.3351  -2.2864  -2.1571  -2.1035
    -2.0704  -2.0438  -1.9476  -1.7436  -1.7189  -1.7151  -1.6058  -1.5493
    -1.5197  -1.4634  -1.1683  -0.9776  -0.9617  -0.6713  -0.5980  -0.5271
     0.0023   0.0394   0.0625   0.2352   0.3857   0.3926   0.5012   0.5722
     0.5724   0.5914   0.6561   0.7484   0.7952   0.8285   0.8322   1.0097
     1.0233   1.0258   1.2555   1.2767   1.3045   1.4128   1.4713   1.5560
     1.5609   1.7835   1.7899   1.8033   1.9085   1.9875   2.0380   2.2591
     2.4541   2.5270   2.5631   2.5633   2.6294   2.7842   2.9241   2.9438
     3.7502   4.2553   4.6288   4.6431   4.6700   4.7016   4.7708   4.8816
     4.9732   5.1380   5.1668   5.3517   5.3737   5.4412   5.6595   5.6830
     5.7086   5.7639

          k =-0.2500 0.2445 0.0000 ( 81774 PWs)   bands (ev):

   -72.1667 -72.1590 -72.1267 -72.1194 -72.1003 -72.0976 -72.0923 -72.0906
   -72.0073 -71.9997 -71.7825 -71.7750 -42.4128 -42.4048 -42.3214 -42.3129
   -42.2951 -42.2431 -42.2356 -42.2154 -42.2069 -42.1698 -42.1673 -42.1613
   -42.1582 -42.1204 -42.1144 -42.0977 -42.0654 -42.0475 -42.0245 -41.9958
   -41.9945 -41.9873 -41.9779 -41.9724 -41.9419 -41.9211 -41.9104 -41.8880
   -41.8732 -41.8620 -41.8517 -41.8511 -41.8406 -41.7226 -41.6579 -41.6358
   -18.5737 -18.1489 -18.0538 -18.0057 -17.9510 -17.8643 -17.6763 -17.6326
   -17.5491 -17.5486 -17.4964 -17.3848 -17.3795 -17.3310 -17.2214 -17.1600
   -17.0891 -17.0467 -17.0184 -16.9700 -16.5913 -16.4271 -15.7763 -15.7453
    -6.6744  -6.3766  -6.3201  -6.2890  -5.9118  -5.9058  -5.7760  -5.7669
    -5.7081  -5.6442  -5.5847  -5.5013  -5.4345  -5.3933  -5.3920  -5.3517
    -5.3436  -5.3021  -5.2392  -5.2236  -5.1082  -4.9607  -4.7031  -4.5946
    -4.5795  -4.3936  -4.3654  -4.3149  -4.1509  -4.1310  -3.9668  -3.9398
    -3.7343  -3.6683  -3.6161  -3.4788  -3.4228  -3.3929  -3.2260  -3.2216
    -3.0930  -3.0810  -2.9978  -2.9280  -2.9025  -2.8928  -2.8472  -2.7379
    -2.7316  -2.6530  -2.6355  -2.5154  -2.4557  -2.4098  -2.4043  -2.2182
    -2.1692  -1.9388  -1.9282  -1.8608  -1.7517  -1.6485  -1.6480  -1.6043
    -1.5237  -1.3049  -1.2678  -0.9494  -0.8669  -0.7392  -0.7036  -0.6369
    -0.0553   0.0357   0.2293   0.2922   0.4131   0.4393   0.5943   0.6366
     0.6901   0.7278   0.7545   0.7670   0.9184   0.9248   0.9586   0.9839
     1.0163   1.1454   1.2136   1.2918   1.3018   1.3715   1.4086   1.5061
     1.8000   1.8264   1.9024   1.9532   2.0024   2.0922   2.1513   2.2434
     2.3273   2.3640   2.4504   2.6171   2.7419   2.7856   2.9030   3.1601
     3.7305   3.9378   3.9657   4.0750   4.4991   4.6785   4.7317   5.0354
     5.1535   5.2734   5.3366   5.5019   5.5849   5.5957   5.6899   5.7319
     5.8493   6.0052

          k =-0.2500-0.4891 0.0000 ( 81830 PWs)   bands (ev):

   -72.1667 -72.1590 -72.1267 -72.1194 -72.0997 -72.0982 -72.0921 -72.0908
   -72.0073 -71.9997 -71.7825 -71.7750 -42.4128 -42.4048 -42.3214 -42.3129
   -42.2953 -42.2411 -42.2386 -42.2143 -42.2078 -42.1734 -42.1680 -42.1613
   -42.1585 -42.1171 -42.1079 -42.0979 -42.0654 -42.0475 -42.0242 -41.9957
   -41.9946 -41.9871 -41.9779 -41.9724 -41.9441 -41.9212 -41.9104 -41.8880
   -41.8732 -41.8642 -41.8517 -41.8499 -41.8408 -41.7225 -41.6592 -41.6359
   -18.5040 -18.0004 -17.9854 -17.9411 -17.8468 -17.7899 -17.7072 -17.6871
   -17.6191 -17.5788 -17.5506 -17.4928 -17.4044 -17.3100 -17.2316 -17.2121
   -17.1719 -17.1189 -17.1155 -16.9709 -16.5918 -16.4263 -15.7765 -15.7435
    -6.6637  -5.9395  -5.8202  -5.8143  -5.7707  -5.6880  -5.6600  -5.5831
    -5.5665  -5.5028  -5.5004  -5.4640  -5.4368  -5.4211  -5.3825  -5.3662
    -5.3451  -5.3425  -5.3154  -5.2755  -5.2597  -4.7241  -4.6156  -4.5768
    -4.5143  -4.4852  -4.3381  -4.2651  -4.1983  -4.1070  -4.0709  -3.9699
    -3.8288  -3.8284  -3.7806  -3.7689  -3.7311  -3.5677  -3.5576  -3.4412
    -3.3738  -3.2170  -3.1956  -3.1365  -3.0874  -3.0308  -3.0257  -2.9397
    -2.9043  -2.8802  -2.7440  -2.7091  -2.6043  -2.4311  -2.4173  -2.1362
    -1.9664  -1.8930  -1.8703  -1.7130  -1.6605  -1.5921  -1.5182  -1.3821
    -1.2983  -1.2685  -1.1940  -1.0688  -0.9842  -0.9633  -0.6970  -0.6597
    -0.1210  -0.0496   0.0490   0.1121   0.1983   0.3371   0.4967   0.6721
     0.7150   0.7858   0.8212   0.9610   1.0273   1.0812   1.0909   1.1104
     1.2688   1.3284   1.3447   1.3689   1.4404   1.4858   1.6091   1.6410
     1.6493   1.8074   2.0006   2.0062   2.0283   2.0435   2.1140   2.1862
     2.2936   2.4052   2.4558   2.4681   2.8716   2.9244   3.0146   3.3077
     3.4923   3.4997   3.6438   3.8515   4.6758   4.6845   4.7492   4.9086
     4.9122   5.0204   5.2529   5.4713   5.6663   5.7693   5.8213   5.8341
     6.2140   6.2335

          k =-0.2500-0.2445 0.0000 ( 81774 PWs)   bands (ev):

   -72.1667 -72.1590 -72.1267 -72.1194 -72.1003 -72.0976 -72.0923 -72.0906
   -72.0073 -71.9997 -71.7825 -71.7750 -42.4128 -42.4048 -42.3214 -42.3129
   -42.2951 -42.2431 -42.2356 -42.2154 -42.2069 -42.1698 -42.1673 -42.1613
   -42.1582 -42.1204 -42.1144 -42.0977 -42.0654 -42.0475 -42.0245 -41.9958
   -41.9945 -41.9873 -41.9779 -41.9724 -41.9419 -41.9211 -41.9104 -41.8880
   -41.8732 -41.8620 -41.8517 -41.8511 -41.8406 -41.7226 -41.6579 -41.6358
   -18.5737 -18.1489 -18.0538 -18.0057 -17.9510 -17.8643 -17.6763 -17.6326
   -17.5491 -17.5486 -17.4964 -17.3848 -17.3795 -17.3310 -17.2214 -17.1600
   -17.0891 -17.0467 -17.0184 -16.9700 -16.5913 -16.4271 -15.7763 -15.7453
    -6.6744  -6.3766  -6.3201  -6.2890  -5.9118  -5.9058  -5.7760  -5.7669
    -5.7081  -5.6442  -5.5847  -5.5013  -5.4345  -5.3933  -5.3920  -5.3517
    -5.3436  -5.3021  -5.2392  -5.2236  -5.1082  -4.9607  -4.7031  -4.5946
    -4.5795  -4.3936  -4.3654  -4.3149  -4.1509  -4.1310  -3.9668  -3.9398
    -3.7343  -3.6683  -3.6161  -3.4788  -3.4228  -3.3929  -3.2260  -3.2216
    -3.0930  -3.0810  -2.9978  -2.9280  -2.9025  -2.8928  -2.8472  -2.7379
    -2.7316  -2.6530  -2.6355  -2.5154  -2.4557  -2.4098  -2.4043  -2.2182
    -2.1692  -1.9388  -1.9282  -1.8608  -1.7517  -1.6485  -1.6480  -1.6043
    -1.5237  -1.3049  -1.2678  -0.9494  -0.8669  -0.7392  -0.7036  -0.6369
    -0.0553   0.0357   0.2293   0.2922   0.4131   0.4393   0.5943   0.6366
     0.6901   0.7278   0.7545   0.7670   0.9184   0.9248   0.9586   0.9839
     1.0163   1.1454   1.2136   1.2918   1.3018   1.3715   1.4086   1.5061
     1.8000   1.8264   1.9024   1.9532   2.0024   2.0922   2.1513   2.2434
     2.3273   2.3640   2.4504   2.6171   2.7419   2.7856   2.9030   3.1601
     3.7305   3.9378   3.9657   4.0750   4.4991   4.6785   4.7317   5.0354
     5.1535   5.2734   5.3366   5.5019   5.5849   5.5957   5.6899   5.7319
     5.8493   6.0052

 ------ SPIN DOWN ----------


          k = 0.0000 0.0000 0.0000 ( 81707 PWs)   bands (ev):

   -72.5262 -72.5241 -72.5160 -72.5133 -72.1889 -72.1782 -71.9516 -71.9410
   -71.8327 -71.8219 -71.6358 -71.6251 -42.7288 -42.6640 -42.6510 -42.6385
   -42.6151 -42.6014 -42.5614 -42.5420 -42.5332 -42.5315 -42.5021 -42.4650
   -42.4005 -42.3857 -42.2900 -42.1542 -42.1426 -42.1209 -42.1019 -42.0809
   -42.0157 -42.0081 -41.9837 -41.9486 -41.7993 -41.7909 -41.7797 -41.7589
   -41.7516 -41.7218 -41.7218 -41.6320 -41.6003 -41.5363 -41.4658 -41.4342
   -18.7628 -18.3760 -18.2359 -18.1095 -18.0268 -17.7255 -17.6353 -17.5110
   -17.4968 -17.4745 -17.4444 -17.4196 -17.3999 -17.3691 -17.3319 -17.2763
   -17.0691 -16.8766 -16.8291 -16.7976 -16.7495 -16.5599 -16.0473 -15.9857
    -6.9980  -6.9400  -6.9270  -6.8242  -6.0860  -6.0364  -5.7636  -5.7468
    -5.6358  -5.5449  -5.5251  -5.4678  -5.4625  -5.4017  -5.3851  -5.3847
    -5.3347  -5.3119  -5.2920  -5.2848  -5.2048  -5.1366  -5.1133  -4.9203
    -4.7668  -4.7538  -4.7380  -4.7162  -4.4649  -4.3109  -3.8943  -3.6702
    -3.3980  -3.3885  -3.3348  -3.3322  -3.3159  -3.2003  -3.1730  -3.0983
    -3.0562  -3.0214  -2.9706  -2.8792  -2.8563  -2.7046  -2.6892  -2.5173
    -2.5088  -2.4460  -2.4087  -2.2215  -2.2026  -2.1528  -2.1426  -2.1377
    -2.0383  -1.9369  -1.8735  -1.8184  -1.8180  -1.5522  -1.5354  -1.3982
    -1.3560  -1.2539  -1.2056  -1.0088  -0.9954  -0.7656  -0.6741  -0.5192
    -0.2816  -0.1942  -0.0580  -0.0379   0.0574   0.1294   0.1397   0.2064
     0.3463   0.4213   0.4219   0.4572   0.5219   0.5946   0.7961   0.8891
     0.9065   0.9216   0.9746   0.9798   1.0252   1.1390   1.1774   1.2001
     1.2416   1.3315   1.8197   1.8540   1.9061   1.9378   2.2955   2.3646
     2.4101   2.4202   2.4307   2.4536   2.6484   2.8039   2.9782   3.0309
     3.3159   4.1302   4.2917   4.6230   4.6431   4.6634   4.7104   4.7697
     4.8315   4.9019   4.9716   5.0887   5.5010   5.6302   5.8748   5.8893
     5.8955   6.0601

          k = 0.0000 0.2445 0.0000 ( 81832 PWs)   bands (ev):

   -72.5262 -72.5240 -72.5160 -72.5133 -72.1889 -72.1782 -71.9516 -71.9410
   -71.8327 -71.8219 -71.6358 -71.6251 -42.7289 -42.6634 -42.6514 -42.6386
   -42.6144 -42.6020 -42.5614 -42.5419 -42.5332 -42.5315 -42.5021 -42.4650
   -42.3993 -42.3868 -42.2902 -42.1541 -42.1426 -42.1210 -42.1019 -42.0809
   -42.0157 -42.0081 -41.9825 -41.9479 -41.7994 -41.7909 -41.7797 -41.7589
   -41.7530 -41.7216 -41.7213 -41.6329 -41.6002 -41.5363 -41.4666 -41.4341
   -18.6921 -18.2489 -18.1584 -18.0412 -18.0256 -17.7194 -17.6604 -17.6455
   -17.6135 -17.5775 -17.5625 -17.4603 -17.4258 -17.2328 -17.1242 -17.1046
   -17.0704 -17.0018 -16.9698 -16.9282 -16.7975 -16.5572 -16.0468 -15.9828
    -6.8639  -6.5372  -6.4648  -6.4564  -6.0773  -6.0080  -5.9202  -5.8276
    -5.7462  -5.7426  -5.7016  -5.4632  -5.4249  -5.3925  -5.3748  -5.3449
    -5.3036  -5.2835  -5.2485  -5.2053  -5.2022  -5.1791  -5.1074  -4.9393
    -4.8926  -4.5545  -4.5401  -4.1160  -4.1072  -3.9654  -3.8993  -3.6484
    -3.6253  -3.6231  -3.5895  -3.5144  -3.4231  -3.3481  -3.3132  -3.2830
    -3.2032  -3.0506  -2.9922  -2.8675  -2.7966  -2.7777  -2.7393  -2.6484
    -2.6170  -2.5210  -2.4083  -2.3985  -2.3897  -2.3004  -2.2096  -2.1932
    -2.0973  -2.0294  -2.0142  -1.8680  -1.8425  -1.8196  -1.7885  -1.5656
    -1.4150  -1.3691  -1.3330  -1.2454  -1.0206  -0.9811  -0.8639  -0.6347
     0.0422   0.0476   0.0749   0.1613   0.2048   0.2186   0.2295   0.3869
     0.5016   0.5247   0.5459   0.5970   0.5988   0.6273   0.6615   0.7063
     0.7837   0.9275   0.9353   0.9903   1.0739   1.0752   1.1593   1.1970
     1.2046   1.3542   1.8329   1.8821   2.2445   2.2820   2.2911   2.3273
     2.3658   2.3709   2.5045   2.5899   2.6306   2.7962   2.8975   3.2277
     3.3559   3.7189   3.8244   3.8908   4.2951   4.3885   4.7303   5.0716
     5.1973   5.5007   5.6189   5.7096   5.8154   5.8739   5.8810   5.9026
     5.9363   5.9407

          k = 0.0000-0.4891 0.0000 ( 81886 PWs)   bands (ev):

   -72.5262 -72.5240 -72.5160 -72.5133 -72.1889 -72.1782 -71.9516 -71.9410
   -71.8327 -71.8219 -71.6358 -71.6251 -42.7290 -42.6628 -42.6519 -42.6387
   -42.6137 -42.6026 -42.5614 -42.5419 -42.5332 -42.5315 -42.5021 -42.4650
   -42.3981 -42.3879 -42.2904 -42.1540 -42.1426 -42.1212 -42.1018 -42.0809
   -42.0157 -42.0081 -41.9813 -41.9472 -41.7995 -41.7909 -41.7797 -41.7590
   -41.7544 -41.7214 -41.7207 -41.6338 -41.6001 -41.5363 -41.4674 -41.4340
   -18.6143 -18.1241 -18.0244 -18.0201 -17.8576 -17.7791 -17.7236 -17.7129
   -17.7037 -17.6678 -17.6452 -17.4414 -17.4322 -17.1521 -17.1503 -17.1414
   -17.1044 -17.0717 -17.0243 -17.0081 -16.7974 -16.5569 -16.0463 -15.9806
    -6.8595  -6.1073  -6.0979  -6.0271  -5.9810  -5.9202  -5.8321  -5.7536
    -5.7455  -5.7182  -5.6402  -5.4231  -5.4179  -5.3880  -5.2868  -5.2559
    -5.2494  -5.2386  -5.2280  -5.2112  -5.1413  -5.0641  -5.0265  -4.9317
    -4.6813  -4.6433  -4.6191  -4.2907  -4.2755  -4.1815  -4.1657  -3.8640
    -3.8420  -3.7494  -3.6752  -3.6578  -3.5207  -3.3543  -3.2018  -3.1842
    -3.1835  -3.0403  -3.0395  -2.9807  -2.9634  -2.8903  -2.8491  -2.7626
    -2.7580  -2.7468  -2.6370  -2.6021  -2.5566  -2.4739  -2.3530  -2.1491
    -2.0986  -2.0811  -1.8143  -1.7810  -1.7193  -1.7137  -1.5747  -1.5392
    -1.4765  -1.4602  -1.4252  -1.2696  -1.0196  -1.0128  -0.9248  -0.8176
    -0.5315  -0.2591  -0.0704  -0.0120   0.0786   0.1847   0.1910   0.2323
     0.5997   0.6453   0.6903   0.7524   0.8591   0.8835   0.9743   0.9821
     1.0006   1.0118   1.0291   1.0861   1.0931   1.1642   1.1727   1.1803
     1.3534   1.4170   1.6348   1.8532   1.9805   2.1435   2.2480   2.3853
     2.3949   2.5487   2.5800   2.7165   2.7289   2.8826   2.9683   3.3794
     3.3867   3.4388   3.4427   3.5066   4.2983   4.4883   4.7502   5.2921
     5.4993   5.5452   5.5773   5.6135   5.6373   5.6919   5.9167   6.0038
     6.0204   6.2096

          k = 0.0000-0.2445 0.0000 ( 81832 PWs)   bands (ev):

   -72.5262 -72.5240 -72.5160 -72.5133 -72.1889 -72.1782 -71.9516 -71.9410
   -71.8327 -71.8219 -71.6358 -71.6251 -42.7289 -42.6634 -42.6514 -42.6386
   -42.6144 -42.6020 -42.5614 -42.5419 -42.5332 -42.5315 -42.5021 -42.4650
   -42.3993 -42.3868 -42.2902 -42.1541 -42.1426 -42.1210 -42.1019 -42.0809
   -42.0157 -42.0081 -41.9825 -41.9479 -41.7994 -41.7909 -41.7797 -41.7589
   -41.7530 -41.7216 -41.7213 -41.6329 -41.6002 -41.5363 -41.4666 -41.4341
   -18.6921 -18.2489 -18.1584 -18.0412 -18.0256 -17.7194 -17.6604 -17.6455
   -17.6135 -17.5775 -17.5625 -17.4603 -17.4258 -17.2328 -17.1242 -17.1046
   -17.0704 -17.0018 -16.9698 -16.9282 -16.7975 -16.5572 -16.0468 -15.9828
    -6.8639  -6.5372  -6.4648  -6.4564  -6.0773  -6.0080  -5.9202  -5.8276
    -5.7462  -5.7426  -5.7016  -5.4632  -5.4249  -5.3925  -5.3748  -5.3449
    -5.3036  -5.2835  -5.2485  -5.2053  -5.2022  -5.1791  -5.1074  -4.9393
    -4.8926  -4.5545  -4.5401  -4.1160  -4.1072  -3.9654  -3.8993  -3.6484
    -3.6253  -3.6231  -3.5895  -3.5144  -3.4231  -3.3481  -3.3132  -3.2830
    -3.2032  -3.0506  -2.9922  -2.8675  -2.7966  -2.7777  -2.7393  -2.6484
    -2.6170  -2.5210  -2.4083  -2.3985  -2.3897  -2.3004  -2.2096  -2.1932
    -2.0973  -2.0294  -2.0142  -1.8680  -1.8425  -1.8196  -1.7885  -1.5656
    -1.4150  -1.3691  -1.3330  -1.2454  -1.0206  -0.9811  -0.8639  -0.6347
     0.0422   0.0476   0.0749   0.1613   0.2048   0.2186   0.2295   0.3869
     0.5016   0.5247   0.5459   0.5970   0.5988   0.6273   0.6615   0.7063
     0.7837   0.9275   0.9353   0.9903   1.0739   1.0752   1.1593   1.1970
     1.2046   1.3542   1.8329   1.8821   2.2445   2.2820   2.2911   2.3273
     2.3658   2.3709   2.5045   2.5899   2.6306   2.7962   2.8975   3.2277
     3.3559   3.7189   3.8244   3.8908   4.2951   4.3885   4.7303   5.0716
     5.1973   5.5007   5.6189   5.7096   5.8154   5.8739   5.8810   5.9026
     5.9363   5.9407

          k = 0.2500 0.0000 0.0000 ( 81703 PWs)   bands (ev):

   -72.5247 -72.5225 -72.5175 -72.5148 -72.1874 -72.1798 -71.9500 -71.9426
   -71.8311 -71.8235 -71.6343 -71.6267 -42.7019 -42.6621 -42.6529 -42.6134
   -42.6131 -42.6034 -42.5702 -42.5571 -42.5359 -42.5281 -42.5066 -42.4907
   -42.3983 -42.3879 -42.2630 -42.1524 -42.1442 -42.1302 -42.1152 -42.0870
   -42.0141 -42.0089 -41.9571 -41.9212 -41.8267 -41.7893 -41.7870 -41.7813
   -41.7473 -41.7262 -41.6950 -41.6274 -41.6049 -41.5638 -41.4612 -41.4388
   -18.6331 -18.2581 -18.1291 -18.0066 -17.9984 -17.8846 -17.6204 -17.5613
   -17.5503 -17.5423 -17.4949 -17.4199 -17.3569 -17.3262 -17.2611 -17.2025
   -17.0145 -16.9563 -16.9058 -16.8978 -16.8302 -16.6383 -16.0862 -16.0359
    -6.8231  -6.7685  -6.7491  -6.6201  -6.0522  -5.9996  -5.8240  -5.7719
    -5.7325  -5.6457  -5.5784  -5.5739  -5.5319  -5.5100  -5.4772  -5.3912
    -5.3763  -5.3332  -5.2887  -5.1762  -5.1644  -5.0453  -4.9316  -4.8465
    -4.6831  -4.4985  -4.4666  -4.3762  -4.2744  -4.1169  -4.0215  -3.8827
    -3.8712  -3.6483  -3.5197  -3.3513  -3.2053  -3.1352  -3.1089  -3.0906
    -3.0676  -3.0046  -2.9566  -2.9492  -2.8888  -2.7842  -2.7009  -2.6917
    -2.6889  -2.5323  -2.4996  -2.4858  -2.4239  -2.2785  -2.2405  -2.2210
    -2.0534  -2.0493  -1.9213  -1.9166  -1.8648  -1.8443  -1.7353  -1.6170
    -1.6020  -1.5908  -1.2404  -1.2074  -1.0687  -0.8766  -0.7847  -0.5707
    -0.0844   0.0583   0.1322   0.2188   0.2602   0.4183   0.5010   0.5360
     0.5638   0.5707   0.5721   0.6457   0.6623   0.7117   0.7256   0.9131
     0.9550   0.9869   1.1239   1.1351   1.1447   1.1826   1.2303   1.2700
     1.4885   1.6068   1.6775   1.7497   1.7528   1.8520   1.9563   2.2591
     2.2755   2.3007   2.5030   2.6061   2.6772   2.8803   2.8906   3.0151
     3.5378   4.2465   4.3606   4.5961   4.7264   4.7710   4.7801   4.8298
     4.8763   4.9811   5.0092   5.1324   5.1499   5.3383   5.4568   5.7470
     5.7899   5.8228

          k = 0.2500 0.2445 0.0000 ( 81774 PWs)   bands (ev):

   -72.5247 -72.5225 -72.5175 -72.5148 -72.1873 -72.1798 -71.9500 -71.9426
   -71.8311 -71.8235 -71.6343 -71.6267 -42.7020 -42.6617 -42.6532 -42.6135
   -42.6126 -42.6038 -42.5702 -42.5571 -42.5359 -42.5281 -42.5066 -42.4907
   -42.3974 -42.3886 -42.2632 -42.1523 -42.1442 -42.1302 -42.1153 -42.0870
   -42.0141 -42.0089 -41.9561 -41.9206 -41.8266 -41.7893 -41.7870 -41.7813
   -41.7484 -41.7262 -41.6946 -41.6281 -41.6050 -41.5638 -41.4618 -41.4388
   -18.5686 -18.1365 -18.0583 -17.9935 -17.9340 -17.8715 -17.6493 -17.6132
   -17.5617 -17.5553 -17.5346 -17.4529 -17.4139 -17.2971 -17.1926 -17.1471
   -17.0695 -17.0342 -17.0146 -16.9986 -16.8987 -16.6360 -16.0865 -16.0334
    -6.6760  -6.3740  -6.3143  -6.2989  -6.0432  -5.9106  -5.8053  -5.7749
    -5.7564  -5.6588  -5.6076  -5.5177  -5.4671  -5.4219  -5.4051  -5.3650
    -5.3641  -5.3594  -5.2400  -5.2374  -5.1652  -4.9986  -4.9078  -4.8472
    -4.5590  -4.4259  -4.4063  -4.3200  -4.2283  -4.1318  -4.0342  -3.9427
    -3.7638  -3.6558  -3.6038  -3.5253  -3.4699  -3.4353  -3.3068  -3.2651
    -3.1510  -3.1455  -3.0325  -3.0066  -2.9176  -2.8991  -2.8637  -2.8355
    -2.7467  -2.7246  -2.6799  -2.5564  -2.4940  -2.4770  -2.3963  -2.3598
    -2.3072  -2.0912  -2.0101  -1.9372  -1.8644  -1.7700  -1.7256  -1.6808
    -1.6486  -1.3917  -1.3832  -1.1617  -0.9267  -0.9171  -0.8996  -0.7283
    -0.0497   0.0681   0.1332   0.1712   0.3914   0.4406   0.4934   0.5558
     0.5852   0.6025   0.6312   0.6915   0.7411   0.8434   0.8468   0.9589
     1.0255   1.0685   1.0805   1.1326   1.2325   1.2693   1.2885   1.4252
     1.5059   1.5119   1.6596   1.7996   1.9500   2.1043   2.1216   2.2135
     2.2200   2.2642   2.3457   2.6369   2.7924   2.8064   2.9908   3.2079
     3.5409   3.9251   4.0074   4.0644   4.3784   4.4547   4.7058   4.9114
     5.0623   5.1464   5.2930   5.4489   5.5052   5.5117   5.6300   5.6833
     5.7662   5.8855

          k = 0.2500-0.4891 0.0000 ( 81830 PWs)   bands (ev):

   -72.5247 -72.5225 -72.5175 -72.5148 -72.1873 -72.1798 -71.9500 -71.9426
   -71.8311 -71.8235 -71.6343 -71.6267 -42.7020 -42.6612 -42.6535 -42.6136
   -42.6121 -42.6042 -42.5702 -42.5571 -42.5359 -42.5281 -42.5066 -42.4907
   -42.3965 -42.3893 -42.2633 -42.1522 -42.1442 -42.1302 -42.1154 -42.0870
   -42.0141 -42.0089 -41.9552 -41.9200 -41.8265 -41.7893 -41.7869 -41.7813
   -41.7495 -41.7262 -41.6941 -41.6288 -41.6050 -41.5637 -41.4625 -41.4389
   -18.4987 -18.0123 -17.9882 -17.9159 -17.8541 -17.7633 -17.6879 -17.6812
   -17.6612 -17.5653 -17.5618 -17.4856 -17.4437 -17.2763 -17.2137 -17.2110
   -17.1482 -17.1416 -17.1119 -17.0135 -16.8997 -16.6356 -16.0868 -16.0315
    -6.6670  -6.0684  -5.8264  -5.8161  -5.7781  -5.7176  -5.6324  -5.6111
    -5.5726  -5.5580  -5.5094  -5.4874  -5.4869  -5.4307  -5.4019  -5.4018
    -5.3549  -5.3470  -5.3122  -5.2807  -5.2383  -4.9333  -4.8539  -4.5558
    -4.5439  -4.5187  -4.4434  -4.3357  -4.2050  -4.1671  -4.0454  -3.9553
    -3.8800  -3.8373  -3.8363  -3.8328  -3.8055  -3.6530  -3.6115  -3.4996
    -3.4318  -3.3123  -3.2442  -3.1009  -3.0666  -3.0482  -3.0198  -2.9474
    -2.9021  -2.8923  -2.7589  -2.7536  -2.7170  -2.5928  -2.4515  -2.3666
    -2.1238  -2.1234  -2.0236  -1.8266  -1.7873  -1.6135  -1.5125  -1.4349
    -1.3562  -1.3551  -1.3380  -1.1449  -1.1000  -1.0916  -0.9009  -0.8190
    -0.3272  -0.0665  -0.0646   0.0671   0.2617   0.3219   0.5329   0.5951
     0.6017   0.6653   0.6843   0.6871   0.7262   1.0164   1.0228   1.0755
     1.2060   1.2263   1.2483   1.2588   1.2885   1.4017   1.4616   1.5265
     1.5663   1.6775   1.6977   1.7827   1.8821   2.0170   2.0556   2.2218
     2.2448   2.2703   2.4282   2.5624   2.9155   2.9687   3.0893   3.3734
     3.4638   3.5825   3.6408   3.6658   4.3774   4.5544   4.7261   4.8880
     4.9753   5.0276   5.2205   5.3069   5.4723   5.6396   5.7526   5.7705
     6.1223   6.1542

          k = 0.2500-0.2445 0.0000 ( 81774 PWs)   bands (ev):

   -72.5247 -72.5225 -72.5175 -72.5148 -72.1873 -72.1798 -71.9500 -71.9426
   -71.8311 -71.8235 -71.6343 -71.6267 -42.7020 -42.6617 -42.6532 -42.6135
   -42.6126 -42.6038 -42.5702 -42.5571 -42.5359 -42.5281 -42.5066 -42.4907
   -42.3974 -42.3886 -42.2632 -42.1523 -42.1442 -42.1302 -42.1153 -42.0870
   -42.0141 -42.0089 -41.9561 -41.9206 -41.8266 -41.7893 -41.7870 -41.7813
   -41.7484 -41.7262 -41.6946 -41.6281 -41.6050 -41.5638 -41.4618 -41.4388
   -18.5686 -18.1365 -18.0583 -17.9935 -17.9340 -17.8715 -17.6493 -17.6132
   -17.5617 -17.5553 -17.5346 -17.4529 -17.4139 -17.2971 -17.1926 -17.1471
   -17.0695 -17.0342 -17.0146 -16.9986 -16.8987 -16.6360 -16.0865 -16.0334
    -6.6760  -6.3740  -6.3143  -6.2989  -6.0432  -5.9106  -5.8053  -5.7749
    -5.7564  -5.6588  -5.6076  -5.5177  -5.4671  -5.4219  -5.4051  -5.3650
    -5.3641  -5.3594  -5.2400  -5.2374  -5.1652  -4.9986  -4.9078  -4.8472
    -4.5590  -4.4259  -4.4063  -4.3200  -4.2283  -4.1318  -4.0342  -3.9427
    -3.7638  -3.6558  -3.6038  -3.5253  -3.4699  -3.4353  -3.3068  -3.2651
    -3.1510  -3.1455  -3.0325  -3.0066  -2.9176  -2.8991  -2.8637  -2.8355
    -2.7467  -2.7246  -2.6799  -2.5564  -2.4940  -2.4770  -2.3963  -2.3598
    -2.3072  -2.0912  -2.0101  -1.9372  -1.8644  -1.7700  -1.7256  -1.6808
    -1.6486  -1.3917  -1.3832  -1.1617  -0.9267  -0.9171  -0.8996  -0.7283
    -0.0497   0.0681   0.1332   0.1712   0.3914   0.4406   0.4934   0.5558
     0.5852   0.6025   0.6312   0.6915   0.7411   0.8434   0.8468   0.9589
     1.0255   1.0685   1.0805   1.1326   1.2325   1.2693   1.2885   1.4252
     1.5059   1.5119   1.6596   1.7996   1.9500   2.1043   2.1216   2.2135
     2.2200   2.2642   2.3457   2.6369   2.7924   2.8064   2.9908   3.2079
     3.5409   3.9251   4.0074   4.0644   4.3784   4.4547   4.7058   4.9114
     5.0623   5.1464   5.2930   5.4489   5.5052   5.5117   5.6300   5.6833
     5.7662   5.8855

          k =-0.5000 0.0000 0.0000 ( 81894 PWs)   bands (ev):

   -72.5211 -72.5211 -72.5187 -72.5187 -72.1836 -72.1836 -71.9463 -71.9463
   -71.8273 -71.8273 -71.6305 -71.6304 -42.6575 -42.6575 -42.6365 -42.6365
   -42.6083 -42.6083 -42.5525 -42.5525 -42.5464 -42.5464 -42.5173 -42.5173
   -42.3931 -42.3931 -42.1972 -42.1972 -42.1483 -42.1483 -42.1014 -42.1014
   -42.0111 -42.0111 -41.8923 -41.8923 -41.8546 -41.8546 -41.7852 -41.7852
   -41.7368 -41.7368 -41.6298 -41.6298 -41.6162 -41.6162 -41.4500 -41.4500
   -18.3031 -18.3031 -17.9859 -17.9859 -17.8806 -17.8806 -17.7556 -17.7556
   -17.6738 -17.6738 -17.3931 -17.3931 -17.1872 -17.1872 -17.1443 -17.1443
   -17.0864 -17.0864 -17.0198 -17.0198 -16.8183 -16.8183 -16.1074 -16.1074
    -6.3863  -6.3863  -6.3191  -6.3191  -6.2818  -6.2818  -6.0878  -6.0878
    -5.8364  -5.8364  -5.7179  -5.7179  -5.5927  -5.5927  -5.4238  -5.4238
    -5.2493  -5.2493  -5.1676  -5.1676  -4.8208  -4.8208  -4.7382  -4.7382
    -4.3798  -4.3798  -4.2354  -4.2354  -3.9458  -3.9458  -3.9452  -3.9452
    -3.8365  -3.8365  -3.7177  -3.7177  -3.5457  -3.5457  -3.3652  -3.3652
    -3.1610  -3.1610  -3.0704  -3.0704  -2.8340  -2.8340  -2.6409  -2.6409
    -2.6390  -2.6390  -2.5276  -2.5276  -2.5057  -2.5057  -2.3054  -2.3054
    -2.0937  -2.0937  -2.0656  -2.0656  -2.0081  -2.0081  -1.9425  -1.9425
    -1.6215  -1.6215  -1.1010  -1.1010  -1.0555  -1.0555  -0.7952  -0.7952
     0.0893   0.0893   0.1754   0.1755   0.3937   0.3937   0.6379   0.6379
     0.8097   0.8097   0.9083   0.9084   1.0699   1.0699   1.0774   1.0774
     1.0978   1.0979   1.1967   1.1967   1.2058   1.2058   1.3604   1.3604
     1.5041   1.5041   1.5275   1.5275   1.6632   1.6632   1.9818   1.9818
     2.2017   2.2017   2.4773   2.4773   2.8284   2.8284   3.0154   3.0154
     4.1229   4.1229   4.5553   4.5553   4.6948   4.6948   4.7797   4.7797
     5.0850   5.0850   5.1706   5.1706   5.1926   5.1926   5.2259   5.2259
     5.2536   5.2537

          k =-0.5000 0.2445 0.0000 ( 81810 PWs)   bands (ev):

   -72.5211 -72.5211 -72.5187 -72.5187 -72.1836 -72.1836 -71.9463 -71.9463
   -71.8273 -71.8273 -71.6305 -71.6304 -42.6574 -42.6574 -42.6365 -42.6365
   -42.6082 -42.6082 -42.5525 -42.5525 -42.5464 -42.5464 -42.5173 -42.5173
   -42.3929 -42.3929 -42.1972 -42.1972 -42.1482 -42.1482 -42.1014 -42.1014
   -42.0111 -42.0111 -41.8918 -41.8918 -41.8543 -41.8543 -41.7852 -41.7852
   -41.7373 -41.7373 -41.6296 -41.6295 -41.6166 -41.6166 -41.4504 -41.4503
   -18.2596 -18.2596 -17.9082 -17.9082 -17.8305 -17.8305 -17.6963 -17.6963
   -17.6485 -17.6485 -17.4021 -17.4021 -17.2969 -17.2969 -17.1896 -17.1896
   -17.1398 -17.1398 -17.1323 -17.1323 -16.8169 -16.8169 -16.1067 -16.1067
    -6.2079  -6.2079  -5.9959  -5.9959  -5.9820  -5.9820  -5.9403  -5.9403
    -5.8231  -5.8231  -5.7128  -5.7128  -5.4339  -5.4339  -5.2894  -5.2894
    -5.2805  -5.2805  -5.1078  -5.1078  -4.8618  -4.8618  -4.5737  -4.5737
    -4.4042  -4.4042  -4.3018  -4.3018  -4.1538  -4.1538  -4.1218  -4.1218
    -4.0612  -4.0612  -3.9131  -3.9131  -3.7116  -3.7116  -3.6375  -3.6375
    -3.2348  -3.2348  -3.1801  -3.1801  -2.8551  -2.8551  -2.7463  -2.7463
    -2.7017  -2.7017  -2.6469  -2.6469  -2.6067  -2.6067  -2.4519  -2.4519
    -2.2539  -2.2539  -1.9855  -1.9855  -1.9114  -1.9114  -1.8514  -1.8514
    -1.6349  -1.6349  -1.1078  -1.1078  -1.0747  -1.0747  -0.8520  -0.8520
    -0.0874  -0.0874   0.2711   0.2712   0.4206   0.4206   0.6691   0.6691
     0.9224   0.9224   1.0139   1.0139   1.0633   1.0633   1.1529   1.1529
     1.2178   1.2178   1.2458   1.2458   1.2874   1.2874   1.3954   1.3955
     1.5272   1.5272   1.7271   1.7271   1.8680   1.8680   1.9357   1.9357
     2.1032   2.1032   2.3382   2.3382   2.9408   2.9408   3.1376   3.1376
     4.1433   4.1433   4.3736   4.3736   4.4999   4.4999   4.5522   4.5523
     4.7798   4.7798   4.8318   4.8318   5.1960   5.1960   5.6181   5.6181
     5.7155   5.7155

          k =-0.5000-0.4891 0.0000 ( 81784 PWs)   bands (ev):

   -72.5211 -72.5211 -72.5187 -72.5187 -72.1836 -72.1836 -71.9463 -71.9463
   -71.8273 -71.8273 -71.6305 -71.6305 -42.6573 -42.6573 -42.6365 -42.6365
   -42.6081 -42.6081 -42.5526 -42.5526 -42.5464 -42.5464 -42.5173 -42.5173
   -42.3928 -42.3928 -42.1973 -42.1973 -42.1482 -42.1482 -42.1014 -42.1014
   -42.0111 -42.0111 -41.8913 -41.8913 -41.8540 -41.8540 -41.7852 -41.7852
   -41.7379 -41.7379 -41.6293 -41.6293 -41.6169 -41.6169 -41.4507 -41.4507
   -18.2136 -18.2136 -17.8146 -17.8146 -17.7673 -17.7673 -17.5864 -17.5864
   -17.5586 -17.5586 -17.4431 -17.4431 -17.3992 -17.3992 -17.3859 -17.3859
   -17.2672 -17.2672 -17.1400 -17.1400 -16.8166 -16.8166 -16.1061 -16.1061
    -6.1642  -6.1642  -5.8543  -5.8543  -5.7128  -5.7128  -5.4959  -5.4959
    -5.4847  -5.4847  -5.4709  -5.4709  -5.3355  -5.3355  -5.1469  -5.1469
    -5.0788  -5.0788  -4.9831  -4.9831  -4.8645  -4.8645  -4.7593  -4.7593
    -4.7230  -4.7230  -4.6405  -4.6405  -4.4397  -4.4397  -4.2341  -4.2341
    -4.1646  -4.1646  -4.0153  -4.0153  -3.6430  -3.6430  -3.5184  -3.5184
    -3.3497  -3.3497  -3.3487  -3.3487  -3.2498  -3.2498  -3.2145  -3.2145
    -3.1938  -3.1938  -2.9541  -2.9541  -2.8298  -2.8298  -2.3577  -2.3577
    -2.1485  -2.1485  -1.7793  -1.7793  -1.5769  -1.5769  -1.5628  -1.5628
    -1.5112  -1.5112  -1.2036  -1.2036  -1.1158  -1.1158  -0.9901  -0.9901
     0.0857   0.0858   0.1992   0.1992   0.3971   0.3971   0.5346   0.5346
     0.6362   0.6362   1.0428   1.0428   1.0676   1.0677   1.1746   1.1746
     1.2248   1.2248   1.4976   1.4976   1.5364   1.5364   1.7080   1.7080
     1.7305   1.7305   1.8192   1.8192   1.8435   1.8435   2.0410   2.0410
     2.0677   2.0677   2.2122   2.2122   3.0362   3.0362   3.2409   3.2409
     4.0361   4.0362   4.1208   4.1208   4.1551   4.1551   4.2157   4.2157
     4.7753   4.7753   4.8225   4.8225   5.3012   5.3012   5.8754   5.8754
     5.9431   5.9431

          k =-0.5000-0.2445 0.0000 ( 81810 PWs)   bands (ev):

   -72.5211 -72.5211 -72.5187 -72.5187 -72.1836 -72.1836 -71.9463 -71.9463
   -71.8273 -71.8273 -71.6305 -71.6304 -42.6574 -42.6574 -42.6365 -42.6365
   -42.6082 -42.6082 -42.5525 -42.5525 -42.5464 -42.5464 -42.5173 -42.5173
   -42.3929 -42.3929 -42.1972 -42.1972 -42.1482 -42.1482 -42.1014 -42.1014
   -42.0111 -42.0111 -41.8918 -41.8918 -41.8543 -41.8543 -41.7852 -41.7852
   -41.7373 -41.7373 -41.6296 -41.6295 -41.6166 -41.6166 -41.4504 -41.4503
   -18.2596 -18.2596 -17.9082 -17.9082 -17.8305 -17.8305 -17.6963 -17.6963
   -17.6485 -17.6485 -17.4021 -17.4021 -17.2969 -17.2969 -17.1896 -17.1896
   -17.1398 -17.1398 -17.1323 -17.1323 -16.8169 -16.8169 -16.1067 -16.1067
    -6.2079  -6.2079  -5.9959  -5.9959  -5.9820  -5.9820  -5.9403  -5.9403
    -5.8231  -5.8231  -5.7128  -5.7128  -5.4339  -5.4339  -5.2894  -5.2894
    -5.2805  -5.2805  -5.1078  -5.1078  -4.8618  -4.8618  -4.5737  -4.5737
    -4.4042  -4.4042  -4.3018  -4.3018  -4.1538  -4.1538  -4.1218  -4.1218
    -4.0612  -4.0612  -3.9131  -3.9131  -3.7116  -3.7116  -3.6375  -3.6375
    -3.2348  -3.2348  -3.1801  -3.1801  -2.8551  -2.8551  -2.7463  -2.7463
    -2.7017  -2.7017  -2.6469  -2.6469  -2.6067  -2.6067  -2.4519  -2.4519
    -2.2539  -2.2539  -1.9855  -1.9855  -1.9114  -1.9114  -1.8514  -1.8514
    -1.6349  -1.6349  -1.1078  -1.1078  -1.0747  -1.0747  -0.8520  -0.8520
    -0.0874  -0.0874   0.2711   0.2712   0.4206   0.4206   0.6691   0.6691
     0.9224   0.9224   1.0139   1.0139   1.0633   1.0633   1.1529   1.1529
     1.2178   1.2178   1.2458   1.2458   1.2874   1.2874   1.3954   1.3955
     1.5272   1.5272   1.7271   1.7271   1.8680   1.8680   1.9357   1.9357
     2.1032   2.1032   2.3382   2.3382   2.9408   2.9408   3.1376   3.1376
     4.1433   4.1433   4.3736   4.3736   4.4999   4.4999   4.5522   4.5523
     4.7798   4.7798   4.8318   4.8318   5.1960   5.1960   5.6181   5.6181
     5.7155   5.7155

          k =-0.2500 0.0000 0.0000 ( 81703 PWs)   bands (ev):

   -72.5247 -72.5225 -72.5175 -72.5148 -72.1874 -72.1798 -71.9500 -71.9426
   -71.8311 -71.8235 -71.6343 -71.6267 -42.7019 -42.6621 -42.6529 -42.6134
   -42.6131 -42.6034 -42.5702 -42.5571 -42.5359 -42.5281 -42.5066 -42.4907
   -42.3983 -42.3879 -42.2630 -42.1524 -42.1442 -42.1302 -42.1152 -42.0870
   -42.0141 -42.0089 -41.9571 -41.9212 -41.8267 -41.7893 -41.7870 -41.7813
   -41.7473 -41.7262 -41.6950 -41.6274 -41.6049 -41.5638 -41.4612 -41.4388
   -18.6331 -18.2581 -18.1291 -18.0066 -17.9984 -17.8846 -17.6204 -17.5613
   -17.5503 -17.5423 -17.4949 -17.4199 -17.3569 -17.3262 -17.2611 -17.2025
   -17.0145 -16.9563 -16.9058 -16.8978 -16.8302 -16.6383 -16.0862 -16.0359
    -6.8231  -6.7685  -6.7491  -6.6201  -6.0522  -5.9996  -5.8240  -5.7719
    -5.7325  -5.6457  -5.5784  -5.5739  -5.5319  -5.5100  -5.4772  -5.3912
    -5.3763  -5.3332  -5.2887  -5.1762  -5.1644  -5.0453  -4.9316  -4.8465
    -4.6831  -4.4985  -4.4666  -4.3762  -4.2744  -4.1169  -4.0215  -3.8827
    -3.8712  -3.6483  -3.5197  -3.3513  -3.2053  -3.1352  -3.1089  -3.0906
    -3.0676  -3.0046  -2.9566  -2.9492  -2.8888  -2.7842  -2.7009  -2.6917
    -2.6889  -2.5323  -2.4996  -2.4858  -2.4239  -2.2785  -2.2405  -2.2210
    -2.0534  -2.0493  -1.9213  -1.9166  -1.8648  -1.8443  -1.7353  -1.6170
    -1.6020  -1.5908  -1.2404  -1.2074  -1.0687  -0.8766  -0.7847  -0.5707
    -0.0844   0.0583   0.1322   0.2188   0.2602   0.4183   0.5010   0.5360
     0.5638   0.5707   0.5721   0.6457   0.6623   0.7117   0.7256   0.9131
     0.9550   0.9869   1.1239   1.1351   1.1447   1.1826   1.2303   1.2700
     1.4885   1.6068   1.6775   1.7497   1.7528   1.8520   1.9563   2.2591
     2.2755   2.3007   2.5030   2.6061   2.6772   2.8803   2.8906   3.0151
     3.5378   4.2465   4.3606   4.5961   4.7264   4.7710   4.7801   4.8298
     4.8763   4.9811   5.0092   5.1324   5.1499   5.3383   5.4568   5.7470
     5.7899   5.8228

          k =-0.2500 0.2445 0.0000 ( 81774 PWs)   bands (ev):

   -72.5247 -72.5225 -72.5175 -72.5148 -72.1873 -72.1798 -71.9500 -71.9426
   -71.8311 -71.8235 -71.6343 -71.6267 -42.7020 -42.6617 -42.6532 -42.6135
   -42.6126 -42.6038 -42.5702 -42.5571 -42.5359 -42.5281 -42.5066 -42.4907
   -42.3974 -42.3886 -42.2632 -42.1523 -42.1442 -42.1302 -42.1153 -42.0870
   -42.0141 -42.0089 -41.9561 -41.9206 -41.8266 -41.7893 -41.7870 -41.7813
   -41.7484 -41.7262 -41.6946 -41.6281 -41.6050 -41.5638 -41.4618 -41.4388
   -18.5686 -18.1365 -18.0583 -17.9935 -17.9340 -17.8715 -17.6493 -17.6132
   -17.5617 -17.5553 -17.5346 -17.4529 -17.4139 -17.2971 -17.1926 -17.1471
   -17.0695 -17.0342 -17.0146 -16.9986 -16.8987 -16.6360 -16.0865 -16.0334
    -6.6760  -6.3740  -6.3143  -6.2989  -6.0432  -5.9106  -5.8053  -5.7749
    -5.7564  -5.6588  -5.6076  -5.5177  -5.4671  -5.4219  -5.4051  -5.3650
    -5.3641  -5.3594  -5.2400  -5.2374  -5.1652  -4.9986  -4.9078  -4.8472
    -4.5590  -4.4259  -4.4063  -4.3200  -4.2283  -4.1318  -4.0342  -3.9427
    -3.7638  -3.6558  -3.6038  -3.5253  -3.4699  -3.4353  -3.3068  -3.2651
    -3.1510  -3.1455  -3.0325  -3.0066  -2.9176  -2.8991  -2.8637  -2.8355
    -2.7467  -2.7246  -2.6799  -2.5564  -2.4940  -2.4770  -2.3963  -2.3598
    -2.3072  -2.0912  -2.0101  -1.9372  -1.8644  -1.7700  -1.7256  -1.6808
    -1.6486  -1.3917  -1.3832  -1.1617  -0.9267  -0.9171  -0.8996  -0.7283
    -0.0497   0.0681   0.1332   0.1712   0.3914   0.4406   0.4934   0.5558
     0.5852   0.6025   0.6312   0.6915   0.7411   0.8434   0.8468   0.9589
     1.0255   1.0685   1.0805   1.1326   1.2325   1.2693   1.2885   1.4252
     1.5059   1.5119   1.6596   1.7996   1.9500   2.1043   2.1216   2.2135
     2.2200   2.2642   2.3457   2.6369   2.7924   2.8064   2.9908   3.2079
     3.5409   3.9251   4.0074   4.0644   4.3784   4.4547   4.7058   4.9114
     5.0623   5.1464   5.2930   5.4489   5.5052   5.5117   5.6300   5.6833
     5.7662   5.8855

          k =-0.2500-0.4891 0.0000 ( 81830 PWs)   bands (ev):

   -72.5247 -72.5225 -72.5175 -72.5148 -72.1873 -72.1798 -71.9500 -71.9426
   -71.8311 -71.8235 -71.6343 -71.6267 -42.7020 -42.6612 -42.6535 -42.6136
   -42.6121 -42.6042 -42.5702 -42.5571 -42.5359 -42.5281 -42.5066 -42.4907
   -42.3965 -42.3893 -42.2633 -42.1522 -42.1442 -42.1302 -42.1154 -42.0870
   -42.0141 -42.0089 -41.9552 -41.9200 -41.8265 -41.7893 -41.7869 -41.7813
   -41.7495 -41.7262 -41.6941 -41.6288 -41.6050 -41.5637 -41.4625 -41.4389
   -18.4987 -18.0123 -17.9882 -17.9159 -17.8541 -17.7633 -17.6879 -17.6812
   -17.6612 -17.5653 -17.5618 -17.4856 -17.4437 -17.2763 -17.2137 -17.2110
   -17.1482 -17.1416 -17.1119 -17.0135 -16.8997 -16.6356 -16.0868 -16.0315
    -6.6670  -6.0684  -5.8264  -5.8161  -5.7781  -5.7176  -5.6324  -5.6111
    -5.5726  -5.5580  -5.5094  -5.4874  -5.4869  -5.4307  -5.4019  -5.4018
    -5.3549  -5.3470  -5.3122  -5.2807  -5.2383  -4.9333  -4.8539  -4.5558
    -4.5439  -4.5187  -4.4434  -4.3357  -4.2050  -4.1671  -4.0454  -3.9553
    -3.8800  -3.8373  -3.8363  -3.8328  -3.8055  -3.6530  -3.6115  -3.4996
    -3.4318  -3.3123  -3.2442  -3.1009  -3.0666  -3.0482  -3.0198  -2.9474
    -2.9021  -2.8923  -2.7589  -2.7536  -2.7170  -2.5928  -2.4515  -2.3666
    -2.1238  -2.1234  -2.0236  -1.8266  -1.7873  -1.6135  -1.5125  -1.4349
    -1.3562  -1.3551  -1.3380  -1.1449  -1.1000  -1.0916  -0.9009  -0.8190
    -0.3272  -0.0665  -0.0646   0.0671   0.2617   0.3219   0.5329   0.5951
     0.6017   0.6653   0.6843   0.6871   0.7262   1.0164   1.0228   1.0755
     1.2060   1.2263   1.2483   1.2588   1.2885   1.4017   1.4616   1.5265
     1.5663   1.6775   1.6977   1.7827   1.8821   2.0170   2.0556   2.2218
     2.2448   2.2703   2.4282   2.5624   2.9155   2.9687   3.0893   3.3734
     3.4638   3.5825   3.6408   3.6658   4.3774   4.5544   4.7261   4.8880
     4.9753   5.0276   5.2205   5.3069   5.4723   5.6396   5.7526   5.7705
     6.1223   6.1542

          k =-0.2500-0.2445 0.0000 ( 81774 PWs)   bands (ev):

   -72.5247 -72.5225 -72.5175 -72.5148 -72.1873 -72.1798 -71.9500 -71.9426
   -71.8311 -71.8235 -71.6343 -71.6267 -42.7020 -42.6617 -42.6532 -42.6135
   -42.6126 -42.6038 -42.5702 -42.5571 -42.5359 -42.5281 -42.5066 -42.4907
   -42.3974 -42.3886 -42.2632 -42.1523 -42.1442 -42.1302 -42.1153 -42.0870
   -42.0141 -42.0089 -41.9561 -41.9206 -41.8266 -41.7893 -41.7870 -41.7813
   -41.7484 -41.7262 -41.6946 -41.6281 -41.6050 -41.5638 -41.4618 -41.4388
   -18.5686 -18.1365 -18.0583 -17.9935 -17.9340 -17.8715 -17.6493 -17.6132
   -17.5617 -17.5553 -17.5346 -17.4529 -17.4139 -17.2971 -17.1926 -17.1471
   -17.0695 -17.0342 -17.0146 -16.9986 -16.8987 -16.6360 -16.0865 -16.0334
    -6.6760  -6.3740  -6.3143  -6.2989  -6.0432  -5.9106  -5.8053  -5.7749
    -5.7564  -5.6588  -5.6076  -5.5177  -5.4671  -5.4219  -5.4051  -5.3650
    -5.3641  -5.3594  -5.2400  -5.2374  -5.1652  -4.9986  -4.9078  -4.8472
    -4.5590  -4.4259  -4.4063  -4.3200  -4.2283  -4.1318  -4.0342  -3.9427
    -3.7638  -3.6558  -3.6038  -3.5253  -3.4699  -3.4353  -3.3068  -3.2651
    -3.1510  -3.1455  -3.0325  -3.0066  -2.9176  -2.8991  -2.8637  -2.8355
    -2.7467  -2.7246  -2.6799  -2.5564  -2.4940  -2.4770  -2.3963  -2.3598
    -2.3072  -2.0912  -2.0101  -1.9372  -1.8644  -1.7700  -1.7256  -1.6808
    -1.6486  -1.3917  -1.3832  -1.1617  -0.9267  -0.9171  -0.8996  -0.7283
    -0.0497   0.0681   0.1332   0.1712   0.3914   0.4406   0.4934   0.5558
     0.5852   0.6025   0.6312   0.6915   0.7411   0.8434   0.8468   0.9589
     1.0255   1.0685   1.0805   1.1326   1.2325   1.2693   1.2885   1.4252
     1.5059   1.5119   1.6596   1.7996   1.9500   2.1043   2.1216   2.2135
     2.2200   2.2642   2.3457   2.6369   2.7924   2.8064   2.9908   3.2079
     3.5409   3.9251   4.0074   4.0644   4.3784   4.4547   4.7058   4.9114
     5.0623   5.1464   5.2930   5.4489   5.5052   5.5117   5.6300   5.6833
     5.7662   5.8855

     the Fermi energy is     1.5444 ev

!    total energy              =   -3261.34615850 Ry
     estimated scf accuracy    <       0.00000077 Ry
     smearing contrib. (-TS)   =       0.00218072 Ry
     internal energy E=F+TS    =   -3261.34833922 Ry

     The total energy is F=E-TS. E is the sum of the following terms:
     one-electron contribution =  -33209.89117731 Ry
     hartree contribution      =   16647.80788553 Ry
     xc contribution           =    -413.89485436 Ry
     ewald contribution        =   13943.10546171 Ry
     one-center paw contrib.   =    -228.47565478 Ry

     total magnetization       =    -2.11 Bohr mag/cell
     absolute magnetization    =     6.26 Bohr mag/cell

     convergence has been achieved in   7 iterations

     negative rho (up, down):  1.039E-04 1.040E-04

     Forces acting on atoms (cartesian axes, Ry/au):

     atom    1 type  1   force =     0.00000004    0.00000001    0.06189275
     atom    2 type  2   force =     0.00000099    0.00000002   -0.09144897
     atom    3 type  1   force =     0.00000015   -0.00000005    0.00069833
     atom    4 type  2   force =     0.00000093   -0.00000015    0.00116672
     atom    5 type  1   force =     0.00000003   -0.00000005    0.00063363
     atom    6 type  2   force =    -0.00000003    0.00000003   -0.00155272
     atom    7 type  3   force =     0.00000012   -0.00000000    0.02892625
     atom    8 type  3   force =     0.00000013   -0.00000000    0.06599206
     atom    9 type  3   force =    -0.00000291    0.02306223   -0.02464164
     atom   10 type  3   force =    -0.00000291   -0.02306223   -0.02464165
     atom   11 type  3   force =     0.00000012    0.00000012    0.00116368
     atom   12 type  3   force =    -0.00000010    0.00000003   -0.02429150
     atom   13 type  3   force =    -0.00000002    0.00024448    0.00094552
     atom   14 type  3   force =     0.00000016   -0.00024439    0.00094537
     atom   15 type  3   force =    -0.00000005   -0.00000004   -0.00085271
     atom   16 type  3   force =    -0.00000009   -0.00000010    0.00299073
     atom   17 type  3   force =    -0.00000047    0.00000324    0.00103703
     atom   18 type  3   force =    -0.00000042   -0.00000310    0.00103704
     atom   19 type  1   force =    -0.00000002   -0.00000000    0.06188911
     atom   20 type  2   force =    -0.00000096   -0.00000001   -0.09144892
     atom   21 type  1   force =    -0.00000018    0.00000008    0.00069760
     atom   22 type  2   force =    -0.00000083   -0.00000000    0.00116667
     atom   23 type  1   force =     0.00000003    0.00000004    0.00063486
     atom   24 type  2   force =    -0.00000004    0.00000001   -0.00155267
     atom   25 type  3   force =    -0.00000014    0.00000000    0.02892648
     atom   26 type  3   force =    -0.00000013    0.00000000    0.06599201
     atom   27 type  3   force =     0.00000291    0.02306240   -0.02464164
     atom   28 type  3   force =     0.00000291   -0.02306239   -0.02464165
     atom   29 type  3   force =     0.00000008    0.00000011    0.00116191
     atom   30 type  3   force =    -0.00000014    0.00000000   -0.02428737
     atom   31 type  3   force =     0.00000001    0.00024428    0.00094553
     atom   32 type  3   force =    -0.00000005   -0.00024443    0.00094546
     atom   33 type  3   force =     0.00000008   -0.00000006   -0.00085260
     atom   34 type  3   force =    -0.00000009   -0.00000007    0.00299129
     atom   35 type  3   force =     0.00000047    0.00000316    0.00103701
     atom   36 type  3   force =     0.00000042   -0.00000314    0.00103700

     Total force =     0.006284     Total SCF correction =     0.004605
     SCF correction compared to forces is large: reduce conv_thr to get better values
     Energy error            =      1.2E-04 Ry
     Gradient error          =      3.0E-03 Ry/Bohr

     number of scf cycles    =   2
     number of bfgs steps    =   1

     energy             old  =   -3261.3460335012 Ry
     energy             new  =   -3261.3461584983 Ry

     CASE: energy            _new < energy            _old

     new trust radius        =       0.0060461595 bohr
     new conv_thr            =       0.0000000125 Ry


ATOMIC_POSITIONS (angstrom)
Ru1              0.0000000000        1.5881618300        9.5289709800    0   0   0
Ru2              1.5535000000        4.7644854900        9.5289709800    0   0   0
Ru1              0.0000000391        4.7644854245       12.7497942951
Ru2              1.5535008456        1.5881617353       12.6821993293
Ru1             -0.0000001427        1.5881615391       15.8036207730
Ru2              1.5535000558        4.7644853014       16.0275959116
O                0.0000000000        4.7644854900       10.7677372100    0   0   0
O                0.0000000000        4.7644854900        8.2902047600    0   0   0
O                1.5535000000        0.3493956000        9.5289709800    0   0   0
O                1.5535000000        2.8269280600        9.5289709800    0   0   0
O               -0.0000003378        1.5881614640       13.9242789769
O                0.0000000000        1.5881618300       11.4665284200    0   0   0
O                1.5535000415        3.5361192316       12.7227345037
O                1.5534999252        5.9928515893       12.7227346946
O                0.0000001759        4.7644854458       17.1311311632
O                0.0000003286        4.7644855306       14.6975998074
O                1.5534999484        0.3794360583       15.9704188759
O                1.5534998321        2.7968870510       15.9704188827
Ru1              3.1070000000        1.5881618300        9.5289709800    0   0   0
Ru2              4.6605000000        4.7644854900        9.5289709800    0   0   0
Ru1              3.1069999277        4.7644854334       12.7497935115
Ru2              4.6604987274        1.5881618710       12.6821993411
Ru1              3.1069997657        1.5881615849       15.8036210592
Ru2              4.6605000427        4.7644852453       16.0275957678
O                3.1070000000        4.7644854900       10.7677372100    0   0   0
O                3.1070000000        4.7644854900        8.2902047600    0   0   0
O                4.6605000000        0.3493956000        9.5289709800    0   0   0
O                4.6605000000        2.8269280600        9.5289709800    0   0   0
O                3.1069996503        1.5881614969       13.9242783499
O                3.1070000000        1.5881618300       11.4665284200    0   0   0
O                4.6604998656        3.5361191880       12.7227346499
O                4.6604999216        5.9928517048       12.7227347210
O                3.1069999546        4.7644854624       17.1311311315
O                3.1070000681        4.7644854403       14.6976004269
O                4.6604997739        0.3794362120       15.9704188299
O                4.6604998062        2.7968870146       15.9704186595



     Writing config-only to output data dir ./tmp_ref__2x1v__afm__relax/ref__2x1v__afm__relax.save/ :
     XML data file
     NEW-OLD atomic charge density approx. for the potential

     negative rho (up, down):  1.049E-04 1.033E-04
     Generating pointlists ...

     total cpu time spent up to now is      703.7 secs

     per-process dynamical memory:   384.2 Mb

     Self-consistent Calculation

     iteration #  1     ecut=    80.00 Ry     beta= 0.30
     Davidson diagonalization with overlap
     ethr =  1.00E-06,  avg # of iterations =  3.0

     negative rho (up, down):  1.041E-04 1.034E-04

     total cpu time spent up to now is      726.9 secs

     total energy              =   -3261.34619253 Ry
     estimated scf accuracy    <       0.00092222 Ry

     total magnetization       =    -2.10 Bohr mag/cell
     absolute magnetization    =     6.27 Bohr mag/cell

     iteration #  2     ecut=    80.00 Ry     beta= 0.30
     Davidson diagonalization with overlap
     ethr =  2.74E-07,  avg # of iterations =  1.0

     negative rho (up, down):  1.044E-04 1.038E-04

     total cpu time spent up to now is      743.7 secs

     total energy              =   -3261.34621055 Ry
     estimated scf accuracy    <       0.00004261 Ry

     total magnetization       =    -2.11 Bohr mag/cell
     absolute magnetization    =     6.28 Bohr mag/cell

     iteration #  3     ecut=    80.00 Ry     beta= 0.30
     Davidson diagonalization with overlap
     ethr =  1.27E-08,  avg # of iterations =  1.5

     negative rho (up, down):  1.047E-04 1.044E-04

     total cpu time spent up to now is      760.7 secs

     total energy              =   -3261.34621152 Ry
     estimated scf accuracy    <       0.00001701 Ry

     total magnetization       =    -2.11 Bohr mag/cell
     absolute magnetization    =     6.28 Bohr mag/cell

     iteration #  4     ecut=    80.00 Ry     beta= 0.30
     Davidson diagonalization with overlap
     ethr =  5.06E-09,  avg # of iterations =  1.2

     negative rho (up, down):  1.055E-04 1.054E-04

     total cpu time spent up to now is      778.5 secs

     total energy              =   -3261.34621145 Ry
     estimated scf accuracy    <       0.00000620 Ry

     total magnetization       =    -2.11 Bohr mag/cell
     absolute magnetization    =     6.28 Bohr mag/cell

     iteration #  5     ecut=    80.00 Ry     beta= 0.30
     Davidson diagonalization with overlap
     ethr =  1.85E-09,  avg # of iterations =  2.0

     negative rho (up, down):  1.057E-04 1.057E-04

     total cpu time spent up to now is      795.9 secs

     total energy              =   -3261.34621209 Ry
     estimated scf accuracy    <       0.00000085 Ry

     total magnetization       =    -2.11 Bohr mag/cell
     absolute magnetization    =     6.29 Bohr mag/cell

     iteration #  6     ecut=    80.00 Ry     beta= 0.30
     Davidson diagonalization with overlap
     ethr =  2.54E-10,  avg # of iterations =  4.1

     negative rho (up, down):  1.061E-04 1.061E-04

     total cpu time spent up to now is      814.1 secs

     total energy              =   -3261.34621230 Ry
     estimated scf accuracy    <       0.00000033 Ry

     total magnetization       =    -2.11 Bohr mag/cell
     absolute magnetization    =     6.30 Bohr mag/cell

     iteration #  7     ecut=    80.00 Ry     beta= 0.30
     Davidson diagonalization with overlap
     ethr =  9.83E-11,  avg # of iterations =  2.6

     negative rho (up, down):  1.067E-04 1.066E-04

     total cpu time spent up to now is      831.9 secs

     total energy              =   -3261.34621250 Ry
     estimated scf accuracy    <       0.00000016 Ry

     total magnetization       =    -2.11 Bohr mag/cell
     absolute magnetization    =     6.30 Bohr mag/cell

     iteration #  8     ecut=    80.00 Ry     beta= 0.30
     Davidson diagonalization with overlap
     ethr =  4.63E-11,  avg # of iterations =  2.3

     negative rho (up, down):  1.071E-04 1.070E-04

     total cpu time spent up to now is      850.8 secs

     total energy              =   -3261.34621270 Ry
     estimated scf accuracy    <       0.00000007 Ry

     total magnetization       =    -2.11 Bohr mag/cell
     absolute magnetization    =     6.31 Bohr mag/cell

     iteration #  9     ecut=    80.00 Ry     beta= 0.30
     Davidson diagonalization with overlap
     ethr =  2.18E-11,  avg # of iterations =  2.6

     negative rho (up, down):  1.075E-04 1.074E-04

     total cpu time spent up to now is      870.1 secs

     total energy              =   -3261.34621284 Ry
     estimated scf accuracy    <       0.00000005 Ry

     total magnetization       =    -2.11 Bohr mag/cell
     absolute magnetization    =     6.31 Bohr mag/cell

     iteration # 10     ecut=    80.00 Ry     beta= 0.30
     Davidson diagonalization with overlap
     ethr =  1.52E-11,  avg # of iterations =  3.6

     negative rho (up, down):  1.079E-04 1.078E-04

     total cpu time spent up to now is      890.5 secs

     total energy              =   -3261.34621283 Ry
     estimated scf accuracy    <       0.00000004 Ry

     total magnetization       =    -2.11 Bohr mag/cell
     absolute magnetization    =     6.32 Bohr mag/cell

     iteration # 11     ecut=    80.00 Ry     beta= 0.30
     Davidson diagonalization with overlap
     ethr =  1.31E-11,  avg # of iterations =  4.6

     negative rho (up, down):  1.078E-04 1.077E-04

     total cpu time spent up to now is      912.4 secs

     total energy              =   -3261.34621311 Ry
     estimated scf accuracy    <       0.00000001 Ry

     total magnetization       =    -2.11 Bohr mag/cell
     absolute magnetization    =     6.33 Bohr mag/cell

     iteration # 12     ecut=    80.00 Ry     beta= 0.30
     Davidson diagonalization with overlap
     ethr =  3.82E-12,  avg # of iterations =  3.4

     negative rho (up, down):  1.038E-04 1.039E-04

     Magnetic moment per site  (integrated on atomic sphere of radius R)
     atom   1 (R=0.125)  charge= 10.7448  magn=  0.1880
     atom   2 (R=0.126)  charge= 10.7729  magn= -0.5015
     atom   3 (R=0.125)  charge= 10.6802  magn=  0.1856
     atom   4 (R=0.126)  charge= 10.8214  magn= -0.1138
     atom   5 (R=0.125)  charge= 10.7385  magn=  0.2281
     atom   6 (R=0.126)  charge= 10.7877  magn= -0.4546
     atom   7 (R=0.125)  charge=  5.2063  magn= -0.0320
     atom   8 (R=0.125)  charge=  5.0794  magn= -0.1793
     atom   9 (R=0.125)  charge=  5.2089  magn=  0.0189
     atom  10 (R=0.125)  charge=  5.2089  magn=  0.0189
     atom  11 (R=0.125)  charge=  5.2152  magn=  0.0077
     atom  12 (R=0.125)  charge=  5.1984  magn= -0.0077
     atom  13 (R=0.125)  charge=  5.2168  magn=  0.0106
     atom  14 (R=0.125)  charge=  5.2168  magn=  0.0106
     atom  15 (R=0.125)  charge=  5.1379  magn= -0.1863
     atom  16 (R=0.125)  charge=  5.1887  magn= -0.0158
     atom  17 (R=0.125)  charge=  5.2089  magn=  0.0205
     atom  18 (R=0.125)  charge=  5.2089  magn=  0.0205
     atom  19 (R=0.125)  charge= 10.7448  magn=  0.1880
     atom  20 (R=0.126)  charge= 10.7729  magn= -0.5015
     atom  21 (R=0.125)  charge= 10.6802  magn=  0.1856
     atom  22 (R=0.126)  charge= 10.8214  magn= -0.1138
     atom  23 (R=0.125)  charge= 10.7385  magn=  0.2281
     atom  24 (R=0.126)  charge= 10.7877  magn= -0.4546
     atom  25 (R=0.125)  charge=  5.2063  magn= -0.0320
     atom  26 (R=0.125)  charge=  5.0794  magn= -0.1793
     atom  27 (R=0.125)  charge=  5.2089  magn=  0.0189
     atom  28 (R=0.125)  charge=  5.2089  magn=  0.0189
     atom  29 (R=0.125)  charge=  5.2152  magn=  0.0077
     atom  30 (R=0.125)  charge=  5.1984  magn= -0.0077
     atom  31 (R=0.125)  charge=  5.2168  magn=  0.0106
     atom  32 (R=0.125)  charge=  5.2168  magn=  0.0106
     atom  33 (R=0.125)  charge=  5.1379  magn= -0.1863
     atom  34 (R=0.125)  charge=  5.1887  magn= -0.0158
     atom  35 (R=0.125)  charge=  5.2089  magn=  0.0205
     atom  36 (R=0.125)  charge=  5.2089  magn=  0.0205

     total cpu time spent up to now is      932.4 secs

     End of self-consistent calculation

 ------ SPIN UP ------------


          k = 0.0000 0.0000 0.0000 ( 81707 PWs)   bands (ev):

   -72.1700 -72.1591 -72.1344 -72.1241 -72.1058 -72.1017 -72.0941 -72.0921
   -72.0188 -72.0080 -71.7916 -71.7810 -42.4155 -42.4045 -42.3364 -42.3250
   -42.3221 -42.2504 -42.2326 -42.2246 -42.2097 -42.1865 -42.1765 -42.1603
   -42.1589 -42.1544 -42.1338 -42.1293 -42.0750 -42.0529 -42.0014 -42.0013
   -41.9783 -41.9720 -41.9702 -41.9523 -41.9475 -41.9212 -41.9142 -41.8862
   -41.8833 -41.8825 -41.8744 -41.8529 -41.8470 -41.7029 -41.6684 -41.6391
   -18.7731 -18.3926 -18.2520 -18.1212 -18.0406 -17.7217 -17.5579 -17.5317
   -17.4831 -17.4765 -17.4400 -17.4116 -17.3964 -17.3686 -17.3679 -17.3086
   -16.9972 -16.9145 -16.8658 -16.7795 -16.5150 -16.3484 -15.7448 -15.7105
    -7.0057  -6.9517  -6.9145  -6.8245  -6.0457  -5.9239  -5.7357  -5.7076
    -5.6586  -5.5073  -5.4926  -5.4818  -5.4798  -5.4291  -5.3895  -5.3191
    -5.2870  -5.2825  -5.2177  -5.1549  -5.0575  -5.0526  -4.9381  -4.7966
    -4.7930  -4.7871  -4.7412  -4.7014  -4.3173  -4.3163  -3.9338  -3.5829
    -3.4392  -3.3862  -3.3677  -3.3425  -3.2584  -3.1891  -3.1327  -3.0997
    -3.0666  -3.0492  -2.9672  -2.9350  -2.7234  -2.6529  -2.6418  -2.5100
    -2.4362  -2.3578  -2.3342  -2.2239  -2.1906  -2.0962  -2.0656  -2.0525
    -1.9491  -1.9409  -1.8224  -1.6892  -1.5268  -1.5263  -1.3815  -1.3188
    -1.2914  -1.2298  -1.1322  -0.9102  -0.7462  -0.6530  -0.5727  -0.4455
    -0.0541   0.0879   0.1233   0.1487   0.1745   0.1958   0.2496   0.2877
     0.3410   0.3488   0.4937   0.6840   0.6884   0.6941   0.7801   0.8006
     0.8706   0.9721   1.0841   1.1151   1.1285   1.2552   1.3154   1.4369
     1.5712   1.5848   1.7146   1.7948   1.9319   2.0794   2.1317   2.2756
     2.3869   2.3985   2.6445   2.6744   2.7229   2.7676   2.9352   3.0701
     3.5195   4.1196   4.4958   4.5336   4.6132   4.6388   4.7318   4.8430
     4.9924   5.1071   5.1417   5.2988   5.5256   5.8942   5.9220   5.9660
     6.0319   6.0721

          k = 0.0000 0.2445 0.0000 ( 81832 PWs)   bands (ev):

   -72.1700 -72.1591 -72.1344 -72.1241 -72.1054 -72.1021 -72.0941 -72.0921
   -72.0188 -72.0080 -71.7916 -71.7810 -42.4155 -42.4045 -42.3364 -42.3248
   -42.3225 -42.2477 -42.2381 -42.2231 -42.2111 -42.1868 -42.1806 -42.1740
   -42.1488 -42.1385 -42.1337 -42.1295 -42.0750 -42.0529 -42.0014 -42.0007
   -41.9782 -41.9720 -41.9708 -41.9522 -41.9503 -41.9208 -41.9143 -41.8846
   -41.8833 -41.8825 -41.8770 -41.8529 -41.8468 -41.7030 -41.6701 -41.6389
   -18.7019 -18.2641 -18.1581 -18.0657 -18.0395 -17.7162 -17.6830 -17.6483
   -17.6052 -17.5860 -17.5076 -17.4499 -17.3733 -17.2716 -17.1614 -17.1318
   -17.0298 -16.9986 -16.9934 -16.9549 -16.5146 -16.3466 -15.7442 -15.7077
    -6.8641  -6.5526  -6.4907  -6.4505  -6.0270  -5.9179  -5.9115  -5.7788
    -5.7354  -5.6815  -5.6389  -5.4362  -5.4017  -5.3538  -5.3335  -5.3331
    -5.2795  -5.2468  -5.2411  -5.2164  -5.1627  -5.0041  -4.9392  -4.9361
    -4.9359  -4.5305  -4.4056  -4.1069  -4.0719  -3.9454  -3.8952  -3.6470
    -3.6281  -3.5923  -3.5213  -3.4762  -3.4511  -3.3489  -3.2580  -3.2420
    -3.2112  -3.0852  -3.0425  -2.8901  -2.8543  -2.6983  -2.6957  -2.5721
    -2.4783  -2.4518  -2.4184  -2.3714  -2.3352  -2.2551  -2.1890  -2.1842
    -1.9898  -1.9745  -1.8298  -1.7745  -1.7503  -1.6388  -1.5609  -1.4221
    -1.2932  -1.2667  -1.2284  -1.1942  -0.8323  -0.7878  -0.7680  -0.5336
     0.0483   0.0562   0.0662   0.2598   0.4367   0.4518   0.4921   0.6074
     0.6479   0.6940   0.6977   0.7079   0.7088   0.7340   0.7477   0.8014
     0.8142   0.8404   0.8909   0.9509   0.9964   0.9987   1.1308   1.4071
     1.5726   1.8047   1.9586   2.0965   2.1467   2.2296   2.2854   2.3092
     2.4105   2.4347   2.4916   2.6436   2.7000   2.7932   2.8157   3.2013
     3.5702   3.7070   3.7648   3.8966   4.4154   4.6195   4.7487   5.2309
     5.4175   5.5243   5.7201   5.7816   5.8033   5.8135   5.8989   5.9263
     5.9834   6.1365

          k = 0.0000-0.4891 0.0000 ( 81886 PWs)   bands (ev):

   -72.1700 -72.1591 -72.1344 -72.1241 -72.1048 -72.1026 -72.0941 -72.0921
   -72.0188 -72.0080 -71.7916 -71.7810 -42.4155 -42.4045 -42.3365 -42.3245
   -42.3230 -42.2450 -42.2429 -42.2217 -42.2125 -42.1892 -42.1872 -42.1713
   -42.1438 -42.1336 -42.1297 -42.1297 -42.0750 -42.0529 -42.0014 -42.0001
   -41.9782 -41.9720 -41.9716 -41.9532 -41.9522 -41.9204 -41.9144 -41.8833
   -41.8831 -41.8825 -41.8796 -41.8529 -41.8466 -41.7031 -41.6717 -41.6387
   -18.6242 -18.1028 -18.0519 -18.0384 -17.8913 -17.7613 -17.7387 -17.7106
   -17.6953 -17.6952 -17.6221 -17.4509 -17.3790 -17.1890 -17.1657 -17.1657
   -17.0959 -17.0618 -17.0348 -17.0001 -16.5143 -16.3458 -15.7437 -15.7056
    -6.8581  -6.0913  -6.0095  -5.9711  -5.9676  -5.8910  -5.8495  -5.7745
    -5.7350  -5.6838  -5.6489  -5.3571  -5.3477  -5.2689  -5.2514  -5.2513
    -5.2276  -5.2266  -5.2182  -5.2010  -5.1516  -5.0896  -4.9339  -4.9310
    -4.6450  -4.5986  -4.4927  -4.1953  -4.1856  -4.1264  -4.1029  -3.8743
    -3.8681  -3.8576  -3.6084  -3.5752  -3.5356  -3.3264  -3.1998  -3.1867
    -3.1806  -3.0433  -3.0395  -2.9893  -2.9266  -2.8923  -2.8042  -2.7983
    -2.7528  -2.6917  -2.5780  -2.5571  -2.4774  -2.2431  -2.1796  -2.1024
    -2.0594  -1.7707  -1.7120  -1.6579  -1.6436  -1.6056  -1.5723  -1.3980
    -1.3264  -1.3234  -1.3166  -1.2774  -1.0118  -0.8508  -0.7392  -0.6394
    -0.2222  -0.2222   0.0153   0.0273   0.0457   0.1090   0.5710   0.6723
     0.6731   0.6957   0.6958   0.7925   0.8244   0.8835   0.9247   0.9863
     1.0125   1.0648   1.1308   1.1532   1.2490   1.2964   1.3021   1.4366
     1.5652   1.6543   1.8219   2.0749   2.1302   2.2522   2.2587   2.2940
     2.4226   2.5439   2.6052   2.6865   2.6982   2.8409   2.8846   3.3521
     3.3720   3.3737   3.5114   3.6093   4.6054   4.6250   4.7660   5.4700
     5.4904   5.5315   5.5427   5.5730   5.6025   5.8941   6.0425   6.1393
     6.1412   6.3474

          k = 0.0000-0.2445 0.0000 ( 81832 PWs)   bands (ev):

   -72.1700 -72.1591 -72.1344 -72.1241 -72.1054 -72.1021 -72.0941 -72.0921
   -72.0188 -72.0080 -71.7916 -71.7810 -42.4155 -42.4045 -42.3364 -42.3248
   -42.3225 -42.2477 -42.2381 -42.2231 -42.2111 -42.1868 -42.1806 -42.1740
   -42.1488 -42.1385 -42.1337 -42.1295 -42.0750 -42.0529 -42.0014 -42.0007
   -41.9782 -41.9720 -41.9708 -41.9522 -41.9503 -41.9208 -41.9143 -41.8846
   -41.8833 -41.8825 -41.8770 -41.8529 -41.8468 -41.7030 -41.6701 -41.6389
   -18.7019 -18.2641 -18.1581 -18.0657 -18.0395 -17.7162 -17.6830 -17.6483
   -17.6052 -17.5860 -17.5076 -17.4499 -17.3733 -17.2716 -17.1614 -17.1318
   -17.0298 -16.9986 -16.9934 -16.9549 -16.5146 -16.3466 -15.7442 -15.7077
    -6.8641  -6.5526  -6.4907  -6.4505  -6.0270  -5.9179  -5.9115  -5.7788
    -5.7354  -5.6815  -5.6389  -5.4362  -5.4017  -5.3538  -5.3335  -5.3331
    -5.2795  -5.2468  -5.2411  -5.2164  -5.1627  -5.0041  -4.9392  -4.9361
    -4.9359  -4.5305  -4.4056  -4.1069  -4.0719  -3.9454  -3.8952  -3.6470
    -3.6281  -3.5923  -3.5213  -3.4762  -3.4511  -3.3489  -3.2580  -3.2420
    -3.2112  -3.0852  -3.0425  -2.8901  -2.8543  -2.6983  -2.6957  -2.5721
    -2.4783  -2.4518  -2.4184  -2.3714  -2.3352  -2.2551  -2.1890  -2.1842
    -1.9898  -1.9745  -1.8298  -1.7745  -1.7503  -1.6388  -1.5609  -1.4221
    -1.2932  -1.2667  -1.2284  -1.1942  -0.8323  -0.7878  -0.7680  -0.5336
     0.0483   0.0562   0.0662   0.2598   0.4367   0.4518   0.4921   0.6074
     0.6479   0.6940   0.6977   0.7079   0.7088   0.7340   0.7477   0.8014
     0.8142   0.8404   0.8909   0.9509   0.9964   0.9987   1.1308   1.4071
     1.5726   1.8047   1.9586   2.0965   2.1467   2.2296   2.2854   2.3092
     2.4105   2.4347   2.4916   2.6436   2.7000   2.7932   2.8157   3.2013
     3.5702   3.7070   3.7648   3.8966   4.4154   4.6195   4.7487   5.2309
     5.4175   5.5243   5.7201   5.7816   5.8033   5.8135   5.8989   5.9263
     5.9834   6.1365

          k = 0.2500 0.0000 0.0000 ( 81703 PWs)   bands (ev):

   -72.1684 -72.1607 -72.1329 -72.1256 -72.1041 -72.1003 -72.0959 -72.0935
   -72.0172 -72.0096 -71.7900 -71.7825 -42.4137 -42.4057 -42.3344 -42.3259
   -42.2957 -42.2478 -42.2352 -42.2224 -42.2118 -42.1739 -42.1620 -42.1614
   -42.1607 -42.1331 -42.1279 -42.1037 -42.0730 -42.0555 -42.0276 -42.0023
   -41.9982 -41.9951 -41.9816 -41.9786 -41.9437 -41.9251 -41.9095 -41.8871
   -41.8788 -41.8704 -41.8598 -41.8573 -41.8510 -41.7302 -41.6642 -41.6435
   -18.6438 -18.2764 -18.1461 -18.0211 -18.0199 -17.8782 -17.6509 -17.5759
   -17.5521 -17.5161 -17.4812 -17.3661 -17.3261 -17.3191 -17.2978 -17.2345
   -16.9946 -16.9805 -16.9426 -16.8606 -16.5804 -16.4208 -15.7821 -15.7533
    -6.8273  -6.7747  -6.7351  -6.6213  -5.9846  -5.9205  -5.7753  -5.7659
    -5.7121  -5.6662  -5.5715  -5.5397  -5.5374  -5.5338  -5.4963  -5.3992
    -5.3342  -5.2278  -5.1920  -5.1888  -5.1552  -4.9659  -4.7198  -4.7142
    -4.6014  -4.4788  -4.4489  -4.3482  -4.2698  -4.0342  -4.0231  -3.9382
    -3.7939  -3.6834  -3.4303  -3.3516  -3.1254  -3.1213  -3.0858  -3.0734
    -3.0364  -3.0091  -2.9281  -2.8481  -2.7998  -2.7991  -2.6213  -2.6138
    -2.5853  -2.4915  -2.4314  -2.4231  -2.3382  -2.2926  -2.1510  -2.1076
    -2.0763  -2.0499  -1.9520  -1.7484  -1.7236  -1.7197  -1.5989  -1.5573
    -1.5221  -1.4639  -1.1677  -0.9823  -0.9673  -0.6746  -0.6038  -0.5335
    -0.0058   0.0361   0.0556   0.2286   0.3803   0.3887   0.4940   0.5654
     0.5673   0.5846   0.6469   0.7403   0.7878   0.8230   0.8316   1.0026
     1.0150   1.0203   1.2564   1.2712   1.3008   1.4047   1.4649   1.5481
     1.5578   1.7760   1.7841   1.7957   1.9033   1.9823   2.0359   2.2539
     2.4496   2.5255   2.5559   2.5567   2.6257   2.7792   2.9187   2.9402
     3.7532   4.2461   4.6274   4.6354   4.6655   4.6993   4.7638   4.8760
     4.9694   5.1321   5.1651   5.3452   5.3727   5.4369   5.6516   5.6869
     5.7050   5.7571

          k = 0.2500 0.2445 0.0000 ( 81774 PWs)   bands (ev):

   -72.1684 -72.1607 -72.1329 -72.1256 -72.1037 -72.1006 -72.0958 -72.0936
   -72.0172 -72.0096 -71.7900 -71.7825 -42.4137 -42.4057 -42.3345 -42.3259
   -42.2959 -42.2458 -42.2383 -42.2213 -42.2128 -42.1721 -42.1710 -42.1620
   -42.1609 -42.1243 -42.1231 -42.1039 -42.0730 -42.0555 -42.0273 -42.0021
   -41.9984 -41.9950 -41.9816 -41.9786 -41.9459 -41.9251 -41.9096 -41.8871
   -41.8788 -41.8726 -41.8586 -41.8573 -41.8512 -41.7301 -41.6655 -41.6435
   -18.5790 -18.1537 -18.0603 -18.0160 -17.9578 -17.8655 -17.6812 -17.6381
   -17.5557 -17.5542 -17.5027 -17.3908 -17.3847 -17.3355 -17.2276 -17.1671
   -17.0948 -17.0525 -17.0254 -16.9818 -16.5808 -16.4191 -15.7823 -15.7511
    -6.6789  -6.3818  -6.3264  -6.2952  -5.9159  -5.9106  -5.7809  -5.7701
    -5.7141  -5.6513  -5.5889  -5.5070  -5.4408  -5.3975  -5.3967  -5.3579
    -5.3487  -5.3073  -5.2455  -5.2288  -5.1135  -4.9664  -4.7099  -4.6013
    -4.5860  -4.4001  -4.3712  -4.3195  -4.1549  -4.1364  -3.9756  -3.9459
    -3.7391  -3.6736  -3.6226  -3.4831  -3.4260  -3.3969  -3.2309  -3.2266
    -3.0977  -3.0865  -3.0040  -2.9318  -2.9095  -2.8991  -2.8526  -2.7402
    -2.7374  -2.6593  -2.6395  -2.5214  -2.4617  -2.4172  -2.4061  -2.2241
    -2.1631  -1.9433  -1.9288  -1.8643  -1.7540  -1.6539  -1.6480  -1.6130
    -1.5209  -1.3057  -1.2671  -0.9550  -0.8733  -0.7452  -0.7075  -0.6425
    -0.0620   0.0276   0.2250   0.2860   0.4059   0.4341   0.5897   0.6327
     0.6869   0.7200   0.7477   0.7597   0.9122   0.9175   0.9533   0.9789
     1.0095   1.1383   1.2073   1.2869   1.2995   1.3647   1.4013   1.5006
     1.7942   1.8176   1.8977   1.9475   1.9997   2.0887   2.1453   2.2377
     2.3224   2.3595   2.4480   2.6114   2.7353   2.7797   2.8984   3.1574
     3.7336   3.9336   3.9605   4.0682   4.4897   4.6785   4.7265   5.0322
     5.1474   5.2697   5.3292   5.4994   5.5786   5.5911   5.6895   5.7311
     5.8462   5.9970

          k = 0.2500-0.4891 0.0000 ( 81830 PWs)   bands (ev):

   -72.1684 -72.1607 -72.1329 -72.1256 -72.1033 -72.1011 -72.0957 -72.0937
   -72.0172 -72.0096 -71.7900 -71.7825 -42.4137 -42.4057 -42.3345 -42.3259
   -42.2961 -42.2437 -42.2413 -42.2202 -42.2137 -42.1777 -42.1703 -42.1620
   -42.1612 -42.1209 -42.1160 -42.1041 -42.0730 -42.0555 -42.0270 -42.0019
   -41.9985 -41.9950 -41.9816 -41.9786 -41.9482 -41.9252 -41.9097 -41.8871
   -41.8788 -41.8747 -41.8574 -41.8573 -41.8514 -41.7300 -41.6669 -41.6435
   -18.5091 -18.0107 -17.9921 -17.9454 -17.8478 -17.7964 -17.7121 -17.6930
   -17.6256 -17.5853 -17.5571 -17.4981 -17.4094 -17.3146 -17.2383 -17.2177
   -17.1780 -17.1261 -17.1220 -16.9827 -16.5813 -16.4183 -15.7825 -15.7494
    -6.6681  -5.9433  -5.8264  -5.8178  -5.7740  -5.6949  -5.6655  -5.5904
    -5.5721  -5.5104  -5.5058  -5.4702  -5.4420  -5.4225  -5.3890  -5.3716
    -5.3514  -5.3469  -5.3218  -5.2800  -5.2644  -4.7310  -4.6222  -4.5837
    -4.5204  -4.4905  -4.3452  -4.2713  -4.2025  -4.1081  -4.0771  -3.9759
    -3.8348  -3.8340  -3.7880  -3.7748  -3.7355  -3.5739  -3.5613  -3.4467
    -3.3784  -3.2206  -3.2015  -3.1417  -3.0917  -3.0391  -3.0315  -2.9437
    -2.9090  -2.8857  -2.7487  -2.7162  -2.6104  -2.4303  -2.4261  -2.1311
    -1.9687  -1.8941  -1.8665  -1.7158  -1.6638  -1.5993  -1.5234  -1.3815
    -1.3054  -1.2721  -1.1911  -1.0768  -0.9894  -0.9693  -0.7003  -0.6658
    -0.1249  -0.0557   0.0410   0.1039   0.1940   0.3310   0.4900   0.6685
     0.7113   0.7815   0.8160   0.9535   1.0182   1.0734   1.0856   1.1036
     1.2616   1.3212   1.3422   1.3610   1.4330   1.4807   1.6044   1.6344
     1.6444   1.8017   1.9942   2.0020   2.0257   2.0402   2.1099   2.1799
     2.2880   2.4012   2.4505   2.4626   2.8649   2.9186   3.0103   3.3053
     3.4899   3.4951   3.6369   3.8528   4.6677   4.6851   4.7433   4.9044
     4.9074   5.0137   5.2434   5.4714   5.6667   5.7620   5.8226   5.8247
     6.2058   6.2270

          k = 0.2500-0.2445 0.0000 ( 81774 PWs)   bands (ev):

   -72.1684 -72.1607 -72.1329 -72.1256 -72.1037 -72.1006 -72.0958 -72.0936
   -72.0172 -72.0096 -71.7900 -71.7825 -42.4137 -42.4057 -42.3345 -42.3259
   -42.2959 -42.2458 -42.2383 -42.2213 -42.2128 -42.1721 -42.1710 -42.1620
   -42.1609 -42.1243 -42.1231 -42.1039 -42.0730 -42.0555 -42.0273 -42.0021
   -41.9984 -41.9950 -41.9816 -41.9786 -41.9459 -41.9251 -41.9096 -41.8871
   -41.8788 -41.8726 -41.8586 -41.8573 -41.8512 -41.7301 -41.6655 -41.6435
   -18.5790 -18.1537 -18.0603 -18.0160 -17.9578 -17.8655 -17.6812 -17.6381
   -17.5557 -17.5542 -17.5027 -17.3908 -17.3847 -17.3355 -17.2276 -17.1671
   -17.0948 -17.0525 -17.0254 -16.9818 -16.5808 -16.4191 -15.7823 -15.7511
    -6.6789  -6.3818  -6.3264  -6.2952  -5.9159  -5.9106  -5.7809  -5.7701
    -5.7141  -5.6513  -5.5889  -5.5070  -5.4408  -5.3975  -5.3967  -5.3579
    -5.3487  -5.3073  -5.2455  -5.2288  -5.1135  -4.9664  -4.7099  -4.6013
    -4.5860  -4.4001  -4.3712  -4.3195  -4.1549  -4.1364  -3.9756  -3.9459
    -3.7391  -3.6736  -3.6226  -3.4831  -3.4260  -3.3969  -3.2309  -3.2266
    -3.0977  -3.0865  -3.0040  -2.9318  -2.9095  -2.8991  -2.8526  -2.7402
    -2.7374  -2.6593  -2.6395  -2.5214  -2.4617  -2.4172  -2.4061  -2.2241
    -2.1631  -1.9433  -1.9288  -1.8643  -1.7540  -1.6539  -1.6480  -1.6130
    -1.5209  -1.3057  -1.2671  -0.9550  -0.8733  -0.7452  -0.7075  -0.6425
    -0.0620   0.0276   0.2250   0.2860   0.4059   0.4341   0.5897   0.6327
     0.6869   0.7200   0.7477   0.7597   0.9122   0.9175   0.9533   0.9789
     1.0095   1.1383   1.2073   1.2869   1.2995   1.3647   1.4013   1.5006
     1.7942   1.8176   1.8977   1.9475   1.9997   2.0887   2.1453   2.2377
     2.3224   2.3595   2.4480   2.6114   2.7353   2.7797   2.8984   3.1574
     3.7336   3.9336   3.9605   4.0682   4.4897   4.6785   4.7265   5.0322
     5.1474   5.2697   5.3292   5.4994   5.5786   5.5911   5.6895   5.7311
     5.8462   5.9970

          k =-0.5000 0.0000 0.0000 ( 81894 PWs)   bands (ev):

   -72.1645 -72.1645 -72.1293 -72.1293 -72.1000 -72.1000 -72.0968 -72.0968
   -72.0134 -72.0134 -71.7863 -71.7863 -42.4095 -42.4095 -42.3299 -42.3299
   -42.2414 -42.2414 -42.2295 -42.2295 -42.2171 -42.2171 -42.1676 -42.1676
   -42.0985 -42.0985 -42.0669 -42.0669 -42.0639 -42.0639 -42.0597 -42.0597
   -42.0415 -42.0415 -41.9896 -41.9896 -41.9344 -41.9344 -41.8982 -41.8982
   -41.8681 -41.8681 -41.8608 -41.8608 -41.7954 -41.7954 -41.6539 -41.6538
   -18.3158 -18.3158 -18.0049 -18.0049 -17.9011 -17.9011 -17.7733 -17.7733
   -17.6783 -17.6783 -17.3557 -17.3557 -17.1835 -17.1835 -17.1232 -17.1232
   -17.0981 -17.0981 -17.0510 -17.0510 -16.5663 -16.5663 -15.8091 -15.8091
    -6.3811  -6.3811  -6.3052  -6.3052  -6.2640  -6.2640  -6.0904  -6.0904
    -5.7542  -5.7542  -5.7256  -5.7256  -5.5916  -5.5916  -5.3995  -5.3995
    -5.2349  -5.2349  -5.0888  -5.0888  -4.8665  -4.8665  -4.7431  -4.7430
    -4.2535  -4.2535  -4.1406  -4.1406  -3.9154  -3.9154  -3.8413  -3.8413
    -3.7544  -3.7544  -3.6644  -3.6644  -3.5593  -3.5593  -3.3168  -3.3168
    -3.0646  -3.0646  -2.8707  -2.8707  -2.7694  -2.7694  -2.6462  -2.6462
    -2.6359  -2.6359  -2.5414  -2.5414  -2.4178  -2.4178  -2.2738  -2.2738
    -2.0973  -2.0973  -1.9511  -1.9511  -1.9129  -1.9129  -1.7716  -1.7716
    -1.5873  -1.5873  -1.0352  -1.0352  -0.8396  -0.8396  -0.6953  -0.6953
     0.1233   0.1233   0.2150   0.2150   0.3567   0.3567   0.5446   0.5446
     0.6949   0.6949   0.8817   0.8817   0.9901   0.9901   1.1245   1.1245
     1.1341   1.1341   1.3290   1.3290   1.5310   1.5310   1.5617   1.5617
     1.7612   1.7612   1.8104   1.8104   2.0656   2.0656   2.0753   2.0753
     2.3104   2.3104   2.5039   2.5039   2.7385   2.7385   2.9124   2.9124
     4.2812   4.2812   4.6659   4.6659   4.8134   4.8134   5.0218   5.0218
     5.0630   5.0630   5.0955   5.0955   5.1726   5.1726   5.2238   5.2238
     5.4079   5.4079

          k =-0.5000 0.2445 0.0000 ( 81810 PWs)   bands (ev):

   -72.1645 -72.1645 -72.1293 -72.1293 -72.0998 -72.0998 -72.0971 -72.0971
   -72.0134 -72.0134 -71.7863 -71.7863 -42.4095 -42.4095 -42.3299 -42.3299
   -42.2414 -42.2414 -42.2296 -42.2296 -42.2169 -42.2169 -42.1685 -42.1685
   -42.0985 -42.0985 -42.0648 -42.0648 -42.0627 -42.0627 -42.0599 -42.0599
   -42.0416 -42.0416 -41.9896 -41.9896 -41.9355 -41.9355 -41.8983 -41.8983
   -41.8681 -41.8681 -41.8619 -41.8619 -41.7948 -41.7948 -41.6545 -41.6545
   -18.2723 -18.2723 -17.9239 -17.9239 -17.8432 -17.8432 -17.7076 -17.7076
   -17.6650 -17.6650 -17.3870 -17.3870 -17.3064 -17.3064 -17.2150 -17.2150
   -17.1621 -17.1621 -17.0744 -17.0744 -16.5655 -16.5655 -15.8086 -15.8086
    -6.2162  -6.2162  -5.9824  -5.9824  -5.9507  -5.9507  -5.9452  -5.9452
    -5.7493  -5.7493  -5.7214  -5.7214  -5.4371  -5.4371  -5.2627  -5.2627
    -5.2339  -5.2339  -5.0840  -5.0840  -4.8975  -4.8975  -4.5723  -4.5723
    -4.2963  -4.2963  -4.2522  -4.2522  -4.1372  -4.1372  -4.0965  -4.0965
    -3.9232  -3.9232  -3.8124  -3.8124  -3.6298  -3.6298  -3.5404  -3.5404
    -3.1568  -3.1568  -2.9789  -2.9789  -2.8939  -2.8939  -2.7997  -2.7997
    -2.7006  -2.7006  -2.6463  -2.6463  -2.6045  -2.6045  -2.4019  -2.4019
    -2.1677  -2.1677  -1.8384  -1.8384  -1.8188  -1.8188  -1.7147  -1.7147
    -1.5564  -1.5564  -1.0597  -1.0597  -0.8565  -0.8565  -0.7356  -0.7356
    -0.0404  -0.0404   0.3289   0.3290   0.4012   0.4012   0.6361   0.6361
     0.9136   0.9136   1.0412   1.0412   1.1356   1.1356   1.2103   1.2103
     1.2519   1.2519   1.3010   1.3010   1.5573   1.5573   1.6711   1.6711
     1.8133   1.8133   1.8350   1.8350   1.9712   1.9712   2.1109   2.1109
     2.1902   2.1902   2.3242   2.3242   2.8804   2.8805   3.0584   3.0584
     4.3285   4.3285   4.3949   4.3949   4.4878   4.4878   4.5608   4.5608
     4.8348   4.8348   5.0341   5.0341   5.2462   5.2462   5.6789   5.6789
     5.8378   5.8378

          k =-0.5000-0.4891 0.0000 ( 81784 PWs)   bands (ev):

   -72.1645 -72.1645 -72.1293 -72.1293 -72.0995 -72.0995 -72.0974 -72.0974
   -72.0134 -72.0134 -71.7863 -71.7863 -42.4095 -42.4095 -42.3299 -42.3299
   -42.2414 -42.2414 -42.2296 -42.2296 -42.2168 -42.2168 -42.1694 -42.1694
   -42.0986 -42.0986 -42.0626 -42.0626 -42.0612 -42.0612 -42.0602 -42.0602
   -42.0417 -42.0417 -41.9896 -41.9896 -41.9366 -41.9366 -41.8983 -41.8983
   -41.8681 -41.8681 -41.8631 -41.8631 -41.7943 -41.7943 -41.6552 -41.6552
   -18.2269 -18.2269 -17.8209 -17.8209 -17.7550 -17.7550 -17.5971 -17.5971
   -17.5950 -17.5950 -17.4709 -17.4709 -17.4306 -17.4306 -17.4105 -17.4105
   -17.2513 -17.2513 -17.0695 -17.0695 -16.5648 -16.5648 -15.8082 -15.8082
    -6.1737  -6.1737  -5.7705  -5.7705  -5.7218  -5.7218  -5.5074  -5.5074
    -5.4696  -5.4696  -5.4631  -5.4631  -5.2929  -5.2929  -5.1469  -5.1469
    -5.0757  -5.0757  -5.0041  -5.0041  -4.8468  -4.8468  -4.7490  -4.7490
    -4.7289  -4.7289  -4.6239  -4.6239  -4.3097  -4.3097  -4.1784  -4.1784
    -3.9993  -3.9993  -3.8576  -3.8576  -3.5609  -3.5609  -3.4166  -3.4166
    -3.3583  -3.3583  -3.3577  -3.3577  -3.2488  -3.2488  -3.1706  -3.1706
    -3.0161  -3.0161  -3.0052  -3.0052  -2.8370  -2.8370  -2.3137  -2.3137
    -1.9044  -1.9044  -1.7393  -1.7393  -1.5568  -1.5568  -1.4946  -1.4946
    -1.4056  -1.4056  -1.1733  -1.1733  -0.9474  -0.9474  -0.7573  -0.7573
     0.1553   0.1553   0.1661   0.1661   0.4631   0.4631   0.5948   0.5948
     0.6799   0.6799   1.0631   1.0631   1.3422   1.3422   1.3425   1.3425
     1.3634   1.3634   1.5583   1.5583   1.7096   1.7096   1.8215   1.8215
     1.8665   1.8665   1.9392   1.9392   1.9585   1.9585   2.0001   2.0001
     2.1350   2.1350   2.2344   2.2344   2.9826   2.9826   3.1724   3.1724
     4.0386   4.0386   4.0398   4.0398   4.1456   4.1456   4.3950   4.3950
     4.8434   4.8434   5.0365   5.0365   5.4038   5.4038   5.9370   5.9370
     6.0335   6.0335

          k =-0.5000-0.2445 0.0000 ( 81810 PWs)   bands (ev):

   -72.1645 -72.1645 -72.1293 -72.1293 -72.0998 -72.0998 -72.0971 -72.0971
   -72.0134 -72.0134 -71.7863 -71.7863 -42.4095 -42.4095 -42.3299 -42.3299
   -42.2414 -42.2414 -42.2296 -42.2296 -42.2169 -42.2169 -42.1685 -42.1685
   -42.0985 -42.0985 -42.0648 -42.0648 -42.0627 -42.0627 -42.0599 -42.0599
   -42.0416 -42.0416 -41.9896 -41.9896 -41.9355 -41.9355 -41.8983 -41.8983
   -41.8681 -41.8681 -41.8619 -41.8619 -41.7948 -41.7948 -41.6545 -41.6545
   -18.2723 -18.2723 -17.9239 -17.9239 -17.8432 -17.8432 -17.7076 -17.7076
   -17.6650 -17.6650 -17.3870 -17.3870 -17.3064 -17.3064 -17.2150 -17.2150
   -17.1621 -17.1621 -17.0744 -17.0744 -16.5655 -16.5655 -15.8086 -15.8086
    -6.2162  -6.2162  -5.9824  -5.9824  -5.9507  -5.9507  -5.9452  -5.9452
    -5.7493  -5.7493  -5.7214  -5.7214  -5.4371  -5.4371  -5.2627  -5.2627
    -5.2339  -5.2339  -5.0840  -5.0840  -4.8975  -4.8975  -4.5723  -4.5723
    -4.2963  -4.2963  -4.2522  -4.2522  -4.1372  -4.1372  -4.0965  -4.0965
    -3.9232  -3.9232  -3.8124  -3.8124  -3.6298  -3.6298  -3.5404  -3.5404
    -3.1568  -3.1568  -2.9789  -2.9789  -2.8939  -2.8939  -2.7997  -2.7997
    -2.7006  -2.7006  -2.6463  -2.6463  -2.6045  -2.6045  -2.4019  -2.4019
    -2.1677  -2.1677  -1.8384  -1.8384  -1.8188  -1.8188  -1.7147  -1.7147
    -1.5564  -1.5564  -1.0597  -1.0597  -0.8565  -0.8565  -0.7356  -0.7356
    -0.0404  -0.0404   0.3289   0.3290   0.4012   0.4012   0.6361   0.6361
     0.9136   0.9136   1.0412   1.0412   1.1356   1.1356   1.2103   1.2103
     1.2519   1.2519   1.3010   1.3010   1.5573   1.5573   1.6711   1.6711
     1.8133   1.8133   1.8350   1.8350   1.9712   1.9712   2.1109   2.1109
     2.1902   2.1902   2.3242   2.3242   2.8804   2.8805   3.0584   3.0584
     4.3285   4.3285   4.3949   4.3949   4.4878   4.4878   4.5608   4.5608
     4.8348   4.8348   5.0341   5.0341   5.2462   5.2462   5.6789   5.6789
     5.8378   5.8378

          k =-0.2500 0.0000 0.0000 ( 81703 PWs)   bands (ev):

   -72.1684 -72.1607 -72.1329 -72.1256 -72.1041 -72.1003 -72.0959 -72.0935
   -72.0172 -72.0096 -71.7900 -71.7825 -42.4137 -42.4057 -42.3344 -42.3259
   -42.2957 -42.2478 -42.2352 -42.2224 -42.2118 -42.1739 -42.1620 -42.1614
   -42.1607 -42.1331 -42.1279 -42.1037 -42.0730 -42.0555 -42.0276 -42.0023
   -41.9982 -41.9951 -41.9816 -41.9786 -41.9437 -41.9251 -41.9095 -41.8871
   -41.8788 -41.8704 -41.8598 -41.8573 -41.8510 -41.7302 -41.6642 -41.6435
   -18.6438 -18.2764 -18.1461 -18.0211 -18.0199 -17.8782 -17.6509 -17.5759
   -17.5521 -17.5161 -17.4812 -17.3661 -17.3261 -17.3191 -17.2978 -17.2345
   -16.9946 -16.9805 -16.9426 -16.8606 -16.5804 -16.4208 -15.7821 -15.7533
    -6.8273  -6.7747  -6.7351  -6.6213  -5.9846  -5.9205  -5.7753  -5.7659
    -5.7121  -5.6662  -5.5715  -5.5397  -5.5374  -5.5338  -5.4963  -5.3992
    -5.3342  -5.2278  -5.1920  -5.1888  -5.1552  -4.9659  -4.7198  -4.7142
    -4.6014  -4.4788  -4.4489  -4.3482  -4.2698  -4.0342  -4.0231  -3.9382
    -3.7939  -3.6834  -3.4303  -3.3516  -3.1254  -3.1213  -3.0858  -3.0734
    -3.0364  -3.0091  -2.9281  -2.8481  -2.7998  -2.7991  -2.6213  -2.6138
    -2.5853  -2.4915  -2.4314  -2.4231  -2.3382  -2.2926  -2.1510  -2.1076
    -2.0763  -2.0499  -1.9520  -1.7484  -1.7236  -1.7197  -1.5989  -1.5573
    -1.5221  -1.4639  -1.1677  -0.9823  -0.9673  -0.6746  -0.6038  -0.5335
    -0.0058   0.0361   0.0556   0.2286   0.3803   0.3887   0.4940   0.5654
     0.5673   0.5846   0.6469   0.7403   0.7878   0.8230   0.8316   1.0026
     1.0150   1.0203   1.2564   1.2712   1.3008   1.4047   1.4649   1.5481
     1.5578   1.7760   1.7841   1.7957   1.9033   1.9823   2.0359   2.2539
     2.4496   2.5255   2.5559   2.5567   2.6257   2.7792   2.9187   2.9402
     3.7532   4.2461   4.6274   4.6354   4.6655   4.6993   4.7638   4.8760
     4.9694   5.1321   5.1651   5.3452   5.3727   5.4369   5.6516   5.6869
     5.7050   5.7571

          k =-0.2500 0.2445 0.0000 ( 81774 PWs)   bands (ev):

   -72.1684 -72.1607 -72.1329 -72.1256 -72.1037 -72.1006 -72.0958 -72.0936
   -72.0172 -72.0096 -71.7900 -71.7825 -42.4137 -42.4057 -42.3345 -42.3259
   -42.2959 -42.2458 -42.2383 -42.2213 -42.2128 -42.1721 -42.1710 -42.1620
   -42.1609 -42.1243 -42.1231 -42.1039 -42.0730 -42.0555 -42.0273 -42.0021
   -41.9984 -41.9950 -41.9816 -41.9786 -41.9459 -41.9251 -41.9096 -41.8871
   -41.8788 -41.8726 -41.8586 -41.8573 -41.8512 -41.7301 -41.6655 -41.6435
   -18.5790 -18.1537 -18.0603 -18.0160 -17.9578 -17.8655 -17.6812 -17.6381
   -17.5557 -17.5542 -17.5027 -17.3908 -17.3847 -17.3355 -17.2276 -17.1671
   -17.0948 -17.0525 -17.0254 -16.9818 -16.5808 -16.4191 -15.7823 -15.7511
    -6.6789  -6.3818  -6.3264  -6.2952  -5.9159  -5.9106  -5.7809  -5.7701
    -5.7141  -5.6513  -5.5889  -5.5070  -5.4408  -5.3975  -5.3967  -5.3579
    -5.3487  -5.3073  -5.2455  -5.2288  -5.1135  -4.9664  -4.7099  -4.6013
    -4.5860  -4.4001  -4.3712  -4.3195  -4.1549  -4.1364  -3.9756  -3.9459
    -3.7391  -3.6736  -3.6226  -3.4831  -3.4260  -3.3969  -3.2309  -3.2266
    -3.0977  -3.0865  -3.0040  -2.9318  -2.9095  -2.8991  -2.8526  -2.7402
    -2.7374  -2.6593  -2.6395  -2.5214  -2.4617  -2.4172  -2.4061  -2.2241
    -2.1631  -1.9433  -1.9288  -1.8643  -1.7540  -1.6539  -1.6480  -1.6130
    -1.5209  -1.3057  -1.2671  -0.9550  -0.8733  -0.7452  -0.7075  -0.6425
    -0.0620   0.0276   0.2250   0.2860   0.4059   0.4341   0.5897   0.6327
     0.6869   0.7200   0.7477   0.7597   0.9122   0.9175   0.9533   0.9789
     1.0095   1.1383   1.2073   1.2869   1.2995   1.3647   1.4013   1.5006
     1.7942   1.8176   1.8977   1.9475   1.9997   2.0887   2.1453   2.2377
     2.3224   2.3595   2.4480   2.6114   2.7353   2.7797   2.8984   3.1574
     3.7336   3.9336   3.9605   4.0682   4.4897   4.6785   4.7265   5.0322
     5.1474   5.2697   5.3292   5.4994   5.5786   5.5911   5.6895   5.7311
     5.8462   5.9970

          k =-0.2500-0.4891 0.0000 ( 81830 PWs)   bands (ev):

   -72.1684 -72.1607 -72.1329 -72.1256 -72.1033 -72.1011 -72.0957 -72.0937
   -72.0172 -72.0096 -71.7900 -71.7825 -42.4137 -42.4057 -42.3345 -42.3259
   -42.2961 -42.2437 -42.2413 -42.2202 -42.2137 -42.1777 -42.1703 -42.1620
   -42.1612 -42.1209 -42.1160 -42.1041 -42.0730 -42.0555 -42.0270 -42.0019
   -41.9985 -41.9950 -41.9816 -41.9786 -41.9482 -41.9252 -41.9097 -41.8871
   -41.8788 -41.8747 -41.8574 -41.8573 -41.8514 -41.7300 -41.6669 -41.6435
   -18.5091 -18.0107 -17.9921 -17.9454 -17.8478 -17.7964 -17.7121 -17.6930
   -17.6256 -17.5853 -17.5571 -17.4981 -17.4094 -17.3146 -17.2383 -17.2177
   -17.1780 -17.1261 -17.1220 -16.9827 -16.5813 -16.4183 -15.7825 -15.7494
    -6.6681  -5.9433  -5.8264  -5.8178  -5.7740  -5.6949  -5.6655  -5.5904
    -5.5721  -5.5104  -5.5058  -5.4702  -5.4420  -5.4225  -5.3890  -5.3716
    -5.3514  -5.3469  -5.3218  -5.2800  -5.2644  -4.7310  -4.6222  -4.5837
    -4.5204  -4.4905  -4.3452  -4.2713  -4.2025  -4.1081  -4.0771  -3.9759
    -3.8348  -3.8340  -3.7880  -3.7748  -3.7355  -3.5739  -3.5613  -3.4467
    -3.3784  -3.2206  -3.2015  -3.1417  -3.0917  -3.0391  -3.0315  -2.9437
    -2.9090  -2.8857  -2.7487  -2.7162  -2.6104  -2.4303  -2.4261  -2.1311
    -1.9687  -1.8941  -1.8665  -1.7158  -1.6638  -1.5993  -1.5234  -1.3815
    -1.3054  -1.2721  -1.1911  -1.0768  -0.9894  -0.9693  -0.7003  -0.6658
    -0.1249  -0.0557   0.0410   0.1039   0.1940   0.3310   0.4900   0.6685
     0.7113   0.7815   0.8160   0.9535   1.0182   1.0734   1.0856   1.1036
     1.2616   1.3212   1.3422   1.3610   1.4330   1.4807   1.6044   1.6344
     1.6444   1.8017   1.9942   2.0020   2.0257   2.0402   2.1099   2.1799
     2.2880   2.4012   2.4505   2.4626   2.8649   2.9186   3.0103   3.3053
     3.4899   3.4951   3.6369   3.8528   4.6677   4.6851   4.7433   4.9044
     4.9074   5.0137   5.2434   5.4714   5.6667   5.7620   5.8226   5.8247
     6.2059   6.2270

          k =-0.2500-0.2445 0.0000 ( 81774 PWs)   bands (ev):

   -72.1684 -72.1607 -72.1329 -72.1256 -72.1037 -72.1006 -72.0958 -72.0936
   -72.0172 -72.0096 -71.7900 -71.7825 -42.4137 -42.4057 -42.3345 -42.3259
   -42.2959 -42.2458 -42.2383 -42.2213 -42.2128 -42.1721 -42.1710 -42.1620
   -42.1609 -42.1243 -42.1231 -42.1039 -42.0730 -42.0555 -42.0273 -42.0021
   -41.9984 -41.9950 -41.9816 -41.9786 -41.9459 -41.9251 -41.9096 -41.8871
   -41.8788 -41.8726 -41.8586 -41.8573 -41.8512 -41.7301 -41.6655 -41.6435
   -18.5790 -18.1537 -18.0603 -18.0160 -17.9578 -17.8655 -17.6812 -17.6381
   -17.5557 -17.5542 -17.5027 -17.3908 -17.3847 -17.3355 -17.2276 -17.1671
   -17.0948 -17.0525 -17.0254 -16.9818 -16.5808 -16.4191 -15.7823 -15.7511
    -6.6789  -6.3818  -6.3264  -6.2952  -5.9159  -5.9106  -5.7809  -5.7701
    -5.7141  -5.6513  -5.5889  -5.5070  -5.4408  -5.3975  -5.3967  -5.3579
    -5.3487  -5.3073  -5.2455  -5.2288  -5.1135  -4.9664  -4.7099  -4.6013
    -4.5860  -4.4001  -4.3712  -4.3195  -4.1549  -4.1364  -3.9756  -3.9459
    -3.7391  -3.6736  -3.6226  -3.4831  -3.4260  -3.3969  -3.2309  -3.2266
    -3.0977  -3.0865  -3.0040  -2.9318  -2.9095  -2.8991  -2.8526  -2.7402
    -2.7374  -2.6593  -2.6395  -2.5214  -2.4617  -2.4172  -2.4061  -2.2241
    -2.1631  -1.9433  -1.9288  -1.8643  -1.7540  -1.6539  -1.6480  -1.6130
    -1.5209  -1.3057  -1.2671  -0.9550  -0.8733  -0.7452  -0.7075  -0.6425
    -0.0620   0.0276   0.2250   0.2860   0.4059   0.4341   0.5897   0.6327
     0.6869   0.7200   0.7477   0.7597   0.9122   0.9175   0.9533   0.9789
     1.0095   1.1383   1.2073   1.2869   1.2995   1.3647   1.4013   1.5006
     1.7942   1.8176   1.8977   1.9475   1.9997   2.0887   2.1453   2.2377
     2.3224   2.3595   2.4480   2.6114   2.7353   2.7797   2.8984   3.1574
     3.7336   3.9336   3.9605   4.0682   4.4897   4.6785   4.7265   5.0322
     5.1474   5.2697   5.3292   5.4994   5.5786   5.5911   5.6895   5.7311
     5.8462   5.9970

 ------ SPIN DOWN ----------


          k = 0.0000 0.0000 0.0000 ( 81707 PWs)   bands (ev):

   -72.5336 -72.5321 -72.5233 -72.5213 -72.1942 -72.1835 -71.9535 -71.9429
   -71.8362 -71.8254 -71.6416 -71.6309 -42.7361 -42.6722 -42.6591 -42.6460
   -42.6271 -42.6134 -42.5685 -42.5491 -42.5427 -42.5386 -42.5116 -42.4725
   -42.4062 -42.3915 -42.2946 -42.1535 -42.1418 -42.1264 -42.1067 -42.0866
   -42.0184 -42.0107 -41.9870 -41.9510 -41.8025 -41.7961 -41.7848 -41.7613
   -41.7538 -41.7273 -41.7239 -41.6341 -41.6023 -41.5417 -41.4712 -41.4396
   -18.7678 -18.3805 -18.2416 -18.1162 -18.0340 -17.7289 -17.6425 -17.5164
   -17.5010 -17.4801 -17.4502 -17.4244 -17.4034 -17.3757 -17.3379 -17.2832
   -17.0770 -16.8805 -16.8347 -16.7965 -16.7560 -16.5573 -16.0540 -15.9921
    -7.0028  -6.9457  -6.9328  -6.8289  -6.0925  -6.0409  -5.7695  -5.7488
    -5.6398  -5.5496  -5.5323  -5.4730  -5.4661  -5.4075  -5.3956  -5.3914
    -5.3437  -5.3179  -5.2980  -5.2894  -5.2128  -5.1411  -5.1189  -4.9264
    -4.7721  -4.7583  -4.7432  -4.7225  -4.4717  -4.3168  -3.9018  -3.6749
    -3.3977  -3.3947  -3.3404  -3.3389  -3.3213  -3.2051  -3.1763  -3.1047
    -3.0616  -3.0251  -2.9751  -2.8838  -2.8612  -2.6967  -2.6954  -2.5184
    -2.5131  -2.4519  -2.4136  -2.2268  -2.2077  -2.1513  -2.1494  -2.1412
    -2.0413  -1.9432  -1.8795  -1.8248  -1.8198  -1.5570  -1.5403  -1.3985
    -1.3632  -1.2592  -1.2124  -1.0087  -0.9981  -0.7719  -0.6798  -0.5277
    -0.2915  -0.2021  -0.0642  -0.0438   0.0516   0.1232   0.1269   0.1993
     0.3414   0.4185   0.4185   0.4514   0.5151   0.5907   0.7856   0.8818
     0.9046   0.9137   0.9684   0.9760   1.0226   1.1337   1.1695   1.1930
     1.2372   1.3265   1.8167   1.8481   1.8986   1.9341   2.2906   2.3607
     2.4032   2.4146   2.4259   2.4484   2.6438   2.8007   2.9772   3.0254
     3.3197   4.1218   4.2896   4.6196   4.6398   4.6600   4.7047   4.7642
     4.8272   4.8960   4.9659   5.0807   5.4902   5.6287   5.8611   5.8890
     5.8949   6.0555

          k = 0.0000 0.2445 0.0000 ( 81832 PWs)   bands (ev):

   -72.5336 -72.5321 -72.5233 -72.5213 -72.1942 -72.1835 -71.9535 -71.9429
   -71.8362 -71.8254 -71.6416 -71.6309 -42.7362 -42.6715 -42.6596 -42.6461
   -42.6264 -42.6140 -42.5685 -42.5491 -42.5427 -42.5386 -42.5116 -42.4724
   -42.4050 -42.3926 -42.2948 -42.1534 -42.1418 -42.1265 -42.1067 -42.0866
   -42.0184 -42.0107 -41.9858 -41.9503 -41.8026 -41.7961 -41.7848 -41.7613
   -41.7551 -41.7267 -41.7237 -41.6349 -41.6022 -41.5417 -41.4720 -41.4395
   -18.6969 -18.2533 -18.1646 -18.0477 -18.0329 -17.7227 -17.6676 -17.6491
   -17.6193 -17.5844 -17.5680 -17.4658 -17.4307 -17.2363 -17.1300 -17.1120
   -17.0783 -17.0064 -16.9749 -16.9347 -16.7964 -16.5547 -16.0535 -15.9891
    -6.8681  -6.5414  -6.4710  -6.4625  -6.0839  -6.0126  -5.9246  -5.8342
    -5.7485  -5.7483  -5.7074  -5.4703  -5.4333  -5.4010  -5.3801  -5.3504
    -5.3106  -5.2887  -5.2529  -5.2112  -5.2073  -5.1852  -5.1130  -4.9443
    -4.8972  -4.5608  -4.5469  -4.1208  -4.1128  -3.9712  -3.9069  -3.6544
    -3.6276  -3.6270  -3.5911  -3.5190  -3.4287  -3.3542  -3.3201  -3.2889
    -3.2095  -3.0561  -2.9975  -2.8688  -2.8016  -2.7816  -2.7448  -2.6546
    -2.6088  -2.5270  -2.4134  -2.4026  -2.3958  -2.3039  -2.2157  -2.1950
    -2.1001  -2.0342  -2.0148  -1.8727  -1.8472  -1.8233  -1.7901  -1.5734
    -1.4194  -1.3758  -1.3329  -1.2518  -1.0241  -0.9875  -0.8719  -0.6419
     0.0342   0.0406   0.0676   0.1501   0.1971   0.2106   0.2251   0.3793
     0.4966   0.5190   0.5395   0.5904   0.5948   0.6186   0.6588   0.6981
     0.7790   0.9190   0.9337   0.9864   1.0682   1.0733   1.1541   1.1909
     1.2001   1.3490   1.8276   1.8739   2.2404   2.2764   2.2860   2.3237
     2.3605   2.3664   2.4997   2.5848   2.6256   2.7911   2.8939   3.2269
     3.3599   3.7161   3.8201   3.8849   4.2930   4.3799   4.7246   5.0676
     5.1912   5.4900   5.6184   5.7072   5.8140   5.8712   5.8744   5.8969
     5.9266   5.9379

          k = 0.0000-0.4891 0.0000 ( 81886 PWs)   bands (ev):

   -72.5336 -72.5321 -72.5233 -72.5213 -72.1942 -72.1835 -71.9535 -71.9429
   -71.8362 -71.8254 -71.6416 -71.6309 -42.7363 -42.6709 -42.6600 -42.6461
   -42.6257 -42.6146 -42.5685 -42.5491 -42.5427 -42.5386 -42.5116 -42.4724
   -42.4038 -42.3937 -42.2950 -42.1532 -42.1418 -42.1266 -42.1066 -42.0866
   -42.0184 -42.0107 -41.9846 -41.9496 -41.8026 -41.7961 -41.7848 -41.7613
   -41.7565 -41.7261 -41.7235 -41.6358 -41.6021 -41.5417 -41.4728 -41.4394
   -18.6187 -18.1312 -18.0317 -18.0236 -17.8636 -17.7861 -17.7272 -17.7162
   -17.7095 -17.6747 -17.6516 -17.4470 -17.4372 -17.1574 -17.1538 -17.1477
   -17.1092 -17.0796 -17.0302 -17.0156 -16.7963 -16.5544 -16.0530 -15.9869
    -6.8637  -6.1136  -6.1022  -6.0342  -5.9859  -5.9263  -5.8354  -5.7607
    -5.7475  -5.7241  -5.6459  -5.4300  -5.4274  -5.3985  -5.2897  -5.2563
    -5.2536  -5.2473  -5.2330  -5.2185  -5.1469  -5.0699  -5.0314  -4.9366
    -4.6860  -4.6496  -4.6259  -4.2969  -4.2820  -4.1879  -4.1712  -3.8710
    -3.8443  -3.7538  -3.6762  -3.6625  -3.5261  -3.3611  -3.2044  -3.1898
    -3.1889  -3.0462  -3.0458  -2.9868  -2.9698  -2.8984  -2.8550  -2.7638
    -2.7609  -2.7521  -2.6415  -2.6088  -2.5514  -2.4785  -2.3531  -2.1557
    -2.0973  -2.0815  -1.8179  -1.7831  -1.7235  -1.7200  -1.5824  -1.5419
    -1.4816  -1.4623  -1.4317  -1.2744  -1.0319  -1.0202  -0.9282  -0.8238
    -0.5387  -0.2657  -0.0760  -0.0163   0.0718   0.1790   0.1794   0.2210
     0.5958   0.6396   0.6837   0.7437   0.8516   0.8756   0.9720   0.9802
     0.9972   1.0019   1.0205   1.0852   1.0891   1.1586   1.1674   1.1785
     1.3470   1.4102   1.6273   1.8484   1.9780   2.1381   2.2425   2.3816
     2.3879   2.5441   2.5755   2.7115   2.7240   2.8782   2.9647   3.3772
     3.3909   3.4385   3.4385   3.5008   4.2960   4.4803   4.7445   5.2892
     5.4890   5.5462   5.5687   5.6107   5.6318   5.6864   5.9212   5.9894
     6.0117   6.2085

          k = 0.0000-0.2445 0.0000 ( 81832 PWs)   bands (ev):

   -72.5336 -72.5321 -72.5233 -72.5213 -72.1942 -72.1835 -71.9535 -71.9429
   -71.8362 -71.8254 -71.6416 -71.6309 -42.7362 -42.6715 -42.6596 -42.6461
   -42.6264 -42.6140 -42.5685 -42.5491 -42.5427 -42.5386 -42.5116 -42.4724
   -42.4050 -42.3926 -42.2948 -42.1534 -42.1418 -42.1265 -42.1067 -42.0866
   -42.0184 -42.0107 -41.9858 -41.9503 -41.8026 -41.7961 -41.7848 -41.7613
   -41.7551 -41.7267 -41.7237 -41.6349 -41.6022 -41.5417 -41.4720 -41.4395
   -18.6969 -18.2533 -18.1646 -18.0477 -18.0329 -17.7227 -17.6676 -17.6491
   -17.6193 -17.5844 -17.5680 -17.4658 -17.4307 -17.2363 -17.1300 -17.1120
   -17.0783 -17.0064 -16.9749 -16.9347 -16.7964 -16.5547 -16.0535 -15.9891
    -6.8681  -6.5414  -6.4710  -6.4625  -6.0839  -6.0126  -5.9246  -5.8342
    -5.7485  -5.7483  -5.7074  -5.4703  -5.4333  -5.4010  -5.3801  -5.3504
    -5.3106  -5.2887  -5.2529  -5.2112  -5.2073  -5.1852  -5.1130  -4.9443
    -4.8972  -4.5608  -4.5469  -4.1208  -4.1128  -3.9712  -3.9069  -3.6544
    -3.6276  -3.6270  -3.5911  -3.5190  -3.4287  -3.3542  -3.3201  -3.2889
    -3.2095  -3.0561  -2.9975  -2.8688  -2.8016  -2.7816  -2.7448  -2.6546
    -2.6088  -2.5270  -2.4134  -2.4026  -2.3958  -2.3039  -2.2157  -2.1950
    -2.1001  -2.0342  -2.0148  -1.8727  -1.8472  -1.8233  -1.7901  -1.5734
    -1.4194  -1.3758  -1.3329  -1.2518  -1.0241  -0.9875  -0.8719  -0.6419
     0.0342   0.0406   0.0676   0.1501   0.1971   0.2106   0.2251   0.3793
     0.4966   0.5190   0.5395   0.5904   0.5948   0.6186   0.6588   0.6981
     0.7790   0.9190   0.9337   0.9864   1.0682   1.0733   1.1541   1.1909
     1.2001   1.3490   1.8276   1.8739   2.2404   2.2764   2.2860   2.3237
     2.3605   2.3664   2.4997   2.5848   2.6256   2.7911   2.8939   3.2269
     3.3599   3.7161   3.8201   3.8849   4.2930   4.3799   4.7246   5.0676
     5.1912   5.4900   5.6184   5.7072   5.8140   5.8712   5.8743   5.8969
     5.9266   5.9379

          k = 0.2500 0.0000 0.0000 ( 81703 PWs)   bands (ev):

   -72.5321 -72.5305 -72.5248 -72.5229 -72.1926 -72.1851 -71.9519 -71.9445
   -71.8346 -71.8270 -71.6400 -71.6325 -42.7092 -42.6703 -42.6610 -42.6251
   -42.6209 -42.6154 -42.5774 -42.5642 -42.5430 -42.5376 -42.5160 -42.4982
   -42.4041 -42.3936 -42.2676 -42.1517 -42.1435 -42.1350 -42.1207 -42.0926
   -42.0168 -42.0115 -41.9604 -41.9236 -41.8299 -41.7944 -41.7895 -41.7864
   -41.7494 -41.7283 -41.7005 -41.6295 -41.6070 -41.5692 -41.4666 -41.4442
   -18.6382 -18.2625 -18.1349 -18.0132 -18.0077 -17.8865 -17.6248 -17.5661
   -17.5567 -17.5479 -17.5013 -17.4255 -17.3624 -17.3297 -17.2671 -17.2094
   -17.0259 -16.9601 -16.9115 -16.8930 -16.8368 -16.6365 -16.0929 -16.0423
    -6.8280  -6.7741  -6.7550  -6.6250  -6.0576  -6.0043  -5.8295  -5.7752
    -5.7385  -5.6526  -5.5809  -5.5788  -5.5377  -5.5158  -5.4816  -5.3983
    -5.3820  -5.3372  -5.2959  -5.1820  -5.1706  -5.0513  -4.9420  -4.8525
    -4.6872  -4.5029  -4.4731  -4.3823  -4.2790  -4.1231  -4.0272  -3.8903
    -3.8778  -3.6528  -3.5242  -3.3584  -3.2100  -3.1403  -3.1120  -3.0945
    -3.0714  -3.0094  -2.9615  -2.9548  -2.8931  -2.7893  -2.7050  -2.6986
    -2.6870  -2.5400  -2.5056  -2.4892  -2.4273  -2.2795  -2.2423  -2.2262
    -2.0588  -2.0551  -1.9258  -1.9228  -1.8643  -1.8503  -1.7396  -1.6183
    -1.6080  -1.5963  -1.2439  -1.2134  -1.0742  -0.8809  -0.7913  -0.5775
    -0.0876   0.0529   0.1273   0.2126   0.2564   0.4134   0.4941   0.5301
     0.5591   0.5638   0.5651   0.6380   0.6582   0.7049   0.7177   0.9115
     0.9502   0.9829   1.1169   1.1286   1.1393   1.1773   1.2276   1.2629
     1.4789   1.6034   1.6716   1.7451   1.7454   1.8456   1.9508   2.2522
     2.2704   2.2953   2.4983   2.6005   2.6724   2.8746   2.8888   3.0146
     3.5394   4.2377   4.3591   4.5915   4.7201   4.7677   4.7766   4.8256
     4.8707   4.9744   5.0040   5.1247   5.1489   5.3301   5.4587   5.7429
     5.7866   5.8170

          k = 0.2500 0.2445 0.0000 ( 81774 PWs)   bands (ev):

   -72.5321 -72.5305 -72.5248 -72.5229 -72.1926 -72.1851 -71.9519 -71.9445
   -71.8346 -71.8270 -71.6400 -71.6325 -42.7093 -42.6698 -42.6613 -42.6246
   -42.6209 -42.6158 -42.5774 -42.5642 -42.5430 -42.5376 -42.5160 -42.4982
   -42.4032 -42.3943 -42.2678 -42.1516 -42.1435 -42.1350 -42.1208 -42.0926
   -42.0168 -42.0115 -41.9594 -41.9230 -41.8298 -41.7944 -41.7894 -41.7864
   -41.7505 -41.7283 -41.7000 -41.6302 -41.6070 -41.5692 -41.4673 -41.4443
   -18.5736 -18.1408 -18.0645 -18.0027 -17.9404 -17.8732 -17.6534 -17.6184
   -17.5684 -17.5610 -17.5411 -17.4581 -17.4192 -17.3005 -17.1985 -17.1540
   -17.0741 -17.0394 -17.0262 -17.0052 -16.8939 -16.6342 -16.0932 -16.0398
    -6.6804  -6.3783  -6.3202  -6.3051  -6.0487  -5.9151  -5.8106  -5.7781
    -5.7621  -5.6644  -5.6130  -5.5232  -5.4742  -5.4263  -5.4107  -5.3699
    -5.3694  -5.3648  -5.2460  -5.2427  -5.1707  -5.0055  -4.9171  -4.8532
    -4.5645  -4.4324  -4.4114  -4.3238  -4.2331  -4.1381  -4.0401  -3.9495
    -3.7693  -3.6606  -3.6100  -3.5299  -3.4731  -3.4404  -3.3119  -3.2705
    -3.1566  -3.1506  -3.0384  -3.0118  -2.9237  -2.9047  -2.8696  -2.8403
    -2.7489  -2.7329  -2.6805  -2.5626  -2.4930  -2.4821  -2.3995  -2.3628
    -2.3126  -2.0923  -2.0139  -1.9396  -1.8690  -1.7714  -1.7322  -1.6846
    -1.6570  -1.3954  -1.3847  -1.1677  -0.9337  -0.9214  -0.9063  -0.7353
    -0.0550   0.0623   0.1294   0.1649   0.3860   0.4347   0.4877   0.5482
     0.5799   0.5968   0.6259   0.6832   0.7337   0.8369   0.8403   0.9524
     1.0210   1.0638   1.0791   1.1286   1.2280   1.2637   1.2831   1.4187
     1.5011   1.5056   1.6539   1.7910   1.9452   2.0999   2.1160   2.2083
     2.2135   2.2596   2.3401   2.6312   2.7873   2.8012   2.9891   3.2073
     3.5432   3.9217   4.0032   4.0586   4.3764   4.4458   4.6996   4.9091
     5.0558   5.1438   5.2847   5.4456   5.5052   5.5055   5.6265   5.6779
     5.7611   5.8786

          k = 0.2500-0.4891 0.0000 ( 81830 PWs)   bands (ev):

   -72.5321 -72.5305 -72.5248 -72.5229 -72.1926 -72.1851 -71.9519 -71.9445
   -71.8346 -71.8270 -71.6400 -71.6325 -42.7093 -42.6693 -42.6616 -42.6241
   -42.6210 -42.6162 -42.5774 -42.5642 -42.5430 -42.5376 -42.5160 -42.4982
   -42.4023 -42.3950 -42.2679 -42.1515 -42.1435 -42.1350 -42.1209 -42.0926
   -42.0168 -42.0115 -41.9585 -41.9224 -41.8297 -41.7944 -41.7893 -41.7864
   -41.7517 -41.7283 -41.6995 -41.6309 -41.6071 -41.5691 -41.4679 -41.4443
   -18.5034 -18.0191 -17.9975 -17.9196 -17.8556 -17.7692 -17.6942 -17.6857
   -17.6662 -17.5719 -17.5683 -17.4909 -17.4489 -17.2799 -17.2201 -17.2162
   -17.1531 -17.1474 -17.1190 -17.0251 -16.8949 -16.6339 -16.0935 -16.0379
    -6.6713  -6.0736  -5.8302  -5.8221  -5.7812  -5.7236  -5.6383  -5.6146
    -5.5785  -5.5647  -5.5173  -5.4949  -5.4895  -5.4364  -5.4068  -5.4054
    -5.3591  -5.3534  -5.3182  -5.2850  -5.2430  -4.9439  -4.8597  -4.5619
    -4.5508  -4.5233  -4.4505  -4.3419  -4.2075  -4.1695  -4.0508  -3.9609
    -3.8860  -3.8434  -3.8422  -3.8399  -3.8094  -3.6597  -3.6179  -3.5045
    -3.4372  -3.3175  -3.2500  -3.1052  -3.0738  -3.0517  -3.0257  -2.9534
    -2.9050  -2.8984  -2.7662  -2.7577  -2.7238  -2.5886  -2.4571  -2.3685
    -2.1259  -2.1205  -2.0261  -1.8313  -1.7923  -1.6205  -1.5175  -1.4371
    -1.3615  -1.3560  -1.3450  -1.1497  -1.1098  -1.0978  -0.9056  -0.8258
    -0.3328  -0.0725  -0.0710   0.0609   0.2565   0.3185   0.5279   0.5875
     0.5969   0.6595   0.6772   0.6787   0.7196   1.0077   1.0163   1.0708
     1.2047   1.2176   1.2456   1.2547   1.2811   1.3963   1.4570   1.5213
     1.5612   1.6695   1.6924   1.7776   1.8792   2.0119   2.0505   2.2151
     2.2408   2.2630   2.4229   2.5571   2.9101   2.9639   3.0876   3.3731
     3.4659   3.5782   3.6355   3.6630   4.3754   4.5467   4.7199   4.8873
     4.9712   5.0231   5.2106   5.3019   5.4732   5.6371   5.7427   5.7633
     6.1142   6.1498

          k = 0.2500-0.2445 0.0000 ( 81774 PWs)   bands (ev):

   -72.5321 -72.5305 -72.5248 -72.5229 -72.1926 -72.1851 -71.9519 -71.9445
   -71.8346 -71.8270 -71.6400 -71.6325 -42.7093 -42.6698 -42.6613 -42.6246
   -42.6209 -42.6158 -42.5774 -42.5642 -42.5430 -42.5376 -42.5160 -42.4982
   -42.4032 -42.3943 -42.2678 -42.1516 -42.1435 -42.1350 -42.1208 -42.0926
   -42.0168 -42.0115 -41.9594 -41.9230 -41.8298 -41.7944 -41.7894 -41.7864
   -41.7505 -41.7283 -41.7000 -41.6302 -41.6070 -41.5692 -41.4673 -41.4443
   -18.5736 -18.1408 -18.0645 -18.0027 -17.9404 -17.8732 -17.6534 -17.6184
   -17.5684 -17.5610 -17.5411 -17.4581 -17.4192 -17.3005 -17.1985 -17.1540
   -17.0741 -17.0394 -17.0262 -17.0052 -16.8939 -16.6342 -16.0932 -16.0398
    -6.6804  -6.3783  -6.3202  -6.3051  -6.0487  -5.9151  -5.8106  -5.7781
    -5.7621  -5.6644  -5.6130  -5.5232  -5.4742  -5.4263  -5.4107  -5.3699
    -5.3694  -5.3648  -5.2460  -5.2427  -5.1707  -5.0055  -4.9171  -4.8532
    -4.5645  -4.4324  -4.4114  -4.3238  -4.2331  -4.1381  -4.0401  -3.9495
    -3.7693  -3.6606  -3.6100  -3.5299  -3.4731  -3.4404  -3.3119  -3.2705
    -3.1566  -3.1506  -3.0384  -3.0118  -2.9237  -2.9047  -2.8696  -2.8403
    -2.7489  -2.7329  -2.6805  -2.5626  -2.4930  -2.4821  -2.3995  -2.3628
    -2.3126  -2.0923  -2.0139  -1.9396  -1.8690  -1.7714  -1.7322  -1.6846
    -1.6570  -1.3954  -1.3847  -1.1677  -0.9337  -0.9214  -0.9063  -0.7353
    -0.0550   0.0623   0.1294   0.1649   0.3860   0.4347   0.4877   0.5482
     0.5799   0.5968   0.6259   0.6832   0.7337   0.8369   0.8403   0.9524
     1.0210   1.0638   1.0791   1.1286   1.2280   1.2637   1.2831   1.4187
     1.5011   1.5056   1.6539   1.7910   1.9452   2.0999   2.1160   2.2083
     2.2135   2.2596   2.3401   2.6312   2.7873   2.8012   2.9891   3.2073
     3.5432   3.9217   4.0032   4.0586   4.3764   4.4458   4.6996   4.9091
     5.0558   5.1438   5.2847   5.4456   5.5052   5.5055   5.6265   5.6779
     5.7611   5.8786

          k =-0.5000 0.0000 0.0000 ( 81894 PWs)   bands (ev):

   -72.5285 -72.5285 -72.5267 -72.5267 -72.1889 -72.1889 -71.9482 -71.9482
   -71.8308 -71.8308 -71.6362 -71.6362 -42.6656 -42.6656 -42.6437 -42.6437
   -42.6202 -42.6202 -42.5599 -42.5599 -42.5535 -42.5535 -42.5268 -42.5268
   -42.3988 -42.3988 -42.2019 -42.2019 -42.1476 -42.1476 -42.1069 -42.1069
   -42.0138 -42.0138 -41.8955 -41.8955 -41.8569 -41.8569 -41.7903 -41.7903
   -41.7389 -41.7389 -41.6352 -41.6352 -41.6182 -41.6182 -41.4554 -41.4554
   -18.3089 -18.3089 -17.9906 -17.9906 -17.8865 -17.8865 -17.7621 -17.7621
   -17.6780 -17.6780 -17.3987 -17.3987 -17.1940 -17.1940 -17.1479 -17.1479
   -17.0923 -17.0923 -17.0265 -17.0265 -16.8173 -16.8173 -16.1140 -16.1140
    -6.3916  -6.3916  -6.3244  -6.3244  -6.2877  -6.2877  -6.0932  -6.0932
    -5.8389  -5.8389  -5.7229  -5.7229  -5.5980  -5.5980  -5.4295  -5.4295
    -5.2553  -5.2553  -5.1738  -5.1738  -4.8265  -4.8265  -4.7438  -4.7438
    -4.3830  -4.3830  -4.2399  -4.2399  -3.9579  -3.9579  -3.9519  -3.9519
    -3.8398  -3.8398  -3.7236  -3.7236  -3.5518  -3.5518  -3.3701  -3.3701
    -3.1646  -3.1646  -3.0772  -3.0772  -2.8378  -2.8378  -2.6485  -2.6485
    -2.6424  -2.6424  -2.5334  -2.5333  -2.5093  -2.5093  -2.3104  -2.3104
    -2.0992  -2.0992  -2.0612  -2.0612  -2.0148  -2.0148  -1.9473  -1.9473
    -1.6275  -1.6275  -1.1052  -1.1052  -1.0582  -1.0582  -0.8012  -0.8012
     0.0834   0.0834   0.1709   0.1709   0.3881   0.3881   0.6364   0.6364
     0.8055   0.8055   0.9034   0.9034   1.0631   1.0631   1.0713   1.0713
     1.0931   1.0931   1.1918   1.1918   1.2019   1.2019   1.3523   1.3523
     1.5004   1.5004   1.5198   1.5198   1.6536   1.6536   1.9754   1.9754
     2.1967   2.1967   2.4712   2.4712   2.8224   2.8224   3.0155   3.0155
     4.1199   4.1199   4.5517   4.5517   4.6890   4.6890   4.7764   4.7764
     5.0800   5.0800   5.1672   5.1672   5.1889   5.1889   5.2193   5.2193
     5.2479   5.2479

          k =-0.5000 0.2445 0.0000 ( 81810 PWs)   bands (ev):

   -72.5285 -72.5285 -72.5267 -72.5267 -72.1889 -72.1889 -71.9482 -71.9482
   -71.8308 -71.8308 -71.6362 -71.6362 -42.6655 -42.6655 -42.6438 -42.6438
   -42.6202 -42.6202 -42.5600 -42.5600 -42.5535 -42.5535 -42.5268 -42.5268
   -42.3987 -42.3987 -42.2019 -42.2019 -42.1475 -42.1475 -42.1069 -42.1069
   -42.0138 -42.0138 -41.8950 -41.8950 -41.8566 -41.8566 -41.7903 -41.7903
   -41.7394 -41.7394 -41.6350 -41.6350 -41.6186 -41.6186 -41.4558 -41.4558
   -18.2654 -18.2653 -17.9131 -17.9131 -17.8362 -17.8362 -17.7011 -17.7011
   -17.6544 -17.6544 -17.4079 -17.4079 -17.3011 -17.3011 -17.1956 -17.1956
   -17.1465 -17.1465 -17.1383 -17.1383 -16.8160 -16.8160 -16.1133 -16.1133
    -6.2129  -6.2129  -6.0007  -6.0007  -5.9875  -5.9875  -5.9458  -5.9458
    -5.8264  -5.8264  -5.7177  -5.7177  -5.4395  -5.4395  -5.2956  -5.2956
    -5.2861  -5.2861  -5.1137  -5.1137  -4.8679  -4.8678  -4.5793  -4.5793
    -4.4075  -4.4075  -4.3055  -4.3055  -4.1610  -4.1610  -4.1277  -4.1277
    -4.0716  -4.0716  -3.9164  -3.9164  -3.7153  -3.7153  -3.6445  -3.6445
    -3.2410  -3.2410  -3.1868  -3.1868  -2.8592  -2.8592  -2.7519  -2.7519
    -2.7065  -2.7065  -2.6528  -2.6528  -2.6121  -2.6121  -2.4566  -2.4566
    -2.2557  -2.2557  -1.9861  -1.9861  -1.9095  -1.9095  -1.8618  -1.8618
    -1.6396  -1.6396  -1.1130  -1.1130  -1.0794  -1.0794  -0.8573  -0.8573
    -0.0922  -0.0922   0.2659   0.2659   0.4149   0.4149   0.6660   0.6660
     0.9170   0.9170   1.0090   1.0090   1.0575   1.0575   1.1478   1.1478
     1.2113   1.2113   1.2415   1.2415   1.2801   1.2801   1.3899   1.3899
     1.5214   1.5214   1.7228   1.7228   1.8609   1.8609   1.9290   1.9290
     2.0983   2.0983   2.3318   2.3318   2.9348   2.9348   3.1376   3.1376
     4.1421   4.1421   4.3704   4.3704   4.4941   4.4941   4.5472   4.5472
     4.7785   4.7785   4.8245   4.8245   5.1895   5.1895   5.6140   5.6140
     5.7090   5.7090

          k =-0.5000-0.4891 0.0000 ( 81784 PWs)   bands (ev):

   -72.5285 -72.5285 -72.5267 -72.5267 -72.1889 -72.1889 -71.9482 -71.9482
   -71.8308 -71.8308 -71.6362 -71.6362 -42.6654 -42.6654 -42.6438 -42.6438
   -42.6201 -42.6201 -42.5600 -42.5600 -42.5535 -42.5535 -42.5268 -42.5268
   -42.3986 -42.3986 -42.2020 -42.2020 -42.1475 -42.1475 -42.1070 -42.1070
   -42.0138 -42.0138 -41.8945 -41.8945 -41.8563 -41.8563 -41.7903 -41.7903
   -41.7400 -41.7400 -41.6347 -41.6347 -41.6190 -41.6190 -41.4561 -41.4561
   -18.2195 -18.2194 -17.8192 -17.8192 -17.7732 -17.7732 -17.5913 -17.5913
   -17.5625 -17.5625 -17.4492 -17.4492 -17.4045 -17.4045 -17.3924 -17.3924
   -17.2732 -17.2732 -17.1465 -17.1465 -16.8157 -16.8157 -16.1128 -16.1128
    -6.1692  -6.1692  -5.8565  -5.8565  -5.7176  -5.7176  -5.5018  -5.5018
    -5.4900  -5.4900  -5.4754  -5.4754  -5.3416  -5.3416  -5.1522  -5.1522
    -5.0848  -5.0848  -4.9892  -4.9891  -4.8709  -4.8709  -4.7636  -4.7636
    -4.7297  -4.7297  -4.6455  -4.6455  -4.4423  -4.4423  -4.2390  -4.2390
    -4.1749  -4.1749  -4.0193  -4.0193  -3.6491  -3.6491  -3.5245  -3.5245
    -3.3554  -3.3554  -3.3547  -3.3547  -3.2559  -3.2559  -3.2205  -3.2205
    -3.2006  -3.2006  -2.9575  -2.9575  -2.8361  -2.8361  -2.3627  -2.3627
    -2.1417  -2.1417  -1.7876  -1.7876  -1.5801  -1.5801  -1.5612  -1.5612
    -1.5180  -1.5180  -1.2136  -1.2136  -1.1220  -1.1220  -0.9944  -0.9944
     0.0837   0.0837   0.1942   0.1942   0.3917   0.3917   0.5290   0.5290
     0.6298   0.6298   1.0371   1.0371   1.0610   1.0610   1.1681   1.1681
     1.2179   1.2179   1.4909   1.4909   1.5329   1.5329   1.7036   1.7036
     1.7250   1.7250   1.8138   1.8138   1.8395   1.8395   2.0338   2.0338
     2.0628   2.0628   2.2055   2.2055   3.0303   3.0303   3.2407   3.2407
     4.0377   4.0377   4.1166   4.1166   4.1491   4.1491   4.2107   4.2107
     4.7744   4.7744   4.8147   4.8147   5.2941   5.2941   5.8710   5.8710
     5.9353   5.9353

          k =-0.5000-0.2445 0.0000 ( 81810 PWs)   bands (ev):

   -72.5285 -72.5285 -72.5267 -72.5267 -72.1889 -72.1889 -71.9482 -71.9482
   -71.8308 -71.8308 -71.6362 -71.6362 -42.6655 -42.6655 -42.6438 -42.6438
   -42.6202 -42.6202 -42.5600 -42.5600 -42.5535 -42.5535 -42.5268 -42.5268
   -42.3987 -42.3987 -42.2019 -42.2019 -42.1475 -42.1475 -42.1069 -42.1069
   -42.0138 -42.0138 -41.8950 -41.8950 -41.8566 -41.8566 -41.7903 -41.7903
   -41.7394 -41.7394 -41.6350 -41.6350 -41.6186 -41.6186 -41.4558 -41.4558
   -18.2654 -18.2653 -17.9131 -17.9131 -17.8362 -17.8362 -17.7011 -17.7011
   -17.6544 -17.6544 -17.4079 -17.4079 -17.3011 -17.3011 -17.1956 -17.1956
   -17.1465 -17.1465 -17.1383 -17.1383 -16.8160 -16.8160 -16.1133 -16.1133
    -6.2129  -6.2129  -6.0007  -6.0007  -5.9875  -5.9875  -5.9458  -5.9458
    -5.8264  -5.8264  -5.7177  -5.7177  -5.4395  -5.4395  -5.2956  -5.2956
    -5.2861  -5.2861  -5.1137  -5.1137  -4.8679  -4.8678  -4.5793  -4.5793
    -4.4075  -4.4075  -4.3055  -4.3055  -4.1610  -4.1610  -4.1277  -4.1277
    -4.0716  -4.0716  -3.9164  -3.9164  -3.7153  -3.7153  -3.6445  -3.6445
    -3.2410  -3.2410  -3.1868  -3.1868  -2.8592  -2.8592  -2.7519  -2.7519
    -2.7065  -2.7065  -2.6528  -2.6528  -2.6121  -2.6121  -2.4566  -2.4566
    -2.2557  -2.2557  -1.9861  -1.9861  -1.9095  -1.9095  -1.8618  -1.8618
    -1.6396  -1.6396  -1.1130  -1.1130  -1.0794  -1.0794  -0.8573  -0.8573
    -0.0922  -0.0922   0.2659   0.2659   0.4149   0.4149   0.6660   0.6660
     0.9170   0.9170   1.0090   1.0090   1.0575   1.0575   1.1478   1.1478
     1.2113   1.2113   1.2415   1.2415   1.2801   1.2801   1.3899   1.3899
     1.5214   1.5214   1.7228   1.7228   1.8609   1.8609   1.9290   1.9290
     2.0983   2.0983   2.3318   2.3318   2.9348   2.9348   3.1376   3.1376
     4.1421   4.1421   4.3704   4.3704   4.4941   4.4941   4.5472   4.5472
     4.7785   4.7785   4.8245   4.8245   5.1895   5.1895   5.6140   5.6140
     5.7090   5.7090

          k =-0.2500 0.0000 0.0000 ( 81703 PWs)   bands (ev):

   -72.5321 -72.5305 -72.5248 -72.5229 -72.1926 -72.1851 -71.9519 -71.9445
   -71.8346 -71.8270 -71.6400 -71.6325 -42.7092 -42.6703 -42.6610 -42.6251
   -42.6209 -42.6154 -42.5774 -42.5642 -42.5430 -42.5376 -42.5160 -42.4982
   -42.4041 -42.3936 -42.2676 -42.1517 -42.1435 -42.1350 -42.1207 -42.0926
   -42.0168 -42.0115 -41.9604 -41.9236 -41.8299 -41.7944 -41.7895 -41.7864
   -41.7494 -41.7283 -41.7005 -41.6295 -41.6070 -41.5692 -41.4666 -41.4442
   -18.6382 -18.2625 -18.1349 -18.0132 -18.0077 -17.8865 -17.6248 -17.5661
   -17.5567 -17.5479 -17.5013 -17.4255 -17.3624 -17.3297 -17.2671 -17.2094
   -17.0259 -16.9601 -16.9115 -16.8930 -16.8368 -16.6365 -16.0929 -16.0423
    -6.8280  -6.7741  -6.7550  -6.6250  -6.0576  -6.0043  -5.8295  -5.7752
    -5.7385  -5.6526  -5.5809  -5.5788  -5.5377  -5.5158  -5.4816  -5.3983
    -5.3820  -5.3372  -5.2959  -5.1820  -5.1706  -5.0513  -4.9420  -4.8525
    -4.6872  -4.5029  -4.4731  -4.3823  -4.2790  -4.1231  -4.0272  -3.8903
    -3.8778  -3.6528  -3.5242  -3.3584  -3.2100  -3.1403  -3.1120  -3.0945
    -3.0714  -3.0094  -2.9615  -2.9548  -2.8931  -2.7893  -2.7050  -2.6986
    -2.6870  -2.5400  -2.5056  -2.4892  -2.4273  -2.2795  -2.2423  -2.2262
    -2.0588  -2.0551  -1.9258  -1.9228  -1.8643  -1.8503  -1.7396  -1.6183
    -1.6080  -1.5963  -1.2439  -1.2134  -1.0742  -0.8809  -0.7913  -0.5775
    -0.0876   0.0529   0.1273   0.2126   0.2564   0.4134   0.4941   0.5301
     0.5591   0.5638   0.5651   0.6380   0.6582   0.7049   0.7177   0.9115
     0.9502   0.9829   1.1169   1.1286   1.1393   1.1773   1.2276   1.2629
     1.4789   1.6034   1.6716   1.7451   1.7454   1.8456   1.9508   2.2522
     2.2704   2.2953   2.4983   2.6005   2.6724   2.8746   2.8888   3.0146
     3.5394   4.2377   4.3591   4.5915   4.7201   4.7677   4.7766   4.8256
     4.8707   4.9744   5.0040   5.1247   5.1488   5.3301   5.4587   5.7429
     5.7866   5.8170

          k =-0.2500 0.2445 0.0000 ( 81774 PWs)   bands (ev):

   -72.5321 -72.5305 -72.5248 -72.5229 -72.1926 -72.1851 -71.9519 -71.9445
   -71.8346 -71.8270 -71.6400 -71.6325 -42.7093 -42.6698 -42.6613 -42.6246
   -42.6209 -42.6158 -42.5774 -42.5642 -42.5430 -42.5376 -42.5160 -42.4982
   -42.4032 -42.3943 -42.2678 -42.1516 -42.1435 -42.1350 -42.1208 -42.0926
   -42.0168 -42.0115 -41.9594 -41.9230 -41.8298 -41.7944 -41.7894 -41.7864
   -41.7505 -41.7283 -41.7000 -41.6302 -41.6070 -41.5692 -41.4673 -41.4443
   -18.5736 -18.1408 -18.0645 -18.0027 -17.9404 -17.8732 -17.6534 -17.6184
   -17.5684 -17.5610 -17.5411 -17.4581 -17.4192 -17.3005 -17.1985 -17.1540
   -17.0741 -17.0394 -17.0262 -17.0052 -16.8939 -16.6342 -16.0932 -16.0398
    -6.6804  -6.3783  -6.3202  -6.3051  -6.0487  -5.9151  -5.8106  -5.7781
    -5.7621  -5.6644  -5.6130  -5.5232  -5.4742  -5.4263  -5.4107  -5.3699
    -5.3694  -5.3648  -5.2460  -5.2427  -5.1707  -5.0055  -4.9171  -4.8532
    -4.5645  -4.4324  -4.4114  -4.3238  -4.2331  -4.1381  -4.0401  -3.9495
    -3.7693  -3.6606  -3.6100  -3.5299  -3.4731  -3.4404  -3.3119  -3.2705
    -3.1566  -3.1506  -3.0384  -3.0118  -2.9237  -2.9047  -2.8696  -2.8403
    -2.7489  -2.7329  -2.6805  -2.5626  -2.4930  -2.4821  -2.3995  -2.3628
    -2.3126  -2.0923  -2.0139  -1.9396  -1.8690  -1.7714  -1.7322  -1.6846
    -1.6570  -1.3954  -1.3847  -1.1677  -0.9337  -0.9214  -0.9063  -0.7353
    -0.0550   0.0623   0.1294   0.1649   0.3860   0.4347   0.4877   0.5482
     0.5799   0.5968   0.6259   0.6832   0.7337   0.8369   0.8403   0.9524
     1.0210   1.0638   1.0791   1.1286   1.2280   1.2637   1.2831   1.4187
     1.5011   1.5056   1.6539   1.7910   1.9452   2.0999   2.1160   2.2083
     2.2135   2.2596   2.3401   2.6312   2.7873   2.8012   2.9891   3.2073
     3.5432   3.9217   4.0032   4.0586   4.3764   4.4458   4.6996   4.9091
     5.0558   5.1438   5.2847   5.4456   5.5052   5.5055   5.6265   5.6779
     5.7611   5.8786

          k =-0.2500-0.4891 0.0000 ( 81830 PWs)   bands (ev):

   -72.5321 -72.5305 -72.5248 -72.5229 -72.1926 -72.1851 -71.9519 -71.9445
   -71.8346 -71.8270 -71.6400 -71.6325 -42.7093 -42.6693 -42.6616 -42.6241
   -42.6210 -42.6162 -42.5774 -42.5642 -42.5430 -42.5376 -42.5160 -42.4982
   -42.4023 -42.3950 -42.2679 -42.1515 -42.1435 -42.1350 -42.1209 -42.0926
   -42.0168 -42.0115 -41.9585 -41.9224 -41.8297 -41.7944 -41.7893 -41.7864
   -41.7517 -41.7283 -41.6995 -41.6309 -41.6071 -41.5691 -41.4679 -41.4443
   -18.5034 -18.0191 -17.9975 -17.9196 -17.8556 -17.7692 -17.6942 -17.6857
   -17.6662 -17.5719 -17.5683 -17.4909 -17.4489 -17.2799 -17.2201 -17.2162
   -17.1531 -17.1474 -17.1190 -17.0251 -16.8949 -16.6339 -16.0935 -16.0379
    -6.6713  -6.0736  -5.8302  -5.8221  -5.7812  -5.7236  -5.6383  -5.6146
    -5.5785  -5.5647  -5.5173  -5.4949  -5.4895  -5.4364  -5.4068  -5.4054
    -5.3591  -5.3534  -5.3182  -5.2850  -5.2430  -4.9439  -4.8597  -4.5619
    -4.5508  -4.5233  -4.4505  -4.3419  -4.2075  -4.1695  -4.0508  -3.9609
    -3.8860  -3.8434  -3.8422  -3.8399  -3.8094  -3.6597  -3.6179  -3.5045
    -3.4372  -3.3175  -3.2500  -3.1052  -3.0738  -3.0517  -3.0257  -2.9534
    -2.9050  -2.8984  -2.7662  -2.7577  -2.7238  -2.5886  -2.4571  -2.3685
    -2.1259  -2.1205  -2.0261  -1.8313  -1.7923  -1.6205  -1.5175  -1.4371
    -1.3615  -1.3560  -1.3450  -1.1497  -1.1098  -1.0978  -0.9056  -0.8258
    -0.3328  -0.0725  -0.0710   0.0609   0.2565   0.3185   0.5279   0.5875
     0.5969   0.6595   0.6772   0.6787   0.7196   1.0077   1.0163   1.0708
     1.2047   1.2176   1.2456   1.2547   1.2811   1.3963   1.4570   1.5213
     1.5612   1.6695   1.6924   1.7776   1.8792   2.0119   2.0505   2.2151
     2.2408   2.2630   2.4229   2.5571   2.9101   2.9639   3.0876   3.3731
     3.4659   3.5782   3.6355   3.6630   4.3754   4.5467   4.7199   4.8873
     4.9712   5.0231   5.2106   5.3019   5.4732   5.6371   5.7427   5.7633
     6.1142   6.1498

          k =-0.2500-0.2445 0.0000 ( 81774 PWs)   bands (ev):

   -72.5321 -72.5305 -72.5248 -72.5229 -72.1926 -72.1851 -71.9519 -71.9445
   -71.8346 -71.8270 -71.6400 -71.6325 -42.7093 -42.6698 -42.6613 -42.6246
   -42.6209 -42.6158 -42.5774 -42.5642 -42.5430 -42.5376 -42.5160 -42.4982
   -42.4032 -42.3943 -42.2678 -42.1516 -42.1435 -42.1350 -42.1208 -42.0926
   -42.0168 -42.0115 -41.9594 -41.9230 -41.8298 -41.7944 -41.7894 -41.7864
   -41.7505 -41.7283 -41.7000 -41.6302 -41.6070 -41.5692 -41.4673 -41.4443
   -18.5736 -18.1408 -18.0645 -18.0027 -17.9404 -17.8732 -17.6534 -17.6184
   -17.5684 -17.5610 -17.5411 -17.4581 -17.4192 -17.3005 -17.1985 -17.1540
   -17.0741 -17.0394 -17.0262 -17.0052 -16.8939 -16.6342 -16.0932 -16.0398
    -6.6804  -6.3783  -6.3202  -6.3051  -6.0487  -5.9151  -5.8106  -5.7781
    -5.7621  -5.6644  -5.6130  -5.5232  -5.4742  -5.4263  -5.4107  -5.3699
    -5.3694  -5.3648  -5.2460  -5.2427  -5.1707  -5.0055  -4.9171  -4.8532
    -4.5645  -4.4324  -4.4114  -4.3238  -4.2331  -4.1381  -4.0401  -3.9495
    -3.7693  -3.6606  -3.6100  -3.5299  -3.4731  -3.4404  -3.3119  -3.2705
    -3.1566  -3.1506  -3.0384  -3.0118  -2.9237  -2.9047  -2.8696  -2.8403
    -2.7489  -2.7329  -2.6805  -2.5626  -2.4930  -2.4821  -2.3995  -2.3628
    -2.3126  -2.0923  -2.0139  -1.9396  -1.8690  -1.7714  -1.7322  -1.6846
    -1.6570  -1.3954  -1.3847  -1.1677  -0.9337  -0.9214  -0.9063  -0.7353
    -0.0550   0.0623   0.1294   0.1649   0.3860   0.4347   0.4877   0.5482
     0.5799   0.5968   0.6259   0.6832   0.7337   0.8369   0.8403   0.9524
     1.0210   1.0638   1.0791   1.1286   1.2280   1.2637   1.2831   1.4187
     1.5011   1.5056   1.6539   1.7910   1.9452   2.0999   2.1160   2.2083
     2.2135   2.2596   2.3401   2.6312   2.7873   2.8012   2.9891   3.2073
     3.5432   3.9217   4.0032   4.0586   4.3764   4.4458   4.6996   4.9091
     5.0558   5.1438   5.2847   5.4456   5.5052   5.5055   5.6265   5.6779
     5.7611   5.8786

     the Fermi energy is     1.5387 ev

!    total energy              =   -3261.34621314 Ry
     estimated scf accuracy    <          9.0E-09 Ry
     smearing contrib. (-TS)   =       0.00224259 Ry
     internal energy E=F+TS    =   -3261.34845573 Ry

     The total energy is F=E-TS. E is the sum of the following terms:
     one-electron contribution =  -33210.09554610 Ry
     hartree contribution      =   16647.90689237 Ry
     xc contribution           =    -413.89689215 Ry
     ewald contribution        =   13943.21270827 Ry
     one-center paw contrib.   =    -228.47561812 Ry

     total magnetization       =    -2.11 Bohr mag/cell
     absolute magnetization    =     6.33 Bohr mag/cell

     convergence has been achieved in  12 iterations

     negative rho (up, down):  1.038E-04 1.039E-04

     Forces acting on atoms (cartesian axes, Ry/au):

     atom    1 type  1   force =     0.00000001    0.00000000    0.06205516
     atom    2 type  2   force =    -0.00000017    0.00000001   -0.09124090
     atom    3 type  1   force =    -0.00000012    0.00000003    0.00060374
     atom    4 type  2   force =    -0.00000176   -0.00000002    0.00033257
     atom    5 type  1   force =    -0.00000003    0.00000002    0.00143636
     atom    6 type  2   force =     0.00000003   -0.00000001    0.00088037
     atom    7 type  3   force =    -0.00000006   -0.00000001    0.02918172
     atom    8 type  3   force =    -0.00000006   -0.00000000    0.06589172
     atom    9 type  3   force =     0.00000076    0.02304055   -0.02465982
     atom   10 type  3   force =     0.00000075   -0.02304056   -0.02465983
     atom   11 type  3   force =     0.00000009    0.00000007    0.00070858
     atom   12 type  3   force =    -0.00000009    0.00000000   -0.02359289
     atom   13 type  3   force =    -0.00000001    0.00002523    0.00110206
     atom   14 type  3   force =     0.00000006   -0.00002525    0.00110199
     atom   15 type  3   force =    -0.00000014   -0.00000003   -0.00102305
     atom   16 type  3   force =    -0.00000014   -0.00000007    0.00050692
     atom   17 type  3   force =    -0.00000001    0.00012838    0.00068760
     atom   18 type  3   force =     0.00000004   -0.00012829    0.00068759
     atom   19 type  1   force =    -0.00000000    0.00000000    0.06205617
     atom   20 type  2   force =     0.00000017    0.00000000   -0.09124095
     atom   21 type  1   force =     0.00000010    0.00000004    0.00060453
     atom   22 type  2   force =     0.00000185   -0.00000012    0.00033259
     atom   23 type  1   force =     0.00000006    0.00000000    0.00143576
     atom   24 type  2   force =     0.00000003    0.00000006    0.00088043
     atom   25 type  3   force =     0.00000004   -0.00000000    0.02918151
     atom   26 type  3   force =     0.00000006   -0.00000000    0.06589182
     atom   27 type  3   force =    -0.00000076    0.02304051   -0.02465983
     atom   28 type  3   force =    -0.00000076   -0.02304051   -0.02465982
     atom   29 type  3   force =     0.00000007    0.00000006    0.00070980
     atom   30 type  3   force =    -0.00000009   -0.00000000   -0.02359438
     atom   31 type  3   force =     0.00000001    0.00002536    0.00110203
     atom   32 type  3   force =    -0.00000003   -0.00002535    0.00110199
     atom   33 type  3   force =     0.00000009   -0.00000005   -0.00102303
     atom   34 type  3   force =    -0.00000001   -0.00000005    0.00050629
     atom   35 type  3   force =     0.00000001    0.00012826    0.00068761
     atom   36 type  3   force =     0.00000000   -0.00012827    0.00068762

     Total force =     0.004130     Total SCF correction =     0.000502
     SCF correction compared to forces is large: reduce conv_thr to get better values
     Energy error            =      5.5E-05 Ry
     Gradient error          =      1.4E-03 Ry/Bohr

     bfgs converged in   3 scf cycles and   2 bfgs steps
     (criteria: energy <  1.0E-04 Ry, force <  2.0E-03 Ry/Bohr)

     End of BFGS Geometry Optimization

     Final energy             =   -3261.3462131374 Ry

     File ./tmp_ref__2x1v__afm__relax/ref__2x1v__afm__relax.bfgs deleted, as requested
Begin final coordinates

ATOMIC_POSITIONS (angstrom)
Ru1              0.0000000000        1.5881618300        9.5289709800    0   0   0
Ru2              1.5535000000        4.7644854900        9.5289709800    0   0   0
Ru1              0.0000000391        4.7644854245       12.7497942951
Ru2              1.5535008456        1.5881617353       12.6821993293
Ru1             -0.0000001427        1.5881615391       15.8036207730
Ru2              1.5535000558        4.7644853014       16.0275959116
O                0.0000000000        4.7644854900       10.7677372100    0   0   0
O                0.0000000000        4.7644854900        8.2902047600    0   0   0
O                1.5535000000        0.3493956000        9.5289709800    0   0   0
O                1.5535000000        2.8269280600        9.5289709800    0   0   0
O               -0.0000003378        1.5881614640       13.9242789769
O                0.0000000000        1.5881618300       11.4665284200    0   0   0
O                1.5535000415        3.5361192316       12.7227345037
O                1.5534999252        5.9928515893       12.7227346946
O                0.0000001759        4.7644854458       17.1311311632
O                0.0000003286        4.7644855306       14.6975998074
O                1.5534999484        0.3794360583       15.9704188759
O                1.5534998321        2.7968870510       15.9704188827
Ru1              3.1070000000        1.5881618300        9.5289709800    0   0   0
Ru2              4.6605000000        4.7644854900        9.5289709800    0   0   0
Ru1              3.1069999277        4.7644854334       12.7497935115
Ru2              4.6604987274        1.5881618710       12.6821993411
Ru1              3.1069997657        1.5881615849       15.8036210592
Ru2              4.6605000427        4.7644852453       16.0275957678
O                3.1070000000        4.7644854900       10.7677372100    0   0   0
O                3.1070000000        4.7644854900        8.2902047600    0   0   0
O                4.6605000000        0.3493956000        9.5289709800    0   0   0
O                4.6605000000        2.8269280600        9.5289709800    0   0   0
O                3.1069996503        1.5881614969       13.9242783499
O                3.1070000000        1.5881618300       11.4665284200    0   0   0
O                4.6604998656        3.5361191880       12.7227346499
O                4.6604999216        5.9928517048       12.7227347210
O                3.1069999546        4.7644854624       17.1311311315
O                3.1070000681        4.7644854403       14.6976004269
O                4.6604997739        0.3794362120       15.9704188299
O                4.6604998062        2.7968870146       15.9704186595
End final coordinates



     Writing all to output data dir ./tmp_ref__2x1v__afm__relax/ref__2x1v__afm__relax.save/ :
     XML data file, charge density, pseudopotentials, collected wavefunctions

     init_run     :      9.96s CPU     10.32s WALL (       1 calls)
     electrons    :    884.97s CPU    901.90s WALL (       3 calls)
     update_pot   :      4.05s CPU      4.15s WALL (       2 calls)
     forces       :     17.00s CPU     17.44s WALL (       3 calls)

     Called by init_run:
     wfcinit      :      4.58s CPU      4.78s WALL (       1 calls)
     potinit      :      2.63s CPU      2.72s WALL (       1 calls)
     hinit0       :      0.92s CPU      0.95s WALL (       1 calls)

     Called by electrons:
     c_bands      :    635.73s CPU    647.84s WALL (      48 calls)
     sum_band     :    113.80s CPU    115.02s WALL (      48 calls)
     v_of_rho     :     76.46s CPU     79.29s WALL (      51 calls)
     newd         :      8.24s CPU      8.31s WALL (      51 calls)
     PAW_pot      :     11.25s CPU     11.30s WALL (      53 calls)
     mix_rho      :     31.69s CPU     32.15s WALL (      48 calls)

     Called by c_bands:
     init_us_2    :     20.36s CPU     20.72s WALL (     204 calls)
     cegterg      :    565.22s CPU    576.78s WALL (      96 calls)

     Called by *egterg:
     cdiaghg      :     13.93s CPU     14.05s WALL (     387 calls)
     h_psi        :    313.99s CPU    319.81s WALL (     393 calls)
     s_psi        :     48.17s CPU     48.49s WALL (     393 calls)
     g_psi        :      2.00s CPU      2.01s WALL (     295 calls)

     Called by h_psi:
     h_psi:calbec :     49.89s CPU     50.22s WALL (     393 calls)
     vloc_psi     :    211.95s CPU    213.80s WALL (     393 calls)
                                        0.00s GPU  (     393 calls)
     add_vuspsi   :     48.08s CPU     48.38s WALL (     393 calls)

     General routines
     calbec       :     77.57s CPU     78.07s WALL (     517 calls)
     fft          :     63.33s CPU     64.13s WALL (    1316 calls)
     ffts         :     18.03s CPU     18.19s WALL (    5725 calls)
     fftw         :    234.69s CPU    236.79s WALL (  106932 calls)
     interpolate  :      7.88s CPU      7.95s WALL (     102 calls)

     Parallel routines

     PWSCF        :  15m21.05s CPU  15m39.27s WALL


   This run was terminated on:  12:21:36  30Aug2026            

=------------------------------------------------------------------------------=
   JOB DONE.
=------------------------------------------------------------------------------=
Note: The following floating-point exceptions are signalling: IEEE_DENORMAL
Note: The following floating-point exceptions are signalling: IEEE_DENORMAL
Note: The following floating-point exceptions are signalling: IEEE_UNDERFLOW_FLAG IEEE_DENORMAL
Note: The following floating-point exceptions are signalling: IEEE_DENORMAL
Note: The following floating-point exceptions are signalling: IEEE_DENORMAL
Note: The following floating-point exceptions are signalling: IEEE_DENORMAL
Note: The following floating-point exceptions are signalling: IEEE_DENORMAL
Note: The following floating-point exceptions are signalling: IEEE_DENORMAL
Note: The following floating-point exceptions are signalling: IEEE_DENORMAL
Note: The following floating-point exceptions are signalling: IEEE_DENORMAL
Note: The following floating-point exceptions are signalling: IEEE_DENORMAL
Note: The following floating-point exceptions are signalling: IEEE_DENORMAL
Note: The following floating-point exceptions are signalling: IEEE_DENORMAL
Note: The following floating-point exceptions are signalling: IEEE_DENORMAL
Note: The following floating-point exceptions are signalling: IEEE_UNDERFLOW_FLAG IEEE_DENORMAL
Note: The following floating-point exceptions are signalling: IEEE_DENORMAL
Note: The following floating-point exceptions are signalling: IEEE_DENORMAL
Note: The following floating-point exceptions are signalling: IEEE_DENORMAL
Note: The following floating-point exceptions are signalling: IEEE_UNDERFLOW_FLAG IEEE_DENORMAL
Note: The following floating-point exceptions are signalling: IEEE_DENORMAL
Note: The following floating-point exceptions are signalling: IEEE_UNDERFLOW_FLAG IEEE_DENORMAL
Note: The following floating-point exceptions are signalling: IEEE_UNDERFLOW_FLAG IEEE_DENORMAL
Note: The following floating-point exceptions are signalling: IEEE_DENORMAL
Note: The following floating-point exceptions are signalling: IEEE_UNDERFLOW_FLAG IEEE_DENORMAL
Note: The following floating-point exceptions are signalling: IEEE_DENORMAL
Note: The following floating-point exceptions are signalling: IEEE_INVALID_FLAG IEEE_UNDERFLOW_FLAG IEEE_DENORMAL
Note: The following floating-point exceptions are signalling: IEEE_DENORMAL
Note: The following floating-point exceptions are signalling: IEEE_UNDERFLOW_FLAG IEEE_DENORMAL
Note: The following floating-point exceptions are signalling: IEEE_DENORMAL
Note: The following floating-point exceptions are signalling: IEEE_DENORMAL
Note: The following floating-point exceptions are signalling: IEEE_DENORMAL
Note: The following floating-point exceptions are signalling: IEEE_DENORMAL
Note: The following floating-point exceptions are signalling: IEEE_DENORMAL
Note: The following floating-point exceptions are signalling: IEEE_DENORMAL
Note: The following floating-point exceptions are signalling: IEEE_DENORMAL
Note: The following floating-point exceptions are signalling: IEEE_DENORMAL
Note: The following floating-point exceptions are signalling: IEEE_DENORMAL
Note: The following floating-point exceptions are signalling: IEEE_DENORMAL
Note: The following floating-point exceptions are signalling: IEEE_DENORMAL
Note: The following floating-point exceptions are signalling: IEEE_DENORMAL
Note: The following floating-point exceptions are signalling: IEEE_DENORMAL
Note: The following floating-point exceptions are signalling: IEEE_UNDERFLOW_FLAG IEEE_DENORMAL
Note: The following floating-point exceptions are signalling: IEEE_DENORMAL
Note: The following floating-point exceptions are signalling: IEEE_UNDERFLOW_FLAG IEEE_DENORMAL
Note: The following floating-point exceptions are signalling: IEEE_DENORMAL
Note: The following floating-point exceptions are signalling: IEEE_DENORMAL
Note: The following floating-point exceptions are signalling: IEEE_DENORMAL
Note: The following floating-point exceptions are signalling: IEEE_DENORMAL
Note: The following floating-point exceptions are signalling: IEEE_UNDERFLOW_FLAG IEEE_DENORMAL
Note: The following floating-point exceptions are signalling: IEEE_DENORMAL
Note: The following floating-point exceptions are signalling: IEEE_DENORMAL
Note: The following floating-point exceptions are signalling: IEEE_DENORMAL
Note: The following floating-point exceptions are signalling: IEEE_UNDERFLOW_FLAG IEEE_DENORMAL
Note: The following floating-point exceptions are signalling: IEEE_DENORMAL
Note: The following floating-point exceptions are signalling: IEEE_UNDERFLOW_FLAG IEEE_DENORMAL
Note: The following floating-point exceptions are signalling: IEEE_UNDERFLOW_FLAG IEEE_DENORMAL
Note: The following floating-point exceptions are signalling: IEEE_UNDERFLOW_FLAG IEEE_DENORMAL
Note: The following floating-point exceptions are signalling: IEEE_DENORMAL
Note: The following floating-point exceptions are signalling: IEEE_DENORMAL
Note: The following floating-point exceptions are signalling: IEEE_DENORMAL
Note: The following floating-point exceptions are signalling: IEEE_UNDERFLOW_FLAG IEEE_DENORMAL
