
     Program PWSCF v.7.5 starts on 28Aug2026 at 19: 3:27 

     This program is part of the open-source Quantum ESPRESSO suite
     for quantum simulation of materials; please cite
         "P. Giannozzi et al., J. Phys.:Condens. Matter 21 395502 (2009);
         "P. Giannozzi et al., J. Phys.:Condens. Matter 29 465901 (2017);
         "P. Giannozzi et al., J. Chem. Phys. 152 154105 (2020);
          URL http://www.quantum-espresso.org", 
     in publications or presentations arising from this work. More details at
     http://www.quantum-espresso.org/quote

     Parallel version (MPI & OpenMP), running on     128 processor cores
     Number of MPI processes:               128
     Threads/MPI process:                     1

     MPI processes distributed on     1 nodes
     214712 MiB available memory on the printing compute node when the environment starts

     Reading input from s0_OH__u900.run.in

     Current dimensions of program PWSCF are:
     Max number of different atomic species (ntypx) = 10
     Max number of k-points (npk) =  40000
     Max angular momentum in pseudopotentials (lmaxx) =  4
     file O.pbe-n-kjpaw_psl.0.1.UPF: wavefunction(s)  2P renormalized

     K-points division:     npool     =       4
     R & G space division:  proc/nbgrp/npool/nimage =      32
     Subspace diagonalization in iterative solution of the eigenvalue problem:
     a serial algorithm will be used


     Parallelization info
     --------------------
     sticks:   dense  smooth     PW     G-vecs:    dense   smooth      PW
     Min         101      51     14                25715     9093    1366
     Max         102      52     15                25736     9113    1385
     Sum        3253    1633    467               823323   291281   43993

     Using Slab Decomposition



     bravais-lattice index     =            0
     lattice parameter (alat)  =       5.4349  a.u.
     unit-cell volume          =    3011.4114 (a.u.)^3
     number of atoms/cell      =           20
     number of atomic types    =            3
     number of electrons       =       169.00
     number of Kohn-Sham states=          102
     kinetic-energy cutoff     =      80.0000  Ry
     charge density cutoff     =     640.0000  Ry
     scf convergence threshold =      1.0E-06
     mixing beta               =       0.3000
     number of iterations used =            8  local-TF  mixing
     Exchange-correlation= SLA  PW   PBX  PBC
                           (   1   4   3   4   0   0   0)
     Hubbard projectors: atomic
     Hubbard parameters of DFT+U (Dudarev formulation) in eV:
     U(Mn-3d) =  9.0000

     Internal variables: lda_plus_u =T, lda_plus_u_kind = 0

     Internal variables: orbital_resolved =F, hub_pot_fix =F, apply_U = F

     celldm(1)=   5.434852  celldm(2)=   0.000000  celldm(3)=   0.000000
     celldm(4)=   0.000000  celldm(5)=   0.000000  celldm(6)=   0.000000

     crystal axes: (cart. coord. in units of alat)
               a(1) = (   1.000000   0.000000   0.000000 )  
               a(2) = (   0.000000   2.165576   0.000000 )  
               a(3) = (   0.000000   0.000000   8.662304 )  

     reciprocal axes: (cart. coord. in units 2 pi/alat)
               b(1) = (  1.000000  0.000000  0.000000 )  
               b(2) = (  0.000000  0.461771  0.000000 )  
               b(3) = (  0.000000  0.000000  0.115443 )  


     PseudoPot. # 1 for H  read from file:
     /anvil/projects/x-che260157/pseudo/H.pbe-rrkjus_psl.1.0.0.UPF
     MD5 check sum: f52b6d4d1c606e5624b1dc7b2218f220
     Pseudo is Ultrasoft, Zval =  1.0
     Generated using "atomic" code by A. Dal Corso  v.5.1
     Using radial grid of  929 points,  2 beta functions with: 
                l(1) =   0
                l(2) =   0
     Q(r) pseudized with 0 coefficients 


     PseudoPot. # 2 for Mn read from file:
     /anvil/projects/x-che260157/pseudo/mn_pbe_v1.5.uspp.F.UPF
     MD5 check sum: 82ef2b46521d7a7d9e736dc3972e4928
     Pseudo is Ultrasoft + core correction, Zval = 15.0
     Generated by new atomic code, or converted to UPF format
     Using radial grid of  859 points,  6 beta functions with: 
                l(1) =   0
                l(2) =   0
                l(3) =   1
                l(4) =   1
                l(5) =   2
                l(6) =   2
     Q(r) pseudized with  8 coefficients,  rinner =    0.950   0.950   0.950
                                                       0.950   0.950

     PseudoPot. # 3 for O  read from file:
     /anvil/projects/x-che260157/pseudo/O.pbe-n-kjpaw_psl.0.1.UPF
     MD5 check sum: 0234752ac141de4415c5fc33072bef88
     Pseudo is Projector augmented-wave + core cor, Zval =  6.0
     Generated using "atomic" code by A. Dal Corso  v.5.0.99 svn rev. 10869
     Shape of augmentation charge: BESSEL
     Using radial grid of 1095 points,  4 beta functions with: 
                l(1) =   0
                l(2) =   0
                l(3) =   1
                l(4) =   1
     Q(r) pseudized with 0 coefficients 


     atomic species   valence    mass     pseudopotential
     H                 1.00     1.00800     H ( 1.00)
     Mn               15.00    54.93800     Mn( 1.00)
     O                 6.00    15.99900     O ( 1.00)

     Starting magnetic structure 
     atomic species   magnetization
     H               0.000
     Mn              0.500
     O               0.000

     No symmetry found



   Cartesian axes

     site n.     atom                  positions (alat units)
         1        Mn     tau(   1) = (   0.0000000   1.6241820   3.2483640  )
         2        Mn     tau(   2) = (   0.5000000   0.5413940   3.2483640  )
         3        Mn     tau(   3) = (  -0.0007904   0.5403044   4.3524282  )
         4        Mn     tau(   4) = (   0.4993880   1.6225577   4.3510881  )
         5        Mn     tau(   5) = (  -0.0011299   1.6237503   5.4798689  )
         6        Mn     tau(   6) = (   0.4977666   0.5402114   5.4650283  )
         7        O      tau(   7) = (   0.0000000   0.5413940   3.6706513  )
         8        O      tau(   8) = (   0.0000000   0.5413940   2.8260767  )
         9        O      tau(   9) = (   0.5000000   1.2018947   3.2483640  )
        10        O      tau(  10) = (   0.5000000   2.0464693   3.2483640  )
        11        O      tau(  11) = (  -0.0015169   1.6200576   4.7773730  )
        12        O      tau(  12) = (   0.0000000   1.6241820   3.9088646  )
        13        O      tau(  13) = (   0.4992437   0.1172714   4.3446951  )
        14        O      tau(  14) = (   0.4992635   0.9632695   4.3301780  )
        15        O      tau(  15) = (  -0.0020519   0.5396323   5.8795420  )
        16        O      tau(  16) = (  -0.0019251   0.5451188   5.0207026  )
        17        O      tau(  17) = (   0.4969097   1.2008028   5.4432792  )
        18        O      tau(  18) = (   0.4970889   2.0467598   5.4380144  )
        19        O      tau(  19) = (  -0.0267183   1.6281577   6.1218321  )
        20        H      tau(  20) = (   0.2927264   1.6219205   6.2459901  )

     number of k points=    36  Marzari-Vanderbilt smearing, width (Ry)=  0.0100
                       cart. coord. in units 2pi/alat
        k(    1) = (   0.0000000   0.0000000   0.0000000), wk =   0.0277778
        k(    2) = (   0.0000000   0.1154427   0.0000000), wk =   0.0277778
        k(    3) = (   0.0000000  -0.2308855   0.0000000), wk =   0.0277778
        k(    4) = (   0.0000000  -0.1154427   0.0000000), wk =   0.0277778
        k(    5) = (   0.1111111   0.0000000   0.0000000), wk =   0.0277778
        k(    6) = (   0.1111111   0.1154427   0.0000000), wk =   0.0277778
        k(    7) = (   0.1111111  -0.2308855   0.0000000), wk =   0.0277778
        k(    8) = (   0.1111111  -0.1154427   0.0000000), wk =   0.0277778
        k(    9) = (   0.2222222   0.0000000   0.0000000), wk =   0.0277778
        k(   10) = (   0.2222222   0.1154427   0.0000000), wk =   0.0277778
        k(   11) = (   0.2222222  -0.2308855   0.0000000), wk =   0.0277778
        k(   12) = (   0.2222222  -0.1154427   0.0000000), wk =   0.0277778
        k(   13) = (   0.3333333   0.0000000   0.0000000), wk =   0.0277778
        k(   14) = (   0.3333333   0.1154427   0.0000000), wk =   0.0277778
        k(   15) = (   0.3333333  -0.2308855   0.0000000), wk =   0.0277778
        k(   16) = (   0.3333333  -0.1154427   0.0000000), wk =   0.0277778
        k(   17) = (   0.4444444   0.0000000   0.0000000), wk =   0.0277778
        k(   18) = (   0.4444444   0.1154427   0.0000000), wk =   0.0277778
        k(   19) = (   0.4444444  -0.2308855   0.0000000), wk =   0.0277778
        k(   20) = (   0.4444444  -0.1154427   0.0000000), wk =   0.0277778
        k(   21) = (  -0.4444444   0.0000000   0.0000000), wk =   0.0277778
        k(   22) = (  -0.4444444   0.1154427   0.0000000), wk =   0.0277778
        k(   23) = (  -0.4444444  -0.2308855   0.0000000), wk =   0.0277778
        k(   24) = (  -0.4444444  -0.1154427   0.0000000), wk =   0.0277778
        k(   25) = (  -0.3333333   0.0000000   0.0000000), wk =   0.0277778
        k(   26) = (  -0.3333333   0.1154427   0.0000000), wk =   0.0277778
        k(   27) = (  -0.3333333  -0.2308855   0.0000000), wk =   0.0277778
        k(   28) = (  -0.3333333  -0.1154427   0.0000000), wk =   0.0277778
        k(   29) = (  -0.2222222   0.0000000   0.0000000), wk =   0.0277778
        k(   30) = (  -0.2222222   0.1154427   0.0000000), wk =   0.0277778
        k(   31) = (  -0.2222222  -0.2308855   0.0000000), wk =   0.0277778
        k(   32) = (  -0.2222222  -0.1154427   0.0000000), wk =   0.0277778
        k(   33) = (  -0.1111111   0.0000000   0.0000000), wk =   0.0277778
        k(   34) = (  -0.1111111   0.1154427   0.0000000), wk =   0.0277778
        k(   35) = (  -0.1111111  -0.2308855   0.0000000), wk =   0.0277778
        k(   36) = (  -0.1111111  -0.1154427   0.0000000), wk =   0.0277778

     Dense  grid:   823323 G-vectors     FFT dimensions: (  45,  96, 384)

     Smooth grid:   291281 G-vectors     FFT dimensions: (  32,  72, 270)

     Estimated max dynamical RAM per process >     101.23 MB

     Estimated total dynamical RAM >      11.48 GB

     Check: negative core charge=   -0.000022
     Generating pointlists ...
     new r_m :   0.1414 (alat units)  0.7685 (a.u.) for type    1
     new r_m :   0.2650 (alat units)  1.4404 (a.u.) for type    2
     new r_m :   0.1414 (alat units)  0.7685 (a.u.) for type    3

     Initial potential from superposition of free atoms

     starting charge     165.9995, renormalised to     169.0000

     negative rho (up, down):  7.287E-04 2.316E-04

     STARTING HUBBARD OCCUPATIONS:

     =================== HUBBARD OCCUPATIONS ===================
     ------------------------ ATOM    1 ------------------------
     Tr[ns(  1)] (up, down, total) =   5.00000  0.00000  5.00000
     Atomic magnetic moment for atom   1 =   5.00000
     SPIN  1
     eigenvalues:
       1.000  1.000  1.000  1.000  1.000
     eigenvectors (columns):
       1.000  0.000  0.000  0.000  0.000
       0.000  1.000  0.000  0.000  0.000
       0.000  0.000  1.000  0.000  0.000
       0.000  0.000  0.000  1.000  0.000
       0.000  0.000  0.000  0.000  1.000
     occupation matrix ns (before diag.):
       1.000  0.000  0.000  0.000  0.000
       0.000  1.000  0.000  0.000  0.000
       0.000  0.000  1.000  0.000  0.000
       0.000  0.000  0.000  1.000  0.000
       0.000  0.000  0.000  0.000  1.000
     SPIN  2
     eigenvalues:
       0.000  0.000  0.000  0.000  0.000
     eigenvectors (columns):
       1.000  0.000  0.000  0.000  0.000
       0.000  1.000  0.000  0.000  0.000
       0.000  0.000  1.000  0.000  0.000
       0.000  0.000  0.000  1.000  0.000
       0.000  0.000  0.000  0.000  1.000
     occupation matrix ns (before diag.):
       0.000  0.000  0.000  0.000  0.000
       0.000  0.000  0.000  0.000  0.000
       0.000  0.000  0.000  0.000  0.000
       0.000  0.000  0.000  0.000  0.000
       0.000  0.000  0.000  0.000  0.000
     ------------------------ ATOM    2 ------------------------
     Tr[ns(  2)] (up, down, total) =   5.00000  0.00000  5.00000
     Atomic magnetic moment for atom   2 =   5.00000
     SPIN  1
     eigenvalues:
       1.000  1.000  1.000  1.000  1.000
     eigenvectors (columns):
       1.000  0.000  0.000  0.000  0.000
       0.000  1.000  0.000  0.000  0.000
       0.000  0.000  1.000  0.000  0.000
       0.000  0.000  0.000  1.000  0.000
       0.000  0.000  0.000  0.000  1.000
     occupation matrix ns (before diag.):
       1.000  0.000  0.000  0.000  0.000
       0.000  1.000  0.000  0.000  0.000
       0.000  0.000  1.000  0.000  0.000
       0.000  0.000  0.000  1.000  0.000
       0.000  0.000  0.000  0.000  1.000
     SPIN  2
     eigenvalues:
       0.000  0.000  0.000  0.000  0.000
     eigenvectors (columns):
       1.000  0.000  0.000  0.000  0.000
       0.000  1.000  0.000  0.000  0.000
       0.000  0.000  1.000  0.000  0.000
       0.000  0.000  0.000  1.000  0.000
       0.000  0.000  0.000  0.000  1.000
     occupation matrix ns (before diag.):
       0.000  0.000  0.000  0.000  0.000
       0.000  0.000  0.000  0.000  0.000
       0.000  0.000  0.000  0.000  0.000
       0.000  0.000  0.000  0.000  0.000
       0.000  0.000  0.000  0.000  0.000
     ------------------------ ATOM    3 ------------------------
     Tr[ns(  3)] (up, down, total) =   5.00000  0.00000  5.00000
     Atomic magnetic moment for atom   3 =   5.00000
     SPIN  1
     eigenvalues:
       1.000  1.000  1.000  1.000  1.000
     eigenvectors (columns):
       1.000  0.000  0.000  0.000  0.000
       0.000  1.000  0.000  0.000  0.000
       0.000  0.000  1.000  0.000  0.000
       0.000  0.000  0.000  1.000  0.000
       0.000  0.000  0.000  0.000  1.000
     occupation matrix ns (before diag.):
       1.000  0.000  0.000  0.000  0.000
       0.000  1.000  0.000  0.000  0.000
       0.000  0.000  1.000  0.000  0.000
       0.000  0.000  0.000  1.000  0.000
       0.000  0.000  0.000  0.000  1.000
     SPIN  2
     eigenvalues:
       0.000  0.000  0.000  0.000  0.000
     eigenvectors (columns):
       1.000  0.000  0.000  0.000  0.000
       0.000  1.000  0.000  0.000  0.000
       0.000  0.000  1.000  0.000  0.000
       0.000  0.000  0.000  1.000  0.000
       0.000  0.000  0.000  0.000  1.000
     occupation matrix ns (before diag.):
       0.000  0.000  0.000  0.000  0.000
       0.000  0.000  0.000  0.000  0.000
       0.000  0.000  0.000  0.000  0.000
       0.000  0.000  0.000  0.000  0.000
       0.000  0.000  0.000  0.000  0.000
     ------------------------ ATOM    4 ------------------------
     Tr[ns(  4)] (up, down, total) =   5.00000  0.00000  5.00000
     Atomic magnetic moment for atom   4 =   5.00000
     SPIN  1
     eigenvalues:
       1.000  1.000  1.000  1.000  1.000
     eigenvectors (columns):
       1.000  0.000  0.000  0.000  0.000
       0.000  1.000  0.000  0.000  0.000
       0.000  0.000  1.000  0.000  0.000
       0.000  0.000  0.000  1.000  0.000
       0.000  0.000  0.000  0.000  1.000
     occupation matrix ns (before diag.):
       1.000  0.000  0.000  0.000  0.000
       0.000  1.000  0.000  0.000  0.000
       0.000  0.000  1.000  0.000  0.000
       0.000  0.000  0.000  1.000  0.000
       0.000  0.000  0.000  0.000  1.000
     SPIN  2
     eigenvalues:
       0.000  0.000  0.000  0.000  0.000
     eigenvectors (columns):
       1.000  0.000  0.000  0.000  0.000
       0.000  1.000  0.000  0.000  0.000
       0.000  0.000  1.000  0.000  0.000
       0.000  0.000  0.000  1.000  0.000
       0.000  0.000  0.000  0.000  1.000
     occupation matrix ns (before diag.):
       0.000  0.000  0.000  0.000  0.000
       0.000  0.000  0.000  0.000  0.000
       0.000  0.000  0.000  0.000  0.000
       0.000  0.000  0.000  0.000  0.000
       0.000  0.000  0.000  0.000  0.000
     ------------------------ ATOM    5 ------------------------
     Tr[ns(  5)] (up, down, total) =   5.00000  0.00000  5.00000
     Atomic magnetic moment for atom   5 =   5.00000
     SPIN  1
     eigenvalues:
       1.000  1.000  1.000  1.000  1.000
     eigenvectors (columns):
       1.000  0.000  0.000  0.000  0.000
       0.000  1.000  0.000  0.000  0.000
       0.000  0.000  1.000  0.000  0.000
       0.000  0.000  0.000  1.000  0.000
       0.000  0.000  0.000  0.000  1.000
     occupation matrix ns (before diag.):
       1.000  0.000  0.000  0.000  0.000
       0.000  1.000  0.000  0.000  0.000
       0.000  0.000  1.000  0.000  0.000
       0.000  0.000  0.000  1.000  0.000
       0.000  0.000  0.000  0.000  1.000
     SPIN  2
     eigenvalues:
       0.000  0.000  0.000  0.000  0.000
     eigenvectors (columns):
       1.000  0.000  0.000  0.000  0.000
       0.000  1.000  0.000  0.000  0.000
       0.000  0.000  1.000  0.000  0.000
       0.000  0.000  0.000  1.000  0.000
       0.000  0.000  0.000  0.000  1.000
     occupation matrix ns (before diag.):
       0.000  0.000  0.000  0.000  0.000
       0.000  0.000  0.000  0.000  0.000
       0.000  0.000  0.000  0.000  0.000
       0.000  0.000  0.000  0.000  0.000
       0.000  0.000  0.000  0.000  0.000
     ------------------------ ATOM    6 ------------------------
     Tr[ns(  6)] (up, down, total) =   5.00000  0.00000  5.00000
     Atomic magnetic moment for atom   6 =   5.00000
     SPIN  1
     eigenvalues:
       1.000  1.000  1.000  1.000  1.000
     eigenvectors (columns):
       1.000  0.000  0.000  0.000  0.000
       0.000  1.000  0.000  0.000  0.000
       0.000  0.000  1.000  0.000  0.000
       0.000  0.000  0.000  1.000  0.000
       0.000  0.000  0.000  0.000  1.000
     occupation matrix ns (before diag.):
       1.000  0.000  0.000  0.000  0.000
       0.000  1.000  0.000  0.000  0.000
       0.000  0.000  1.000  0.000  0.000
       0.000  0.000  0.000  1.000  0.000
       0.000  0.000  0.000  0.000  1.000
     SPIN  2
     eigenvalues:
       0.000  0.000  0.000  0.000  0.000
     eigenvectors (columns):
       1.000  0.000  0.000  0.000  0.000
       0.000  1.000  0.000  0.000  0.000
       0.000  0.000  1.000  0.000  0.000
       0.000  0.000  0.000  1.000  0.000
       0.000  0.000  0.000  0.000  1.000
     occupation matrix ns (before diag.):
       0.000  0.000  0.000  0.000  0.000
       0.000  0.000  0.000  0.000  0.000
       0.000  0.000  0.000  0.000  0.000
       0.000  0.000  0.000  0.000  0.000
       0.000  0.000  0.000  0.000  0.000

     Number of occupied Hubbard levels =   30.0000

     Atomic wfc used for Hubbard projectors are NOT orthogonalized

     Starting wfcs are  131 randomized atomic wfcs
     Checking if some PAW data can be deallocated... 

     total cpu time spent up to now is        6.2 secs

     per-process dynamical memory:   132.9 Mb

     Self-consistent Calculation

     iteration #  1     ecut=    80.00 Ry     beta= 0.30
     Davidson diagonalization with overlap
     ethr =  1.00E-02,  avg # of iterations =  5.0

     =================== HUBBARD OCCUPATIONS ===================
     ------------------------ ATOM    1 ------------------------
     Tr[ns(  1)] (up, down, total) =   4.65596  0.40069  5.05665
     Atomic magnetic moment for atom   1 =   4.25527
     SPIN  1
     eigenvalues:
       0.731  0.945  0.987  0.994  0.999
     eigenvectors (columns):
      -0.000  0.958 -0.288 -0.006 -0.001
       0.000 -0.004  0.007 -1.000 -0.001
      -0.000 -0.001 -0.000  0.001 -1.000
       0.000 -0.288 -0.957 -0.006  0.000
       1.000  0.000 -0.000  0.000 -0.000
     occupation matrix ns (before diag.):
       0.949  0.000  0.000  0.012  0.000
       0.000  0.994  0.000 -0.000 -0.000
       0.000  0.000  0.999 -0.000  0.000
       0.012 -0.000 -0.000  0.983 -0.000
       0.000 -0.000  0.000 -0.000  0.731
     SPIN  2
     eigenvalues:
       0.037  0.046  0.050  0.105  0.163
     eigenvectors (columns):
      -0.000  0.001  0.227 -0.974 -0.000
      -0.001 -1.000  0.001 -0.000 -0.000
       1.000 -0.001 -0.000 -0.000 -0.000
       0.000  0.001  0.974  0.227 -0.000
       0.000 -0.000  0.000 -0.000  1.000
     occupation matrix ns (before diag.):
       0.103  0.000  0.000 -0.012 -0.000
       0.000  0.046  0.000 -0.000 -0.000
       0.000  0.000  0.037 -0.000 -0.000
      -0.012 -0.000 -0.000  0.053 -0.000
      -0.000 -0.000 -0.000 -0.000  0.163
     ------------------------ ATOM    2 ------------------------
     Tr[ns(  2)] (up, down, total) =   4.32175  0.48951  4.81126
     Atomic magnetic moment for atom   2 =   3.83224
     SPIN  1
     eigenvalues:
       0.651  0.701  0.985  0.987  0.998
     eigenvectors (columns):
       0.000 -0.416 -0.909  0.005  0.001
      -1.000 -0.000  0.000 -0.001 -0.000
       0.000 -0.000 -0.001  0.001 -1.000
       0.000 -0.909  0.416 -0.002 -0.000
      -0.001  0.000  0.006  1.000  0.001
     occupation matrix ns (before diag.):
       0.936 -0.000 -0.000 -0.107  0.000
      -0.000  0.651  0.000  0.000 -0.000
      -0.000  0.000  0.998 -0.000 -0.000
      -0.107  0.000 -0.000  0.750  0.000
       0.000 -0.000 -0.000  0.000  0.987
     SPIN  2
     eigenvalues:
       0.049  0.055  0.057  0.162  0.167
     eigenvectors (columns):
      -0.000  0.926  0.000 -0.378 -0.000
       0.000 -0.000  0.000 -0.000  1.000
      -1.000 -0.000  0.000 -0.000  0.000
       0.000 -0.378 -0.000 -0.926 -0.000
      -0.000  0.000 -1.000  0.000  0.000
     occupation matrix ns (before diag.):
       0.070  0.000  0.000  0.037 -0.000
       0.000  0.167  0.000 -0.000  0.000
       0.000  0.000  0.049  0.000 -0.000
       0.037 -0.000  0.000  0.146 -0.000
      -0.000  0.000 -0.000 -0.000  0.057
     ------------------------ ATOM    3 ------------------------
     Tr[ns(  3)] (up, down, total) =   4.30589  0.46062  4.76652
     Atomic magnetic moment for atom   3 =   3.84527
     SPIN  1
     eigenvalues:
       0.671  0.675  0.977  0.988  0.995
     eigenvectors (columns):
       0.999 -0.014 -0.046  0.002  0.010
       0.002  0.016 -0.002 -1.000 -0.004
      -0.010 -0.000 -0.008 -0.004  1.000
      -0.046  0.001 -0.999  0.002 -0.008
       0.014  1.000  0.000  0.016  0.000
     occupation matrix ns (before diag.):
       0.672 -0.001  0.003  0.014 -0.000
      -0.001  0.988 -0.000 -0.000 -0.005
       0.003 -0.000  0.995 -0.000  0.000
       0.014 -0.000 -0.000  0.976 -0.000
      -0.000 -0.005  0.000 -0.000  0.675
     SPIN  2
     eigenvalues:
       0.046  0.051  0.053  0.151  0.160
     eigenvectors (columns):
      -0.015  0.132 -0.000  0.991  0.002
      -0.002 -0.015 -1.000  0.002  0.018
      -0.999 -0.037  0.002 -0.011  0.000
      -0.036  0.990 -0.015 -0.133 -0.000
       0.000  0.000  0.018 -0.002  1.000
     occupation matrix ns (before diag.):
       0.149  0.000 -0.001 -0.013  0.000
       0.000  0.053 -0.000  0.000  0.002
      -0.001 -0.000  0.046 -0.000  0.000
      -0.013  0.000 -0.000  0.052  0.000
       0.000  0.002  0.000  0.000  0.160
     ------------------------ ATOM    4 ------------------------
     Tr[ns(  4)] (up, down, total) =   4.30203  0.46421  4.76625
     Atomic magnetic moment for atom   4 =   3.83782
     SPIN  1
     eigenvalues:
       0.657  0.683  0.978  0.988  0.996
     eigenvectors (columns):
       0.016 -0.427  0.001  0.904  0.025
       0.999  0.039 -0.004  0.000  0.000
       0.001 -0.013 -0.000  0.021 -1.000
       0.035 -0.903 -0.001 -0.427  0.003
       0.004 -0.000  1.000 -0.001 -0.000
     occupation matrix ns (before diag.):
       0.932 -0.000 -0.002 -0.118 -0.000
      -0.000  0.657 -0.000 -0.001 -0.001
      -0.002 -0.000  0.996 -0.004  0.000
      -0.118 -0.001 -0.004  0.739 -0.000
      -0.000 -0.001  0.000 -0.000  0.978
     SPIN  2
     eigenvalues:
       0.048  0.049  0.054  0.155  0.158
     eigenvectors (columns):
      -0.026  0.914 -0.001 -0.052 -0.402
      -0.000  0.001 -0.004 -0.991  0.133
      -0.999 -0.035 -0.028 -0.002 -0.015
       0.028 -0.405  0.001 -0.122 -0.906
      -0.028  0.000  1.000 -0.004  0.001
     occupation matrix ns (before diag.):
       0.067 -0.000  0.001  0.040 -0.000
      -0.000  0.155 -0.000 -0.000  0.000
       0.001 -0.000  0.048  0.002 -0.000
       0.040 -0.000  0.002  0.140  0.000
      -0.000  0.000 -0.000  0.000  0.054
     ------------------------ ATOM    5 ------------------------
     Tr[ns(  5)] (up, down, total) =   3.76445  0.45946  4.22392
     Atomic magnetic moment for atom   5 =   3.30499
     SPIN  1
     eigenvalues:
       0.586  0.632  0.729  0.846  0.972
     eigenvectors (columns):
      -0.003  0.999  0.016  0.012 -0.041
       0.007  0.012  0.017 -1.000  0.000
       0.002 -0.016  1.000  0.016  0.004
       0.000 -0.041  0.003 -0.001 -0.999
       1.000  0.003 -0.002  0.007  0.000
     occupation matrix ns (before diag.):
       0.632 -0.003  0.002  0.014  0.000
      -0.003  0.846 -0.002  0.000 -0.002
       0.002 -0.002  0.729 -0.001 -0.000
       0.014  0.000 -0.001  0.971 -0.000
       0.000 -0.002 -0.000 -0.000  0.586
     SPIN  2
     eigenvalues:
       0.049  0.050  0.052  0.152  0.157
     eigenvectors (columns):
       0.012 -0.131 -0.000  0.991  0.006
      -0.029  0.157 -0.987  0.021  0.006
       0.999  0.017 -0.027 -0.010  0.005
       0.011 -0.979 -0.158 -0.129 -0.001
      -0.004 -0.001  0.006 -0.006  1.000
     occupation matrix ns (before diag.):
       0.151  0.002 -0.001 -0.013  0.000
       0.002  0.052  0.000  0.000  0.001
      -0.001  0.000  0.049  0.000  0.001
      -0.013  0.000  0.000  0.051  0.000
       0.000  0.001  0.001  0.000  0.157
     ------------------------ ATOM    6 ------------------------
     Tr[ns(  6)] (up, down, total) =   3.80651  0.47483  4.28134
     Atomic magnetic moment for atom   6 =   3.33168
     SPIN  1
     eigenvalues:
       0.630  0.639  0.807  0.862  0.869
     eigenvectors (columns):
       0.494 -0.001 -0.008  0.035 -0.869
       0.001  1.000 -0.000  0.006 -0.000
       0.009  0.000  1.000 -0.008 -0.004
       0.869 -0.001 -0.006 -0.020  0.494
       0.000  0.006 -0.008 -0.999 -0.041
     occupation matrix ns (before diag.):
       0.811  0.000 -0.001 -0.103  0.000
       0.000  0.639 -0.000 -0.000 -0.001
      -0.001 -0.000  0.807 -0.002  0.000
      -0.103 -0.000 -0.002  0.688 -0.000
       0.000 -0.001  0.000 -0.000  0.862
     SPIN  2
     eigenvalues:
       0.048  0.053  0.056  0.158  0.159
     eigenvectors (columns):
      -0.013  0.924  0.008 -0.382  0.010
      -0.000  0.000 -0.006  0.026  1.000
       1.000  0.011 -0.004 -0.007  0.000
      -0.003 -0.383 -0.004 -0.924  0.024
       0.005 -0.009  1.000 -0.000  0.006
     occupation matrix ns (before diag.):
       0.069 -0.000  0.000  0.037  0.000
      -0.000  0.159 -0.000  0.000  0.001
       0.000 -0.000  0.048  0.001 -0.000
       0.037  0.000  0.001  0.143  0.000
       0.000  0.001 -0.000  0.000  0.056

     Number of occupied Hubbard levels =   27.9059

     negative rho (up, down):  5.368E-04 1.456E-04

     total cpu time spent up to now is       18.0 secs

     total energy              =   -1807.59724388 Ry
     estimated scf accuracy    <      17.74228975 Ry

     total magnetization       =    16.92 Bohr mag/cell
     absolute magnetization    =    27.38 Bohr mag/cell

     iteration #  2     ecut=    80.00 Ry     beta= 0.30
     Davidson diagonalization with overlap
     ethr =  1.00E-02,  avg # of iterations =  1.0

     negative rho (up, down):  3.399E-03 2.623E-03

     total cpu time spent up to now is       24.6 secs

     total energy              =   -1805.81868430 Ry
     estimated scf accuracy    <       9.42112189 Ry

     total magnetization       =    17.00 Bohr mag/cell
     absolute magnetization    =    26.79 Bohr mag/cell

     iteration #  3     ecut=    80.00 Ry     beta= 0.30
     Davidson diagonalization with overlap
     ethr =  5.57E-03,  avg # of iterations =  4.0

     negative rho (up, down):  2.593E-03 1.985E-03

     total cpu time spent up to now is       34.4 secs

     total energy              =   -1807.83056069 Ry
     estimated scf accuracy    <       5.05985553 Ry

     total magnetization       =    17.29 Bohr mag/cell
     absolute magnetization    =    29.96 Bohr mag/cell

     iteration #  4     ecut=    80.00 Ry     beta= 0.30
     Davidson diagonalization with overlap
     ethr =  2.99E-03,  avg # of iterations =  1.3

     negative rho (up, down):  2.472E-03 1.757E-03

     total cpu time spent up to now is       41.7 secs

     total energy              =   -1807.93124926 Ry
     estimated scf accuracy    <       2.98312940 Ry

     total magnetization       =    17.07 Bohr mag/cell
     absolute magnetization    =    30.56 Bohr mag/cell

     iteration #  5     ecut=    80.00 Ry     beta= 0.30
     Davidson diagonalization with overlap
     ethr =  1.77E-03,  avg # of iterations =  1.3

     negative rho (up, down):  3.241E-03 4.079E-03

     total cpu time spent up to now is       48.4 secs

     total energy              =   -1807.57808939 Ry
     estimated scf accuracy    <       3.54040607 Ry

     total magnetization       =    17.10 Bohr mag/cell
     absolute magnetization    =    30.52 Bohr mag/cell

     iteration #  6     ecut=    80.00 Ry     beta= 0.30
     Davidson diagonalization with overlap
     ethr =  1.77E-03,  avg # of iterations =  1.5

     negative rho (up, down):  3.228E-03 4.272E-03

     total cpu time spent up to now is       56.9 secs

     total energy              =   -1807.77902763 Ry
     estimated scf accuracy    <       0.17432924 Ry

     total magnetization       =    17.00 Bohr mag/cell
     absolute magnetization    =    30.34 Bohr mag/cell

     iteration #  7     ecut=    80.00 Ry     beta= 0.30
     Davidson diagonalization with overlap
     ethr =  1.03E-04,  avg # of iterations =  7.3

     negative rho (up, down):  2.813E-03 3.838E-03

     total cpu time spent up to now is       70.0 secs

     total energy              =   -1807.81591740 Ry
     estimated scf accuracy    <       0.06947303 Ry

     total magnetization       =    17.00 Bohr mag/cell
     absolute magnetization    =    30.01 Bohr mag/cell

     iteration #  8     ecut=    80.00 Ry     beta= 0.30
     Davidson diagonalization with overlap
     ethr =  4.11E-05,  avg # of iterations =  2.3

     negative rho (up, down):  2.130E-03 3.133E-03

     total cpu time spent up to now is       77.5 secs

     total energy              =   -1807.81972634 Ry
     estimated scf accuracy    <       0.05387660 Ry

     total magnetization       =    17.00 Bohr mag/cell
     absolute magnetization    =    30.12 Bohr mag/cell

     iteration #  9     ecut=    80.00 Ry     beta= 0.30
     Davidson diagonalization with overlap
     ethr =  3.19E-05,  avg # of iterations =  1.9

     negative rho (up, down):  1.501E-03 2.348E-03

     total cpu time spent up to now is       84.8 secs

     total energy              =   -1807.81951967 Ry
     estimated scf accuracy    <       0.02154092 Ry

     total magnetization       =    17.00 Bohr mag/cell
     absolute magnetization    =    30.04 Bohr mag/cell

     iteration # 10     ecut=    80.00 Ry     beta= 0.30
     Davidson diagonalization with overlap
     ethr =  1.27E-05,  avg # of iterations =  4.6

     negative rho (up, down):  9.131E-04 1.558E-03

     total cpu time spent up to now is       94.5 secs

     total energy              =   -1807.82122587 Ry
     estimated scf accuracy    <       0.00669260 Ry

     total magnetization       =    17.00 Bohr mag/cell
     absolute magnetization    =    29.92 Bohr mag/cell

     iteration # 11     ecut=    80.00 Ry     beta= 0.30
     Davidson diagonalization with overlap
     ethr =  3.96E-06,  avg # of iterations =  3.6

     negative rho (up, down):  6.268E-04 1.241E-03

     total cpu time spent up to now is      103.9 secs

     total energy              =   -1807.82153259 Ry
     estimated scf accuracy    <       0.00405368 Ry

     total magnetization       =    17.00 Bohr mag/cell
     absolute magnetization    =    29.84 Bohr mag/cell

     iteration # 12     ecut=    80.00 Ry     beta= 0.30
     Davidson diagonalization with overlap
     ethr =  2.40E-06,  avg # of iterations =  2.1

     negative rho (up, down):  2.808E-04 1.055E-03

     total cpu time spent up to now is      117.0 secs

     total energy              =   -1807.82129873 Ry
     estimated scf accuracy    <       0.00287232 Ry

     total magnetization       =    17.00 Bohr mag/cell
     absolute magnetization    =    29.77 Bohr mag/cell

     iteration # 13     ecut=    80.00 Ry     beta= 0.30
     Davidson diagonalization with overlap
     ethr =  1.70E-06,  avg # of iterations =  3.3

     negative rho (up, down):  2.334E-04 1.050E-03

     total cpu time spent up to now is      125.6 secs

     total energy              =   -1807.82145278 Ry
     estimated scf accuracy    <       0.00230944 Ry

     total magnetization       =    17.00 Bohr mag/cell
     absolute magnetization    =    29.67 Bohr mag/cell

     iteration # 14     ecut=    80.00 Ry     beta= 0.30
     Davidson diagonalization with overlap
     ethr =  1.37E-06,  avg # of iterations =  1.1

     negative rho (up, down):  2.035E-04 1.043E-03

     total cpu time spent up to now is      133.0 secs

     total energy              =   -1807.82147165 Ry
     estimated scf accuracy    <       0.00157011 Ry

     total magnetization       =    17.00 Bohr mag/cell
     absolute magnetization    =    29.66 Bohr mag/cell

     iteration # 15     ecut=    80.00 Ry     beta= 0.30
     Davidson diagonalization with overlap
     ethr =  9.29E-07,  avg # of iterations =  1.2

     negative rho (up, down):  2.954E-04 1.074E-03

     total cpu time spent up to now is      141.4 secs

     total energy              =   -1807.82141075 Ry
     estimated scf accuracy    <       0.00070753 Ry

     total magnetization       =    17.00 Bohr mag/cell
     absolute magnetization    =    29.66 Bohr mag/cell

     iteration # 16     ecut=    80.00 Ry     beta= 0.30
     Davidson diagonalization with overlap
     ethr =  4.19E-07,  avg # of iterations =  2.1

     negative rho (up, down):  8.828E-04 1.593E-03

     total cpu time spent up to now is      149.4 secs

     total energy              =   -1807.82140824 Ry
     estimated scf accuracy    <       0.00049693 Ry

     total magnetization       =    17.00 Bohr mag/cell
     absolute magnetization    =    29.63 Bohr mag/cell

     iteration # 17     ecut=    80.00 Ry     beta= 0.30
     Davidson diagonalization with overlap
     ethr =  2.94E-07,  avg # of iterations =  2.1

     negative rho (up, down):  1.025E-03 1.687E-03

     total cpu time spent up to now is      157.0 secs

     total energy              =   -1807.82141777 Ry
     estimated scf accuracy    <       0.00027702 Ry

     total magnetization       =    17.00 Bohr mag/cell
     absolute magnetization    =    29.62 Bohr mag/cell

     iteration # 18     ecut=    80.00 Ry     beta= 0.30
     Davidson diagonalization with overlap
     ethr =  1.64E-07,  avg # of iterations =  1.4

     negative rho (up, down):  1.252E-03 1.778E-03

     total cpu time spent up to now is      163.9 secs

     total energy              =   -1807.82142217 Ry
     estimated scf accuracy    <       0.00017381 Ry

     total magnetization       =    17.00 Bohr mag/cell
     absolute magnetization    =    29.63 Bohr mag/cell

     iteration # 19     ecut=    80.00 Ry     beta= 0.30
     Davidson diagonalization with overlap
     ethr =  1.03E-07,  avg # of iterations =  1.6

     negative rho (up, down):  1.302E-03 1.724E-03

     total cpu time spent up to now is      170.9 secs

     total energy              =   -1807.82142732 Ry
     estimated scf accuracy    <       0.00011624 Ry

     total magnetization       =    17.00 Bohr mag/cell
     absolute magnetization    =    29.64 Bohr mag/cell

     iteration # 20     ecut=    80.00 Ry     beta= 0.30
     Davidson diagonalization with overlap
     ethr =  6.88E-08,  avg # of iterations =  1.0

     negative rho (up, down):  1.808E-03 1.956E-03

     total cpu time spent up to now is      177.8 secs

     total energy              =   -1807.82141204 Ry
     estimated scf accuracy    <       0.00006696 Ry

     total magnetization       =    17.00 Bohr mag/cell
     absolute magnetization    =    29.65 Bohr mag/cell

     iteration # 21     ecut=    80.00 Ry     beta= 0.30
     Davidson diagonalization with overlap
     ethr =  3.96E-08,  avg # of iterations =  3.1

     negative rho (up, down):  1.859E-03 1.871E-03

     total cpu time spent up to now is      185.9 secs

     total energy              =   -1807.82141571 Ry
     estimated scf accuracy    <       0.00001736 Ry

     total magnetization       =    17.00 Bohr mag/cell
     absolute magnetization    =    29.66 Bohr mag/cell

     iteration # 22     ecut=    80.00 Ry     beta= 0.30
     Davidson diagonalization with overlap
     ethr =  1.03E-08,  avg # of iterations =  2.7

     negative rho (up, down):  1.925E-03 1.843E-03

     total cpu time spent up to now is      193.5 secs

     total energy              =   -1807.82141580 Ry
     estimated scf accuracy    <       0.00000785 Ry

     total magnetization       =    17.00 Bohr mag/cell
     absolute magnetization    =    29.67 Bohr mag/cell

     iteration # 23     ecut=    80.00 Ry     beta= 0.30
     Davidson diagonalization with overlap
     ethr =  4.64E-09,  avg # of iterations =  2.3

     negative rho (up, down):  1.864E-03 1.752E-03

     total cpu time spent up to now is      200.8 secs

     total energy              =   -1807.82141624 Ry
     estimated scf accuracy    <       0.00000251 Ry

     total magnetization       =    17.00 Bohr mag/cell
     absolute magnetization    =    29.66 Bohr mag/cell

     iteration # 24     ecut=    80.00 Ry     beta= 0.30
     Davidson diagonalization with overlap
     ethr =  1.48E-09,  avg # of iterations =  2.7

     negative rho (up, down):  1.844E-03 1.715E-03

     total cpu time spent up to now is      208.4 secs

     total energy              =   -1807.82141632 Ry
     estimated scf accuracy    <       0.00000120 Ry

     total magnetization       =    17.00 Bohr mag/cell
     absolute magnetization    =    29.66 Bohr mag/cell

     iteration # 25     ecut=    80.00 Ry     beta= 0.30
     Davidson diagonalization with overlap
     ethr =  7.08E-10,  avg # of iterations =  2.4

     negative rho (up, down):  1.826E-03 1.683E-03

     Magnetic moment per site  (integrated on atomic sphere of radius R)
     atom   1 (R=0.265)  charge= 11.6173  magn=  3.4544
     atom   2 (R=0.265)  charge= 11.5725  magn=  3.1628
     atom   3 (R=0.265)  charge= 11.5783  magn=  3.2700
     atom   4 (R=0.265)  charge= 11.5754  magn=  3.2541
     atom   5 (R=0.265)  charge= 11.5745  magn=  3.2172
     atom   6 (R=0.265)  charge= 11.5688  magn=  3.1863
     atom   7 (R=0.141)  charge=  1.9741  magn= -0.1833
     atom   8 (R=0.141)  charge=  1.9510  magn= -0.2870
     atom   9 (R=0.141)  charge=  1.9758  magn= -0.1633
     atom  10 (R=0.141)  charge=  1.9759  magn= -0.1626
     atom  11 (R=0.141)  charge=  1.9692  magn= -0.1945
     atom  12 (R=0.141)  charge=  1.9739  magn= -0.1968
     atom  13 (R=0.141)  charge=  1.9754  magn= -0.1739
     atom  14 (R=0.141)  charge=  1.9757  magn= -0.1768
     atom  15 (R=0.141)  charge=  1.9505  magn= -0.3036
     atom  16 (R=0.141)  charge=  1.9705  magn= -0.1811
     atom  17 (R=0.141)  charge=  1.9749  magn= -0.1768
     atom  18 (R=0.141)  charge=  1.9754  magn= -0.1766
     atom  19 (R=0.141)  charge=  1.9703  magn= -0.1482
     atom  20 (R=0.141)  charge=  0.3942  magn=  0.0036

     total cpu time spent up to now is      215.9 secs

     End of self-consistent calculation

     =================== HUBBARD OCCUPATIONS ===================
     ------------------------ ATOM    1 ------------------------
     Tr[ns(  1)] (up, down, total) =   4.72097  0.73729  5.45826
     Atomic magnetic moment for atom   1 =   3.98367
     SPIN  1
     eigenvalues:
       0.807  0.935  0.992  0.993  0.994
     eigenvectors (columns):
      -0.000 -0.988 -0.005 -0.152  0.004
      -0.000  0.001  0.999 -0.035  0.001
       0.000  0.002 -0.000  0.009  1.000
      -0.000  0.152 -0.034 -0.988  0.008
       1.000 -0.000  0.000 -0.000 -0.000
     occupation matrix ns (before diag.):
       0.936  0.000  0.000  0.009  0.000
       0.000  0.992  0.000  0.000  0.000
       0.000  0.000  0.994 -0.000 -0.000
       0.009  0.000 -0.000  0.991  0.000
       0.000  0.000 -0.000  0.000  0.807
     SPIN  2
     eigenvalues:
       0.065  0.072  0.078  0.182  0.340
     eigenvectors (columns):
      -0.000 -0.169 -0.000  0.986 -0.000
      -0.000 -0.000 -1.000 -0.000 -0.000
       1.000 -0.000 -0.000  0.000 -0.000
      -0.000 -0.986  0.000 -0.169  0.000
       0.000 -0.000 -0.000  0.000  1.000
     occupation matrix ns (before diag.):
       0.179 -0.000  0.000 -0.018 -0.000
      -0.000  0.078  0.000 -0.000 -0.000
       0.000  0.000  0.065 -0.000 -0.000
      -0.018 -0.000 -0.000  0.075 -0.000
      -0.000 -0.000 -0.000 -0.000  0.340
     ------------------------ ATOM    2 ------------------------
     Tr[ns(  2)] (up, down, total) =   4.57751  0.98206  5.55957
     Atomic magnetic moment for atom   2 =   3.59545
     SPIN  1
     eigenvalues:
       0.799  0.813  0.984  0.989  0.993
     eigenvectors (columns):
       0.000  0.417 -0.000  0.011 -0.909
      -1.000  0.000 -0.000  0.000  0.000
      -0.000  0.001  0.001 -1.000 -0.011
       0.000  0.909  0.000 -0.004  0.417
      -0.000 -0.000  1.000  0.001 -0.000
     occupation matrix ns (before diag.):
       0.962 -0.000  0.000 -0.068  0.000
      -0.000  0.799 -0.000  0.000 -0.000
       0.000 -0.000  0.989 -0.000 -0.000
      -0.068  0.000 -0.000  0.845  0.000
       0.000 -0.000 -0.000  0.000  0.984
     SPIN  2
     eigenvalues:
       0.083  0.084  0.094  0.345  0.377
     eigenvectors (columns):
       0.919 -0.000 -0.000 -0.394 -0.000
      -0.000 -0.000 -0.001 -0.001  1.000
       0.000  1.000 -0.000 -0.000  0.000
      -0.394 -0.000  0.000 -0.919 -0.001
       0.000  0.000  1.000  0.000  0.001
     occupation matrix ns (before diag.):
       0.123 -0.000  0.000  0.095 -0.000
      -0.000  0.377  0.000 -0.000  0.000
       0.000  0.000  0.084  0.000 -0.000
       0.095 -0.000  0.000  0.304 -0.000
      -0.000  0.000 -0.000 -0.000  0.094
     ------------------------ ATOM    3 ------------------------
     Tr[ns(  3)] (up, down, total) =   4.62143  0.90077  5.52220
     Atomic magnetic moment for atom   3 =   3.72066
     SPIN  1
     eigenvalues:
       0.814  0.832  0.991  0.992  0.993
     eigenvectors (columns):
       0.003 -0.998 -0.017  0.059  0.002
       0.003 -0.002  0.005  0.005 -1.000
      -0.000  0.007 -0.985 -0.175 -0.006
      -0.000  0.061 -0.174  0.983  0.004
       1.000  0.003 -0.000 -0.000  0.003
     occupation matrix ns (before diag.):
       0.832 -0.000  0.001  0.010 -0.000
      -0.000  0.993  0.000  0.000 -0.001
       0.001  0.000  0.991 -0.000  0.000
       0.010  0.000 -0.000  0.991 -0.000
      -0.000 -0.001  0.000 -0.000  0.814
     SPIN  2
     eigenvalues:
       0.073  0.080  0.089  0.308  0.350
     eigenvectors (columns):
       0.101 -0.006  0.001  0.995  0.000
      -0.003 -0.001 -1.000  0.002  0.015
       0.040 -0.999  0.001 -0.011  0.000
       0.994  0.041 -0.003 -0.101 -0.000
       0.000  0.000  0.015 -0.001  1.000
     occupation matrix ns (before diag.):
       0.306  0.000 -0.002 -0.024  0.000
       0.000  0.089 -0.000  0.000  0.004
      -0.002 -0.000  0.080 -0.000  0.000
      -0.024  0.000 -0.000  0.075  0.000
       0.000  0.004  0.000  0.000  0.350
     ------------------------ ATOM    4 ------------------------
     Tr[ns(  4)] (up, down, total) =   4.61665  0.91196  5.52861
     Atomic magnetic moment for atom   4 =   3.70469
     SPIN  1
     eigenvalues:
       0.818  0.825  0.990  0.991  0.992
     eigenvectors (columns):
      -0.452 -0.032  0.011  0.134 -0.881
       0.071 -0.997 -0.003  0.000 -0.000
      -0.007 -0.000 -0.144 -0.979 -0.147
      -0.889 -0.064 -0.005 -0.061  0.449
       0.000 -0.003  0.990 -0.144 -0.009
     occupation matrix ns (before diag.):
       0.957  0.000 -0.000 -0.070  0.000
       0.000  0.825  0.000  0.000 -0.000
      -0.000  0.000  0.991 -0.001  0.000
      -0.070  0.000 -0.001  0.854  0.000
       0.000 -0.000  0.000  0.000  0.990
     SPIN  2
     eigenvalues:
       0.071  0.085  0.089  0.329  0.337
     eigenvectors (columns):
       0.903 -0.016 -0.001 -0.426 -0.058
       0.001 -0.000  0.004 -0.131  0.991
       0.011  0.996  0.084 -0.013 -0.002
      -0.430 -0.007 -0.001 -0.895 -0.118
       0.000  0.084 -0.996 -0.001  0.004
     occupation matrix ns (before diag.):
       0.119 -0.001  0.001  0.100  0.000
      -0.001  0.337 -0.000 -0.001  0.001
       0.001 -0.000  0.085  0.003 -0.000
       0.100 -0.001  0.003  0.282  0.000
       0.000  0.001 -0.000  0.000  0.089
     ------------------------ ATOM    5 ------------------------
     Tr[ns(  5)] (up, down, total) =   4.59648  0.93689  5.53337
     Atomic magnetic moment for atom   5 =   3.65960
     SPIN  1
     eigenvalues:
       0.803  0.819  0.990  0.992  0.993
     eigenvectors (columns):
       0.999 -0.010  0.009  0.051  0.004
      -0.006  0.002  0.003  0.191 -0.981
      -0.009  0.004  1.000  0.001  0.003
      -0.051  0.001 -0.003  0.980  0.191
       0.010  1.000 -0.004 -0.001  0.002
     occupation matrix ns (before diag.):
       0.803  0.001  0.002  0.010 -0.000
       0.001  0.993 -0.000 -0.000 -0.000
       0.002 -0.000  0.990 -0.000 -0.001
       0.010 -0.000 -0.000  0.992 -0.000
      -0.000 -0.000 -0.001 -0.000  0.819
     SPIN  2
     eigenvalues:
       0.072  0.090  0.090  0.337  0.348
     eigenvectors (columns):
      -0.094 -0.000  0.010  0.995  0.015
      -0.006  0.903  0.429 -0.005  0.005
       0.003 -0.429  0.903 -0.009  0.002
      -0.996 -0.007 -0.001 -0.094 -0.001
       0.000 -0.004 -0.005 -0.015  1.000
     occupation matrix ns (before diag.):
       0.335 -0.001 -0.002 -0.025  0.000
      -0.001  0.090  0.000  0.000  0.001
      -0.002  0.000  0.090  0.000  0.001
      -0.025  0.000  0.000  0.074  0.000
       0.000  0.001  0.001  0.000  0.348
     ------------------------ ATOM    6 ------------------------
     Tr[ns(  6)] (up, down, total) =   4.59215  0.95859  5.55074
     Atomic magnetic moment for atom   6 =   3.63356
     SPIN  1
     eigenvalues:
       0.813  0.818  0.981  0.987  0.993
     eigenvectors (columns):
       0.010  0.419  0.000  0.011  0.908
       1.000 -0.024 -0.002 -0.000 -0.000
       0.000  0.005 -0.029 -1.000  0.010
       0.022  0.908  0.000  0.001 -0.419
       0.002 -0.000  1.000 -0.029  0.000
     occupation matrix ns (before diag.):
       0.963 -0.000 -0.000 -0.067  0.000
      -0.000  0.813  0.000 -0.000 -0.000
      -0.000  0.000  0.987 -0.001  0.000
      -0.067 -0.000 -0.001  0.849  0.000
       0.000 -0.000  0.000  0.000  0.981
     SPIN  2
     eigenvalues:
       0.082  0.085  0.091  0.341  0.360
     eigenvectors (columns):
       0.917  0.023 -0.001 -0.399 -0.000
       0.000 -0.000  0.006 -0.001  1.000
      -0.028  0.999  0.025 -0.007 -0.000
      -0.399 -0.018  0.000 -0.917 -0.001
      -0.001  0.025 -1.000 -0.000  0.006
     occupation matrix ns (before diag.):
       0.123 -0.000  0.001  0.095  0.000
      -0.000  0.360 -0.000  0.000  0.001
       0.001 -0.000  0.085  0.002 -0.000
       0.095  0.000  0.002  0.299  0.000
       0.000  0.001 -0.000  0.000  0.091

     Number of occupied Hubbard levels =   33.1528

 ------ SPIN UP ------------


          k = 0.0000 0.0000 0.0000 ( 36441 PWs)   bands (ev):

   -82.0296 -81.9831 -81.9481 -81.9313 -81.8947 -81.7394 -50.7393 -50.6993
   -50.6720 -50.6660 -50.6588 -50.6514 -50.6408 -50.6269 -50.6124 -50.6113
   -50.6066 -50.6024 -50.6001 -50.5609 -50.5487 -50.4728 -50.4221 -50.4086
   -19.2350 -19.1419 -19.0234 -18.5145 -18.3432 -18.2516 -18.1546 -17.2613
   -17.2180 -17.2067 -17.1103 -16.8198 -16.5836 -10.1036 -10.0151  -9.9632
    -9.5395  -9.4953  -9.2907  -9.0545  -8.8320  -8.1278  -7.9552  -7.9131
    -7.8215  -7.6088  -7.5153  -7.5093  -7.2791  -7.2104  -7.0584  -6.8731
    -6.6177  -6.5439  -6.4899  -6.3962  -6.3236  -6.2938  -6.1903  -6.1117
    -5.6849  -5.4038  -4.7644  -3.9185  -3.4919  -3.2958  -3.2088  -3.1859
    -3.1316  -2.6731  -2.4814  -2.3954  -2.3413  -2.1204  -1.9473  -1.5256
    -1.4584  -1.4364  -1.2021  -1.1023  -0.9918  -0.9484  -0.8621  -0.5341
    -0.4654  -0.3199  -0.2185  -0.0866  -0.0459   0.0006   0.1102   0.2256
     0.2998   1.0233   1.8728   2.1065   2.2609   2.3295

          k = 0.0000 0.1154 0.0000 ( 36396 PWs)   bands (ev):

   -82.0290 -81.9826 -81.9474 -81.9308 -81.8939 -81.7389 -50.7385 -50.6993
   -50.6721 -50.6676 -50.6589 -50.6515 -50.6378 -50.6268 -50.6149 -50.6124
   -50.6067 -50.6025 -50.6005 -50.5609 -50.5488 -50.4730 -50.4221 -50.4096
   -19.0936 -18.9914 -18.8702 -18.5379 -18.3516 -18.2698 -18.1966 -17.4227
   -17.3867 -17.3317 -17.2104 -16.8239 -16.5914  -9.8447  -9.7632  -9.7060
    -9.5383  -9.2969  -9.2204  -9.0577  -8.6123  -7.9840  -7.8565  -7.7984
    -7.7569  -7.6611  -7.5974  -7.5192  -7.4966  -7.2769  -7.0985  -7.0588
    -6.6098  -6.5871  -6.5815  -6.5320  -6.4790  -6.4759  -6.3931  -6.0747
    -5.9049  -5.6876  -5.1301  -3.8944  -3.4649  -3.3706  -3.2840  -3.2529
    -2.8067  -2.4560  -2.2231  -2.1356  -2.1185  -1.9002  -1.7753  -1.6990
    -1.5615  -1.4525  -1.3659  -1.1760  -1.0724  -0.9992  -0.9562  -0.8758
    -0.7069  -0.5427  -0.2848  -0.1287  -0.0673  -0.0305   0.1419   0.6075
     0.9874   1.2841   1.8708   2.1044   2.1522   2.2601

          k = 0.0000-0.2309 0.0000 ( 36406 PWs)   bands (ev):

   -82.0283 -81.9820 -81.9467 -81.9303 -81.8932 -81.7384 -50.7377 -50.6992
   -50.6722 -50.6693 -50.6590 -50.6516 -50.6334 -50.6267 -50.6201 -50.6125
   -50.6069 -50.6025 -50.6007 -50.5609 -50.5489 -50.4731 -50.4222 -50.4105
   -18.8421 -18.7800 -18.7555 -18.4557 -18.3932 -18.3571 -18.3221 -17.5999
   -17.5730 -17.5592 -17.2137 -16.8308 -16.5998  -9.6083  -9.4896  -9.4763
    -9.3864  -9.2864  -9.1197  -8.5951  -8.5482  -8.1463  -8.0304  -7.6000
    -7.5830  -7.5545  -7.5160  -7.5143  -7.4815  -7.3781  -7.2773  -7.0689
    -6.9575  -6.9560  -6.8775  -6.5360  -6.4924  -6.4516  -6.3492  -6.2977
    -6.1018  -5.8519  -5.6467  -3.8996  -3.4545  -3.4226  -3.3059  -3.2757
    -2.5079  -2.2623  -1.9592  -1.8952  -1.8750  -1.8221  -1.7622  -1.4821
    -1.4748  -1.4343  -1.3858  -1.2560  -1.2338  -1.1766  -1.1167  -1.0400
    -0.8625  -0.7390  -0.3951  -0.2300  -0.1988  -0.0281   0.1530   0.8975
     1.2711   1.8081   2.0377   2.0447   2.1010   2.1555

          k = 0.0000-0.1154 0.0000 ( 36396 PWs)   bands (ev):

   -82.0290 -81.9826 -81.9474 -81.9308 -81.8939 -81.7389 -50.7385 -50.6993
   -50.6721 -50.6676 -50.6589 -50.6515 -50.6378 -50.6268 -50.6149 -50.6124
   -50.6067 -50.6025 -50.6005 -50.5609 -50.5488 -50.4730 -50.4221 -50.4096
   -19.0936 -18.9914 -18.8702 -18.5379 -18.3516 -18.2698 -18.1966 -17.4227
   -17.3867 -17.3317 -17.2104 -16.8239 -16.5914  -9.8447  -9.7632  -9.7060
    -9.5383  -9.2969  -9.2204  -9.0577  -8.6123  -7.9840  -7.8565  -7.7984
    -7.7569  -7.6611  -7.5974  -7.5192  -7.4966  -7.2769  -7.0985  -7.0588
    -6.6098  -6.5871  -6.5815  -6.5320  -6.4790  -6.4759  -6.3931  -6.0747
    -5.9049  -5.6876  -5.1301  -3.8944  -3.4649  -3.3706  -3.2840  -3.2529
    -2.8067  -2.4560  -2.2231  -2.1356  -2.1185  -1.9002  -1.7753  -1.6990
    -1.5615  -1.4525  -1.3659  -1.1760  -1.0724  -0.9992  -0.9562  -0.8758
    -0.7069  -0.5427  -0.2848  -0.1287  -0.0673  -0.0305   0.1419   0.6075
     0.9874   1.2841   1.8708   2.1044   2.1522   2.2601

          k = 0.1111 0.0000 0.0000 ( 36417 PWs)   bands (ev):

   -82.0265 -81.9800 -81.9450 -81.9282 -81.8916 -81.7361 -50.7386 -50.7137
   -50.6719 -50.6704 -50.6646 -50.6521 -50.6410 -50.6396 -50.6212 -50.6108
   -50.6105 -50.6018 -50.5994 -50.5755 -50.5471 -50.4722 -50.4371 -50.4071
   -19.0976 -19.0043 -18.8901 -18.4109 -18.2641 -18.1515 -18.0317 -17.3795
   -17.3262 -17.3209 -17.2312 -16.9257 -16.6999  -9.8753  -9.7871  -9.7335
    -9.3636  -9.3423  -9.1108  -8.8975  -8.7478  -8.1076  -8.0549  -7.9812
    -7.9037  -7.8050  -7.5578  -7.4580  -7.2937  -7.1860  -7.1678  -6.8929
    -6.8561  -6.5975  -6.5133  -6.3472  -6.3331  -6.3115  -6.2121  -6.1543
    -5.7906  -5.4544  -4.7985  -3.9976  -3.6675  -3.4750  -2.9902  -2.9295
    -2.8809  -2.8526  -2.7438  -2.5543  -2.4043  -2.1513  -1.9637  -1.8157
    -1.5018  -1.2638  -1.2531  -1.1678  -1.0763  -1.0245  -0.8390  -0.5794
    -0.3427  -0.3224  -0.2500  -0.1486  -0.0788   0.0320   0.1091   0.1840
     0.5538   1.1132   1.5303   1.9259   2.0190   2.0897

          k = 0.1111 0.1154 0.0000 ( 36373 PWs)   bands (ev):

   -82.0260 -81.9796 -81.9444 -81.9278 -81.8910 -81.7358 -50.7378 -50.7136
   -50.6719 -50.6704 -50.6660 -50.6522 -50.6410 -50.6368 -50.6213 -50.6136
   -50.6108 -50.6018 -50.5997 -50.5755 -50.5471 -50.4723 -50.4371 -50.4079
   -18.9636 -18.8592 -18.7414 -18.4295 -18.2806 -18.1628 -18.0786 -17.5242
   -17.4870 -17.4376 -17.3128 -16.9302 -16.7058  -9.6398  -9.5604  -9.4964
    -9.3423  -9.1332  -9.0860  -8.9044  -8.5364  -8.0183  -7.9341  -7.9112
    -7.8558  -7.7858  -7.6660  -7.5293  -7.4641  -7.2231  -7.1831  -7.0729
    -6.8282  -6.6928  -6.6550  -6.5853  -6.5538  -6.4514  -6.2811  -6.0730
    -5.8641  -5.5963  -5.0347  -3.9779  -3.8037  -3.4362  -3.2081  -3.1792
    -2.8023  -2.5381  -2.4949  -2.3719  -2.2563  -2.1196  -1.8588  -1.6494
    -1.4698  -1.3552  -1.3232  -1.2073  -1.1069  -1.0331  -0.9171  -0.7251
    -0.5709  -0.5083  -0.2832  -0.1949  -0.1141  -0.0513   0.0675   0.6478
     1.0101   1.2915   1.5415   1.7505   1.9449   2.0394

          k = 0.1111-0.2309 0.0000 ( 36400 PWs)   bands (ev):

   -82.0255 -81.9792 -81.9439 -81.9274 -81.8903 -81.7354 -50.7370 -50.7135
   -50.6719 -50.6705 -50.6675 -50.6523 -50.6408 -50.6332 -50.6209 -50.6183
   -50.6109 -50.6018 -50.6000 -50.5754 -50.5472 -50.4724 -50.4371 -50.4086
   -18.7214 -18.6557 -18.6148 -18.3483 -18.2810 -18.2606 -18.2578 -17.6864
   -17.6628 -17.6320 -17.3155 -16.9371 -16.7124  -9.4125  -9.3171  -9.3023
    -9.2023  -9.1072  -8.9871  -8.5407  -8.4613  -8.1300  -7.9625  -7.7787
    -7.6332  -7.6111  -7.5721  -7.4992  -7.4972  -7.4106  -7.2420  -7.2305
    -7.1710  -7.1273  -7.1175  -6.7576  -6.5660  -6.3165  -6.1559  -6.1429
    -5.8317  -5.6921  -5.5022  -4.0558  -3.6792  -3.6547  -3.3626  -3.3493
    -2.5380  -2.5353  -2.2770  -2.1521  -2.0609  -1.8420  -1.8023  -1.7446
    -1.4603  -1.2515  -1.2335  -1.1270  -1.1091  -1.0681  -0.9358  -0.9200
    -0.7610  -0.7489  -0.3732  -0.2888  -0.2105  -0.0872   0.1276   0.9645
     1.1989   1.4067   1.5371   1.5533   1.9259   2.0265

          k = 0.1111-0.1154 0.0000 ( 36373 PWs)   bands (ev):

   -82.0260 -81.9796 -81.9444 -81.9278 -81.8910 -81.7358 -50.7378 -50.7136
   -50.6719 -50.6704 -50.6660 -50.6522 -50.6410 -50.6368 -50.6213 -50.6136
   -50.6108 -50.6018 -50.5997 -50.5755 -50.5471 -50.4723 -50.4371 -50.4079
   -18.9636 -18.8591 -18.7413 -18.4296 -18.2807 -18.1628 -18.0785 -17.5243
   -17.4870 -17.4376 -17.3128 -16.9302 -16.7058  -9.6398  -9.5603  -9.4964
    -9.3422  -9.1331  -9.0859  -8.9043  -8.5357  -8.0172  -7.9345  -7.9122
    -7.8561  -7.7883  -7.6654  -7.5297  -7.4657  -7.2202  -7.1821  -7.0736
    -6.8274  -6.6916  -6.6554  -6.5847  -6.5542  -6.4521  -6.2826  -6.0725
    -5.8643  -5.5960  -5.0345  -3.9772  -3.8058  -3.4335  -3.2110  -3.1798
    -2.8007  -2.5371  -2.4964  -2.3718  -2.2564  -2.1173  -1.8566  -1.6464
    -1.4764  -1.3549  -1.3248  -1.2085  -1.1116  -1.0312  -0.9152  -0.7249
    -0.5723  -0.5032  -0.2831  -0.1950  -0.1142  -0.0513   0.0674   0.6477
     1.0097   1.2915   1.5418   1.7512   1.9454   2.0394

          k = 0.2222 0.0000 0.0000 ( 36375 PWs)   bands (ev):

   -82.0210 -81.9745 -81.9394 -81.9226 -81.8860 -81.7304 -50.7474 -50.7363
   -50.7055 -50.6745 -50.6660 -50.6612 -50.6554 -50.6503 -50.6359 -50.6104
   -50.6083 -50.6066 -50.5998 -50.5970 -50.5427 -50.4724 -50.4702 -50.4031
   -18.7501 -18.6553 -18.5492 -18.2151 -18.0196 -17.9282 -17.7347 -17.6638
   -17.6098 -17.5587 -17.5232 -17.1640 -16.9416  -9.2807  -9.1727  -9.0941
    -9.0188  -8.8621  -8.6840  -8.6678  -8.6182  -8.3496  -8.3172  -8.2757
    -8.1437  -7.7853  -7.7696  -7.6589  -7.3248  -7.3202  -7.1226  -7.0770
    -6.8331  -6.7067  -6.4875  -6.3901  -6.2375  -6.2294  -6.1881  -6.0908
    -5.9590  -5.4999  -4.9176  -4.6931  -4.3519  -3.7611  -3.2558  -3.1512
    -3.0363  -2.5281  -2.3551  -2.3421  -2.2357  -2.1474  -2.1205  -1.9912
    -1.6688  -1.5134  -1.3445  -1.1712  -1.0961  -1.0720  -0.8728  -0.7018
    -0.4159  -0.3796  -0.3321  -0.2731  -0.2608  -0.2031  -0.0672   0.4081
     0.7745   0.9442   1.1128   1.4832   1.5402   1.6420

          k = 0.2222 0.1154 0.0000 ( 36357 PWs)   bands (ev):

   -82.0208 -81.9745 -81.9392 -81.9225 -81.8857 -81.7303 -50.7473 -50.7359
   -50.7051 -50.6743 -50.6661 -50.6619 -50.6560 -50.6503 -50.6330 -50.6109
   -50.6098 -50.6066 -50.5997 -50.5972 -50.5427 -50.4722 -50.4703 -50.4034
   -18.6469 -18.5407 -18.4255 -18.2238 -18.0793 -17.9183 -17.8446 -17.7395
   -17.6813 -17.6582 -17.5403 -17.1700 -16.9426  -9.1599  -9.1028  -9.0017
    -8.8726  -8.8007  -8.6942  -8.6118  -8.4505  -8.3846  -8.2542  -8.1548
    -8.1045  -7.8210  -7.6546  -7.5906  -7.4574  -7.2640  -7.2099  -7.0869
    -6.9552  -6.7454  -6.7317  -6.6451  -6.5262  -6.3715  -6.1239  -6.0691
    -5.8239  -5.4410  -4.8983  -4.5971  -4.3381  -3.7393  -3.2967  -3.1789
    -3.0927  -2.8678  -2.5440  -2.3551  -2.2019  -2.0748  -2.0032  -1.8961
    -1.5325  -1.5064  -1.2728  -1.2181  -1.1410  -1.0461  -0.9065  -0.6769
    -0.5142  -0.4283  -0.3820  -0.3382  -0.2454  -0.1658  -0.1021   0.5146
     0.6914   0.8168   0.9449   1.0858   1.6423   1.6779

          k = 0.2222-0.2309 0.0000 ( 36370 PWs)   bands (ev):

   -82.0206 -81.9744 -81.9390 -81.9225 -81.8854 -81.7303 -50.7471 -50.7355
   -50.7047 -50.6741 -50.6661 -50.6627 -50.6565 -50.6504 -50.6294 -50.6136
   -50.6099 -50.6066 -50.5996 -50.5974 -50.5428 -50.4720 -50.4703 -50.4036
   -18.4424 -18.3800 -18.2727 -18.1786 -18.1507 -18.0654 -18.0519 -17.8325
   -17.8121 -17.6547 -17.5447 -17.1768 -16.9441  -9.0398  -9.0236  -8.9893
    -8.8594  -8.8565  -8.6237  -8.5922  -8.1814  -8.1674  -7.8281  -7.7827
    -7.7460  -7.7317  -7.6233  -7.6112  -7.5901  -7.5555  -7.4883  -7.3817
    -7.3020  -7.2166  -7.0469  -6.9955  -6.4091  -6.3569  -5.8868  -5.8736
    -5.4067  -5.3992  -5.2289  -4.5594  -4.0607  -4.0309  -3.6477  -3.5254
    -3.1591  -3.0427  -2.2979  -2.2466  -2.0809  -2.0291  -1.9444  -1.6184
    -1.5159  -1.4349  -1.3781  -1.1593  -1.0556  -1.0073  -0.8766  -0.7364
    -0.7009  -0.4876  -0.4219  -0.3548  -0.2815  -0.2402  -0.0622   0.4888
     0.5486   0.6037   0.7135   1.0538   1.6480   1.8446

          k = 0.2222-0.1154 0.0000 ( 36357 PWs)   bands (ev):

   -82.0208 -81.9745 -81.9392 -81.9225 -81.8857 -81.7303 -50.7473 -50.7358
   -50.7052 -50.6743 -50.6661 -50.6619 -50.6560 -50.6503 -50.6330 -50.6109
   -50.6098 -50.6066 -50.5997 -50.5972 -50.5427 -50.4722 -50.4703 -50.4034
   -18.6467 -18.5405 -18.4254 -18.2243 -18.0791 -17.9183 -17.8447 -17.7397
   -17.6819 -17.6575 -17.5405 -17.1700 -16.9426  -9.1596  -9.1024  -9.0016
    -8.8722  -8.8001  -8.6938  -8.6115  -8.4495  -8.3845  -8.2548  -8.1538
    -8.1093  -7.8248  -7.6551  -7.5871  -7.4585  -7.2610  -7.2104  -7.0867
    -6.9543  -6.7453  -6.7315  -6.6450  -6.5265  -6.3713  -6.1263  -6.0676
    -5.8240  -5.4403  -4.8977  -4.5966  -4.3410  -3.7374  -3.2985  -3.1784
    -3.0949  -2.8658  -2.5435  -2.3551  -2.1995  -2.0761  -2.0041  -1.8960
    -1.5367  -1.5041  -1.2740  -1.2176  -1.1399  -1.0466  -0.9073  -0.6766
    -0.5141  -0.4253  -0.3801  -0.3404  -0.2454  -0.1649  -0.1025   0.5142
     0.6909   0.8163   0.9447   1.0866   1.6422   1.6788

          k = 0.3333 0.0000 0.0000 ( 36366 PWs)   bands (ev):

   -82.0186 -81.9721 -81.9371 -81.9201 -81.8835 -81.7280 -50.7816 -50.7400
   -50.7329 -50.7081 -50.6904 -50.6604 -50.6570 -50.6474 -50.6451 -50.6306
   -50.6062 -50.6014 -50.5970 -50.5942 -50.5374 -50.5078 -50.4675 -50.3982
   -18.3447 -18.2724 -18.1499 -18.0394 -17.9637 -17.9120 -17.8879 -17.8766
   -17.8338 -17.6037 -17.5311 -17.2413 -17.0100  -9.1287  -9.0233  -9.0121
    -8.9298  -8.6878  -8.6293  -8.4265  -8.2916  -8.2715  -8.2221  -8.0647
    -7.8622  -7.8377  -7.5291  -7.4835  -7.2993  -7.2773  -7.1923  -7.0620
    -7.0350  -6.8769  -6.7709  -6.6445  -5.9862  -5.9137  -5.8719  -5.8126
    -5.7732  -5.4042  -5.0909  -4.9482  -4.7314  -4.0413  -3.9478  -3.7612
    -3.4345  -2.8503  -2.5101  -2.4913  -2.4497  -2.3699  -2.2883  -2.0034
    -1.8504  -1.4589  -1.2373  -1.2134  -1.0290  -0.9529  -0.8338  -0.7935
    -0.6991  -0.6121  -0.4817  -0.4523  -0.3514  -0.3279  -0.0987   0.0905
     0.5705   0.9721   1.1384   1.2306   1.3168   1.3269

          k = 0.3333 0.1154 0.0000 ( 36376 PWs)   bands (ev):

   -82.0187 -81.9725 -81.9372 -81.9205 -81.8836 -81.7284 -50.7813 -50.7424
   -50.7298 -50.7077 -50.6908 -50.6604 -50.6570 -50.6475 -50.6449 -50.6286
   -50.6070 -50.6013 -50.5969 -50.5943 -50.5374 -50.5073 -50.4675 -50.3979
   -18.3658 -18.3097 -18.2585 -18.1315 -17.9754 -17.9037 -17.8253 -17.7928
   -17.7265 -17.5917 -17.5401 -17.2401 -17.0080  -9.2066  -9.1815  -9.1397
    -9.0550  -8.9753  -8.7341  -8.2400  -8.1227  -8.0265  -7.9868  -7.9441
    -7.8137  -7.6741  -7.4228  -7.3477  -7.3331  -7.2591  -7.1658  -7.1126
    -6.9577  -6.8273  -6.7946  -6.6815  -6.4932  -6.0474  -5.9593  -5.7981
    -5.6296  -5.3123  -4.9910  -4.8712  -4.4928  -3.9053  -3.7404  -3.5578
    -3.2585  -3.0370  -2.9044  -2.7513  -2.6899  -2.5253  -2.2736  -2.0106
    -1.8986  -1.5077  -1.2465  -1.2131  -1.1479  -0.9989  -0.8818  -0.7438
    -0.6067  -0.5189  -0.4739  -0.4131  -0.3729  -0.3081  -0.1623  -0.0273
     0.0921   0.2968   0.4322   0.8383   1.4440   1.8404

          k = 0.3333-0.2309 0.0000 ( 36374 PWs)   bands (ev):

   -82.0189 -81.9728 -81.9373 -81.9208 -81.8837 -81.7287 -50.7811 -50.7439
   -50.7275 -50.7074 -50.6911 -50.6604 -50.6569 -50.6475 -50.6446 -50.6265
   -50.6079 -50.6013 -50.5968 -50.5944 -50.5374 -50.5068 -50.4676 -50.3976
   -18.3783 -18.3545 -18.3394 -18.1626 -17.9998 -17.9015 -17.7656 -17.7348
   -17.6628 -17.5860 -17.5419 -17.2389 -17.0059  -9.3054  -9.2962  -9.2699
    -9.1242  -9.1209  -8.8176  -8.0537  -7.8477  -7.8369  -7.7319  -7.6959
    -7.6082  -7.5897  -7.4151  -7.3977  -7.3121  -7.2436  -7.2071  -7.1853
    -7.0959  -7.0428  -7.0086  -6.9493  -6.6234  -5.9148  -5.7307  -5.5183
    -5.3543  -5.2071  -5.0953  -5.0057  -3.9637  -3.8930  -3.6814  -3.6741
    -3.6345  -3.5169  -2.8184  -2.7016  -2.6794  -2.5679  -2.2087  -2.1047
    -1.9846  -1.5424  -1.2712  -1.1848  -1.1239  -1.1145  -0.9773  -0.8154
    -0.6747  -0.4622  -0.4406  -0.4114  -0.3646  -0.3333  -0.2278  -0.2085
    -0.1346  -0.0793   0.1415   0.8747   1.4486   2.0072

          k = 0.3333-0.1154 0.0000 ( 36376 PWs)   bands (ev):

   -82.0187 -81.9725 -81.9372 -81.9205 -81.8836 -81.7284 -50.7813 -50.7423
   -50.7298 -50.7077 -50.6908 -50.6604 -50.6570 -50.6475 -50.6449 -50.6286
   -50.6070 -50.6013 -50.5969 -50.5943 -50.5374 -50.5073 -50.4675 -50.3979
   -18.3651 -18.3092 -18.2587 -18.1325 -17.9755 -17.9036 -17.8254 -17.7926
   -17.7267 -17.5916 -17.5403 -17.2400 -17.0080  -9.2063  -9.1808  -9.1393
    -9.0553  -8.9754  -8.7338  -8.2403  -8.1243  -8.0259  -7.9873  -7.9449
    -7.8131  -7.6764  -7.4216  -7.3440  -7.3352  -7.2589  -7.1653  -7.1116
    -6.9600  -6.8258  -6.7970  -6.6804  -6.4911  -6.0483  -5.9596  -5.7988
    -5.6293  -5.3109  -4.9915  -4.8709  -4.4935  -3.9052  -3.7396  -3.5585
    -3.2579  -3.0389  -2.9062  -2.7501  -2.6908  -2.5246  -2.2740  -2.0097
    -1.8994  -1.5074  -1.2475  -1.2123  -1.1459  -0.9989  -0.8820  -0.7450
    -0.6060  -0.5166  -0.4737  -0.4134  -0.3723  -0.3074  -0.1649  -0.0276
     0.0928   0.2958   0.4322   0.8388   1.4439   1.8412

          k = 0.4444 0.0000 0.0000 ( 36366 PWs)   bands (ev):

   -82.0192 -81.9728 -81.9377 -81.9208 -81.8840 -81.7289 -50.8014 -50.7603
   -50.7303 -50.7274 -50.7110 -50.6656 -50.6565 -50.6541 -50.6453 -50.6263
   -50.6050 -50.5977 -50.5948 -50.5921 -50.5337 -50.5283 -50.4655 -50.3947
   -18.1682 -18.1475 -18.0978 -18.0688 -18.0253 -17.9518 -17.9153 -17.8913
   -17.8566 -17.6918 -17.3712 -17.0662 -16.8831  -9.4981  -9.3515  -9.2775
    -9.1385  -8.9344  -8.9052  -8.2468  -8.0081  -7.8149  -7.7483  -7.7310
    -7.4955  -7.4726  -7.3693  -7.2759  -7.2425  -7.1542  -7.1257  -7.0296
    -6.9777  -6.9642  -6.8609  -6.7112  -6.2454  -5.6042  -5.5614  -5.4596
    -5.3256  -5.2037  -4.9208  -4.7713  -4.5842  -4.4812  -4.2250  -3.9575
    -3.5271  -3.3711  -3.1212  -2.9208  -2.8897  -2.8449  -2.7991  -2.7534
    -2.5713  -1.6442  -1.2036  -1.0613  -1.0496  -0.9164  -0.8014  -0.7300
    -0.5820  -0.4919  -0.4222  -0.3807  -0.2717  -0.1821  -0.0088   0.0555
     0.5965   0.7688   1.0686   1.0876   1.1205   1.2308

          k = 0.4444 0.1154 0.0000 ( 36400 PWs)   bands (ev):

   -82.0196 -81.9734 -81.9380 -81.9214 -81.8844 -81.7294 -50.8012 -50.7612
   -50.7287 -50.7272 -50.7112 -50.6653 -50.6565 -50.6535 -50.6453 -50.6252
   -50.6045 -50.5977 -50.5949 -50.5920 -50.5337 -50.5275 -50.4655 -50.3941
   -18.3931 -18.3630 -18.3465 -18.1590 -18.0370 -17.9031 -17.7066 -17.6425
   -17.6132 -17.5922 -17.3696 -17.0627 -16.8778  -9.5367  -9.5244  -9.4677
    -9.3998  -9.3550  -8.9996  -7.9559  -7.7726  -7.6584  -7.5847  -7.5363
    -7.5018  -7.3537  -7.3459  -7.2603  -7.1694  -7.1656  -7.0819  -7.0209
    -6.9556  -6.9040  -6.8854  -6.7373  -6.4467  -5.5734  -5.3398  -5.3180
    -5.1608  -5.0115  -4.7112  -4.6392  -4.4536  -4.2957  -4.1212  -3.9233
    -3.5795  -3.5067  -3.3165  -3.2343  -3.1274  -3.0197  -2.8658  -2.7332
    -2.5718  -1.5699  -1.2541  -1.1790  -1.0618  -1.0093  -0.9362  -0.7882
    -0.5560  -0.5193  -0.4060  -0.3872  -0.3458  -0.3159  -0.2151  -0.1338
    -0.1164   0.0419   0.1009   0.7235   1.4656   2.0738

          k = 0.4444-0.2309 0.0000 ( 36450 PWs)   bands (ev):

   -82.0199 -81.9739 -81.9383 -81.9219 -81.8847 -81.7300 -50.8009 -50.7620
   -50.7271 -50.7269 -50.7114 -50.6650 -50.6565 -50.6530 -50.6453 -50.6242
   -50.6041 -50.5977 -50.5950 -50.5920 -50.5337 -50.5267 -50.4655 -50.3935
   -18.5269 -18.4952 -18.4864 -18.1570 -18.0359 -17.8933 -17.7197 -17.4930
   -17.4586 -17.4338 -17.3654 -17.0593 -16.8727  -9.7066  -9.6828  -9.6558
    -9.5277  -9.4389  -9.0819  -7.9176  -7.7284  -7.7132  -7.5170  -7.4049
    -7.3951  -7.3348  -7.2673  -7.2191  -7.1758  -7.1499  -7.0298  -7.0263
    -6.8868  -6.8301  -6.6328  -6.6111  -6.4917  -5.5214  -5.3305  -4.9899
    -4.9193  -4.8033  -4.7570  -4.6153  -4.3055  -3.9973  -3.8961  -3.8617
    -3.7383  -3.7250  -3.5084  -3.4650  -3.2775  -3.1211  -2.9008  -2.6751
    -2.6449  -1.5736  -1.5349  -1.3824  -1.1973  -1.1259  -1.0864  -0.9911
    -0.8363  -0.8261  -0.8004  -0.4820  -0.3065  -0.2457  -0.2182  -0.1583
    -0.1155  -0.0775   0.0420   0.7668   1.4706   2.1513

          k = 0.4444-0.1154 0.0000 ( 36400 PWs)   bands (ev):

   -82.0196 -81.9734 -81.9380 -81.9214 -81.8844 -81.7294 -50.8012 -50.7612
   -50.7287 -50.7272 -50.7112 -50.6653 -50.6565 -50.6535 -50.6453 -50.6252
   -50.6045 -50.5977 -50.5949 -50.5920 -50.5337 -50.5275 -50.4655 -50.3941
   -18.3928 -18.3630 -18.3466 -18.1592 -18.0371 -17.9032 -17.7065 -17.6424
   -17.6132 -17.5923 -17.3696 -17.0627 -16.8778  -9.5367  -9.5239  -9.4680
    -9.3996  -9.3554  -8.9996  -7.9559  -7.7735  -7.6599  -7.5822  -7.5390
    -7.4991  -7.3574  -7.3409  -7.2569  -7.1834  -7.1584  -7.0799  -7.0214
    -6.9514  -6.9070  -6.8874  -6.7368  -6.4445  -5.5770  -5.3406  -5.3171
    -5.1594  -5.0098  -4.7117  -4.6389  -4.4525  -4.2959  -4.1217  -3.9236
    -3.5805  -3.5070  -3.3184  -3.2344  -3.1248  -3.0197  -2.8665  -2.7320
    -2.5732  -1.5693  -1.2544  -1.1788  -1.0617  -1.0091  -0.9360  -0.7880
    -0.5529  -0.5199  -0.4087  -0.3821  -0.3480  -0.3188  -0.2156  -0.1335
    -0.1171   0.0425   0.1009   0.7237   1.4656   2.0748

          k =-0.4444 0.0000 0.0000 ( 36366 PWs)   bands (ev):

   -82.0192 -81.9728 -81.9377 -81.9208 -81.8840 -81.7289 -50.8014 -50.7603
   -50.7303 -50.7274 -50.7110 -50.6656 -50.6565 -50.6541 -50.6453 -50.6263
   -50.6050 -50.5977 -50.5948 -50.5921 -50.5337 -50.5283 -50.4655 -50.3947
   -18.1682 -18.1475 -18.0978 -18.0688 -18.0253 -17.9518 -17.9153 -17.8913
   -17.8566 -17.6918 -17.3712 -17.0662 -16.8831  -9.4981  -9.3515  -9.2775
    -9.1385  -8.9344  -8.9052  -8.2468  -8.0081  -7.8149  -7.7483  -7.7310
    -7.4955  -7.4726  -7.3693  -7.2759  -7.2425  -7.1542  -7.1257  -7.0296
    -6.9777  -6.9642  -6.8609  -6.7112  -6.2454  -5.6042  -5.5614  -5.4596
    -5.3256  -5.2037  -4.9208  -4.7713  -4.5842  -4.4812  -4.2250  -3.9575
    -3.5271  -3.3711  -3.1212  -2.9208  -2.8897  -2.8449  -2.7991  -2.7534
    -2.5713  -1.6442  -1.2036  -1.0613  -1.0496  -0.9164  -0.8014  -0.7300
    -0.5820  -0.4919  -0.4222  -0.3807  -0.2717  -0.1821  -0.0088   0.0555
     0.5965   0.7688   1.0686   1.0876   1.1205   1.2308

          k =-0.4444 0.1154 0.0000 ( 36400 PWs)   bands (ev):

   -82.0196 -81.9734 -81.9380 -81.9214 -81.8844 -81.7294 -50.8012 -50.7612
   -50.7287 -50.7272 -50.7112 -50.6653 -50.6565 -50.6535 -50.6453 -50.6252
   -50.6045 -50.5977 -50.5949 -50.5920 -50.5337 -50.5275 -50.4655 -50.3941
   -18.3928 -18.3630 -18.3466 -18.1592 -18.0371 -17.9032 -17.7065 -17.6424
   -17.6132 -17.5923 -17.3696 -17.0627 -16.8778  -9.5367  -9.5239  -9.4680
    -9.3996  -9.3554  -8.9996  -7.9559  -7.7735  -7.6599  -7.5822  -7.5390
    -7.4991  -7.3574  -7.3409  -7.2569  -7.1834  -7.1584  -7.0799  -7.0214
    -6.9514  -6.9070  -6.8874  -6.7368  -6.4445  -5.5770  -5.3406  -5.3171
    -5.1594  -5.0098  -4.7117  -4.6389  -4.4525  -4.2959  -4.1217  -3.9236
    -3.5805  -3.5070  -3.3184  -3.2344  -3.1248  -3.0197  -2.8665  -2.7320
    -2.5732  -1.5693  -1.2544  -1.1788  -1.0617  -1.0091  -0.9360  -0.7880
    -0.5529  -0.5199  -0.4087  -0.3821  -0.3480  -0.3188  -0.2156  -0.1335
    -0.1171   0.0425   0.1009   0.7237   1.4656   2.0749

          k =-0.4444-0.2309 0.0000 ( 36450 PWs)   bands (ev):

   -82.0199 -81.9739 -81.9383 -81.9219 -81.8847 -81.7300 -50.8009 -50.7620
   -50.7271 -50.7269 -50.7114 -50.6650 -50.6565 -50.6530 -50.6453 -50.6242
   -50.6041 -50.5977 -50.5950 -50.5920 -50.5337 -50.5267 -50.4655 -50.3935
   -18.5269 -18.4952 -18.4864 -18.1570 -18.0359 -17.8933 -17.7197 -17.4930
   -17.4586 -17.4338 -17.3654 -17.0593 -16.8727  -9.7066  -9.6828  -9.6558
    -9.5277  -9.4389  -9.0819  -7.9176  -7.7284  -7.7132  -7.5170  -7.4049
    -7.3951  -7.3348  -7.2673  -7.2191  -7.1758  -7.1499  -7.0298  -7.0263
    -6.8868  -6.8301  -6.6328  -6.6111  -6.4917  -5.5214  -5.3305  -4.9899
    -4.9193  -4.8033  -4.7570  -4.6153  -4.3055  -3.9973  -3.8961  -3.8617
    -3.7383  -3.7250  -3.5084  -3.4650  -3.2775  -3.1211  -2.9008  -2.6751
    -2.6449  -1.5736  -1.5349  -1.3824  -1.1973  -1.1259  -1.0864  -0.9911
    -0.8363  -0.8261  -0.8004  -0.4820  -0.3065  -0.2457  -0.2182  -0.1583
    -0.1155  -0.0775   0.0420   0.7668   1.4706   2.1513

          k =-0.4444-0.1154 0.0000 ( 36400 PWs)   bands (ev):

   -82.0196 -81.9734 -81.9380 -81.9214 -81.8844 -81.7294 -50.8012 -50.7612
   -50.7287 -50.7272 -50.7112 -50.6653 -50.6565 -50.6535 -50.6453 -50.6252
   -50.6045 -50.5977 -50.5949 -50.5920 -50.5337 -50.5275 -50.4655 -50.3941
   -18.3931 -18.3630 -18.3465 -18.1590 -18.0370 -17.9031 -17.7066 -17.6425
   -17.6132 -17.5922 -17.3696 -17.0627 -16.8778  -9.5367  -9.5244  -9.4677
    -9.3998  -9.3550  -8.9996  -7.9559  -7.7726  -7.6584  -7.5847  -7.5363
    -7.5018  -7.3537  -7.3459  -7.2603  -7.1694  -7.1656  -7.0819  -7.0209
    -6.9556  -6.9040  -6.8854  -6.7373  -6.4467  -5.5734  -5.3398  -5.3180
    -5.1608  -5.0115  -4.7112  -4.6392  -4.4536  -4.2957  -4.1212  -3.9233
    -3.5795  -3.5067  -3.3165  -3.2343  -3.1274  -3.0197  -2.8658  -2.7332
    -2.5718  -1.5699  -1.2541  -1.1790  -1.0618  -1.0093  -0.9362  -0.7882
    -0.5560  -0.5193  -0.4060  -0.3872  -0.3458  -0.3159  -0.2151  -0.1338
    -0.1164   0.0419   0.1009   0.7235   1.4656   2.0738

          k =-0.3333 0.0000 0.0000 ( 36366 PWs)   bands (ev):

   -82.0186 -81.9721 -81.9371 -81.9201 -81.8835 -81.7280 -50.7816 -50.7400
   -50.7329 -50.7081 -50.6904 -50.6604 -50.6570 -50.6474 -50.6451 -50.6306
   -50.6062 -50.6014 -50.5970 -50.5942 -50.5374 -50.5078 -50.4675 -50.3982
   -18.3447 -18.2724 -18.1499 -18.0394 -17.9637 -17.9120 -17.8879 -17.8766
   -17.8338 -17.6037 -17.5311 -17.2413 -17.0100  -9.1287  -9.0233  -9.0121
    -8.9298  -8.6878  -8.6293  -8.4265  -8.2916  -8.2715  -8.2221  -8.0647
    -7.8622  -7.8377  -7.5291  -7.4835  -7.2993  -7.2773  -7.1923  -7.0620
    -7.0350  -6.8769  -6.7709  -6.6445  -5.9862  -5.9137  -5.8719  -5.8126
    -5.7732  -5.4042  -5.0909  -4.9482  -4.7314  -4.0413  -3.9478  -3.7612
    -3.4345  -2.8503  -2.5101  -2.4913  -2.4497  -2.3699  -2.2883  -2.0034
    -1.8504  -1.4589  -1.2373  -1.2134  -1.0290  -0.9529  -0.8338  -0.7935
    -0.6991  -0.6121  -0.4817  -0.4523  -0.3514  -0.3279  -0.0987   0.0905
     0.5705   0.9721   1.1384   1.2306   1.3168   1.3269

          k =-0.3333 0.1154 0.0000 ( 36376 PWs)   bands (ev):

   -82.0187 -81.9725 -81.9372 -81.9205 -81.8836 -81.7284 -50.7813 -50.7423
   -50.7298 -50.7077 -50.6908 -50.6604 -50.6570 -50.6475 -50.6449 -50.6286
   -50.6070 -50.6013 -50.5969 -50.5943 -50.5374 -50.5073 -50.4675 -50.3979
   -18.3651 -18.3092 -18.2587 -18.1325 -17.9755 -17.9036 -17.8254 -17.7926
   -17.7267 -17.5916 -17.5403 -17.2400 -17.0080  -9.2063  -9.1808  -9.1393
    -9.0553  -8.9754  -8.7338  -8.2403  -8.1243  -8.0259  -7.9873  -7.9449
    -7.8131  -7.6764  -7.4216  -7.3440  -7.3352  -7.2589  -7.1653  -7.1116
    -6.9600  -6.8258  -6.7970  -6.6804  -6.4911  -6.0483  -5.9596  -5.7988
    -5.6293  -5.3109  -4.9915  -4.8709  -4.4935  -3.9052  -3.7396  -3.5585
    -3.2579  -3.0389  -2.9062  -2.7501  -2.6908  -2.5246  -2.2740  -2.0097
    -1.8994  -1.5074  -1.2475  -1.2123  -1.1459  -0.9989  -0.8820  -0.7450
    -0.6060  -0.5166  -0.4737  -0.4134  -0.3723  -0.3074  -0.1649  -0.0276
     0.0928   0.2958   0.4322   0.8388   1.4439   1.8412

          k =-0.3333-0.2309 0.0000 ( 36374 PWs)   bands (ev):

   -82.0189 -81.9728 -81.9373 -81.9208 -81.8837 -81.7287 -50.7811 -50.7439
   -50.7275 -50.7074 -50.6911 -50.6604 -50.6569 -50.6475 -50.6446 -50.6265
   -50.6079 -50.6013 -50.5968 -50.5944 -50.5374 -50.5068 -50.4676 -50.3976
   -18.3783 -18.3545 -18.3394 -18.1626 -17.9998 -17.9015 -17.7656 -17.7348
   -17.6628 -17.5860 -17.5419 -17.2389 -17.0059  -9.3054  -9.2962  -9.2699
    -9.1242  -9.1209  -8.8176  -8.0537  -7.8477  -7.8369  -7.7319  -7.6959
    -7.6082  -7.5897  -7.4151  -7.3977  -7.3121  -7.2436  -7.2071  -7.1853
    -7.0959  -7.0428  -7.0086  -6.9493  -6.6234  -5.9148  -5.7307  -5.5183
    -5.3543  -5.2071  -5.0953  -5.0057  -3.9637  -3.8930  -3.6814  -3.6741
    -3.6345  -3.5169  -2.8184  -2.7016  -2.6794  -2.5679  -2.2087  -2.1047
    -1.9846  -1.5424  -1.2712  -1.1848  -1.1239  -1.1145  -0.9773  -0.8154
    -0.6747  -0.4622  -0.4406  -0.4114  -0.3646  -0.3333  -0.2278  -0.2085
    -0.1346  -0.0793   0.1415   0.8747   1.4486   2.0072

          k =-0.3333-0.1154 0.0000 ( 36376 PWs)   bands (ev):

   -82.0187 -81.9725 -81.9372 -81.9205 -81.8836 -81.7284 -50.7813 -50.7424
   -50.7298 -50.7077 -50.6908 -50.6604 -50.6570 -50.6475 -50.6449 -50.6286
   -50.6070 -50.6013 -50.5969 -50.5943 -50.5374 -50.5073 -50.4675 -50.3979
   -18.3658 -18.3097 -18.2585 -18.1315 -17.9754 -17.9037 -17.8253 -17.7928
   -17.7265 -17.5917 -17.5401 -17.2401 -17.0080  -9.2066  -9.1815  -9.1397
    -9.0550  -8.9753  -8.7341  -8.2400  -8.1227  -8.0265  -7.9868  -7.9441
    -7.8137  -7.6741  -7.4228  -7.3477  -7.3331  -7.2591  -7.1658  -7.1126
    -6.9577  -6.8273  -6.7946  -6.6815  -6.4932  -6.0474  -5.9593  -5.7981
    -5.6296  -5.3123  -4.9910  -4.8712  -4.4928  -3.9053  -3.7404  -3.5578
    -3.2585  -3.0370  -2.9044  -2.7513  -2.6899  -2.5253  -2.2736  -2.0106
    -1.8986  -1.5077  -1.2465  -1.2131  -1.1479  -0.9989  -0.8818  -0.7438
    -0.6067  -0.5189  -0.4739  -0.4131  -0.3729  -0.3081  -0.1623  -0.0273
     0.0921   0.2968   0.4322   0.8383   1.4440   1.8401

          k =-0.2222 0.0000 0.0000 ( 36375 PWs)   bands (ev):

   -82.0210 -81.9745 -81.9394 -81.9226 -81.8860 -81.7304 -50.7474 -50.7363
   -50.7055 -50.6745 -50.6660 -50.6612 -50.6554 -50.6503 -50.6359 -50.6104
   -50.6083 -50.6066 -50.5998 -50.5970 -50.5427 -50.4724 -50.4702 -50.4031
   -18.7501 -18.6553 -18.5492 -18.2151 -18.0196 -17.9282 -17.7347 -17.6638
   -17.6098 -17.5587 -17.5232 -17.1640 -16.9416  -9.2807  -9.1727  -9.0941
    -9.0188  -8.8621  -8.6840  -8.6678  -8.6182  -8.3496  -8.3172  -8.2757
    -8.1437  -7.7853  -7.7696  -7.6589  -7.3248  -7.3202  -7.1226  -7.0770
    -6.8331  -6.7067  -6.4875  -6.3901  -6.2375  -6.2294  -6.1881  -6.0908
    -5.9590  -5.4999  -4.9176  -4.6931  -4.3519  -3.7611  -3.2558  -3.1512
    -3.0363  -2.5281  -2.3551  -2.3421  -2.2357  -2.1474  -2.1205  -1.9912
    -1.6688  -1.5134  -1.3445  -1.1712  -1.0961  -1.0720  -0.8728  -0.7018
    -0.4159  -0.3796  -0.3321  -0.2731  -0.2608  -0.2031  -0.0672   0.4081
     0.7745   0.9442   1.1128   1.4832   1.5402   1.6420

          k =-0.2222 0.1154 0.0000 ( 36357 PWs)   bands (ev):

   -82.0208 -81.9745 -81.9392 -81.9225 -81.8857 -81.7303 -50.7473 -50.7358
   -50.7052 -50.6743 -50.6661 -50.6619 -50.6560 -50.6503 -50.6330 -50.6109
   -50.6098 -50.6066 -50.5997 -50.5972 -50.5427 -50.4722 -50.4703 -50.4034
   -18.6467 -18.5405 -18.4254 -18.2243 -18.0791 -17.9183 -17.8447 -17.7397
   -17.6819 -17.6575 -17.5405 -17.1700 -16.9426  -9.1596  -9.1024  -9.0016
    -8.8722  -8.8001  -8.6938  -8.6115  -8.4495  -8.3845  -8.2548  -8.1538
    -8.1093  -7.8248  -7.6551  -7.5871  -7.4585  -7.2610  -7.2104  -7.0867
    -6.9543  -6.7453  -6.7315  -6.6450  -6.5265  -6.3713  -6.1263  -6.0676
    -5.8240  -5.4403  -4.8977  -4.5966  -4.3410  -3.7374  -3.2985  -3.1784
    -3.0949  -2.8658  -2.5435  -2.3551  -2.1995  -2.0761  -2.0041  -1.8960
    -1.5367  -1.5041  -1.2740  -1.2176  -1.1399  -1.0466  -0.9073  -0.6766
    -0.5141  -0.4253  -0.3801  -0.3404  -0.2454  -0.1649  -0.1025   0.5142
     0.6909   0.8163   0.9447   1.0866   1.6422   1.6788

          k =-0.2222-0.2309 0.0000 ( 36370 PWs)   bands (ev):

   -82.0206 -81.9744 -81.9390 -81.9225 -81.8854 -81.7303 -50.7471 -50.7355
   -50.7047 -50.6741 -50.6661 -50.6627 -50.6565 -50.6504 -50.6294 -50.6136
   -50.6099 -50.6066 -50.5996 -50.5974 -50.5428 -50.4720 -50.4703 -50.4036
   -18.4424 -18.3800 -18.2727 -18.1786 -18.1507 -18.0654 -18.0519 -17.8325
   -17.8121 -17.6547 -17.5447 -17.1768 -16.9441  -9.0398  -9.0236  -8.9893
    -8.8594  -8.8565  -8.6237  -8.5922  -8.1814  -8.1674  -7.8281  -7.7827
    -7.7460  -7.7317  -7.6233  -7.6112  -7.5901  -7.5555  -7.4883  -7.3817
    -7.3020  -7.2166  -7.0469  -6.9955  -6.4091  -6.3569  -5.8868  -5.8736
    -5.4067  -5.3992  -5.2289  -4.5594  -4.0607  -4.0309  -3.6477  -3.5254
    -3.1591  -3.0427  -2.2979  -2.2466  -2.0809  -2.0291  -1.9444  -1.6184
    -1.5159  -1.4349  -1.3781  -1.1593  -1.0556  -1.0073  -0.8766  -0.7364
    -0.7009  -0.4876  -0.4219  -0.3548  -0.2815  -0.2402  -0.0622   0.4888
     0.5486   0.6037   0.7135   1.0538   1.6480   1.8446

          k =-0.2222-0.1154 0.0000 ( 36357 PWs)   bands (ev):

   -82.0208 -81.9745 -81.9392 -81.9225 -81.8857 -81.7303 -50.7473 -50.7359
   -50.7051 -50.6743 -50.6661 -50.6619 -50.6560 -50.6503 -50.6330 -50.6109
   -50.6098 -50.6066 -50.5997 -50.5972 -50.5427 -50.4722 -50.4703 -50.4034
   -18.6469 -18.5407 -18.4255 -18.2238 -18.0793 -17.9183 -17.8446 -17.7395
   -17.6813 -17.6582 -17.5403 -17.1700 -16.9426  -9.1599  -9.1028  -9.0017
    -8.8726  -8.8007  -8.6942  -8.6118  -8.4505  -8.3846  -8.2542  -8.1548
    -8.1045  -7.8210  -7.6546  -7.5906  -7.4574  -7.2640  -7.2099  -7.0869
    -6.9552  -6.7454  -6.7317  -6.6451  -6.5262  -6.3715  -6.1239  -6.0691
    -5.8239  -5.4410  -4.8983  -4.5971  -4.3381  -3.7393  -3.2967  -3.1789
    -3.0927  -2.8678  -2.5440  -2.3551  -2.2019  -2.0748  -2.0032  -1.8961
    -1.5325  -1.5064  -1.2728  -1.2181  -1.1410  -1.0461  -0.9065  -0.6769
    -0.5142  -0.4283  -0.3820  -0.3382  -0.2454  -0.1658  -0.1021   0.5146
     0.6914   0.8168   0.9449   1.0858   1.6423   1.6779

          k =-0.1111 0.0000 0.0000 ( 36417 PWs)   bands (ev):

   -82.0265 -81.9800 -81.9450 -81.9282 -81.8916 -81.7361 -50.7386 -50.7137
   -50.6719 -50.6704 -50.6646 -50.6521 -50.6410 -50.6396 -50.6212 -50.6108
   -50.6105 -50.6018 -50.5994 -50.5755 -50.5471 -50.4722 -50.4371 -50.4071
   -19.0976 -19.0043 -18.8901 -18.4109 -18.2641 -18.1515 -18.0317 -17.3795
   -17.3262 -17.3209 -17.2312 -16.9257 -16.6999  -9.8753  -9.7871  -9.7335
    -9.3636  -9.3423  -9.1108  -8.8975  -8.7478  -8.1076  -8.0549  -7.9812
    -7.9037  -7.8050  -7.5578  -7.4580  -7.2937  -7.1860  -7.1678  -6.8929
    -6.8561  -6.5975  -6.5133  -6.3472  -6.3331  -6.3115  -6.2121  -6.1543
    -5.7906  -5.4544  -4.7985  -3.9976  -3.6675  -3.4750  -2.9902  -2.9295
    -2.8809  -2.8526  -2.7438  -2.5543  -2.4043  -2.1513  -1.9637  -1.8157
    -1.5018  -1.2638  -1.2531  -1.1678  -1.0763  -1.0245  -0.8390  -0.5794
    -0.3427  -0.3224  -0.2500  -0.1486  -0.0788   0.0320   0.1091   0.1840
     0.5538   1.1132   1.5303   1.9259   2.0193   2.0898

          k =-0.1111 0.1154 0.0000 ( 36373 PWs)   bands (ev):

   -82.0260 -81.9796 -81.9444 -81.9278 -81.8910 -81.7358 -50.7378 -50.7136
   -50.6719 -50.6704 -50.6660 -50.6522 -50.6410 -50.6368 -50.6213 -50.6136
   -50.6108 -50.6018 -50.5997 -50.5755 -50.5471 -50.4723 -50.4371 -50.4079
   -18.9636 -18.8591 -18.7413 -18.4296 -18.2807 -18.1628 -18.0785 -17.5243
   -17.4870 -17.4376 -17.3128 -16.9302 -16.7058  -9.6398  -9.5603  -9.4964
    -9.3422  -9.1331  -9.0859  -8.9043  -8.5357  -8.0172  -7.9345  -7.9122
    -7.8561  -7.7883  -7.6654  -7.5297  -7.4657  -7.2202  -7.1821  -7.0736
    -6.8274  -6.6916  -6.6554  -6.5847  -6.5542  -6.4521  -6.2826  -6.0725
    -5.8643  -5.5960  -5.0345  -3.9772  -3.8058  -3.4335  -3.2110  -3.1798
    -2.8007  -2.5371  -2.4964  -2.3718  -2.2564  -2.1173  -1.8566  -1.6464
    -1.4764  -1.3549  -1.3248  -1.2085  -1.1116  -1.0312  -0.9152  -0.7249
    -0.5723  -0.5032  -0.2831  -0.1950  -0.1142  -0.0513   0.0674   0.6477
     1.0097   1.2915   1.5418   1.7512   1.9454   2.0392

          k =-0.1111-0.2309 0.0000 ( 36400 PWs)   bands (ev):

   -82.0255 -81.9792 -81.9439 -81.9274 -81.8903 -81.7354 -50.7370 -50.7135
   -50.6719 -50.6705 -50.6675 -50.6523 -50.6408 -50.6332 -50.6209 -50.6183
   -50.6109 -50.6018 -50.6000 -50.5754 -50.5472 -50.4724 -50.4371 -50.4086
   -18.7214 -18.6557 -18.6148 -18.3483 -18.2810 -18.2606 -18.2578 -17.6864
   -17.6628 -17.6320 -17.3155 -16.9371 -16.7124  -9.4125  -9.3171  -9.3023
    -9.2023  -9.1072  -8.9871  -8.5407  -8.4613  -8.1300  -7.9625  -7.7787
    -7.6332  -7.6111  -7.5721  -7.4992  -7.4972  -7.4106  -7.2420  -7.2305
    -7.1710  -7.1273  -7.1175  -6.7576  -6.5660  -6.3165  -6.1559  -6.1429
    -5.8317  -5.6921  -5.5022  -4.0558  -3.6792  -3.6547  -3.3626  -3.3493
    -2.5380  -2.5353  -2.2770  -2.1521  -2.0609  -1.8420  -1.8023  -1.7446
    -1.4603  -1.2515  -1.2335  -1.1270  -1.1091  -1.0681  -0.9358  -0.9200
    -0.7610  -0.7489  -0.3732  -0.2888  -0.2105  -0.0872   0.1276   0.9645
     1.1989   1.4067   1.5371   1.5534   1.9259   2.0265

          k =-0.1111-0.1154 0.0000 ( 36373 PWs)   bands (ev):

   -82.0260 -81.9796 -81.9444 -81.9278 -81.8910 -81.7358 -50.7378 -50.7136
   -50.6719 -50.6704 -50.6660 -50.6522 -50.6410 -50.6368 -50.6213 -50.6136
   -50.6108 -50.6018 -50.5997 -50.5755 -50.5471 -50.4723 -50.4371 -50.4079
   -18.9636 -18.8592 -18.7414 -18.4295 -18.2806 -18.1628 -18.0786 -17.5242
   -17.4870 -17.4376 -17.3128 -16.9302 -16.7058  -9.6398  -9.5604  -9.4964
    -9.3423  -9.1332  -9.0860  -8.9044  -8.5364  -8.0183  -7.9341  -7.9112
    -7.8558  -7.7858  -7.6660  -7.5293  -7.4641  -7.2231  -7.1831  -7.0729
    -6.8282  -6.6928  -6.6550  -6.5853  -6.5538  -6.4514  -6.2811  -6.0730
    -5.8641  -5.5963  -5.0347  -3.9779  -3.8037  -3.4362  -3.2081  -3.1792
    -2.8023  -2.5381  -2.4949  -2.3719  -2.2563  -2.1196  -1.8588  -1.6494
    -1.4698  -1.3552  -1.3232  -1.2073  -1.1069  -1.0331  -0.9171  -0.7251
    -0.5709  -0.5083  -0.2832  -0.1949  -0.1141  -0.0513   0.0675   0.6478
     1.0101   1.2915   1.5415   1.7505   1.9447   2.0393

 ------ SPIN DOWN ----------


          k = 0.0000 0.0000 0.0000 ( 36441 PWs)   bands (ev):

   -77.6525 -77.5661 -77.5511 -77.4793 -77.4410 -77.0052 -46.5040 -46.4684
   -46.4124 -46.3781 -46.3641 -46.3600 -46.3385 -46.3382 -46.3053 -46.2941
   -46.2851 -46.2850 -46.2405 -46.2358 -46.1814 -45.9362 -45.8729 -45.6627
   -19.6372 -19.3517 -18.8876 -18.6072 -18.3942 -18.1499 -17.8759 -17.8052
   -17.8015 -17.7280 -17.6325 -17.5116 -17.4396  -6.4461  -6.1577  -6.0001
    -5.4861  -5.1173  -5.0112  -4.9572  -4.3446  -4.1696  -4.1463  -4.1408
    -4.0734  -4.0199  -4.0007  -3.9993  -3.9077  -3.8944  -3.8660  -3.4006
    -3.2211  -3.0064  -2.9218  -2.7652  -2.7351  -2.6524  -2.5361  -2.4052
    -2.3139  -2.0290  -2.0150  -1.9295  -1.9033  -1.7488  -1.6113  -1.4853
    -1.4830  -1.2333  -1.0537  -0.6620   4.0177   4.1624   4.2545   4.4982
     4.5374   4.6767   4.6953   4.7051   4.7799   4.9032   4.9864   5.1542
     5.2799   5.3243   5.4191   5.4759   5.5543   5.6414   5.7745   5.8802
     5.9048   5.9503   5.9569   6.0392   6.0712   6.1173

          k = 0.0000 0.1154 0.0000 ( 36396 PWs)   bands (ev):

   -77.6530 -77.5664 -77.5517 -77.4798 -77.4413 -77.0055 -46.5040 -46.4666
   -46.4124 -46.3780 -46.3640 -46.3600 -46.3394 -46.3376 -46.3051 -46.2898
   -46.2852 -46.2850 -46.2442 -46.2358 -46.1813 -45.9362 -45.8731 -45.6626
   -19.5217 -19.2530 -18.8419 -18.7100 -18.6011 -18.3650 -18.0716 -17.7227
   -17.6504 -17.6203 -17.5776 -17.4887 -17.4375  -6.2329  -5.9690  -5.8452
    -5.4939  -5.1333  -5.0648  -5.0214  -4.2540  -4.1871  -4.1711  -4.0786
    -4.0390  -4.0342  -3.9968  -3.9636  -3.8928  -3.8703  -3.7782  -3.5048
    -3.1596  -3.0955  -2.9047  -2.7958  -2.7125  -2.6302  -2.5618  -2.4358
    -2.3487  -2.2981  -2.2026  -2.1010  -1.9010  -1.8699  -1.6313  -1.5637
    -1.4798  -1.3522  -1.1364  -0.7929   4.2812   4.4654   4.5702   4.6168
     4.7065   4.7580   4.7777   4.8969   4.9129   4.9831   5.0158   5.1608
     5.3078   5.3246   5.4730   5.5376   5.5537   5.6986   5.7723   5.8861
     5.9014   5.9372   5.9487   5.9581   6.0246   6.0413

          k = 0.0000-0.2309 0.0000 ( 36406 PWs)   bands (ev):

   -77.6534 -77.5667 -77.5523 -77.4802 -77.4416 -77.0058 -46.5040 -46.4647
   -46.4124 -46.3779 -46.3639 -46.3601 -46.3407 -46.3368 -46.3049 -46.2853
   -46.2851 -46.2844 -46.2487 -46.2357 -46.1813 -45.9362 -45.8732 -45.6625
   -19.2414 -19.1808 -18.9952 -18.8898 -18.5622 -18.5185 -18.2854 -17.6688
   -17.5712 -17.5651 -17.5119 -17.4823 -17.4281  -5.9286  -5.7725  -5.7110
    -5.4125  -5.1755  -5.1682  -5.1259  -4.2016  -4.2000  -4.1989  -4.0901
    -4.0495  -3.9946  -3.8922  -3.8855  -3.8331  -3.8248  -3.6827  -3.5565
    -3.2621  -3.1273  -2.9445  -2.8504  -2.7774  -2.6610  -2.6370  -2.4849
    -2.4792  -2.3384  -2.2858  -2.2055  -2.1666  -2.1106  -1.6340  -1.5904
    -1.4149  -1.1975  -1.1686  -1.0598   4.3877   4.6670   4.6908   4.8844
     4.8964   4.9646   4.9691   4.9843   5.2848   5.2950   5.3038   5.3209
     5.3465   5.4107   5.4184   5.5123   5.5265   5.5468   5.5811   5.6582
     5.6998   5.7930   5.8156   5.9040   5.9530   5.9547

          k = 0.0000-0.1154 0.0000 ( 36396 PWs)   bands (ev):

   -77.6530 -77.5664 -77.5517 -77.4798 -77.4413 -77.0055 -46.5040 -46.4666
   -46.4124 -46.3780 -46.3640 -46.3600 -46.3394 -46.3376 -46.3051 -46.2898
   -46.2852 -46.2850 -46.2442 -46.2358 -46.1813 -45.9362 -45.8731 -45.6626
   -19.5217 -19.2530 -18.8419 -18.7100 -18.6011 -18.3650 -18.0716 -17.7227
   -17.6504 -17.6203 -17.5776 -17.4887 -17.4375  -6.2329  -5.9690  -5.8452
    -5.4939  -5.1333  -5.0648  -5.0214  -4.2540  -4.1871  -4.1711  -4.0786
    -4.0390  -4.0342  -3.9968  -3.9636  -3.8928  -3.8703  -3.7782  -3.5048
    -3.1596  -3.0955  -2.9047  -2.7958  -2.7125  -2.6302  -2.5618  -2.4358
    -2.3487  -2.2981  -2.2026  -2.1010  -1.9010  -1.8699  -1.6313  -1.5637
    -1.4798  -1.3522  -1.1364  -0.7929   4.2812   4.4654   4.5702   4.6168
     4.7065   4.7580   4.7777   4.8969   4.9129   4.9831   5.0158   5.1608
     5.3078   5.3246   5.4730   5.5376   5.5537   5.6985   5.7723   5.8861
     5.9014   5.9373   5.9487   5.9581   6.0251   6.0413

          k = 0.1111 0.0000 0.0000 ( 36417 PWs)   bands (ev):

   -77.6528 -77.5665 -77.5515 -77.4797 -77.4414 -77.0057 -46.5184 -46.4666
   -46.4272 -46.3876 -46.3677 -46.3572 -46.3370 -46.3356 -46.3191 -46.2998
   -46.2914 -46.2820 -46.2387 -46.2331 -46.1801 -45.9512 -45.8698 -45.6613
   -19.5306 -19.2574 -18.8137 -18.5505 -18.3350 -18.1050 -17.8557 -17.7875
   -17.7791 -17.7130 -17.6207 -17.5083 -17.4429  -6.3756  -6.1220  -5.9774
    -5.4741  -5.2024  -4.9955  -4.9260  -4.6922  -4.6310  -4.4716  -4.3595
    -4.1354  -4.1176  -4.0473  -3.7294  -3.5511  -3.5045  -3.4760  -3.3735
    -3.2229  -3.1009  -2.9989  -2.9130  -2.8840  -2.7201  -2.7069  -2.4740
    -2.3757  -2.2256  -2.1222  -2.1090  -1.8798  -1.8647  -1.5865  -1.5800
    -1.4558  -1.3411  -1.1112  -0.7549   4.0798   4.2464   4.3555   4.5412
     4.5740   4.6703   4.7230   4.7846   4.8027   4.8711   5.0114   5.1539
     5.2926   5.3802   5.3988   5.5341   5.5929   5.6100   5.8209   5.8368
     5.9423   5.9880   6.0037   6.0129   6.0491   6.0722

          k = 0.1111 0.1154 0.0000 ( 36373 PWs)   bands (ev):

   -77.6532 -77.5667 -77.5520 -77.4801 -77.4416 -77.0059 -46.5184 -46.4652
   -46.4272 -46.3875 -46.3675 -46.3572 -46.3368 -46.3363 -46.3191 -46.3010
   -46.2867 -46.2819 -46.2420 -46.2330 -46.1801 -45.9512 -45.8700 -45.6612
   -19.4185 -19.1621 -18.7697 -18.6358 -18.5394 -18.3116 -18.0333 -17.7147
   -17.6428 -17.6117 -17.5710 -17.4887 -17.4404  -6.1613  -5.9175  -5.7998
    -5.4784  -5.2123  -5.0550  -4.9970  -4.5737  -4.5271  -4.4068  -4.3869
    -4.1458  -4.0996  -3.8825  -3.8367  -3.6630  -3.5320  -3.5047  -3.4269
    -3.2798  -3.1666  -3.0650  -2.9778  -2.8769  -2.7786  -2.6230  -2.5270
    -2.4641  -2.3687  -2.2950  -2.2356  -2.0458  -1.7975  -1.6317  -1.5386
    -1.4615  -1.3737  -1.1620  -0.8579   4.3334   4.4863   4.6022   4.6398
     4.7398   4.7982   4.8183   4.8797   4.9183   4.9626   5.0581   5.1517
     5.2951   5.4029   5.4417   5.5242   5.6470   5.6688   5.7493   5.8133
     5.8505   5.9060   5.9243   5.9432   5.9788   6.0409

          k = 0.1111-0.2309 0.0000 ( 36400 PWs)   bands (ev):

   -77.6536 -77.5669 -77.5524 -77.4805 -77.4418 -77.0061 -46.5184 -46.4638
   -46.4272 -46.3873 -46.3674 -46.3572 -46.3379 -46.3356 -46.3190 -46.3016
   -46.2819 -46.2818 -46.2458 -46.2329 -46.1800 -45.9511 -45.8703 -45.6611
   -19.1511 -19.0869 -18.9136 -18.8079 -18.5024 -18.4550 -18.2403 -17.6639
   -17.5698 -17.5575 -17.5162 -17.4847 -17.4303  -5.8634  -5.7053  -5.6339
    -5.3666  -5.1950  -5.1707  -5.1455  -4.4338  -4.4164  -4.3888  -4.3145
    -4.1418  -4.0872  -3.7997  -3.7860  -3.7057  -3.6757  -3.5845  -3.5240
    -3.3988  -3.2763  -3.2157  -3.1318  -2.9120  -2.7218  -2.7091  -2.6275
    -2.5007  -2.3999  -2.3686  -2.3501  -2.0341  -1.9931  -1.6218  -1.5600
    -1.4027  -1.2149  -1.1709  -1.0869   4.4630   4.6738   4.7036   4.7618
     4.9580   4.9623   5.0198   5.1005   5.1539   5.2284   5.2728   5.3041
     5.3754   5.3802   5.3906   5.4842   5.5279   5.5349   5.6178   5.6521
     5.6915   5.7106   5.8183   5.8493   5.9142   5.9365

          k = 0.1111-0.1154 0.0000 ( 36373 PWs)   bands (ev):

   -77.6532 -77.5667 -77.5520 -77.4801 -77.4416 -77.0059 -46.5184 -46.4652
   -46.4272 -46.3875 -46.3675 -46.3572 -46.3367 -46.3363 -46.3191 -46.3009
   -46.2868 -46.2819 -46.2419 -46.2330 -46.1801 -45.9512 -45.8700 -45.6612
   -19.4185 -19.1620 -18.7697 -18.6358 -18.5394 -18.3115 -18.0333 -17.7148
   -17.6428 -17.6117 -17.5709 -17.4887 -17.4404  -6.1615  -5.9176  -5.7998
    -5.4781  -5.2124  -5.0560  -4.9953  -4.5733  -4.5270  -4.4086  -4.3857
    -4.1458  -4.0995  -3.8834  -3.8358  -3.6628  -3.5354  -3.5017  -3.4280
    -3.2803  -3.1658  -3.0669  -2.9770  -2.8771  -2.7773  -2.6241  -2.5271
    -2.4656  -2.3639  -2.2955  -2.2373  -2.0434  -1.7960  -1.6320  -1.5382
    -1.4652  -1.3762  -1.1608  -0.8566   4.3338   4.4867   4.6024   4.6398
     4.7399   4.7977   4.8182   4.8800   4.9181   4.9626   5.0581   5.1517
     5.2950   5.4029   5.4421   5.5244   5.6474   5.6686   5.7485   5.8131
     5.8507   5.9065   5.9234   5.9431   5.9787   6.0394

          k = 0.2222 0.0000 0.0000 ( 36375 PWs)   bands (ev):

   -77.6521 -77.5657 -77.5508 -77.4790 -77.4407 -77.0052 -46.5563 -46.4660
   -46.4622 -46.4241 -46.3671 -46.3552 -46.3502 -46.3386 -46.3333 -46.3292
   -46.2852 -46.2745 -46.2341 -46.2261 -46.1772 -45.9911 -45.8622 -45.6580
   -19.2282 -18.9939 -18.6123 -18.4017 -18.1794 -17.9952 -17.8085 -17.7464
   -17.7321 -17.6776 -17.5983 -17.5112 -17.4565  -6.1897  -6.0554  -5.9377
    -5.6336  -5.3789  -5.0683  -5.0029  -4.9220  -4.8589  -4.6942  -4.6019
    -4.3383  -4.1431  -4.0236  -3.8700  -3.8487  -3.4991  -3.4312  -3.3912
    -3.3760  -3.1369  -3.0712  -3.0657  -2.9904  -2.9839  -2.8262  -2.6753
    -2.4985  -2.3355  -2.2651  -2.0795  -1.8328  -1.8269  -1.7389  -1.6486
    -1.6182  -1.5216  -1.2303  -1.0246   4.1875   4.3861   4.5590   4.5788
     4.6077   4.6412   4.7165   4.7840   4.9082   4.9162   5.2141   5.3044
     5.3113   5.4595   5.4867   5.5445   5.6643   5.6732   5.7517   5.7550
     5.8619   5.8836   5.9331   5.9563   6.0516   6.0626

          k = 0.2222 0.1154 0.0000 ( 36357 PWs)   bands (ev):

   -77.6523 -77.5656 -77.5510 -77.4792 -77.4407 -77.0052 -46.5564 -46.4662
   -46.4626 -46.4230 -46.3670 -46.3554 -46.3502 -46.3395 -46.3331 -46.3300
   -46.2821 -46.2744 -46.2363 -46.2261 -46.1771 -45.9910 -45.8625 -45.6580
   -19.1277 -18.9097 -18.5746 -18.4360 -18.3752 -18.1743 -17.9387 -17.7019
   -17.6319 -17.5972 -17.5604 -17.5014 -17.4519  -5.9958  -5.8412  -5.7063
    -5.5891  -5.3865  -5.0400  -4.9411  -4.9195  -4.8098  -4.6255  -4.5652
    -4.3223  -4.2038  -4.1146  -3.9551  -3.7100  -3.6640  -3.5836  -3.5318
    -3.4003  -3.3149  -3.2517  -3.1460  -3.1223  -3.0094  -2.9067  -2.6382
    -2.4998  -2.4018  -2.2351  -2.1744  -1.9631  -1.7867  -1.7203  -1.6120
    -1.5256  -1.4452  -1.2509  -1.0630   4.3073   4.4322   4.5884   4.5993
     4.6831   4.7458   4.7502   4.9538   5.0921   5.1027   5.1942   5.2827
     5.3628   5.4000   5.5438   5.5639   5.6094   5.6514   5.7318   5.7605
     5.7917   5.8318   5.8694   5.8947   5.9616   5.9837

          k = 0.2222-0.2309 0.0000 ( 36370 PWs)   bands (ev):

   -77.6525 -77.5656 -77.5513 -77.4795 -77.4407 -77.0051 -46.5565 -46.4663
   -46.4628 -46.4219 -46.3670 -46.3555 -46.3502 -46.3403 -46.3328 -46.3309
   -46.2789 -46.2744 -46.2387 -46.2260 -46.1771 -45.9910 -45.8628 -45.6579
   -18.9033 -18.8263 -18.6891 -18.5840 -18.3459 -18.2858 -18.1261 -17.6606
   -17.5726 -17.5472 -17.5380 -17.5001 -17.4414  -5.8132  -5.5802  -5.5672
    -5.3394  -5.1793  -5.1642  -5.0938  -4.6699  -4.6241  -4.5662  -4.5627
    -4.2519  -4.2249  -4.1720  -4.0942  -4.0267  -3.9472  -3.8022  -3.7313
    -3.5682  -3.4341  -3.3599  -3.2074  -3.0744  -2.9154  -2.8492  -2.6801
    -2.6699  -2.3405  -2.2604  -2.2526  -1.9332  -1.8389  -1.7479  -1.5704
    -1.4685  -1.3241  -1.2427  -1.1409   4.4870   4.5221   4.5819   4.6180
     4.7194   4.7437   4.8672   5.0576   5.1511   5.2539   5.3202   5.3643
     5.4005   5.4481   5.5522   5.5718   5.5963   5.6110   5.6630   5.7065
     5.7170   5.7658   5.8282   5.8671   5.9202   5.9543

          k = 0.2222-0.1154 0.0000 ( 36357 PWs)   bands (ev):

   -77.6523 -77.5656 -77.5510 -77.4792 -77.4407 -77.0052 -46.5564 -46.4662
   -46.4625 -46.4230 -46.3670 -46.3554 -46.3502 -46.3395 -46.3331 -46.3300
   -46.2822 -46.2744 -46.2363 -46.2261 -46.1771 -45.9910 -45.8625 -45.6580
   -19.1277 -18.9096 -18.5747 -18.4360 -18.3753 -18.1742 -17.9387 -17.7020
   -17.6320 -17.5972 -17.5603 -17.5014 -17.4519  -5.9969  -5.8407  -5.7067
    -5.5871  -5.3882  -5.0397  -4.9402  -4.9184  -4.8090  -4.6254  -4.5663
    -4.3222  -4.2030  -4.1142  -3.9558  -3.7087  -3.6685  -3.5834  -3.5311
    -3.4015  -3.3162  -3.2490  -3.1461  -3.1225  -3.0120  -2.9062  -2.6390
    -2.5004  -2.4011  -2.2321  -2.1743  -1.9598  -1.7866  -1.7202  -1.6099
    -1.5243  -1.4543  -1.2498  -1.0619   4.3082   4.4325   4.5884   4.5992
     4.6830   4.7458   4.7498   4.9542   5.0928   5.1021   5.1938   5.2827
     5.3633   5.4002   5.5438   5.5640   5.6095   5.6511   5.7319   5.7606
     5.7912   5.8316   5.8693   5.8945   5.9616   5.9836

          k = 0.3333 0.0000 0.0000 ( 36366 PWs)   bands (ev):

   -77.6486 -77.5619 -77.5472 -77.4755 -77.4370 -77.0014 -46.6020 -46.5129
   -46.4702 -46.4579 -46.4013 -46.3860 -46.3629 -46.3419 -46.3296 -46.3219
   -46.2791 -46.2661 -46.2286 -46.2184 -46.1742 -46.0398 -45.8537 -45.6547
   -18.7940 -18.6258 -18.3516 -18.2222 -17.9959 -17.8933 -17.7615 -17.7267
   -17.7054 -17.6415 -17.5953 -17.5408 -17.4780  -6.3120  -5.9975  -5.8516
    -5.8075  -5.6040  -5.1901  -5.0986  -4.9749  -4.8984  -4.7839  -4.7252
    -4.6707  -4.3327  -4.2764  -4.1020  -3.9911  -3.8475  -3.7956  -3.6630
    -3.4055  -3.3202  -3.2273  -3.1765  -3.0566  -3.0137  -2.8858  -2.5706
    -2.4795  -2.3952  -2.0616  -2.0352  -1.8564  -1.8447  -1.8285  -1.7373
    -1.6820  -1.5004  -1.4453  -1.3997   4.2482   4.4562   4.6206   4.6560
     4.7578   4.7841   4.8225   4.8831   5.0496   5.1096   5.2819   5.3789
     5.4143   5.4810   5.5232   5.5632   5.5974   5.6485   5.6693   5.7545
     5.7880   5.8228   5.8262   5.9408   5.9475   6.0223

          k = 0.3333 0.1154 0.0000 ( 36376 PWs)   bands (ev):

   -77.6486 -77.5616 -77.5472 -77.4755 -77.4367 -77.0011 -46.6023 -46.5131
   -46.4747 -46.4533 -46.4016 -46.3868 -46.3629 -46.3419 -46.3299 -46.3225
   -46.2776 -46.2661 -46.2297 -46.2184 -46.1742 -46.0396 -45.8541 -45.6547
   -18.7164 -18.5622 -18.3242 -18.1935 -18.1557 -18.0157 -17.8426 -17.7102
   -17.6470 -17.6179 -17.5723 -17.5342 -17.4742  -6.2654  -5.7523  -5.6695
    -5.6213  -5.5574  -5.1084  -5.0508  -4.9649  -4.9227  -4.8773  -4.7432
    -4.4669  -4.3808  -4.3385  -4.2400  -4.0939  -3.9577  -3.8793  -3.7953
    -3.4723  -3.4175  -3.3830  -3.2386  -3.1102  -3.0243  -2.7813  -2.5894
    -2.5167  -2.3487  -2.0754  -2.0407  -2.0016  -1.9589  -1.8194  -1.7337
    -1.5955  -1.4947  -1.4186  -1.3398   4.2573   4.3743   4.5235   4.5902
     4.6219   4.7839   4.8753   5.0382   5.1307   5.2201   5.2605   5.3347
     5.3701   5.4602   5.4702   5.5248   5.6053   5.6621   5.7140   5.7336
     5.7956   5.8605   5.9152   5.9822   5.9955   6.0471

          k = 0.3333-0.2309 0.0000 ( 36374 PWs)   bands (ev):

   -77.6486 -77.5613 -77.5472 -77.4754 -77.4365 -77.0008 -46.6025 -46.5133
   -46.4778 -46.4502 -46.4019 -46.3876 -46.3629 -46.3419 -46.3302 -46.3231
   -46.2761 -46.2661 -46.2308 -46.2184 -46.1742 -46.0395 -45.8546 -45.6547
   -18.5751 -18.4654 -18.3813 -18.2833 -18.1603 -18.0740 -17.9967 -17.6901
   -17.6100 -17.6059 -17.5537 -17.5357 -17.4688  -6.2373  -5.5491  -5.5326
    -5.1841  -5.1570  -5.1460  -5.0809  -4.9816  -4.8968  -4.8727  -4.8475
    -4.4796  -4.4480  -4.3972  -4.3474  -4.1913  -4.1438  -4.0391  -3.9594
    -3.6705  -3.5460  -3.5058  -3.3320  -3.0989  -2.7606  -2.7151  -2.6006
    -2.5659  -2.3403  -2.2351  -2.1365  -1.9890  -1.9101  -1.8940  -1.6679
    -1.6432  -1.4363  -1.4220  -1.2761   4.2970   4.3609   4.4221   4.5409
     4.5920   4.7665   4.8339   5.0213   5.1319   5.1938   5.2531   5.3015
     5.3674   5.3949   5.5512   5.5922   5.6147   5.6959   5.7282   5.7661
     5.8480   5.8819   5.9708   5.9726   6.0717   6.0861

          k = 0.3333-0.1154 0.0000 ( 36376 PWs)   bands (ev):

   -77.6486 -77.5616 -77.5472 -77.4755 -77.4367 -77.0011 -46.6023 -46.5131
   -46.4747 -46.4534 -46.4016 -46.3868 -46.3629 -46.3419 -46.3299 -46.3225
   -46.2776 -46.2661 -46.2297 -46.2184 -46.1742 -46.0396 -45.8541 -45.6547
   -18.7164 -18.5622 -18.3244 -18.1937 -18.1556 -18.0155 -17.8426 -17.7103
   -17.6471 -17.6179 -17.5722 -17.5343 -17.4742  -6.2662  -5.7523  -5.6676
    -5.6214  -5.5587  -5.1079  -5.0518  -4.9596  -4.9240  -4.8776  -4.7428
    -4.4691  -4.3798  -4.3379  -4.2408  -4.0937  -3.9596  -3.8795  -3.7955
    -3.4637  -3.4249  -3.3844  -3.2396  -3.1127  -3.0217  -2.7818  -2.5908
    -2.5171  -2.3486  -2.0730  -2.0413  -2.0016  -1.9538  -1.8201  -1.7331
    -1.5943  -1.4937  -1.4195  -1.3442   4.2580   4.3748   4.5232   4.5899
     4.6219   4.7839   4.8749   5.0388   5.1304   5.2203   5.2603   5.3346
     5.3699   5.4605   5.4701   5.5249   5.6053   5.6618   5.7141   5.7330
     5.7956   5.8602   5.9146   5.9830   5.9953   6.0466

          k = 0.4444 0.0000 0.0000 ( 36366 PWs)   bands (ev):

   -77.6447 -77.5578 -77.5434 -77.4715 -77.4329 -76.9971 -46.6334 -46.5449
   -46.5020 -46.4554 -46.4320 -46.4183 -46.3612 -46.3368 -46.3275 -46.3172
   -46.2756 -46.2607 -46.2249 -46.2135 -46.1725 -46.0734 -45.8484 -45.6528
   -18.3714 -18.2661 -18.1654 -18.0793 -17.9228 -17.8807 -17.8570 -17.7346
   -17.6824 -17.6215 -17.6192 -17.5479 -17.4936  -6.6343  -6.0852  -5.9048
    -5.7865  -5.5141  -5.3351  -5.1412  -5.0895  -5.0279  -4.8640  -4.8422
    -4.7395  -4.4595  -4.3499  -4.2230  -4.0175  -3.8968  -3.8192  -3.7209
    -3.5892  -3.5507  -3.5275  -3.4668  -2.9693  -2.8104  -2.7683  -2.6033
    -2.4737  -2.2120  -2.2058  -2.0308  -1.9746  -1.9557  -1.8564  -1.7851
    -1.6503  -1.5847  -1.5755  -1.4015   4.3445   4.5295   4.6329   4.6788
     4.8909   4.9477   4.9960   5.0273   5.1089   5.2084   5.2606   5.4108
     5.4479   5.4527   5.4946   5.5128   5.5257   5.5730   5.6186   5.6478
     5.6619   5.8487   5.8895   5.9364   5.9993   6.0199

          k = 0.4444 0.1154 0.0000 ( 36400 PWs)   bands (ev):

   -77.6446 -77.5574 -77.5432 -77.4713 -77.4325 -76.9967 -46.6337 -46.5452
   -46.5040 -46.4538 -46.4324 -46.4190 -46.3612 -46.3368 -46.3281 -46.3177
   -46.2751 -46.2607 -46.2253 -46.2135 -46.1725 -46.0731 -45.8488 -45.6528
   -18.3410 -18.2225 -18.1286 -18.0403 -17.9546 -17.9055 -17.8792 -17.7604
   -17.7112 -17.6692 -17.6084 -17.5527 -17.4957  -6.6117  -5.8765  -5.8375
    -5.6087  -5.4275  -5.3742  -5.1223  -5.0610  -5.0329  -4.9588  -4.8524
    -4.7547  -4.3444  -4.2210  -4.1529  -4.0621  -3.9754  -3.8761  -3.8267
    -3.7774  -3.6873  -3.6597  -3.5425  -2.9929  -2.7846  -2.6502  -2.5940
    -2.4455  -2.2299  -2.1539  -2.0856  -1.9521  -1.9353  -1.8840  -1.8637
    -1.7369  -1.6562  -1.5771  -1.4161   4.3070   4.3820   4.5039   4.5500
     4.5901   4.9355   4.9744   5.0506   5.1350   5.1713   5.2316   5.2909
     5.3508   5.4385   5.4913   5.5445   5.5930   5.6252   5.6525   5.7553
     5.7964   5.8993   5.9390   6.0186   6.0952   6.1446

          k = 0.4444-0.2309 0.0000 ( 36450 PWs)   bands (ev):

   -77.6444 -77.5570 -77.5431 -77.4712 -77.4321 -76.9962 -46.6340 -46.5455
   -46.5059 -46.4522 -46.4327 -46.4198 -46.3612 -46.3368 -46.3287 -46.3181
   -46.2746 -46.2607 -46.2258 -46.2136 -46.1725 -46.0729 -45.8493 -45.6528
   -18.3122 -18.1152 -18.0888 -18.0386 -18.0061 -17.9231 -17.9086 -17.7893
   -17.7433 -17.7145 -17.5888 -17.5707 -17.4973  -6.5937  -5.6772  -5.6378
    -5.4688  -5.4181  -5.3039  -5.2872  -4.9906  -4.9420  -4.9275  -4.7523
    -4.5884  -4.5059  -4.3375  -4.2205  -4.1962  -4.1030  -4.0319  -3.8347
    -3.7852  -3.7324  -3.7250  -3.5847  -3.0099  -2.7978  -2.6046  -2.5062
    -2.4265  -2.1912  -2.1446  -2.1070  -2.0551  -2.0321  -1.9238  -1.8009
    -1.7407  -1.6813  -1.6425  -1.4471   4.2194   4.3531   4.3569   4.4623
     4.5109   4.9059   4.9161   4.9581   5.0770   5.0837   5.1420   5.1884
     5.4173   5.4756   5.4818   5.6087   5.6111   5.6607   5.6893   5.7758
     5.9025   5.9116   6.0142   6.0724   6.1990   6.2771

          k = 0.4444-0.1154 0.0000 ( 36400 PWs)   bands (ev):

   -77.6446 -77.5574 -77.5432 -77.4713 -77.4325 -76.9967 -46.6337 -46.5452
   -46.5040 -46.4538 -46.4324 -46.4190 -46.3612 -46.3368 -46.3281 -46.3177
   -46.2751 -46.2607 -46.2253 -46.2135 -46.1725 -46.0731 -45.8488 -45.6528
   -18.3409 -18.2226 -18.1289 -18.0403 -17.9543 -17.9054 -17.8793 -17.7605
   -17.7112 -17.6691 -17.6084 -17.5527 -17.4957  -6.6119  -5.8761  -5.8380
    -5.6085  -5.4250  -5.3770  -5.1218  -5.0606  -5.0328  -4.9588  -4.8517
    -4.7547  -4.3452  -4.2215  -4.1536  -4.0602  -3.9776  -3.8741  -3.8271
    -3.7763  -3.6863  -3.6626  -3.5426  -2.9931  -2.7849  -2.6510  -2.5943
    -2.4456  -2.2303  -2.1534  -2.0855  -1.9521  -1.9351  -1.8814  -1.8616
    -1.7379  -1.6570  -1.5742  -1.4203   4.3075   4.3820   4.5037   4.5497
     4.5901   4.9355   4.9746   5.0505   5.1350   5.1711   5.2319   5.2909
     5.3508   5.4381   5.4916   5.5447   5.5931   5.6252   5.6524   5.7554
     5.7963   5.8995   5.9390   6.0185   6.0953   6.1444

          k =-0.4444 0.0000 0.0000 ( 36366 PWs)   bands (ev):

   -77.6447 -77.5578 -77.5434 -77.4715 -77.4329 -76.9971 -46.6334 -46.5449
   -46.5020 -46.4554 -46.4320 -46.4183 -46.3612 -46.3368 -46.3275 -46.3172
   -46.2756 -46.2607 -46.2249 -46.2135 -46.1725 -46.0734 -45.8484 -45.6528
   -18.3714 -18.2661 -18.1654 -18.0793 -17.9228 -17.8807 -17.8570 -17.7346
   -17.6824 -17.6215 -17.6192 -17.5479 -17.4936  -6.6343  -6.0852  -5.9048
    -5.7865  -5.5141  -5.3351  -5.1412  -5.0895  -5.0279  -4.8640  -4.8422
    -4.7395  -4.4595  -4.3499  -4.2230  -4.0175  -3.8968  -3.8192  -3.7209
    -3.5892  -3.5507  -3.5275  -3.4668  -2.9693  -2.8104  -2.7683  -2.6033
    -2.4737  -2.2120  -2.2058  -2.0308  -1.9746  -1.9557  -1.8564  -1.7851
    -1.6503  -1.5847  -1.5755  -1.4015   4.3445   4.5295   4.6329   4.6788
     4.8909   4.9477   4.9960   5.0273   5.1089   5.2084   5.2606   5.4108
     5.4479   5.4527   5.4946   5.5128   5.5257   5.5730   5.6186   5.6478
     5.6619   5.8487   5.8895   5.9364   5.9993   6.0199

          k =-0.4444 0.1154 0.0000 ( 36400 PWs)   bands (ev):

   -77.6446 -77.5574 -77.5432 -77.4713 -77.4325 -76.9967 -46.6337 -46.5452
   -46.5040 -46.4538 -46.4324 -46.4190 -46.3612 -46.3368 -46.3281 -46.3177
   -46.2751 -46.2607 -46.2253 -46.2135 -46.1725 -46.0731 -45.8488 -45.6528
   -18.3409 -18.2226 -18.1289 -18.0403 -17.9543 -17.9054 -17.8793 -17.7605
   -17.7112 -17.6691 -17.6084 -17.5527 -17.4957  -6.6119  -5.8761  -5.8380
    -5.6085  -5.4250  -5.3770  -5.1218  -5.0606  -5.0328  -4.9588  -4.8517
    -4.7547  -4.3452  -4.2215  -4.1536  -4.0602  -3.9776  -3.8741  -3.8271
    -3.7763  -3.6863  -3.6626  -3.5426  -2.9931  -2.7849  -2.6510  -2.5943
    -2.4456  -2.2303  -2.1534  -2.0855  -1.9521  -1.9351  -1.8814  -1.8616
    -1.7379  -1.6570  -1.5742  -1.4203   4.3075   4.3820   4.5037   4.5497
     4.5901   4.9355   4.9746   5.0505   5.1350   5.1711   5.2319   5.2909
     5.3508   5.4381   5.4916   5.5447   5.5931   5.6252   5.6524   5.7554
     5.7963   5.8995   5.9390   6.0185   6.0953   6.1444

          k =-0.4444-0.2309 0.0000 ( 36450 PWs)   bands (ev):

   -77.6444 -77.5570 -77.5431 -77.4712 -77.4321 -76.9962 -46.6340 -46.5455
   -46.5059 -46.4522 -46.4327 -46.4198 -46.3612 -46.3368 -46.3287 -46.3181
   -46.2746 -46.2607 -46.2258 -46.2136 -46.1725 -46.0729 -45.8493 -45.6528
   -18.3122 -18.1152 -18.0888 -18.0386 -18.0061 -17.9231 -17.9086 -17.7893
   -17.7433 -17.7145 -17.5888 -17.5707 -17.4973  -6.5937  -5.6772  -5.6378
    -5.4688  -5.4181  -5.3039  -5.2872  -4.9906  -4.9420  -4.9275  -4.7523
    -4.5884  -4.5059  -4.3375  -4.2205  -4.1962  -4.1030  -4.0319  -3.8347
    -3.7852  -3.7324  -3.7250  -3.5847  -3.0099  -2.7978  -2.6046  -2.5062
    -2.4265  -2.1912  -2.1446  -2.1070  -2.0551  -2.0321  -1.9238  -1.8009
    -1.7407  -1.6813  -1.6425  -1.4471   4.2194   4.3531   4.3569   4.4623
     4.5109   4.9059   4.9161   4.9581   5.0770   5.0837   5.1420   5.1884
     5.4173   5.4757   5.4818   5.6087   5.6110   5.6606   5.6893   5.7758
     5.9025   5.9114   6.0142   6.0724   6.1990   6.2770

          k =-0.4444-0.1154 0.0000 ( 36400 PWs)   bands (ev):

   -77.6446 -77.5574 -77.5432 -77.4713 -77.4325 -76.9967 -46.6337 -46.5452
   -46.5040 -46.4538 -46.4324 -46.4190 -46.3612 -46.3368 -46.3281 -46.3177
   -46.2751 -46.2607 -46.2253 -46.2135 -46.1725 -46.0731 -45.8488 -45.6528
   -18.3410 -18.2225 -18.1286 -18.0403 -17.9546 -17.9055 -17.8792 -17.7604
   -17.7112 -17.6692 -17.6084 -17.5527 -17.4957  -6.6117  -5.8765  -5.8375
    -5.6087  -5.4275  -5.3742  -5.1223  -5.0610  -5.0329  -4.9588  -4.8524
    -4.7547  -4.3444  -4.2210  -4.1529  -4.0621  -3.9754  -3.8761  -3.8267
    -3.7774  -3.6873  -3.6597  -3.5425  -2.9929  -2.7846  -2.6502  -2.5940
    -2.4455  -2.2299  -2.1539  -2.0856  -1.9521  -1.9353  -1.8840  -1.8637
    -1.7369  -1.6562  -1.5771  -1.4161   4.3070   4.3820   4.5039   4.5500
     4.5901   4.9355   4.9744   5.0506   5.1350   5.1713   5.2316   5.2909
     5.3508   5.4385   5.4914   5.5446   5.5930   5.6256   5.6529   5.7554
     5.7964   5.8996   5.9388   6.0180   6.0988   6.1479

          k =-0.3333 0.0000 0.0000 ( 36366 PWs)   bands (ev):

   -77.6486 -77.5619 -77.5472 -77.4755 -77.4370 -77.0014 -46.6020 -46.5129
   -46.4702 -46.4579 -46.4013 -46.3860 -46.3629 -46.3419 -46.3296 -46.3219
   -46.2791 -46.2661 -46.2286 -46.2184 -46.1742 -46.0398 -45.8537 -45.6547
   -18.7940 -18.6258 -18.3516 -18.2222 -17.9959 -17.8933 -17.7615 -17.7267
   -17.7054 -17.6415 -17.5953 -17.5408 -17.4780  -6.3120  -5.9975  -5.8516
    -5.8075  -5.6040  -5.1901  -5.0986  -4.9749  -4.8984  -4.7839  -4.7252
    -4.6707  -4.3327  -4.2764  -4.1020  -3.9911  -3.8475  -3.7956  -3.6630
    -3.4055  -3.3202  -3.2273  -3.1765  -3.0566  -3.0137  -2.8858  -2.5706
    -2.4795  -2.3952  -2.0616  -2.0352  -1.8564  -1.8447  -1.8285  -1.7373
    -1.6820  -1.5004  -1.4453  -1.3997   4.2482   4.4562   4.6206   4.6560
     4.7578   4.7841   4.8225   4.8831   5.0496   5.1096   5.2819   5.3789
     5.4143   5.4810   5.5232   5.5632   5.5974   5.6485   5.6693   5.7545
     5.7880   5.8228   5.8261   5.9408   5.9475   6.0223

          k =-0.3333 0.1154 0.0000 ( 36376 PWs)   bands (ev):

   -77.6486 -77.5616 -77.5472 -77.4755 -77.4367 -77.0011 -46.6023 -46.5131
   -46.4747 -46.4534 -46.4016 -46.3868 -46.3629 -46.3419 -46.3299 -46.3225
   -46.2776 -46.2661 -46.2297 -46.2184 -46.1742 -46.0396 -45.8541 -45.6547
   -18.7164 -18.5622 -18.3244 -18.1937 -18.1556 -18.0155 -17.8426 -17.7103
   -17.6471 -17.6179 -17.5722 -17.5343 -17.4742  -6.2662  -5.7523  -5.6676
    -5.6214  -5.5587  -5.1079  -5.0518  -4.9596  -4.9240  -4.8776  -4.7428
    -4.4691  -4.3798  -4.3379  -4.2408  -4.0937  -3.9596  -3.8795  -3.7955
    -3.4637  -3.4249  -3.3844  -3.2396  -3.1127  -3.0217  -2.7818  -2.5908
    -2.5171  -2.3486  -2.0730  -2.0413  -2.0016  -1.9538  -1.8201  -1.7331
    -1.5943  -1.4937  -1.4195  -1.3442   4.2580   4.3748   4.5232   4.5899
     4.6219   4.7839   4.8749   5.0388   5.1304   5.2203   5.2603   5.3346
     5.3699   5.4605   5.4701   5.5249   5.6053   5.6618   5.7141   5.7330
     5.7956   5.8602   5.9146   5.9830   5.9953   6.0466

          k =-0.3333-0.2309 0.0000 ( 36374 PWs)   bands (ev):

   -77.6486 -77.5613 -77.5472 -77.4754 -77.4365 -77.0008 -46.6025 -46.5133
   -46.4778 -46.4502 -46.4019 -46.3876 -46.3629 -46.3419 -46.3302 -46.3231
   -46.2761 -46.2661 -46.2308 -46.2184 -46.1742 -46.0395 -45.8546 -45.6547
   -18.5751 -18.4654 -18.3813 -18.2833 -18.1603 -18.0740 -17.9967 -17.6901
   -17.6100 -17.6059 -17.5537 -17.5357 -17.4688  -6.2373  -5.5491  -5.5326
    -5.1841  -5.1570  -5.1460  -5.0809  -4.9816  -4.8968  -4.8727  -4.8475
    -4.4796  -4.4480  -4.3972  -4.3474  -4.1913  -4.1438  -4.0391  -3.9594
    -3.6705  -3.5460  -3.5058  -3.3320  -3.0989  -2.7606  -2.7151  -2.6006
    -2.5659  -2.3403  -2.2351  -2.1365  -1.9890  -1.9101  -1.8940  -1.6679
    -1.6432  -1.4363  -1.4220  -1.2761   4.2970   4.3609   4.4221   4.5409
     4.5920   4.7665   4.8339   5.0213   5.1319   5.1938   5.2531   5.3015
     5.3674   5.3949   5.5512   5.5922   5.6147   5.6959   5.7282   5.7661
     5.8480   5.8819   5.9708   5.9726   6.0716   6.0861

          k =-0.3333-0.1154 0.0000 ( 36376 PWs)   bands (ev):

   -77.6486 -77.5616 -77.5472 -77.4755 -77.4367 -77.0011 -46.6023 -46.5131
   -46.4747 -46.4533 -46.4016 -46.3868 -46.3629 -46.3419 -46.3299 -46.3225
   -46.2776 -46.2661 -46.2297 -46.2184 -46.1742 -46.0396 -45.8541 -45.6547
   -18.7164 -18.5622 -18.3242 -18.1935 -18.1557 -18.0157 -17.8426 -17.7102
   -17.6470 -17.6179 -17.5723 -17.5342 -17.4742  -6.2654  -5.7523  -5.6695
    -5.6213  -5.5574  -5.1084  -5.0508  -4.9649  -4.9227  -4.8773  -4.7432
    -4.4669  -4.3808  -4.3385  -4.2400  -4.0939  -3.9577  -3.8793  -3.7953
    -3.4723  -3.4175  -3.3830  -3.2386  -3.1102  -3.0243  -2.7813  -2.5894
    -2.5167  -2.3487  -2.0754  -2.0407  -2.0016  -1.9589  -1.8194  -1.7337
    -1.5955  -1.4947  -1.4186  -1.3398   4.2573   4.3743   4.5234   4.5902
     4.6219   4.7839   4.8753   5.0382   5.1307   5.2201   5.2605   5.3347
     5.3700   5.4601   5.4701   5.5248   5.6053   5.6619   5.7140   5.7335
     5.7955   5.8601   5.9149   5.9834   5.9951   6.0467

          k =-0.2222 0.0000 0.0000 ( 36375 PWs)   bands (ev):

   -77.6521 -77.5657 -77.5508 -77.4790 -77.4407 -77.0052 -46.5563 -46.4660
   -46.4622 -46.4241 -46.3671 -46.3552 -46.3502 -46.3386 -46.3333 -46.3292
   -46.2852 -46.2745 -46.2341 -46.2261 -46.1772 -45.9911 -45.8622 -45.6580
   -19.2282 -18.9939 -18.6123 -18.4017 -18.1794 -17.9952 -17.8085 -17.7464
   -17.7321 -17.6776 -17.5983 -17.5112 -17.4565  -6.1897  -6.0554  -5.9377
    -5.6336  -5.3789  -5.0683  -5.0029  -4.9220  -4.8589  -4.6942  -4.6019
    -4.3383  -4.1431  -4.0236  -3.8700  -3.8487  -3.4991  -3.4312  -3.3912
    -3.3760  -3.1369  -3.0712  -3.0657  -2.9904  -2.9839  -2.8262  -2.6753
    -2.4985  -2.3355  -2.2651  -2.0795  -1.8328  -1.8269  -1.7389  -1.6486
    -1.6182  -1.5216  -1.2303  -1.0246   4.1875   4.3861   4.5590   4.5788
     4.6077   4.6412   4.7165   4.7840   4.9082   4.9162   5.2141   5.3044
     5.3113   5.4595   5.4867   5.5445   5.6643   5.6731   5.7517   5.7550
     5.8619   5.8836   5.9331   5.9563   6.0516   6.0625

          k =-0.2222 0.1154 0.0000 ( 36357 PWs)   bands (ev):

   -77.6523 -77.5656 -77.5510 -77.4792 -77.4407 -77.0052 -46.5564 -46.4662
   -46.4625 -46.4230 -46.3670 -46.3554 -46.3502 -46.3395 -46.3331 -46.3300
   -46.2822 -46.2744 -46.2363 -46.2261 -46.1771 -45.9910 -45.8625 -45.6580
   -19.1277 -18.9096 -18.5747 -18.4360 -18.3753 -18.1742 -17.9387 -17.7020
   -17.6320 -17.5972 -17.5603 -17.5014 -17.4519  -5.9969  -5.8407  -5.7067
    -5.5871  -5.3882  -5.0397  -4.9402  -4.9184  -4.8090  -4.6254  -4.5663
    -4.3222  -4.2030  -4.1142  -3.9558  -3.7087  -3.6685  -3.5834  -3.5311
    -3.4015  -3.3162  -3.2490  -3.1461  -3.1225  -3.0120  -2.9062  -2.6390
    -2.5004  -2.4011  -2.2321  -2.1743  -1.9598  -1.7866  -1.7202  -1.6099
    -1.5243  -1.4543  -1.2498  -1.0619   4.3082   4.4325   4.5884   4.5992
     4.6830   4.7458   4.7498   4.9542   5.0928   5.1021   5.1938   5.2827
     5.3633   5.4002   5.5438   5.5640   5.6095   5.6511   5.7319   5.7606
     5.7912   5.8316   5.8693   5.8945   5.9617   5.9836

          k =-0.2222-0.2309 0.0000 ( 36370 PWs)   bands (ev):

   -77.6525 -77.5656 -77.5513 -77.4795 -77.4407 -77.0051 -46.5565 -46.4663
   -46.4628 -46.4219 -46.3670 -46.3555 -46.3502 -46.3403 -46.3328 -46.3309
   -46.2789 -46.2744 -46.2387 -46.2260 -46.1771 -45.9910 -45.8628 -45.6579
   -18.9033 -18.8263 -18.6891 -18.5840 -18.3459 -18.2858 -18.1261 -17.6606
   -17.5726 -17.5472 -17.5380 -17.5001 -17.4414  -5.8132  -5.5802  -5.5672
    -5.3394  -5.1793  -5.1642  -5.0938  -4.6699  -4.6241  -4.5662  -4.5627
    -4.2519  -4.2249  -4.1720  -4.0942  -4.0267  -3.9472  -3.8022  -3.7313
    -3.5682  -3.4341  -3.3599  -3.2074  -3.0744  -2.9154  -2.8492  -2.6801
    -2.6699  -2.3405  -2.2604  -2.2526  -1.9332  -1.8389  -1.7479  -1.5704
    -1.4685  -1.3241  -1.2427  -1.1409   4.4870   4.5221   4.5819   4.6180
     4.7194   4.7437   4.8672   5.0576   5.1511   5.2539   5.3202   5.3643
     5.4005   5.4481   5.5522   5.5718   5.5963   5.6111   5.6630   5.7066
     5.7171   5.7661   5.8282   5.8673   5.9202   5.9543

          k =-0.2222-0.1154 0.0000 ( 36357 PWs)   bands (ev):

   -77.6523 -77.5656 -77.5510 -77.4792 -77.4407 -77.0052 -46.5564 -46.4662
   -46.4626 -46.4230 -46.3670 -46.3554 -46.3502 -46.3395 -46.3331 -46.3300
   -46.2821 -46.2744 -46.2363 -46.2261 -46.1771 -45.9910 -45.8625 -45.6580
   -19.1277 -18.9097 -18.5746 -18.4360 -18.3752 -18.1743 -17.9387 -17.7019
   -17.6319 -17.5972 -17.5604 -17.5014 -17.4519  -5.9958  -5.8412  -5.7063
    -5.5891  -5.3865  -5.0400  -4.9411  -4.9195  -4.8098  -4.6255  -4.5652
    -4.3223  -4.2038  -4.1146  -3.9551  -3.7100  -3.6640  -3.5836  -3.5318
    -3.4003  -3.3149  -3.2517  -3.1460  -3.1223  -3.0094  -2.9067  -2.6382
    -2.4998  -2.4018  -2.2351  -2.1744  -1.9631  -1.7867  -1.7203  -1.6120
    -1.5256  -1.4452  -1.2509  -1.0630   4.3073   4.4322   4.5884   4.5993
     4.6831   4.7458   4.7502   4.9538   5.0921   5.1027   5.1942   5.2827
     5.3628   5.4000   5.5438   5.5639   5.6094   5.6514   5.7318   5.7605
     5.7917   5.8318   5.8694   5.8947   5.9616   5.9836

          k =-0.1111 0.0000 0.0000 ( 36417 PWs)   bands (ev):

   -77.6528 -77.5665 -77.5515 -77.4797 -77.4414 -77.0057 -46.5184 -46.4666
   -46.4272 -46.3876 -46.3677 -46.3572 -46.3370 -46.3356 -46.3191 -46.2998
   -46.2914 -46.2820 -46.2387 -46.2331 -46.1801 -45.9512 -45.8698 -45.6613
   -19.5306 -19.2574 -18.8137 -18.5505 -18.3350 -18.1050 -17.8557 -17.7875
   -17.7791 -17.7130 -17.6207 -17.5083 -17.4429  -6.3756  -6.1220  -5.9774
    -5.4741  -5.2024  -4.9955  -4.9260  -4.6922  -4.6310  -4.4716  -4.3595
    -4.1354  -4.1176  -4.0473  -3.7294  -3.5511  -3.5045  -3.4760  -3.3735
    -3.2229  -3.1009  -2.9989  -2.9130  -2.8840  -2.7201  -2.7069  -2.4740
    -2.3757  -2.2256  -2.1222  -2.1090  -1.8798  -1.8647  -1.5865  -1.5800
    -1.4558  -1.3411  -1.1112  -0.7549   4.0798   4.2464   4.3555   4.5412
     4.5740   4.6703   4.7230   4.7846   4.8028   4.8711   5.0114   5.1539
     5.2926   5.3802   5.3988   5.5341   5.5930   5.6100   5.8211   5.8368
     5.9423   5.9880   6.0037   6.0129   6.0491   6.0723

          k =-0.1111 0.1154 0.0000 ( 36373 PWs)   bands (ev):

   -77.6532 -77.5667 -77.5520 -77.4801 -77.4416 -77.0059 -46.5184 -46.4652
   -46.4272 -46.3875 -46.3675 -46.3572 -46.3367 -46.3363 -46.3191 -46.3009
   -46.2868 -46.2819 -46.2419 -46.2330 -46.1801 -45.9512 -45.8700 -45.6612
   -19.4185 -19.1620 -18.7697 -18.6358 -18.5394 -18.3115 -18.0333 -17.7148
   -17.6428 -17.6117 -17.5709 -17.4887 -17.4404  -6.1615  -5.9176  -5.7998
    -5.4781  -5.2124  -5.0560  -4.9953  -4.5733  -4.5270  -4.4086  -4.3857
    -4.1458  -4.0995  -3.8834  -3.8358  -3.6628  -3.5354  -3.5017  -3.4280
    -3.2803  -3.1658  -3.0669  -2.9770  -2.8771  -2.7773  -2.6241  -2.5271
    -2.4656  -2.3639  -2.2955  -2.2373  -2.0434  -1.7960  -1.6320  -1.5382
    -1.4652  -1.3762  -1.1608  -0.8566   4.3338   4.4867   4.6024   4.6398
     4.7399   4.7977   4.8182   4.8800   4.9181   4.9626   5.0581   5.1517
     5.2950   5.4030   5.4422   5.5244   5.6474   5.6688   5.7485   5.8131
     5.8508   5.9066   5.9237   5.9436   5.9789   6.0398

          k =-0.1111-0.2309 0.0000 ( 36400 PWs)   bands (ev):

   -77.6536 -77.5669 -77.5524 -77.4805 -77.4418 -77.0061 -46.5184 -46.4638
   -46.4272 -46.3873 -46.3674 -46.3572 -46.3379 -46.3356 -46.3190 -46.3016
   -46.2819 -46.2818 -46.2458 -46.2329 -46.1800 -45.9511 -45.8703 -45.6611
   -19.1511 -19.0869 -18.9136 -18.8079 -18.5024 -18.4550 -18.2403 -17.6639
   -17.5698 -17.5575 -17.5162 -17.4847 -17.4303  -5.8634  -5.7053  -5.6339
    -5.3666  -5.1950  -5.1707  -5.1455  -4.4338  -4.4164  -4.3888  -4.3145
    -4.1418  -4.0872  -3.7997  -3.7860  -3.7057  -3.6757  -3.5845  -3.5240
    -3.3988  -3.2763  -3.2157  -3.1318  -2.9120  -2.7218  -2.7091  -2.6275
    -2.5007  -2.3999  -2.3686  -2.3501  -2.0341  -1.9931  -1.6218  -1.5600
    -1.4027  -1.2149  -1.1709  -1.0869   4.4630   4.6738   4.7036   4.7618
     4.9580   4.9622   5.0198   5.1004   5.1537   5.2283   5.2728   5.3041
     5.3753   5.3802   5.3906   5.4838   5.5278   5.5348   5.6177   5.6519
     5.6914   5.7099   5.8179   5.8491   5.9138   5.9359

          k =-0.1111-0.1154 0.0000 ( 36373 PWs)   bands (ev):

   -77.6532 -77.5667 -77.5520 -77.4801 -77.4416 -77.0059 -46.5184 -46.4652
   -46.4272 -46.3875 -46.3675 -46.3572 -46.3368 -46.3363 -46.3191 -46.3010
   -46.2867 -46.2819 -46.2420 -46.2330 -46.1801 -45.9512 -45.8700 -45.6612
   -19.4185 -19.1621 -18.7697 -18.6358 -18.5394 -18.3116 -18.0333 -17.7147
   -17.6428 -17.6117 -17.5710 -17.4887 -17.4404  -6.1613  -5.9175  -5.7998
    -5.4784  -5.2123  -5.0550  -4.9970  -4.5737  -4.5271  -4.4068  -4.3869
    -4.1458  -4.0996  -3.8825  -3.8367  -3.6630  -3.5320  -3.5047  -3.4269
    -3.2798  -3.1666  -3.0650  -2.9778  -2.8769  -2.7786  -2.6230  -2.5270
    -2.4641  -2.3687  -2.2950  -2.2356  -2.0458  -1.7975  -1.6317  -1.5386
    -1.4615  -1.3737  -1.1620  -0.8579   4.3334   4.4863   4.6022   4.6398
     4.7398   4.7983   4.8183   4.8797   4.9183   4.9626   5.0581   5.1517
     5.2951   5.4029   5.4417   5.5242   5.6471   5.6688   5.7493   5.8133
     5.8503   5.9059   5.9244   5.9432   5.9787   6.0398

     the Fermi energy is    -0.2172 ev

!    total energy              =   -1807.82141635 Ry
     estimated scf accuracy    <       0.00000034 Ry
     smearing contrib. (-TS)   =       0.00028751 Ry
     internal energy E=F+TS    =   -1807.82170385 Ry

     The total energy is F=E-TS. E is the sum of the following terms:
     one-electron contribution =  -17109.44093088 Ry
     hartree contribution      =    8581.33034926 Ry
     xc contribution           =    -257.15462083 Ry
     ewald contribution        =    7099.27381812 Ry
     Hubbard energy            =       1.94026969 Ry
     one-center paw contrib.   =    -123.77058921 Ry

     total magnetization       =    17.00 Bohr mag/cell
     absolute magnetization    =    29.66 Bohr mag/cell

     convergence has been achieved in  25 iterations

     negative rho (up, down):  1.826E-03 1.683E-03
     force_hub    :      2.07s CPU      2.12s WALL (       1 calls)
     dndtau       :      1.66s CPU      1.70s WALL (    1080 calls)
     dprojdtau    :      0.18s CPU      0.18s WALL (    6480 calls)
     matel_dSdtau :      1.42s CPU      1.46s WALL (    1080 calls)

     Forces acting on atoms (cartesian axes, Ry/au):

     atom    1 type  2   force =     0.00003857   -0.00005971   -0.03576893
     atom    2 type  2   force =     0.00007655    0.00009320   -0.00823772
     atom    3 type  2   force =     0.00000678   -0.00044757   -0.00632619
     atom    4 type  2   force =     0.00000276    0.00075067   -0.01061063
     atom    5 type  2   force =    -0.00040104    0.00028034   -0.03191500
     atom    6 type  2   force =     0.00020184    0.00060150   -0.02122553
     atom    7 type  3   force =    -0.00014578   -0.00168106    0.03372128
     atom    8 type  3   force =     0.00000052   -0.00003052   -0.04948061
     atom    9 type  3   force =    -0.00001186   -0.02263802   -0.03731644
     atom   10 type  3   force =    -0.00002651    0.02286538   -0.03713441
     atom   11 type  3   force =     0.00014210   -0.00116010    0.03730972
     atom   12 type  3   force =    -0.00113671    0.00131993    0.05332574
     atom   13 type  3   force =    -0.00003640   -0.01891406   -0.00037338
     atom   14 type  3   force =    -0.00002582    0.01850856   -0.00200068
     atom   15 type  3   force =    -0.00002094   -0.00004724    0.05988755
     atom   16 type  3   force =    -0.00048844    0.00149983    0.00573491
     atom   17 type  3   force =     0.00090861   -0.01574569   -0.00142218
     atom   18 type  3   force =     0.00086001    0.01432034   -0.00369663
     atom   19 type  3   force =    -0.00059897    0.00011598    0.05427121
     atom   20 type  1   force =     0.00065474    0.00036823    0.00125793

     Total force =     0.103735     Total SCF correction =     0.001654

     Writing all to output data dir ./tmp_s0_OH__u900/s0_OH__u900.save/ :
     XML data file, charge density, pseudopotentials, collected wavefunctions

     init_run     :      5.73s CPU      5.92s WALL (       1 calls)
     electrons    :    206.92s CPU    209.86s WALL (       1 calls)
     forces       :      3.42s CPU      3.47s WALL (       1 calls)

     Called by init_run:
     wfcinit      :      4.30s CPU      4.39s WALL (       1 calls)
     potinit      :      0.55s CPU      0.57s WALL (       1 calls)
     hinit0       :      0.50s CPU      0.51s WALL (       1 calls)

     Called by electrons:
     c_bands      :    164.53s CPU    166.77s WALL (      25 calls)
     sum_band     :     33.71s CPU     34.21s WALL (      25 calls)
     v_of_rho     :      2.71s CPU      2.76s WALL (      26 calls)
     newd         :      1.45s CPU      1.48s WALL (      26 calls)
     PAW_pot      :      1.51s CPU      1.52s WALL (      26 calls)
     mix_rho      :      2.41s CPU      2.47s WALL (      25 calls)

     Called by c_bands:
     init_us_2    :      3.65s CPU      3.71s WALL (     972 calls)
     cegterg      :    135.52s CPU    137.36s WALL (     450 calls)

     Called by *egterg:
     cdiaghg      :     17.07s CPU     17.19s WALL (    1491 calls)
     h_psi        :     88.12s CPU     89.54s WALL (    1509 calls)
     s_psi        :      7.04s CPU      7.10s WALL (    1545 calls)
     g_psi        :      0.46s CPU      0.47s WALL (    1041 calls)

     Called by h_psi:
     h_psi:calbec :      8.83s CPU      8.91s WALL (    1509 calls)
     vloc_psi     :     68.22s CPU     69.42s WALL (    1509 calls)
                                        0.00s GPU  (    1509 calls)
     add_vuspsi   :      6.41s CPU      6.46s WALL (    1509 calls)
     vhpsi        :      3.68s CPU      3.74s WALL (    1509 calls)

     General routines
     calbec       :     18.05s CPU     18.26s WALL (    8364 calls)
     fft          :      2.28s CPU      2.33s WALL (     663 calls)
     ffts         :      1.77s CPU      1.79s WALL (    3054 calls)
     fftw         :     79.71s CPU     81.07s WALL (  243400 calls)
     interpolate  :      0.46s CPU      0.47s WALL (      52 calls)

     Parallel routines

     Hubbard U routines
     new_ns       :      1.46s CPU      1.52s WALL (      25 calls)
     vhpsi        :      3.68s CPU      3.74s WALL (    1509 calls)
     force_hub    :      2.07s CPU      2.12s WALL (       1 calls)

     PWSCF        :   3m37.30s CPU   3m43.50s WALL


   This run was terminated on:  19: 7:10  28Aug2026            

=------------------------------------------------------------------------------=
   JOB DONE.
=------------------------------------------------------------------------------=
Note: The following floating-point exceptions are signalling: IEEE_DENORMAL
Note: The following floating-point exceptions are signalling: IEEE_DENORMAL
Note: The following floating-point exceptions are signalling: IEEE_DENORMAL
Note: The following floating-point exceptions are signalling: IEEE_DENORMAL
Note: The following floating-point exceptions are signalling: IEEE_DENORMAL
Note: The following floating-point exceptions are signalling: IEEE_DENORMAL
Note: The following floating-point exceptions are signalling: IEEE_DENORMAL
Note: The following floating-point exceptions are signalling: IEEE_DENORMAL
Note: The following floating-point exceptions are signalling: IEEE_DENORMAL
Note: The following floating-point exceptions are signalling: IEEE_DENORMAL
Note: The following floating-point exceptions are signalling: IEEE_DENORMAL
Note: The following floating-point exceptions are signalling: IEEE_DENORMAL
Note: The following floating-point exceptions are signalling: IEEE_DENORMAL
Note: The following floating-point exceptions are signalling: IEEE_DENORMAL
Note: The following floating-point exceptions are signalling: IEEE_DENORMAL
Note: The following floating-point exceptions are signalling: IEEE_DENORMAL
Note: The following floating-point exceptions are signalling: IEEE_DENORMAL
Note: The following floating-point exceptions are signalling: IEEE_DENORMAL
Note: The following floating-point exceptions are signalling: IEEE_DENORMAL
