
     Program PWSCF v.7.5 starts on 24Aug2026 at 15:42:57 

     This program is part of the open-source Quantum ESPRESSO suite
     for quantum simulation of materials; please cite
         "P. Giannozzi et al., J. Phys.:Condens. Matter 21 395502 (2009);
         "P. Giannozzi et al., J. Phys.:Condens. Matter 29 465901 (2017);
         "P. Giannozzi et al., J. Chem. Phys. 152 154105 (2020);
          URL http://www.quantum-espresso.org", 
     in publications or presentations arising from this work. More details at
     http://www.quantum-espresso.org/quote

     Parallel version (MPI & OpenMP), running on     128 processor cores
     Number of MPI processes:               128
     Threads/MPI process:                     1

     MPI processes distributed on     1 nodes
     207655 MiB available memory on the printing compute node when the environment starts

     Reading input from s0_OOH__2x1v_off__g1.run.in

     Current dimensions of program PWSCF are:
     Max number of different atomic species (ntypx) = 10
     Max number of k-points (npk) =  40000
     Max angular momentum in pseudopotentials (lmaxx) =  4
     file O.pbe-n-kjpaw_psl.0.1.UPF: wavefunction(s)  2P renormalized

     K-points division:     npool     =       8
     R & G space division:  proc/nbgrp/npool/nimage =      16
     Subspace diagonalization in iterative solution of the eigenvalue problem:
     one sub-group per band group will be used
     ELPA distributed-memory algorithm (size of sub-group:  2*  2 procs)


     Parallelization info
     --------------------
     sticks:   dense  smooth     PW     G-vecs:    dense   smooth      PW
     Min         436     217     59               115190    40713    5763
     Max         437     218     60               115197    40732    5778
     Sum        6981    3487    945              1843083   651657   92261

     Using Slab Decomposition



     bravais-lattice index     =            0
     lattice parameter (alat)  =      11.1823  a.u.
     unit-cell volume          =    6741.2863 (a.u.)^3
     number of atoms/cell      =           39
     number of atomic types    =            3
     number of electrons       =       301.00
     number of Kohn-Sham states=          181
     kinetic-energy cutoff     =      80.0000  Ry
     charge density cutoff     =     640.0000  Ry
     scf convergence threshold =      1.0E-06
     mixing beta               =       0.3000
     number of iterations used =            8  local-TF  mixing
     Exchange-correlation= SLA  PW   PBX  PBC
                           (   1   4   3   4   0   0   0)

     celldm(1)=  11.182265  celldm(2)=   0.000000  celldm(3)=   0.000000
     celldm(4)=   0.000000  celldm(5)=   0.000000  celldm(6)=   0.000000

     crystal axes: (cart. coord. in units of alat)
               a(1) = (   1.000000   0.000000   0.000000 )  
               a(2) = (   0.000000   1.097859   0.000000 )  
               a(3) = (   0.000000   0.000000   4.391437 )  

     reciprocal axes: (cart. coord. in units 2 pi/alat)
               b(1) = (  1.000000  0.000000  0.000000 )  
               b(2) = (  0.000000  0.910864  0.000000 )  
               b(3) = (  0.000000  0.000000  0.227716 )  


     PseudoPot. # 1 for H  read from file:
     /anvil/projects/x-che260157/pseudo/H.pbe-rrkjus_psl.1.0.0.UPF
     MD5 check sum: f52b6d4d1c606e5624b1dc7b2218f220
     Pseudo is Ultrasoft, Zval =  1.0
     Generated using "atomic" code by A. Dal Corso  v.5.1
     Using radial grid of  929 points,  2 beta functions with: 
                l(1) =   0
                l(2) =   0
     Q(r) pseudized with 0 coefficients 


     PseudoPot. # 2 for Ti read from file:
     /anvil/projects/x-che260157/pseudo/ti_pbe_v1.4.uspp.F.UPF
     MD5 check sum: 88a00a6731bd790ddea75d31a80cb452
     Pseudo is Ultrasoft + core correction, Zval = 12.0
     Generated by new atomic code, or converted to UPF format
     Using radial grid of  851 points,  6 beta functions with: 
                l(1) =   0
                l(2) =   0
                l(3) =   1
                l(4) =   1
                l(5) =   2
                l(6) =   2
     Q(r) pseudized with  6 coefficients,  rinner =    1.000   1.000   1.000
                                                       1.000   1.000

     PseudoPot. # 3 for O  read from file:
     /anvil/projects/x-che260157/pseudo/O.pbe-n-kjpaw_psl.0.1.UPF
     MD5 check sum: 0234752ac141de4415c5fc33072bef88
     Pseudo is Projector augmented-wave + core cor, Zval =  6.0
     Generated using "atomic" code by A. Dal Corso  v.5.0.99 svn rev. 10869
     Shape of augmentation charge: BESSEL
     Using radial grid of 1095 points,  4 beta functions with: 
                l(1) =   0
                l(2) =   0
                l(3) =   1
                l(4) =   1
     Q(r) pseudized with 0 coefficients 


     atomic species   valence    mass     pseudopotential
     H                 1.00     1.00800     H ( 1.00)
     Ti               12.00    47.86700     Ti( 1.00)
     O                 6.00    15.99900     O ( 1.00)

     No symmetry found



   Cartesian axes

     site n.     atom                  positions (alat units)
         1        Ti     tau(   1) = (   0.0000000   0.8233945   1.6467890  )
         2        Ti     tau(   2) = (   0.2500000   0.2744648   1.6467890  )
         3        Ti     tau(   3) = (   0.0000000   0.2704200   2.2163345  )
         4        Ti     tau(   4) = (   0.2446944   0.8168294   2.1969826  )
         5        Ti     tau(   5) = (  -0.0000002   0.8361743   2.7627124  )
         6        Ti     tau(   6) = (   0.2508903   0.2830520   2.7826120  )
         7        O      tau(   7) = (   0.0000000   0.2744648   1.8611131  )
         8        O      tau(   8) = (   0.0000000   0.2744648   1.4324649  )
         9        O      tau(   9) = (   0.2500000   0.6090704   1.6467890  )
        10        O      tau(  10) = (   0.2500000   1.0377186   1.6467890  )
        11        O      tau(  11) = (   0.0000000   0.8286767   2.4179551  )
        12        O      tau(  12) = (   0.0000000   0.8233945   1.9813946  )
        13        O      tau(  13) = (   0.2500582   0.0584095   2.1983347  )
        14        O      tau(  14) = (   0.2504837   0.4969545   2.1993831  )
        15        O      tau(  15) = (   0.0000001   0.2874278   2.9635454  )
        16        O      tau(  16) = (  -0.0000000   0.2762126   2.5314595  )
        17        O      tau(  17) = (   0.2555266   0.6215526   2.7683128  )
        18        O      tau(  18) = (   0.2529390   1.0372541   2.7787006  )
        19        Ti     tau(  19) = (   0.5000000   0.8233945   1.6467890  )
        20        Ti     tau(  20) = (   0.7500000   0.2744648   1.6467890  )
        21        Ti     tau(  21) = (   0.5000000   0.2685767   2.2131642  )
        22        Ti     tau(  22) = (   0.7553056   0.8168294   2.1969826  )
        23        Ti     tau(  23) = (   0.4999998   0.8280190   2.7187706  )
        24        Ti     tau(  24) = (   0.7491097   0.2830521   2.7826120  )
        25        O      tau(  25) = (   0.5000000   0.2744648   1.8611131  )
        26        O      tau(  26) = (   0.5000000   0.2744648   1.4324649  )
        27        O      tau(  27) = (   0.7500000   0.6090704   1.6467890  )
        28        O      tau(  28) = (   0.7500000   1.0377186   1.6467890  )
        29        O      tau(  29) = (   0.5000000   0.8312549   2.4128425  )
        30        O      tau(  30) = (   0.5000000   0.8233945   1.9813946  )
        31        O      tau(  31) = (   0.7499419   0.0584095   2.1983346  )
        32        O      tau(  32) = (   0.7495163   0.4969545   2.1993830  )
        33        O      tau(  33) = (   0.5000000   0.2818678   2.9669767  )
        34        O      tau(  34) = (   0.5000002   0.2772665   2.5317364  )
        35        O      tau(  35) = (   0.7444734   0.6215526   2.7683128  )
        36        O      tau(  36) = (   0.7470612   1.0372538   2.7787014  )
        37        O      tau(  37) = (   0.0000027   0.7917440   3.1097149  )
        38        O      tau(  38) = (  -0.0000046   0.9826076   3.2440497  )
        39        H      tau(  39) = (   0.0000010   0.9156318   3.3961494  )

     number of k points=    10  Marzari-Vanderbilt smearing, width (Ry)=  0.0100
                       cart. coord. in units 2pi/alat
        k(    1) = (   0.0000000   0.0000000   0.0000000), wk =   0.1250000
        k(    2) = (   0.0000000   0.2277159   0.0000000), wk =   0.2500000
        k(    3) = (   0.0000000  -0.4554318   0.0000000), wk =   0.1250000
        k(    4) = (   0.2500000   0.0000000   0.0000000), wk =   0.2500000
        k(    5) = (   0.2500000   0.2277159   0.0000000), wk =   0.2500000
        k(    6) = (   0.2500000  -0.4554318   0.0000000), wk =   0.2500000
        k(    7) = (   0.2500000  -0.2277159   0.0000000), wk =   0.2500000
        k(    8) = (  -0.5000000   0.0000000   0.0000000), wk =   0.1250000
        k(    9) = (  -0.5000000   0.2277159   0.0000000), wk =   0.2500000
        k(   10) = (  -0.5000000  -0.4554318   0.0000000), wk =   0.1250000

     Dense  grid:  1843083 G-vectors     FFT dimensions: (  96, 100, 400)

     Smooth grid:   651657 G-vectors     FFT dimensions: (  64,  72, 288)

     Estimated max dynamical RAM per process >     239.24 MB

     Estimated total dynamical RAM >      26.83 GB

     Check: negative core charge=   -0.000001

     Initial potential from superposition of free atoms

     starting charge     288.9994, renormalised to     301.0000

     negative rho (up, down):  1.731E-02 0.000E+00
     Starting wfcs are  225 randomized atomic wfcs
     Checking if some PAW data can be deallocated... 

     total cpu time spent up to now is        7.0 secs

     per-process dynamical memory:   193.6 Mb

     Self-consistent Calculation

     iteration #  1     ecut=    80.00 Ry     beta= 0.30
     Davidson diagonalization with overlap
     ethr =  1.00E-02,  avg # of iterations =  2.2

     negative rho (up, down):  1.677E-02 0.000E+00

     total cpu time spent up to now is       15.3 secs

     total energy              =   -2518.88637177 Ry
     estimated scf accuracy    <      76.51166722 Ry

     iteration #  2     ecut=    80.00 Ry     beta= 0.30
     Davidson diagonalization with overlap
     ethr =  1.00E-02,  avg # of iterations =  1.2

     negative rho (up, down):  1.711E-02 0.000E+00

     total cpu time spent up to now is       21.7 secs

     total energy              =   -2519.15580373 Ry
     estimated scf accuracy    <      18.21846837 Ry

     iteration #  3     ecut=    80.00 Ry     beta= 0.30
     Davidson diagonalization with overlap
     ethr =  6.05E-03,  avg # of iterations =  1.1

     negative rho (up, down):  1.683E-02 0.000E+00

     total cpu time spent up to now is       28.1 secs

     total energy              =   -2518.87906848 Ry
     estimated scf accuracy    <      26.49530592 Ry

     iteration #  4     ecut=    80.00 Ry     beta= 0.30
     Davidson diagonalization with overlap
     ethr =  6.05E-03,  avg # of iterations =  1.0

     negative rho (up, down):  1.654E-02 0.000E+00

     total cpu time spent up to now is       34.2 secs

     total energy              =   -2518.05175966 Ry
     estimated scf accuracy    <      15.71749607 Ry

     iteration #  5     ecut=    80.00 Ry     beta= 0.30
     Davidson diagonalization with overlap
     ethr =  5.22E-03,  avg # of iterations =  8.5

     negative rho (up, down):  1.571E-02 0.000E+00

     total cpu time spent up to now is       42.7 secs

     total energy              =   -2519.98473828 Ry
     estimated scf accuracy    <       6.77739072 Ry

     iteration #  6     ecut=    80.00 Ry     beta= 0.30
     Davidson diagonalization with overlap
     ethr =  2.25E-03,  avg # of iterations =  2.0

     negative rho (up, down):  1.634E-02 0.000E+00

     total cpu time spent up to now is       49.5 secs

     total energy              =   -2519.77068201 Ry
     estimated scf accuracy    <       3.33019639 Ry

     iteration #  7     ecut=    80.00 Ry     beta= 0.30
     Davidson diagonalization with overlap
     ethr =  1.11E-03,  avg # of iterations =  2.0

     negative rho (up, down):  1.745E-02 0.000E+00

     total cpu time spent up to now is       56.3 secs

     total energy              =   -2519.56187375 Ry
     estimated scf accuracy    <       2.01967040 Ry

     iteration #  8     ecut=    80.00 Ry     beta= 0.30
     Davidson diagonalization with overlap
     ethr =  6.71E-04,  avg # of iterations =  2.3

     negative rho (up, down):  1.927E-02 0.000E+00

     total cpu time spent up to now is       63.2 secs

     total energy              =   -2519.49204276 Ry
     estimated scf accuracy    <       1.22837688 Ry

     iteration #  9     ecut=    80.00 Ry     beta= 0.30
     Davidson diagonalization with overlap
     ethr =  4.08E-04,  avg # of iterations =  3.5

     negative rho (up, down):  2.011E-02 0.000E+00

     total cpu time spent up to now is       70.4 secs

     total energy              =   -2519.54050949 Ry
     estimated scf accuracy    <       0.51636720 Ry

     iteration # 10     ecut=    80.00 Ry     beta= 0.30
     Davidson diagonalization with overlap
     ethr =  1.72E-04,  avg # of iterations =  2.9

     negative rho (up, down):  2.385E-02 0.000E+00

     total cpu time spent up to now is       77.6 secs

     total energy              =   -2519.47327018 Ry
     estimated scf accuracy    <       0.44219749 Ry

     iteration # 11     ecut=    80.00 Ry     beta= 0.30
     Davidson diagonalization with overlap
     ethr =  1.47E-04,  avg # of iterations =  5.5

     negative rho (up, down):  2.302E-02 0.000E+00

     total cpu time spent up to now is       85.9 secs

     total energy              =   -2519.53408491 Ry
     estimated scf accuracy    <       0.64505378 Ry

     iteration # 12     ecut=    80.00 Ry     beta= 0.30
     Davidson diagonalization with overlap
     ethr =  1.47E-04,  avg # of iterations =  1.0

     negative rho (up, down):  2.188E-02 0.000E+00

     total cpu time spent up to now is       92.4 secs

     total energy              =   -2519.50283218 Ry
     estimated scf accuracy    <       0.56829900 Ry

     iteration # 13     ecut=    80.00 Ry     beta= 0.30
     Davidson diagonalization with overlap
     ethr =  1.47E-04,  avg # of iterations =  1.0

     negative rho (up, down):  2.068E-02 0.000E+00

     total cpu time spent up to now is       98.6 secs

     total energy              =   -2519.45820757 Ry
     estimated scf accuracy    <       0.21168731 Ry

     iteration # 14     ecut=    80.00 Ry     beta= 0.30
     Davidson diagonalization with overlap
     ethr =  7.03E-05,  avg # of iterations =  4.0

     negative rho (up, down):  1.998E-02 0.000E+00

     total cpu time spent up to now is      106.7 secs

     total energy              =   -2519.50964276 Ry
     estimated scf accuracy    <       0.31061068 Ry

     iteration # 15     ecut=    80.00 Ry     beta= 0.30
     Davidson diagonalization with overlap
     ethr =  7.03E-05,  avg # of iterations =  2.1

     negative rho (up, down):  1.845E-02 0.000E+00

     total cpu time spent up to now is      113.6 secs

     total energy              =   -2519.49346488 Ry
     estimated scf accuracy    <       0.33717768 Ry

     iteration # 16     ecut=    80.00 Ry     beta= 0.30
     Davidson diagonalization with overlap
     ethr =  7.03E-05,  avg # of iterations =  4.6

     negative rho (up, down):  1.867E-02 0.000E+00

     total cpu time spent up to now is      121.6 secs

     total energy              =   -2519.48714436 Ry
     estimated scf accuracy    <       0.26413275 Ry

     iteration # 17     ecut=    80.00 Ry     beta= 0.30
     Davidson diagonalization with overlap
     c_bands:  3 eigenvalues not converged
     ethr =  7.03E-05,  avg # of iterations =  3.8

     negative rho (up, down):  2.177E-02 0.000E+00

     total cpu time spent up to now is      129.1 secs

     total energy              =   -2519.47225327 Ry
     estimated scf accuracy    <       0.23080618 Ry

     iteration # 18     ecut=    80.00 Ry     beta= 0.30
     Davidson diagonalization with overlap
     ethr =  7.03E-05,  avg # of iterations =  7.0

     negative rho (up, down):  2.873E-02 0.000E+00

     total cpu time spent up to now is      137.2 secs

     total energy              =   -2519.44916194 Ry
     estimated scf accuracy    <       0.25267651 Ry

     iteration # 19     ecut=    80.00 Ry     beta= 0.30
     Davidson diagonalization with overlap
     ethr =  7.03E-05,  avg # of iterations =  4.2

     negative rho (up, down):  2.579E-02 0.000E+00

     total cpu time spent up to now is      144.7 secs

     total energy              =   -2519.46954479 Ry
     estimated scf accuracy    <       0.51306097 Ry

     iteration # 20     ecut=    80.00 Ry     beta= 0.30
     Davidson diagonalization with overlap
     ethr =  7.03E-05,  avg # of iterations =  1.1

     negative rho (up, down):  2.431E-02 0.000E+00

     total cpu time spent up to now is      151.0 secs

     total energy              =   -2519.46288516 Ry
     estimated scf accuracy    <       0.65586656 Ry

     iteration # 21     ecut=    80.00 Ry     beta= 0.30
     Davidson diagonalization with overlap
     ethr =  7.03E-05,  avg # of iterations =  1.0

     negative rho (up, down):  2.445E-02 0.000E+00

     total cpu time spent up to now is      157.3 secs

     total energy              =   -2519.45590206 Ry
     estimated scf accuracy    <       0.21288993 Ry

     iteration # 22     ecut=    80.00 Ry     beta= 0.30
     Davidson diagonalization with overlap
     ethr =  7.03E-05,  avg # of iterations =  1.1

     negative rho (up, down):  3.240E-02 0.000E+00

     total cpu time spent up to now is      163.6 secs

     total energy              =   -2519.45310184 Ry
     estimated scf accuracy    <       0.36040222 Ry

     iteration # 23     ecut=    80.00 Ry     beta= 0.30
     Davidson diagonalization with overlap
     ethr =  7.03E-05,  avg # of iterations =  1.0

     negative rho (up, down):  3.776E-02 0.000E+00

     total cpu time spent up to now is      169.8 secs

     total energy              =   -2519.47117176 Ry
     estimated scf accuracy    <       0.38870614 Ry

     iteration # 24     ecut=    80.00 Ry     beta= 0.30
     Davidson diagonalization with overlap
     ethr =  7.03E-05,  avg # of iterations =  1.7

     negative rho (up, down):  3.621E-02 0.000E+00

     total cpu time spent up to now is      176.3 secs

     total energy              =   -2519.48112978 Ry
     estimated scf accuracy    <       0.55295179 Ry

     iteration # 25     ecut=    80.00 Ry     beta= 0.30
     Davidson diagonalization with overlap
     ethr =  7.03E-05,  avg # of iterations =  1.0

     negative rho (up, down):  3.431E-02 0.000E+00

     total cpu time spent up to now is      182.4 secs

     total energy              =   -2519.48333271 Ry
     estimated scf accuracy    <       0.54018971 Ry

     iteration # 26     ecut=    80.00 Ry     beta= 0.30
     Davidson diagonalization with overlap
     ethr =  7.03E-05,  avg # of iterations =  1.0

     negative rho (up, down):  2.933E-02 0.000E+00

     total cpu time spent up to now is      188.5 secs

     total energy              =   -2519.47975644 Ry
     estimated scf accuracy    <       0.55101971 Ry

     iteration # 27     ecut=    80.00 Ry     beta= 0.30
     Davidson diagonalization with overlap
     ethr =  7.03E-05,  avg # of iterations =  1.0

     negative rho (up, down):  2.392E-02 0.000E+00

     total cpu time spent up to now is      195.3 secs

     total energy              =   -2519.47549884 Ry
     estimated scf accuracy    <       0.54168832 Ry

     iteration # 28     ecut=    80.00 Ry     beta= 0.30
     Davidson diagonalization with overlap
     ethr =  7.03E-05,  avg # of iterations =  1.0

     negative rho (up, down):  1.892E-02 0.000E+00

     total cpu time spent up to now is      201.4 secs

     total energy              =   -2519.46995982 Ry
     estimated scf accuracy    <       0.53797863 Ry

     iteration # 29     ecut=    80.00 Ry     beta= 0.30
     Davidson diagonalization with overlap
     ethr =  7.03E-05,  avg # of iterations =  1.0

     negative rho (up, down):  2.967E-02 0.000E+00

     total cpu time spent up to now is      207.7 secs

     total energy              =   -2519.48751048 Ry
     estimated scf accuracy    <       0.63889239 Ry

     iteration # 30     ecut=    80.00 Ry     beta= 0.30
     Davidson diagonalization with overlap
     ethr =  7.03E-05,  avg # of iterations =  1.0

     negative rho (up, down):  2.240E-02 0.000E+00

     total cpu time spent up to now is      213.9 secs

     total energy              =   -2519.48541289 Ry
     estimated scf accuracy    <       0.56562999 Ry

     iteration # 31     ecut=    80.00 Ry     beta= 0.30
     Davidson diagonalization with overlap
     ethr =  7.03E-05,  avg # of iterations =  1.0

     negative rho (up, down):  3.567E-02 0.000E+00

     total cpu time spent up to now is      220.2 secs

     total energy              =   -2519.47841763 Ry
     estimated scf accuracy    <       0.56031911 Ry

     iteration # 32     ecut=    80.00 Ry     beta= 0.30
     Davidson diagonalization with overlap
     ethr =  7.03E-05,  avg # of iterations =  1.0

     negative rho (up, down):  6.029E-02 0.000E+00

     total cpu time spent up to now is      227.5 secs

     total energy              =   -2519.50231365 Ry
     estimated scf accuracy    <       0.54666558 Ry

     iteration # 33     ecut=    80.00 Ry     beta= 0.30
     Davidson diagonalization with overlap
     ethr =  7.03E-05,  avg # of iterations =  1.1

     negative rho (up, down):  2.781E-02 0.000E+00

     total cpu time spent up to now is      234.0 secs

     total energy              =   -2519.47280520 Ry
     estimated scf accuracy    <       0.63315461 Ry

     iteration # 34     ecut=    80.00 Ry     beta= 0.30
     Davidson diagonalization with overlap
     ethr =  7.03E-05,  avg # of iterations =  1.0

     negative rho (up, down):  2.328E-02 0.000E+00

     total cpu time spent up to now is      240.1 secs

     total energy              =   -2519.47863581 Ry
     estimated scf accuracy    <       0.56290980 Ry

     iteration # 35     ecut=    80.00 Ry     beta= 0.30
     Davidson diagonalization with overlap
     ethr =  7.03E-05,  avg # of iterations =  1.0

     negative rho (up, down):  3.479E-02 0.000E+00

     total cpu time spent up to now is      246.3 secs

     total energy              =   -2519.49929653 Ry
     estimated scf accuracy    <       0.54685159 Ry

     iteration # 36     ecut=    80.00 Ry     beta= 0.30
     Davidson diagonalization with overlap
     ethr =  7.03E-05,  avg # of iterations =  2.9

     negative rho (up, down):  2.979E-02 0.000E+00

     total cpu time spent up to now is      253.4 secs

     total energy              =   -2519.46737554 Ry
     estimated scf accuracy    <       0.62219554 Ry

     iteration # 37     ecut=    80.00 Ry     beta= 0.30
     Davidson diagonalization with overlap
     ethr =  7.03E-05,  avg # of iterations =  1.0

     negative rho (up, down):  5.958E-02 0.000E+00

     total cpu time spent up to now is      261.8 secs

     total energy              =   -2519.57837423 Ry
     estimated scf accuracy    <       0.71343271 Ry

     iteration # 38     ecut=    80.00 Ry     beta= 0.30
     Davidson diagonalization with overlap
     ethr =  7.03E-05,  avg # of iterations =  9.1

     negative rho (up, down):  4.409E-02 0.000E+00

     total cpu time spent up to now is      270.2 secs

     total energy              =   -2519.47764986 Ry
     estimated scf accuracy    <       0.90889636 Ry

     iteration # 39     ecut=    80.00 Ry     beta= 0.30
     Davidson diagonalization with overlap
     c_bands:  2 eigenvalues not converged
     ethr =  7.03E-05,  avg # of iterations = 12.7

     negative rho (up, down):  2.235E-02 0.000E+00

     total cpu time spent up to now is      280.6 secs

     total energy              =   -2519.50731943 Ry
     estimated scf accuracy    <       0.58324639 Ry

     iteration # 40     ecut=    80.00 Ry     beta= 0.30
     Davidson diagonalization with overlap
     ethr =  7.03E-05,  avg # of iterations =  2.5

     negative rho (up, down):  1.027E-01 0.000E+00

     total cpu time spent up to now is      287.4 secs

     total energy              =   -2519.48387277 Ry
     estimated scf accuracy    <       0.66617191 Ry

     iteration # 41     ecut=    80.00 Ry     beta= 0.30
     Davidson diagonalization with overlap
     ethr =  7.03E-05,  avg # of iterations =  1.0

     negative rho (up, down):  6.154E-02 0.000E+00

     total cpu time spent up to now is      293.6 secs

     total energy              =   -2519.43483790 Ry
     estimated scf accuracy    <       0.58911756 Ry

     iteration # 42     ecut=    80.00 Ry     beta= 0.30
     Davidson diagonalization with overlap
     ethr =  7.03E-05,  avg # of iterations =  4.9

     negative rho (up, down):  1.789E-02 0.000E+00

     total cpu time spent up to now is      300.9 secs

     total energy              =   -2519.41732119 Ry
     estimated scf accuracy    <       0.20144764 Ry

     iteration # 43     ecut=    80.00 Ry     beta= 0.30
     Davidson diagonalization with overlap
     ethr =  6.69E-05,  avg # of iterations =  2.0

     negative rho (up, down):  2.063E-02 0.000E+00

     total cpu time spent up to now is      307.7 secs

     total energy              =   -2519.53697454 Ry
     estimated scf accuracy    <       0.71434031 Ry

     iteration # 44     ecut=    80.00 Ry     beta= 0.30
     Davidson diagonalization with overlap
     ethr =  6.69E-05,  avg # of iterations =  1.0

     negative rho (up, down):  2.609E-02 0.000E+00

     total cpu time spent up to now is      314.1 secs

     total energy              =   -2519.52730103 Ry
     estimated scf accuracy    <       0.74314132 Ry

     iteration # 45     ecut=    80.00 Ry     beta= 0.30
     Davidson diagonalization with overlap
     ethr =  6.69E-05,  avg # of iterations =  1.0

     negative rho (up, down):  2.378E-02 0.000E+00

     total cpu time spent up to now is      320.2 secs

     total energy              =   -2519.52058331 Ry
     estimated scf accuracy    <       0.70923889 Ry

     iteration # 46     ecut=    80.00 Ry     beta= 0.30
     Davidson diagonalization with overlap
     ethr =  6.69E-05,  avg # of iterations =  1.0

     negative rho (up, down):  1.616E-02 0.000E+00

     total cpu time spent up to now is      326.4 secs

     total energy              =   -2519.48945739 Ry
     estimated scf accuracy    <       0.68564826 Ry

     iteration # 47     ecut=    80.00 Ry     beta= 0.30
     Davidson diagonalization with overlap
     ethr =  6.69E-05,  avg # of iterations =  1.0

     negative rho (up, down):  1.563E-02 0.000E+00

     total cpu time spent up to now is      332.5 secs

     total energy              =   -2519.44987186 Ry
     estimated scf accuracy    <       0.58113636 Ry

     iteration # 48     ecut=    80.00 Ry     beta= 0.30
     Davidson diagonalization with overlap
     ethr =  6.69E-05,  avg # of iterations =  1.4

     negative rho (up, down):  1.866E-02 0.000E+00

     total cpu time spent up to now is      339.0 secs

     total energy              =   -2519.44134768 Ry
     estimated scf accuracy    <       0.26881717 Ry

     iteration # 49     ecut=    80.00 Ry     beta= 0.30
     Davidson diagonalization with overlap
     ethr =  6.69E-05,  avg # of iterations =  1.0

     negative rho (up, down):  1.574E-02 0.000E+00

     total cpu time spent up to now is      345.2 secs

     total energy              =   -2519.47650171 Ry
     estimated scf accuracy    <       0.51728990 Ry

     iteration # 50     ecut=    80.00 Ry     beta= 0.30
     Davidson diagonalization with overlap
     ethr =  6.69E-05,  avg # of iterations =  1.0

     negative rho (up, down):  2.505E-02 0.000E+00

     total cpu time spent up to now is      351.3 secs

     total energy              =   -2519.47639102 Ry
     estimated scf accuracy    <       0.51835321 Ry

     iteration # 51     ecut=    80.00 Ry     beta= 0.30
     Davidson diagonalization with overlap
     ethr =  6.69E-05,  avg # of iterations =  1.0

     negative rho (up, down):  2.068E-02 0.000E+00

     total cpu time spent up to now is      357.5 secs

     total energy              =   -2519.47714758 Ry
     estimated scf accuracy    <       0.52039805 Ry

     iteration # 52     ecut=    80.00 Ry     beta= 0.30
     Davidson diagonalization with overlap
     ethr =  6.69E-05,  avg # of iterations =  1.0

     negative rho (up, down):  1.848E-02 0.000E+00

     total cpu time spent up to now is      363.6 secs

     total energy              =   -2519.47841821 Ry
     estimated scf accuracy    <       0.52082053 Ry

     iteration # 53     ecut=    80.00 Ry     beta= 0.30
     Davidson diagonalization with overlap
     ethr =  6.69E-05,  avg # of iterations =  1.0

     negative rho (up, down):  2.281E-02 0.000E+00

     total cpu time spent up to now is      369.8 secs

     total energy              =   -2519.49801282 Ry
     estimated scf accuracy    <       0.51995513 Ry

     iteration # 54     ecut=    80.00 Ry     beta= 0.30
     Davidson diagonalization with overlap
     ethr =  6.69E-05,  avg # of iterations =  1.0

     negative rho (up, down):  2.809E-02 0.000E+00

     total cpu time spent up to now is      376.0 secs

     total energy              =   -2519.50514603 Ry
     estimated scf accuracy    <       0.60137351 Ry

     iteration # 55     ecut=    80.00 Ry     beta= 0.30
     Davidson diagonalization with overlap
     ethr =  6.69E-05,  avg # of iterations =  1.0

     negative rho (up, down):  2.627E-02 0.000E+00

     total cpu time spent up to now is      382.4 secs

     total energy              =   -2519.50983849 Ry
     estimated scf accuracy    <       0.62863687 Ry

     iteration # 56     ecut=    80.00 Ry     beta= 0.30
     Davidson diagonalization with overlap
     ethr =  6.69E-05,  avg # of iterations =  1.0

     negative rho (up, down):  2.907E-02 0.000E+00

     total cpu time spent up to now is      388.5 secs

     total energy              =   -2519.48919557 Ry
     estimated scf accuracy    <       0.65056555 Ry

     iteration # 57     ecut=    80.00 Ry     beta= 0.30
     Davidson diagonalization with overlap
     ethr =  6.69E-05,  avg # of iterations =  1.0

     negative rho (up, down):  3.871E-02 0.000E+00

     total cpu time spent up to now is      395.2 secs

     total energy              =   -2519.25030879 Ry
     estimated scf accuracy    <       0.57264739 Ry

     iteration # 58     ecut=    80.00 Ry     beta= 0.30
     Davidson diagonalization with overlap
     ethr =  6.69E-05,  avg # of iterations = 15.2

     negative rho (up, down):  4.034E-02 0.000E+00

     total cpu time spent up to now is      406.6 secs

     total energy              =   -2520.04594613 Ry
     estimated scf accuracy    <      16.56666278 Ry

     iteration # 59     ecut=    80.00 Ry     beta= 0.30
     Davidson diagonalization with overlap
     ethr =  6.69E-05,  avg # of iterations =  1.1

     negative rho (up, down):  4.208E-02 0.000E+00

     total cpu time spent up to now is      412.9 secs

     total energy              =   -2519.90175517 Ry
     estimated scf accuracy    <      16.36624186 Ry

     iteration # 60     ecut=    80.00 Ry     beta= 0.30
     Davidson diagonalization with overlap
     ethr =  6.69E-05,  avg # of iterations =  1.6

     negative rho (up, down):  4.505E-02 0.000E+00

     total cpu time spent up to now is      420.5 secs

     total energy              =   -2519.87690125 Ry
     estimated scf accuracy    <      15.68800120 Ry

     iteration # 61     ecut=    80.00 Ry     beta= 0.30
     Davidson diagonalization with overlap
     ethr =  6.69E-05,  avg # of iterations =  1.0

     negative rho (up, down):  3.986E-02 0.000E+00

     total cpu time spent up to now is      426.8 secs

     total energy              =   -2519.93229489 Ry
     estimated scf accuracy    <      15.47161331 Ry

     iteration # 62     ecut=    80.00 Ry     beta= 0.30
     Davidson diagonalization with overlap
     ethr =  6.69E-05,  avg # of iterations =  1.0

     negative rho (up, down):  6.753E-02 0.000E+00

     total cpu time spent up to now is      433.2 secs

     total energy              =   -2519.77550570 Ry
     estimated scf accuracy    <      15.84471640 Ry

     iteration # 63     ecut=    80.00 Ry     beta= 0.30
     Davidson diagonalization with overlap
     ethr =  6.69E-05,  avg # of iterations =  2.5

     negative rho (up, down):  6.589E-02 0.000E+00

     total cpu time spent up to now is      440.2 secs

     total energy              =   -2519.74667781 Ry
     estimated scf accuracy    <       8.44160063 Ry

     iteration # 64     ecut=    80.00 Ry     beta= 0.30
     Davidson diagonalization with overlap
     ethr =  6.69E-05,  avg # of iterations =  2.0

     negative rho (up, down):  6.031E-02 0.000E+00

     total cpu time spent up to now is      447.1 secs

     total energy              =   -2519.55498681 Ry
     estimated scf accuracy    <       4.59580575 Ry

     iteration # 65     ecut=    80.00 Ry     beta= 0.30
     Davidson diagonalization with overlap
     ethr =  6.69E-05,  avg # of iterations =  8.7

     negative rho (up, down):  4.042E-02 0.000E+00

     total cpu time spent up to now is      454.9 secs

     total energy              =   -2519.18368707 Ry
     estimated scf accuracy    <       2.87485962 Ry

     iteration # 66     ecut=    80.00 Ry     beta= 0.30
     Davidson diagonalization with overlap
     ethr =  6.69E-05,  avg # of iterations = 12.7

     negative rho (up, down):  4.296E-02 0.000E+00

     total cpu time spent up to now is      465.1 secs

     total energy              =   -2519.50252579 Ry
     estimated scf accuracy    <       0.66506587 Ry

     iteration # 67     ecut=    80.00 Ry     beta= 0.30
     Davidson diagonalization with overlap
     ethr =  6.69E-05,  avg # of iterations =  1.1

     negative rho (up, down):  4.881E-02 0.000E+00

     total cpu time spent up to now is      471.4 secs

     total energy              =   -2519.41313961 Ry
     estimated scf accuracy    <       0.60121043 Ry

     iteration # 68     ecut=    80.00 Ry     beta= 0.30
     Davidson diagonalization with overlap
     ethr =  6.69E-05,  avg # of iterations = 11.5

     negative rho (up, down):  4.174E-02 0.000E+00

     total cpu time spent up to now is      479.8 secs

     total energy              =   -2519.45779937 Ry
     estimated scf accuracy    <       0.24092606 Ry

     iteration # 69     ecut=    80.00 Ry     beta= 0.30
     Davidson diagonalization with overlap
     ethr =  6.69E-05,  avg # of iterations =  1.3

     negative rho (up, down):  4.139E-02 0.000E+00

     total cpu time spent up to now is      486.4 secs

     total energy              =   -2519.45533445 Ry
     estimated scf accuracy    <       0.05362878 Ry

     iteration # 70     ecut=    80.00 Ry     beta= 0.30
     Davidson diagonalization with overlap
     ethr =  1.78E-05,  avg # of iterations =  9.5

     negative rho (up, down):  3.604E-02 0.000E+00

     total cpu time spent up to now is      494.4 secs

     total energy              =   -2519.44402682 Ry
     estimated scf accuracy    <       0.26867376 Ry

     iteration # 71     ecut=    80.00 Ry     beta= 0.30
     Davidson diagonalization with overlap
     ethr =  1.78E-05,  avg # of iterations =  8.3

     negative rho (up, down):  3.366E-02 0.000E+00

     total cpu time spent up to now is      502.1 secs

     total energy              =   -2519.45812881 Ry
     estimated scf accuracy    <       0.49684672 Ry

     iteration # 72     ecut=    80.00 Ry     beta= 0.30
     Davidson diagonalization with overlap
     ethr =  1.78E-05,  avg # of iterations =  1.3

     negative rho (up, down):  3.081E-02 0.000E+00

     total cpu time spent up to now is      508.7 secs

     total energy              =   -2519.45912293 Ry
     estimated scf accuracy    <       0.03025903 Ry

     iteration # 73     ecut=    80.00 Ry     beta= 0.30
     Davidson diagonalization with overlap
     ethr =  1.01E-05,  avg # of iterations =  1.3

     negative rho (up, down):  3.108E-02 0.000E+00

     total cpu time spent up to now is      515.2 secs

     total energy              =   -2519.45141704 Ry
     estimated scf accuracy    <       0.13485545 Ry

     iteration # 74     ecut=    80.00 Ry     beta= 0.30
     Davidson diagonalization with overlap
     ethr =  1.01E-05,  avg # of iterations =  8.2

     negative rho (up, down):  2.624E-02 0.000E+00

     total cpu time spent up to now is      523.0 secs

     total energy              =   -2519.45562709 Ry
     estimated scf accuracy    <       0.28604447 Ry

     iteration # 75     ecut=    80.00 Ry     beta= 0.30
     Davidson diagonalization with overlap
     ethr =  1.01E-05,  avg # of iterations =  2.6

     negative rho (up, down):  2.171E-02 0.000E+00

     total cpu time spent up to now is      530.3 secs

     total energy              =   -2519.45992333 Ry
     estimated scf accuracy    <       0.04814094 Ry

     iteration # 76     ecut=    80.00 Ry     beta= 0.30
     Davidson diagonalization with overlap
     ethr =  1.01E-05,  avg # of iterations =  1.1

     negative rho (up, down):  1.993E-02 0.000E+00

     total cpu time spent up to now is      536.8 secs

     total energy              =   -2519.45481283 Ry
     estimated scf accuracy    <       0.39624523 Ry

     iteration # 77     ecut=    80.00 Ry     beta= 0.30
     Davidson diagonalization with overlap
     ethr =  1.01E-05,  avg # of iterations =  1.0

     negative rho (up, down):  1.861E-02 0.000E+00

     total cpu time spent up to now is      543.1 secs

     total energy              =   -2519.45923787 Ry
     estimated scf accuracy    <       0.02126907 Ry

     iteration # 78     ecut=    80.00 Ry     beta= 0.30
     Davidson diagonalization with overlap
     ethr =  7.07E-06,  avg # of iterations =  1.0

     negative rho (up, down):  1.867E-02 0.000E+00

     total cpu time spent up to now is      549.4 secs

     total energy              =   -2519.46042273 Ry
     estimated scf accuracy    <       0.22626238 Ry

     iteration # 79     ecut=    80.00 Ry     beta= 0.30
     Davidson diagonalization with overlap
     ethr =  7.07E-06,  avg # of iterations =  1.0

     negative rho (up, down):  1.841E-02 0.000E+00

     total cpu time spent up to now is      555.7 secs

     total energy              =   -2519.45955564 Ry
     estimated scf accuracy    <       0.25467190 Ry

     iteration # 80     ecut=    80.00 Ry     beta= 0.30
     Davidson diagonalization with overlap
     ethr =  7.07E-06,  avg # of iterations =  1.0

     negative rho (up, down):  1.882E-02 0.000E+00

     total cpu time spent up to now is      561.9 secs

     total energy              =   -2519.45821162 Ry
     estimated scf accuracy    <       0.16993660 Ry

     iteration # 81     ecut=    80.00 Ry     beta= 0.30
     Davidson diagonalization with overlap
     ethr =  7.07E-06,  avg # of iterations =  1.0

     negative rho (up, down):  1.865E-02 0.000E+00

     total cpu time spent up to now is      568.2 secs

     total energy              =   -2519.45864640 Ry
     estimated scf accuracy    <       0.03208342 Ry

     iteration # 82     ecut=    80.00 Ry     beta= 0.30
     Davidson diagonalization with overlap
     ethr =  7.07E-06,  avg # of iterations =  1.0

     negative rho (up, down):  1.773E-02 0.000E+00

     total cpu time spent up to now is      574.4 secs

     total energy              =   -2519.45802526 Ry
     estimated scf accuracy    <       0.04122695 Ry

     iteration # 83     ecut=    80.00 Ry     beta= 0.30
     Davidson diagonalization with overlap
     ethr =  7.07E-06,  avg # of iterations =  1.1

     negative rho (up, down):  1.653E-02 0.000E+00

     total cpu time spent up to now is      580.9 secs

     total energy              =   -2519.45834937 Ry
     estimated scf accuracy    <       0.00141971 Ry

     iteration # 84     ecut=    80.00 Ry     beta= 0.30
     Davidson diagonalization with overlap
     ethr =  4.72E-07,  avg # of iterations =  4.8

     negative rho (up, down):  1.656E-02 0.000E+00

     total cpu time spent up to now is      588.4 secs

     total energy              =   -2519.45841961 Ry
     estimated scf accuracy    <       0.00297045 Ry

     iteration # 85     ecut=    80.00 Ry     beta= 0.30
     Davidson diagonalization with overlap
     ethr =  4.72E-07,  avg # of iterations =  2.9

     negative rho (up, down):  1.702E-02 0.000E+00

     total cpu time spent up to now is      595.4 secs

     total energy              =   -2519.45846583 Ry
     estimated scf accuracy    <       0.00569556 Ry

     iteration # 86     ecut=    80.00 Ry     beta= 0.30
     Davidson diagonalization with overlap
     ethr =  4.72E-07,  avg # of iterations =  1.1

     negative rho (up, down):  1.647E-02 0.000E+00

     total cpu time spent up to now is      601.8 secs

     total energy              =   -2519.45845809 Ry
     estimated scf accuracy    <       0.00996100 Ry

     iteration # 87     ecut=    80.00 Ry     beta= 0.30
     Davidson diagonalization with overlap
     ethr =  4.72E-07,  avg # of iterations =  1.1

     negative rho (up, down):  1.591E-02 0.000E+00

     total cpu time spent up to now is      608.2 secs

     total energy              =   -2519.45837737 Ry
     estimated scf accuracy    <       0.01208208 Ry

     iteration # 88     ecut=    80.00 Ry     beta= 0.30
     Davidson diagonalization with overlap
     ethr =  4.72E-07,  avg # of iterations =  1.2

     negative rho (up, down):  1.584E-02 0.000E+00

     total cpu time spent up to now is      614.6 secs

     total energy              =   -2519.45834137 Ry
     estimated scf accuracy    <       0.00457924 Ry

     iteration # 89     ecut=    80.00 Ry     beta= 0.30
     Davidson diagonalization with overlap
     ethr =  4.72E-07,  avg # of iterations =  1.0

     negative rho (up, down):  1.570E-02 0.000E+00

     total cpu time spent up to now is      620.9 secs

     total energy              =   -2519.45836376 Ry
     estimated scf accuracy    <       0.00051395 Ry

     iteration # 90     ecut=    80.00 Ry     beta= 0.30
     Davidson diagonalization with overlap
     ethr =  1.71E-07,  avg # of iterations =  1.4

     negative rho (up, down):  1.575E-02 0.000E+00

     total cpu time spent up to now is      627.5 secs

     total energy              =   -2519.45837216 Ry
     estimated scf accuracy    <       0.00001291 Ry

     iteration # 91     ecut=    80.00 Ry     beta= 0.30
     Davidson diagonalization with overlap
     ethr =  4.29E-09,  avg # of iterations =  5.9

     negative rho (up, down):  1.581E-02 0.000E+00

     total cpu time spent up to now is      635.2 secs

     total energy              =   -2519.45837346 Ry
     estimated scf accuracy    <       0.00000335 Ry

     iteration # 92     ecut=    80.00 Ry     beta= 0.30
     Davidson diagonalization with overlap
     ethr =  1.11E-09,  avg # of iterations =  3.6

     negative rho (up, down):  1.595E-02 0.000E+00

     total cpu time spent up to now is      642.6 secs

     End of self-consistent calculation

          k = 0.0000 0.0000 0.0000 ( 81491 PWs)   bands (ev):

   -57.9372 -57.8661 -57.4898 -57.4483 -57.4039 -57.2501 -56.9880 -56.9479
   -56.5788 -56.5362 -56.2983 -56.2578 -34.4147 -34.2519 -34.1701 -34.1459
   -34.0931 -34.0253 -33.9655 -33.8889 -33.7880 -33.6939 -33.6935 -33.6827
   -33.6426 -33.6410 -33.6216 -33.6047 -33.5572 -33.4638 -33.4190 -33.2685
   -33.1838 -33.1690 -33.1600 -33.1241 -33.1118 -32.8749 -32.8589 -32.8482
   -32.7880 -32.7568 -32.6756 -32.6465 -32.6447 -32.5393 -32.4335 -32.3337
   -23.5093 -18.6071 -18.3422 -18.0697 -17.8559 -17.6181 -17.6162 -17.5393
   -17.4260 -17.2699 -17.1233 -17.1093 -17.0992 -17.0992 -17.0275 -16.9635
   -16.7709 -16.7375 -16.6976 -16.6191 -16.3718 -16.1084 -16.0446 -15.8932
   -15.3664 -15.3236  -7.9941  -6.2896  -6.1997  -5.9973  -5.8716  -5.8015
    -5.5429  -5.1919  -5.1034  -4.9386  -4.9262  -4.8997  -4.8657  -4.6438
    -4.6424  -4.6290  -4.5600  -4.5549  -4.4739  -4.4147  -4.3813  -4.3730
    -4.3282  -4.3235  -4.1865  -4.1447  -4.0823  -4.0114  -3.9064  -3.6341
    -3.5056  -3.4820  -3.4282  -3.3892  -3.1808  -3.1068  -3.0939  -3.0248
    -2.9775  -2.9518  -2.8867  -2.7634  -2.7471  -2.6973  -2.6369  -2.5651
    -2.5363  -2.5139  -2.3943  -2.3200  -2.2754  -2.2437  -2.1058  -2.0665
    -1.9661  -1.8848  -1.8095  -1.7657  -1.6820  -1.6697  -1.5822  -1.4771
    -1.3637  -1.3419  -1.2571  -1.1078  -1.1009  -1.1002  -1.0201  -1.0113
    -0.7688  -0.4888  -0.4440  -0.3890  -0.3633  -0.3333  -0.3061   1.1008
     1.2648   1.3665   1.5370   1.6692   1.7522   1.8336   1.9894   2.1265
     2.1437   2.2515   2.3363   2.4188   2.5258   2.5911   2.6476   2.6660
     2.7222   2.7561   2.8180   2.8394   2.9081   2.9503   2.9607   3.0268
     3.0909   3.1021   3.1614   3.1829   3.2674

          k = 0.0000 0.2277 0.0000 ( 81407 PWs)   bands (ev):

   -57.9372 -57.8661 -57.4898 -57.4483 -57.4039 -57.2501 -56.9880 -56.9479
   -56.5788 -56.5362 -56.2983 -56.2578 -34.4157 -34.2519 -34.1701 -34.1438
   -34.0934 -34.0254 -33.9655 -33.8905 -33.7880 -33.6934 -33.6862 -33.6797
   -33.6605 -33.6426 -33.6216 -33.6046 -33.5370 -33.4631 -33.4190 -33.2776
   -33.1835 -33.1690 -33.1596 -33.1241 -33.1115 -32.8795 -32.8589 -32.8460
   -32.7878 -32.7568 -32.6788 -32.6448 -32.6448 -32.5393 -32.4335 -32.3337
   -23.5093 -18.5392 -18.2488 -17.9781 -17.8058 -17.7791 -17.6382 -17.5365
   -17.4046 -17.3421 -17.2784 -17.2475 -17.1281 -17.0846 -16.9546 -16.8262
   -16.8147 -16.7559 -16.6733 -16.6212 -16.3729 -16.1085 -16.0473 -15.8873
   -15.3646 -15.3232  -7.9876  -6.3007  -5.9936  -5.8887  -5.6107  -5.5401
    -5.5202  -5.3766  -5.2440  -5.1703  -5.0031  -4.8480  -4.8431  -4.6282
    -4.6094  -4.6048  -4.5417  -4.5191  -4.4633  -4.3703  -4.3466  -4.3042
    -4.1937  -4.1700  -4.0880  -4.0297  -3.9552  -3.8917  -3.6475  -3.5962
    -3.5606  -3.5049  -3.5035  -3.3561  -3.2891  -3.2266  -3.2189  -3.1093
    -3.0931  -3.0147  -3.0127  -2.9058  -2.8030  -2.7738  -2.6981  -2.6079
    -2.5464  -2.4907  -2.4021  -2.3323  -2.2839  -2.1391  -2.0670  -2.0465
    -1.9766  -1.9208  -1.8926  -1.8098  -1.7959  -1.7094  -1.6180  -1.5800
    -1.4441  -1.4423  -1.3314  -1.2439  -1.1775  -1.1374  -1.0355  -1.0192
    -0.9846  -0.6089  -0.4929  -0.4582  -0.3981  -0.3975  -0.3330   1.1672
     1.1910   1.5356   1.5471   1.8121   1.8494   1.9862   1.9928   2.0404
     2.1468   2.2385   2.2481   2.2784   2.4508   2.5617   2.5881   2.6310
     2.6978   2.8019   2.8966   2.9479   2.9566   3.0027   3.0886   3.1047
     3.1826   3.3033   3.3054   3.3783   3.4887

          k = 0.0000-0.4554 0.0000 ( 81286 PWs)   bands (ev):

   -57.9372 -57.8661 -57.4898 -57.4483 -57.4039 -57.2501 -56.9881 -56.9479
   -56.5788 -56.5362 -56.2983 -56.2578 -34.4167 -34.2519 -34.1701 -34.1418
   -34.0936 -34.0254 -33.9655 -33.8921 -33.7879 -33.6934 -33.6798 -33.6751
   -33.6751 -33.6426 -33.6216 -33.6046 -33.5217 -33.4624 -33.4190 -33.2870
   -33.1832 -33.1690 -33.1591 -33.1242 -33.1113 -32.8842 -32.8589 -32.8438
   -32.7875 -32.7568 -32.6819 -32.6448 -32.6431 -32.5393 -32.4335 -32.3337
   -23.5092 -18.4684 -18.1123 -17.8718 -17.8468 -17.7313 -17.6866 -17.5243
   -17.4835 -17.4734 -17.4380 -17.2787 -17.1518 -17.0980 -16.9647 -16.8720
   -16.7424 -16.7057 -16.6471 -16.6231 -16.3740 -16.1096 -16.0496 -15.8816
   -15.3629 -15.3227  -7.9808  -6.3156  -5.9801  -5.5375  -5.5052  -5.4982
    -5.4731  -5.2972  -5.1499  -5.1454  -5.1093  -4.7243  -4.6703  -4.6536
    -4.5648  -4.5645  -4.5298  -4.4993  -4.4570  -4.4133  -4.3653  -4.2699
    -4.0755  -4.0571  -3.9765  -3.9030  -3.8940  -3.7636  -3.6561  -3.5964
    -3.5838  -3.5589  -3.5357  -3.5039  -3.5034  -3.4549  -3.3885  -3.1925
    -3.0908  -3.0242  -2.9775  -2.9696  -2.8883  -2.7759  -2.7412  -2.6047
    -2.5835  -2.5290  -2.4774  -2.3652  -2.3569  -2.1876  -2.1422  -2.1098
    -2.0654  -1.9474  -1.9393  -1.8975  -1.8844  -1.7131  -1.6347  -1.5245
    -1.4669  -1.3742  -1.3430  -1.2836  -1.2810  -1.1676  -1.1296  -1.0931
    -0.9769  -0.7426  -0.5434  -0.4999  -0.4267  -0.4121  -0.3623   1.1087
     1.1849   1.5167   1.5822   1.6949   1.6979   1.8903   2.0020   2.1624
     2.2251   2.2554   2.3841   2.3935   2.5160   2.5191   2.5890   2.6640
     2.7336   2.8273   2.9458   2.9856   3.0067   3.1137   3.1666   3.1770
     3.2109   3.3720   3.3879   3.3976   3.4079

          k = 0.2500 0.0000 0.0000 ( 81478 PWs)   bands (ev):

   -57.9343 -57.8691 -57.4842 -57.4540 -57.4027 -57.2514 -56.9824 -56.9536
   -56.5726 -56.5425 -56.2924 -56.2638 -34.3519 -34.2492 -34.1679 -34.1320
   -34.0396 -34.0375 -34.0326 -33.8311 -33.7724 -33.7402 -33.6860 -33.6757
   -33.6640 -33.6480 -33.6337 -33.6045 -33.4960 -33.4828 -33.4708 -33.2572
   -33.1964 -33.1892 -33.1630 -33.1426 -33.0670 -32.8708 -32.8520 -32.8502
   -32.7695 -32.7238 -32.7138 -32.6713 -32.6507 -32.5240 -32.4492 -32.4026
   -23.5093 -18.4626 -18.2168 -17.9406 -17.7709 -17.7002 -17.5674 -17.5411
   -17.5010 -17.2861 -17.2181 -17.1859 -17.1755 -17.0963 -17.0562 -16.8521
   -16.8421 -16.7603 -16.6389 -16.5838 -16.3446 -16.1564 -16.1502 -15.8927
   -15.4106 -15.3901  -7.9947  -6.2735  -6.0013  -5.8110  -5.6883  -5.6313
    -5.3306  -5.1838  -5.0892  -5.0333  -4.9199  -4.9027  -4.8832  -4.7540
    -4.7188  -4.6986  -4.6281  -4.5899  -4.5784  -4.5395  -4.5106  -4.4773
    -4.4038  -4.3743  -4.2894  -4.0359  -3.8500  -3.8386  -3.8142  -3.6795
    -3.5216  -3.4530  -3.3840  -3.2201  -3.1665  -3.0610  -2.9782  -2.9601
    -2.9363  -2.8881  -2.8313  -2.7708  -2.6653  -2.6509  -2.6116  -2.5506
    -2.5311  -2.4742  -2.4375  -2.3734  -2.3308  -2.2145  -2.2038  -2.1023
    -2.0502  -2.0262  -1.8672  -1.8027  -1.7687  -1.7236  -1.6663  -1.5452
    -1.5053  -1.4600  -1.3099  -1.2948  -1.2686  -1.1371  -1.0683  -1.0218
    -0.9564  -0.6618  -0.6515  -0.4074  -0.4032  -0.3384  -0.2950   1.3203
     1.3603   1.5326   1.6472   1.8538   1.8724   1.9087   1.9923   2.0349
     2.1045   2.1548   2.2624   2.3483   2.4439   2.4826   2.5200   2.6750
     2.7687   2.8305   2.8525   2.8739   2.9132   2.9580   3.0031   3.0435
     3.1152   3.1410   3.2052   3.3823   3.4120

          k = 0.2500 0.2277 0.0000 ( 81485 PWs)   bands (ev):

   -57.9343 -57.8691 -57.4841 -57.4540 -57.4027 -57.2514 -56.9824 -56.9536
   -56.5726 -56.5425 -56.2924 -56.2638 -34.3528 -34.2492 -34.1679 -34.1304
   -34.0393 -34.0377 -34.0328 -33.8325 -33.7724 -33.7402 -33.6801 -33.6734
   -33.6641 -33.6573 -33.6337 -33.6045 -33.4847 -33.4831 -33.4695 -33.2648
   -33.1974 -33.1885 -33.1630 -33.1425 -33.0666 -32.8743 -32.8508 -32.8502
   -32.7695 -32.7237 -32.7138 -32.6737 -32.6497 -32.5240 -32.4492 -32.4026
   -23.5092 -18.4020 -18.1311 -17.8574 -17.7485 -17.7148 -17.6599 -17.5560
   -17.3743 -17.3611 -17.3265 -17.3026 -17.1611 -17.0697 -17.0537 -16.9383
   -16.8801 -16.7465 -16.6063 -16.5730 -16.3457 -16.1601 -16.1498 -15.8879
   -15.4092 -15.3904  -7.9880  -6.2859  -5.8104  -5.6966  -5.4284  -5.3490
    -5.3266  -5.2041  -5.1478  -5.0253  -5.0134  -4.8599  -4.8166  -4.7575
    -4.7180  -4.6730  -4.6511  -4.5790  -4.5086  -4.4768  -4.4581  -4.3970
    -4.3743  -4.2568  -4.1291  -3.9886  -3.9236  -3.7867  -3.7183  -3.7066
    -3.4612  -3.4395  -3.3308  -3.2836  -3.2259  -3.1852  -3.1238  -3.0663
    -3.0062  -2.9307  -2.8988  -2.8328  -2.7899  -2.7518  -2.7193  -2.6456
    -2.6058  -2.5753  -2.5383  -2.5135  -2.3977  -2.3170  -2.3014  -2.2305
    -2.0622  -1.9871  -1.9077  -1.8440  -1.7744  -1.7517  -1.7110  -1.6440
    -1.5425  -1.4644  -1.3053  -1.2800  -1.2285  -1.2069  -1.1203  -1.0533
    -0.9695  -0.6778  -0.6382  -0.4819  -0.4729  -0.3345  -0.2992   1.3024
     1.3792   1.6518   1.7547   1.8550   1.9265   2.0387   2.0595   2.0949
     2.1445   2.1737   2.2136   2.3061   2.3828   2.4888   2.6128   2.6613
     2.7462   2.7753   2.8488   2.9360   2.9830   3.0546   3.0677   3.1639
     3.2393   3.2492   3.3893   3.4228   3.4695

          k = 0.2500-0.4554 0.0000 ( 81408 PWs)   bands (ev):

   -57.9343 -57.8691 -57.4841 -57.4540 -57.4027 -57.2514 -56.9824 -56.9536
   -56.5726 -56.5425 -56.2924 -56.2638 -34.3537 -34.2492 -34.1679 -34.1287
   -34.0390 -34.0379 -34.0331 -33.8340 -33.7724 -33.7403 -33.6748 -33.6707
   -33.6664 -33.6631 -33.6338 -33.6044 -33.4834 -33.4746 -33.4683 -33.2725
   -33.1983 -33.1879 -33.1631 -33.1424 -33.0661 -32.8779 -32.8503 -32.8494
   -32.7695 -32.7234 -32.7138 -32.6761 -32.6486 -32.5240 -32.4492 -32.4026
   -23.5092 -18.3403 -17.9984 -17.8086 -17.7404 -17.6572 -17.6340 -17.6158
   -17.4781 -17.4251 -17.3703 -17.2839 -17.2403 -17.1576 -17.0232 -17.0032
   -16.8849 -16.7209 -16.5863 -16.5599 -16.3468 -16.1644 -16.1493 -15.8833
   -15.4079 -15.3907  -7.9812  -6.2989  -5.8024  -5.3359  -5.2808  -5.2226
    -5.1629  -5.1132  -5.0603  -5.0032  -4.9355  -4.8711  -4.8168  -4.7756
    -4.7421  -4.6651  -4.5586  -4.5433  -4.4957  -4.4886  -4.3660  -4.3211
    -4.2933  -4.0116  -3.9793  -3.9103  -3.8358  -3.7580  -3.7403  -3.7238
    -3.6308  -3.6141  -3.3778  -3.3296  -3.2731  -3.2220  -3.1974  -3.1931
    -3.0919  -3.0210  -3.0153  -2.9961  -2.9757  -2.8696  -2.8368  -2.8019
    -2.7557  -2.6706  -2.6386  -2.5683  -2.5045  -2.4628  -2.4033  -2.3116
    -2.2289  -2.1222  -1.8393  -1.8179  -1.7930  -1.7096  -1.6178  -1.5759
    -1.5215  -1.4730  -1.3451  -1.3114  -1.2084  -1.1133  -1.0723  -1.0387
    -0.9781  -0.7728  -0.6226  -0.5538  -0.5256  -0.3329  -0.3081   1.3204
     1.3821   1.6514   1.6976   1.7319   1.9027   1.9765   2.1375   2.1446
     2.1940   2.2230   2.2802   2.4102   2.4946   2.5362   2.6736   2.7040
     2.7661   2.8309   2.8537   2.9986   3.0197   3.1024   3.1609   3.3151
     3.3305   3.3509   3.4320   3.4607   3.5131

          k = 0.2500-0.2277 0.0000 ( 81485 PWs)   bands (ev):

   -57.9343 -57.8691 -57.4841 -57.4540 -57.4027 -57.2514 -56.9824 -56.9536
   -56.5726 -56.5425 -56.2924 -56.2638 -34.3528 -34.2492 -34.1679 -34.1304
   -34.0393 -34.0377 -34.0328 -33.8325 -33.7724 -33.7402 -33.6801 -33.6734
   -33.6641 -33.6573 -33.6337 -33.6045 -33.4847 -33.4831 -33.4695 -33.2648
   -33.1974 -33.1885 -33.1630 -33.1425 -33.0666 -32.8743 -32.8508 -32.8502
   -32.7695 -32.7237 -32.7138 -32.6737 -32.6497 -32.5240 -32.4492 -32.4026
   -23.5092 -18.4020 -18.1311 -17.8574 -17.7485 -17.7148 -17.6599 -17.5560
   -17.3743 -17.3611 -17.3265 -17.3026 -17.1611 -17.0697 -17.0537 -16.9383
   -16.8801 -16.7465 -16.6063 -16.5730 -16.3457 -16.1601 -16.1498 -15.8879
   -15.4092 -15.3904  -7.9880  -6.2859  -5.8104  -5.6966  -5.4284  -5.3490
    -5.3266  -5.2041  -5.1478  -5.0253  -5.0134  -4.8599  -4.8166  -4.7575
    -4.7180  -4.6730  -4.6511  -4.5790  -4.5086  -4.4768  -4.4581  -4.3970
    -4.3743  -4.2568  -4.1291  -3.9886  -3.9236  -3.7867  -3.7183  -3.7066
    -3.4612  -3.4395  -3.3308  -3.2836  -3.2259  -3.1852  -3.1238  -3.0663
    -3.0062  -2.9307  -2.8988  -2.8328  -2.7899  -2.7518  -2.7193  -2.6456
    -2.6058  -2.5753  -2.5383  -2.5135  -2.3977  -2.3170  -2.3014  -2.2305
    -2.0622  -1.9871  -1.9077  -1.8440  -1.7744  -1.7517  -1.7110  -1.6440
    -1.5425  -1.4644  -1.3053  -1.2800  -1.2285  -1.2069  -1.1203  -1.0533
    -0.9695  -0.6778  -0.6382  -0.4819  -0.4729  -0.3345  -0.2992   1.3024
     1.3792   1.6518   1.7547   1.8550   1.9265   2.0387   2.0595   2.0949
     2.1445   2.1737   2.2136   2.3061   2.3828   2.4888   2.6128   2.6613
     2.7462   2.7754   2.8488   2.9361   2.9830   3.0546   3.0677   3.1639
     3.2393   3.2492   3.3906   3.4231   3.4702

          k =-0.5000 0.0000 0.0000 ( 81532 PWs)   bands (ev):

   -57.9311 -57.8723 -57.4740 -57.4641 -57.4014 -57.2528 -56.9713 -56.9647
   -56.5583 -56.5569 -56.2781 -56.2781 -34.2467 -34.2182 -34.1706 -34.1679
   -34.1113 -34.0609 -33.9188 -33.8579 -33.7349 -33.7326 -33.7162 -33.6713
   -33.6676 -33.6628 -33.6211 -33.6091 -33.5860 -33.4800 -33.3494 -33.3417
   -33.2301 -33.2223 -33.1504 -33.1502 -32.9151 -32.9092 -32.8613 -32.8613
   -32.7961 -32.7905 -32.6610 -32.6609 -32.5657 -32.5656 -32.4869 -32.4867
   -23.5092 -18.1304 -18.0910 -17.9525 -17.8046 -17.6646 -17.5886 -17.5107
   -17.4613 -17.3591 -17.3589 -17.3220 -17.2688 -17.0268 -17.0111 -16.9100
   -16.9093 -16.6325 -16.6262 -16.4306 -16.4165 -16.2476 -16.2462 -15.8920
   -15.4640 -15.4563  -7.9954  -6.2642  -5.5051  -5.4995  -5.4024  -5.3059
    -5.2427  -5.2210  -5.2104  -5.2027  -5.1574  -5.0977  -5.0315  -5.0258
    -4.9494  -4.8336  -4.7358  -4.6623  -4.5532  -4.3909  -4.3607  -4.3152
    -4.2895  -4.2119  -4.1420  -4.0861  -4.0530  -3.7026  -3.6923  -3.5089
    -3.4874  -3.4033  -3.3703  -3.2578  -3.2227  -3.2041  -3.1880  -2.9351
    -2.9068  -2.8927  -2.8124  -2.7705  -2.7651  -2.6043  -2.5918  -2.5018
    -2.4971  -2.4075  -2.3297  -2.3034  -2.2741  -2.2138  -2.1278  -2.0441
    -2.0438  -1.9652  -1.9471  -1.9324  -1.9208  -1.8730  -1.8041  -1.6411
    -1.6030  -1.5853  -1.4806  -1.4317  -1.3603  -1.3495  -1.2611  -1.2575
    -0.8600  -0.8425  -0.4549  -0.4526  -0.3937  -0.3844  -0.3373   1.5754
     1.6361   1.7061   1.7525   1.8802   1.8912   1.9222   1.9694   1.9829
     2.0385   2.0402   2.1879   2.3185   2.3600   2.5121   2.5398   2.5971
     2.6672   2.7392   2.8540   2.8942   2.9198   2.9939   3.0136   3.1278
     3.1314   3.3143   3.3495   3.6099   3.6265

          k =-0.5000 0.2277 0.0000 ( 81508 PWs)   bands (ev):

   -57.9311 -57.8723 -57.4740 -57.4641 -57.4014 -57.2528 -56.9713 -56.9647
   -56.5583 -56.5569 -56.2781 -56.2781 -34.2467 -34.2189 -34.1713 -34.1679
   -34.1103 -34.0598 -33.9190 -33.8581 -33.7359 -33.7326 -33.7163 -33.6702
   -33.6662 -33.6622 -33.6211 -33.6092 -33.5870 -33.4778 -33.3461 -33.3383
   -33.2340 -33.2264 -33.1504 -33.1502 -32.9150 -32.9092 -32.8626 -32.8619
   -32.7961 -32.7905 -32.6616 -32.6616 -32.5656 -32.5655 -32.4869 -32.4867
   -23.5092 -18.1046 -18.0421 -17.8848 -17.7572 -17.6170 -17.5344 -17.4906
   -17.4518 -17.4371 -17.3951 -17.2882 -17.2737 -17.1207 -17.0956 -17.0005
   -16.9990 -16.6114 -16.6051 -16.4266 -16.4121 -16.2489 -16.2467 -15.8879
   -15.4638 -15.4561  -7.9885  -6.2753  -5.4042  -5.3477  -5.2757  -5.2344
    -5.2062  -5.1016  -5.0126  -4.9786  -4.9715  -4.9500  -4.9317  -4.9142
    -4.9008  -4.7499  -4.6652  -4.6098  -4.5133  -4.3939  -4.3843  -4.3569
    -4.3301  -4.2990  -4.1462  -3.9225  -3.9052  -3.8664  -3.7601  -3.6476
    -3.6415  -3.5330  -3.4770  -3.3114  -3.2980  -3.2820  -3.2341  -3.0224
    -2.9504  -2.9178  -2.9100  -2.8590  -2.7853  -2.7485  -2.7236  -2.6021
    -2.5993  -2.5269  -2.5194  -2.4369  -2.3621  -2.3398  -2.2889  -2.2792
    -2.2616  -2.1653  -2.1220  -1.9925  -1.8805  -1.7811  -1.7273  -1.6760
    -1.4586  -1.4199  -1.4130  -1.3629  -1.2794  -1.2665  -1.2056  -1.1833
    -0.9076  -0.8542  -0.5274  -0.5227  -0.3767  -0.3700  -0.3199   1.6265
     1.6709   1.7329   1.7949   1.8713   1.9566   1.9600   2.0081   2.0759
     2.1135   2.1231   2.2740   2.4294   2.4306   2.5846   2.5949   2.6331
     2.7100   2.7518   2.7655   2.7871   3.0294   3.0893   3.1068   3.1781
     3.3166   3.3289   3.3641   3.5826   3.5965

          k =-0.5000-0.4554 0.0000 ( 81484 PWs)   bands (ev):

   -57.9311 -57.8723 -57.4740 -57.4641 -57.4014 -57.2528 -56.9713 -56.9647
   -56.5583 -56.5569 -56.2781 -56.2781 -34.2467 -34.2195 -34.1719 -34.1679
   -34.1093 -34.0588 -33.9191 -33.8583 -33.7369 -33.7326 -33.7163 -33.6692
   -33.6647 -33.6617 -33.6211 -33.6093 -33.5881 -33.4756 -33.3426 -33.3345
   -33.2381 -33.2309 -33.1504 -33.1502 -32.9148 -32.9090 -32.8641 -32.8625
   -32.7960 -32.7904 -32.6622 -32.6622 -32.5655 -32.5654 -32.4869 -32.4867
   -23.5091 -18.0800 -17.9846 -17.7304 -17.6690 -17.6684 -17.6034 -17.5067
   -17.4179 -17.3417 -17.3274 -17.3261 -17.2777 -17.2019 -17.1937 -17.1472
   -17.1254 -16.5963 -16.5898 -16.4234 -16.4085 -16.2517 -16.2457 -15.8838
   -15.4636 -15.4560  -7.9816  -6.2863  -5.4064  -5.3309  -5.2120  -5.1165
    -5.0245  -4.9220  -4.9132  -4.7480  -4.7393  -4.7094  -4.6404  -4.6348
    -4.5990  -4.5835  -4.5632  -4.5176  -4.5002  -4.4189  -4.3920  -4.3817
    -4.2213  -4.2008  -4.1937  -4.1842  -4.1455  -3.9393  -3.9259  -3.9124
    -3.8852  -3.6436  -3.5100  -3.4052  -3.3939  -3.1733  -3.1179  -3.1153
    -3.0302  -3.0047  -2.9709  -2.9602  -2.8993  -2.8988  -2.8697  -2.8343
    -2.8315  -2.7427  -2.7080  -2.6955  -2.6011  -2.5791  -2.4808  -2.3943
    -2.3325  -2.2086  -2.1782  -1.8592  -1.8590  -1.7397  -1.6168  -1.5973
    -1.3571  -1.3368  -1.3253  -1.3129  -1.2910  -1.1804  -1.1331  -1.0948
    -0.9020  -0.8687  -0.5851  -0.5733  -0.3722  -0.3670  -0.3024   1.7220
     1.7513   1.7567   1.7933   1.8566   1.9348   1.9851   1.9855   2.0577
     2.2152   2.2320   2.2690   2.4460   2.4592   2.5559   2.5609   2.6429
     2.8217   2.8611   2.9425   2.9662   3.0744   3.2057   3.2555   3.2807
     3.2954   3.3140   3.5101   3.6199   3.6879

     the Fermi energy is    -0.2774 ev

!    total energy              =   -2519.45837304 Ry
     estimated scf accuracy    <       0.00000097 Ry
     smearing contrib. (-TS)   =       0.00257377 Ry
     internal energy E=F+TS    =   -2519.46094682 Ry

     The total energy is F=E-TS. E is the sum of the following terms:
     one-electron contribution =  -25611.09221368 Ry
     hartree contribution      =   12855.77754688 Ry
     xc contribution           =    -409.79397232 Ry
     ewald contribution        =   10893.12203034 Ry
     one-center paw contrib.   =    -247.47433803 Ry

     convergence has been achieved in  92 iterations

     negative rho (up, down):  1.595E-02 0.000E+00

     Forces acting on atoms (cartesian axes, Ry/au):

     atom    1 type  2   force =     0.00000005    0.00022573    0.10290965
     atom    2 type  2   force =    -0.00049544    0.00002621   -0.08901079
     atom    3 type  2   force =     0.00000011   -0.00076033    0.00112774
     atom    4 type  2   force =     0.00063165   -0.00022065   -0.00066610
     atom    5 type  2   force =     0.00000024   -0.00067747   -0.00014271
     atom    6 type  2   force =     0.00027680   -0.00030462    0.00010103
     atom    7 type  3   force =     0.00000011    0.00113940    0.03678323
     atom    8 type  3   force =    -0.00000023    0.00013091    0.05404926
     atom    9 type  3   force =    -0.00291205    0.07035047   -0.03575705
     atom   10 type  3   force =    -0.00291318   -0.07031161   -0.03581844
     atom   11 type  3   force =     0.00000017   -0.00051872   -0.00123557
     atom   12 type  3   force =     0.00000004    0.00246084   -0.04313301
     atom   13 type  3   force =     0.00040772   -0.00004143   -0.00063512
     atom   14 type  3   force =     0.00012304   -0.00038889   -0.00006089
     atom   15 type  3   force =    -0.00000007   -0.00019569    0.00034405
     atom   16 type  3   force =     0.00000017    0.00010241    0.00097680
     atom   17 type  3   force =     0.00087033   -0.00036295    0.00053072
     atom   18 type  3   force =     0.00062839    0.00028410   -0.00030261
     atom   19 type  2   force =    -0.00000024    0.00019335    0.12183754
     atom   20 type  2   force =     0.00049552    0.00002639   -0.08901070
     atom   21 type  2   force =    -0.00000015    0.00035216    0.00046068
     atom   22 type  2   force =    -0.00063198   -0.00022067   -0.00066625
     atom   23 type  2   force =    -0.00000012   -0.00103367    0.00102016
     atom   24 type  2   force =    -0.00027723   -0.00030420    0.00010087
     atom   25 type  3   force =     0.00000011    0.00098587    0.03804337
     atom   26 type  3   force =     0.00000018    0.00008311    0.05438159
     atom   27 type  3   force =     0.00291204    0.07035035   -0.03575697
     atom   28 type  3   force =     0.00291368   -0.07031210   -0.03581835
     atom   29 type  3   force =    -0.00000004   -0.00076754    0.00028745
     atom   30 type  3   force =    -0.00000012    0.00255794   -0.04512708
     atom   31 type  3   force =    -0.00040776   -0.00004159   -0.00063520
     atom   32 type  3   force =    -0.00012298   -0.00038870   -0.00006103
     atom   33 type  3   force =    -0.00000016    0.00063990    0.00072154
     atom   34 type  3   force =     0.00000009   -0.00077306   -0.00003218
     atom   35 type  3   force =    -0.00087046   -0.00036280    0.00053038
     atom   36 type  3   force =    -0.00062814    0.00028411   -0.00030258
     atom   37 type  3   force =     0.00000043   -0.00083951    0.00123520
     atom   38 type  3   force =    -0.00000048   -0.00178316   -0.00037366
     atom   39 type  1   force =    -0.00000002    0.00041611   -0.00089498

     Total force =     0.004849     Total SCF correction =     0.002482
     SCF correction compared to forces is large: reduce conv_thr to get better values

     Writing all to output data dir ./tmp_s0_OOH__2x1v_off__g1/s0_OOH__2x1v_off__g1.save/ :
     XML data file, charge density, pseudopotentials, collected wavefunctions

     init_run     :      6.00s CPU      6.28s WALL (       1 calls)
     electrons    :    621.40s CPU    635.67s WALL (       1 calls)
     forces       :      2.40s CPU      2.42s WALL (       1 calls)

     Called by init_run:
     wfcinit      :      2.43s CPU      2.53s WALL (       1 calls)
     potinit      :      1.21s CPU      1.24s WALL (       1 calls)
     hinit0       :      0.60s CPU      0.62s WALL (       1 calls)

     Called by electrons:
     c_bands      :    453.05s CPU    460.79s WALL (      92 calls)
     sum_band     :     88.52s CPU     92.34s WALL (      92 calls)
     v_of_rho     :     30.18s CPU     30.50s WALL (      93 calls)
     newd         :     10.36s CPU     12.36s WALL (      93 calls)
     PAW_pot      :      3.84s CPU      3.86s WALL (      93 calls)
     mix_rho      :     30.69s CPU     30.93s WALL (      92 calls)

     Called by c_bands:
     init_us_2    :     12.15s CPU     12.33s WALL (     372 calls)
     cegterg      :    406.83s CPU    414.05s WALL (     184 calls)

     Called by *egterg:
     cdiaghg      :     14.53s CPU     14.64s WALL (     660 calls)
     h_psi        :    255.10s CPU    259.42s WALL (     662 calls)
     s_psi        :     35.21s CPU     35.42s WALL (     662 calls)
     g_psi        :      1.33s CPU      1.34s WALL (     476 calls)

     Called by h_psi:
     h_psi:calbec :     37.70s CPU     38.00s WALL (     662 calls)
     vloc_psi     :    180.51s CPU    182.70s WALL (     662 calls)
                                        0.00s GPU  (     662 calls)
     add_vuspsi   :     35.29s CPU     35.50s WALL (     662 calls)

     General routines
     calbec       :     55.94s CPU     56.35s WALL (     854 calls)
     fft          :     22.11s CPU     22.30s WALL (    1218 calls)
     ffts         :     20.66s CPU     20.82s WALL (   11378 calls)
     fftw         :    210.93s CPU    213.42s WALL (  170650 calls)
     interpolate  :      2.76s CPU      2.78s WALL (      93 calls)

     Parallel routines

     PWSCF        :  10m30.49s CPU  10m45.64s WALL


   This run was terminated on:  15:53:43  24Aug2026            

=------------------------------------------------------------------------------=
   JOB DONE.
=------------------------------------------------------------------------------=
Note: The following floating-point exceptions are signalling: IEEE_DENORMAL
Note: The following floating-point exceptions are signalling: IEEE_UNDERFLOW_FLAG IEEE_DENORMAL
Note: The following floating-point exceptions are signalling: IEEE_UNDERFLOW_FLAG IEEE_DENORMAL
Note: The following floating-point exceptions are signalling: IEEE_DENORMAL
Note: The following floating-point exceptions are signalling: IEEE_UNDERFLOW_FLAG IEEE_DENORMAL
Note: The following floating-point exceptions are signalling: IEEE_UNDERFLOW_FLAG IEEE_DENORMAL
Note: The following floating-point exceptions are signalling: IEEE_UNDERFLOW_FLAG IEEE_DENORMAL
Note: The following floating-point exceptions are signalling: IEEE_UNDERFLOW_FLAG IEEE_DENORMAL
