
     Program PWSCF v.7.5 starts on 24Aug2026 at  9:32:15 

     This program is part of the open-source Quantum ESPRESSO suite
     for quantum simulation of materials; please cite
         "P. Giannozzi et al., J. Phys.:Condens. Matter 21 395502 (2009);
         "P. Giannozzi et al., J. Phys.:Condens. Matter 29 465901 (2017);
         "P. Giannozzi et al., J. Chem. Phys. 152 154105 (2020);
          URL http://www.quantum-espresso.org", 
     in publications or presentations arising from this work. More details at
     http://www.quantum-espresso.org/quote

     Parallel version (MPI & OpenMP), running on     128 processor cores
     Number of MPI processes:               128
     Threads/MPI process:                     1

     MPI processes distributed on     1 nodes
     33440 MiB available memory on the printing compute node when the environment starts

     Reading input from s0_OOH__2x1v_mir.run.in

     Current dimensions of program PWSCF are:
     Max number of different atomic species (ntypx) = 10
     Max number of k-points (npk) =  40000
     Max angular momentum in pseudopotentials (lmaxx) =  4
     file O.pbe-n-kjpaw_psl.0.1.UPF: wavefunction(s)  2P renormalized
     Message from routine setup:
     using ibrav=0 with symmetry is DISCOURAGED, use correct ibrav instead

     K-points division:     npool     =       8
     R & G space division:  proc/nbgrp/npool/nimage =      16
     Subspace diagonalization in iterative solution of the eigenvalue problem:
     one sub-group per band group will be used
     ELPA distributed-memory algorithm (size of sub-group:  2*  2 procs)


     Parallelization info
     --------------------
     sticks:   dense  smooth     PW     G-vecs:    dense   smooth      PW
     Min         436     217     59               115190    40713    5763
     Max         437     218     60               115197    40732    5778
     Sum        6981    3487    945              1843083   651657   92261

     Using Slab Decomposition



     bravais-lattice index     =            0
     lattice parameter (alat)  =      11.1823  a.u.
     unit-cell volume          =    6741.2863 (a.u.)^3
     number of atoms/cell      =           39
     number of atomic types    =            3
     number of electrons       =       301.00
     number of Kohn-Sham states=          181
     kinetic-energy cutoff     =      80.0000  Ry
     charge density cutoff     =     640.0000  Ry
     scf convergence threshold =      1.0E-06
     mixing beta               =       0.3000
     number of iterations used =            8  local-TF  mixing
     energy convergence thresh.=      1.0E-04
     force convergence thresh. =      2.0E-03
     Exchange-correlation= SLA  PW   PBX  PBC
                           (   1   4   3   4   0   0   0)
     nstep                     =          200


     celldm(1)=  11.182265  celldm(2)=   0.000000  celldm(3)=   0.000000
     celldm(4)=   0.000000  celldm(5)=   0.000000  celldm(6)=   0.000000

     crystal axes: (cart. coord. in units of alat)
               a(1) = (   1.000000   0.000000   0.000000 )  
               a(2) = (   0.000000   1.097859   0.000000 )  
               a(3) = (   0.000000   0.000000   4.391437 )  

     reciprocal axes: (cart. coord. in units 2 pi/alat)
               b(1) = (  1.000000  0.000000  0.000000 )  
               b(2) = (  0.000000  0.910864  0.000000 )  
               b(3) = (  0.000000  0.000000  0.227716 )  


     PseudoPot. # 1 for H  read from file:
     /anvil/projects/x-che260157/pseudo/H.pbe-rrkjus_psl.1.0.0.UPF
     MD5 check sum: f52b6d4d1c606e5624b1dc7b2218f220
     Pseudo is Ultrasoft, Zval =  1.0
     Generated using "atomic" code by A. Dal Corso  v.5.1
     Using radial grid of  929 points,  2 beta functions with: 
                l(1) =   0
                l(2) =   0
     Q(r) pseudized with 0 coefficients 


     PseudoPot. # 2 for Ti read from file:
     /anvil/projects/x-che260157/pseudo/ti_pbe_v1.4.uspp.F.UPF
     MD5 check sum: 88a00a6731bd790ddea75d31a80cb452
     Pseudo is Ultrasoft + core correction, Zval = 12.0
     Generated by new atomic code, or converted to UPF format
     Using radial grid of  851 points,  6 beta functions with: 
                l(1) =   0
                l(2) =   0
                l(3) =   1
                l(4) =   1
                l(5) =   2
                l(6) =   2
     Q(r) pseudized with  6 coefficients,  rinner =    1.000   1.000   1.000
                                                       1.000   1.000

     PseudoPot. # 3 for O  read from file:
     /anvil/projects/x-che260157/pseudo/O.pbe-n-kjpaw_psl.0.1.UPF
     MD5 check sum: 0234752ac141de4415c5fc33072bef88
     Pseudo is Projector augmented-wave + core cor, Zval =  6.0
     Generated using "atomic" code by A. Dal Corso  v.5.0.99 svn rev. 10869
     Shape of augmentation charge: BESSEL
     Using radial grid of 1095 points,  4 beta functions with: 
                l(1) =   0
                l(2) =   0
                l(3) =   1
                l(4) =   1
     Q(r) pseudized with 0 coefficients 


     atomic species   valence    mass     pseudopotential
     H                 1.00     1.00800     H ( 1.00)
     Ti               12.00    47.86700     Ti( 1.00)
     O                 6.00    15.99900     O ( 1.00)

      2 Sym. Ops. (no inversion) found ( 1 have fractional translation)



   Cartesian axes

     site n.     atom                  positions (alat units)
         1        Ti     tau(   1) = (   0.0000000   0.8233945   1.6467890  )
         2        Ti     tau(   2) = (   0.2500000   0.2744648   1.6467890  )
         3        Ti     tau(   3) = (   0.0000000   0.2744648   2.1957187  )
         4        Ti     tau(   4) = (   0.2500000   0.8233945   2.1957187  )
         5        Ti     tau(   5) = (   0.0000000   0.8233945   2.7446483  )
         6        Ti     tau(   6) = (   0.2500000   0.2744648   2.7446483  )
         7        O      tau(   7) = (   0.0000000   0.2744648   1.8611131  )
         8        O      tau(   8) = (   0.0000000   0.2744648   1.4324649  )
         9        O      tau(   9) = (   0.2500000   0.6090704   1.6467890  )
        10        O      tau(  10) = (   0.2500000   1.0377186   1.6467890  )
        11        O      tau(  11) = (   0.0000000   0.8233945   2.4100428  )
        12        O      tau(  12) = (   0.0000000   0.8233945   1.9813946  )
        13        O      tau(  13) = (   0.2500000   0.0601407   2.1957187  )
        14        O      tau(  14) = (   0.2500000   0.4887889   2.1957187  )
        15        O      tau(  15) = (   0.0000000   0.2744648   2.9589724  )
        16        O      tau(  16) = (   0.0000000   0.2744648   2.5303242  )
        17        O      tau(  17) = (   0.2500000   0.6090704   2.7446483  )
        18        O      tau(  18) = (   0.2500000   1.0377186   2.7446483  )
        19        Ti     tau(  19) = (   0.5000000   0.8233945   1.6467890  )
        20        Ti     tau(  20) = (   0.7500000   0.2744648   1.6467890  )
        21        Ti     tau(  21) = (   0.5000000   0.2744648   2.1957187  )
        22        Ti     tau(  22) = (   0.7500000   0.8233945   2.1957187  )
        23        Ti     tau(  23) = (   0.5000000   0.8233945   2.7446483  )
        24        Ti     tau(  24) = (   0.7500000   0.2744648   2.7446483  )
        25        O      tau(  25) = (   0.5000000   0.2744648   1.8611131  )
        26        O      tau(  26) = (   0.5000000   0.2744648   1.4324649  )
        27        O      tau(  27) = (   0.7500000   0.6090704   1.6467890  )
        28        O      tau(  28) = (   0.7500000   1.0377186   1.6467890  )
        29        O      tau(  29) = (   0.5000000   0.8233945   2.4100428  )
        30        O      tau(  30) = (   0.5000000   0.8233945   1.9813946  )
        31        O      tau(  31) = (   0.7500000   0.0601407   2.1957187  )
        32        O      tau(  32) = (   0.7500000   0.4887889   2.1957187  )
        33        O      tau(  33) = (   0.5000000   0.2744648   2.9589724  )
        34        O      tau(  34) = (   0.5000000   0.2744648   2.5303242  )
        35        O      tau(  35) = (   0.7500000   0.6090704   2.7446483  )
        36        O      tau(  36) = (   0.7500000   1.0377186   2.7446483  )
        37        O      tau(  37) = (   0.0000000   0.8233945   3.0319367  )
        38        O      tau(  38) = (   0.1858925   0.8233945   3.1840305  )
        39        H      tau(  39) = (   0.2365904   0.8233945   3.3445740  )

     number of k points=     9  Marzari-Vanderbilt smearing, width (Ry)=  0.0100
                       cart. coord. in units 2pi/alat
        k(    1) = (   0.0000000   0.0000000   0.0000000), wk =   0.1250000
        k(    2) = (   0.0000000   0.2277159   0.0000000), wk =   0.2500000
        k(    3) = (   0.0000000  -0.4554318   0.0000000), wk =   0.1250000
        k(    4) = (   0.2500000   0.0000000   0.0000000), wk =   0.2500000
        k(    5) = (   0.2500000   0.2277159   0.0000000), wk =   0.5000000
        k(    6) = (   0.2500000  -0.4554318   0.0000000), wk =   0.2500000
        k(    7) = (  -0.5000000   0.0000000   0.0000000), wk =   0.1250000
        k(    8) = (  -0.5000000   0.2277159   0.0000000), wk =   0.2500000
        k(    9) = (  -0.5000000  -0.4554318   0.0000000), wk =   0.1250000

     Dense  grid:  1843083 G-vectors     FFT dimensions: (  96, 100, 400)

     Smooth grid:   651657 G-vectors     FFT dimensions: (  64,  72, 288)

     Estimated max dynamical RAM per process >     239.24 MB

     Estimated total dynamical RAM >      26.83 GB

     Check: negative core charge=   -0.000001

     Initial potential from superposition of free atoms

     starting charge     288.9994, renormalised to     301.0000

     negative rho (up, down):  1.675E-02 0.000E+00
     Starting wfcs are  225 randomized atomic wfcs
     Checking if some PAW data can be deallocated... 

     total cpu time spent up to now is        9.2 secs

     per-process dynamical memory:   202.5 Mb

     Self-consistent Calculation

     iteration #  1     ecut=    80.00 Ry     beta= 0.30
     Davidson diagonalization with overlap
     ethr =  1.00E-02,  avg # of iterations =  2.0

     negative rho (up, down):  1.499E-02 0.000E+00

     total cpu time spent up to now is       21.7 secs

     total energy              =   -2517.61616748 Ry
     estimated scf accuracy    <     134.19112508 Ry

     iteration #  2     ecut=    80.00 Ry     beta= 0.30
     Davidson diagonalization with overlap
     ethr =  1.00E-02,  avg # of iterations =  1.2

     negative rho (up, down):  1.569E-02 0.000E+00

     total cpu time spent up to now is       30.9 secs

     total energy              =   -2518.92542077 Ry
     estimated scf accuracy    <      17.84442822 Ry

     iteration #  3     ecut=    80.00 Ry     beta= 0.30
     Davidson diagonalization with overlap
     ethr =  5.93E-03,  avg # of iterations =  3.2

     negative rho (up, down):  1.613E-02 0.000E+00

     total cpu time spent up to now is       41.7 secs

     total energy              =   -2518.18458777 Ry
     estimated scf accuracy    <      14.77247255 Ry

     iteration #  4     ecut=    80.00 Ry     beta= 0.30
     Davidson diagonalization with overlap
     ethr =  4.91E-03,  avg # of iterations =  6.0

     negative rho (up, down):  1.569E-02 0.000E+00

     total cpu time spent up to now is       52.0 secs

     total energy              =   -2519.21325545 Ry
     estimated scf accuracy    <      39.93304882 Ry

     iteration #  5     ecut=    80.00 Ry     beta= 0.30
     Davidson diagonalization with overlap
     ethr =  4.91E-03,  avg # of iterations =  1.4

     negative rho (up, down):  1.607E-02 0.000E+00

     total cpu time spent up to now is       60.0 secs

     total energy              =   -2519.40204452 Ry
     estimated scf accuracy    <       2.70859054 Ry

     iteration #  6     ecut=    80.00 Ry     beta= 0.30
     Davidson diagonalization with overlap
     ethr =  9.00E-04,  avg # of iterations =  5.1

     negative rho (up, down):  1.688E-02 0.000E+00

     total cpu time spent up to now is      100.4 secs

     total energy              =   -2519.30174840 Ry
     estimated scf accuracy    <       1.31187501 Ry

     iteration #  7     ecut=    80.00 Ry     beta= 0.30
     Davidson diagonalization with overlap
     ethr =  4.36E-04,  avg # of iterations =  8.4

     negative rho (up, down):  1.682E-02 0.000E+00

     total cpu time spent up to now is      109.0 secs

     total energy              =   -2519.53320576 Ry
     estimated scf accuracy    <      16.90977951 Ry

     iteration #  8     ecut=    80.00 Ry     beta= 0.30
     Davidson diagonalization with overlap
     ethr =  4.36E-04,  avg # of iterations =  1.8

     negative rho (up, down):  1.687E-02 0.000E+00

     total cpu time spent up to now is      119.0 secs

     total energy              =   -2519.25633752 Ry
     estimated scf accuracy    <      10.52562002 Ry

     iteration #  9     ecut=    80.00 Ry     beta= 0.30
     Davidson diagonalization with overlap
     c_bands:  1 eigenvalues not converged
     ethr =  4.36E-04,  avg # of iterations =  6.8

     negative rho (up, down):  1.769E-02 0.000E+00

     total cpu time spent up to now is      127.6 secs

     total energy              =   -2519.36315902 Ry
     estimated scf accuracy    <       1.07681746 Ry

     iteration # 10     ecut=    80.00 Ry     beta= 0.30
     Davidson diagonalization with overlap
     ethr =  3.58E-04,  avg # of iterations =  3.9

     negative rho (up, down):  2.150E-02 0.000E+00

     total cpu time spent up to now is      136.0 secs

     total energy              =   -2519.29550253 Ry
     estimated scf accuracy    <       0.88860978 Ry

     iteration # 11     ecut=    80.00 Ry     beta= 0.30
     Davidson diagonalization with overlap
     ethr =  2.95E-04,  avg # of iterations =  1.6

     negative rho (up, down):  2.368E-02 0.000E+00

     total cpu time spent up to now is      144.0 secs

     total energy              =   -2519.25111824 Ry
     estimated scf accuracy    <       0.63369678 Ry

     iteration # 12     ecut=    80.00 Ry     beta= 0.30
     Davidson diagonalization with overlap
     ethr =  2.11E-04,  avg # of iterations =  6.0

     negative rho (up, down):  2.467E-02 0.000E+00

     total cpu time spent up to now is      152.9 secs

     total energy              =   -2519.27000746 Ry
     estimated scf accuracy    <       0.43820994 Ry

     iteration # 13     ecut=    80.00 Ry     beta= 0.30
     Davidson diagonalization with overlap
     ethr =  1.46E-04,  avg # of iterations =  3.1

     negative rho (up, down):  2.647E-02 0.000E+00

     total cpu time spent up to now is      161.3 secs

     total energy              =   -2519.24215987 Ry
     estimated scf accuracy    <       0.27810112 Ry

     iteration # 14     ecut=    80.00 Ry     beta= 0.30
     Davidson diagonalization with overlap
     ethr =  9.24E-05,  avg # of iterations = 10.1

     negative rho (up, down):  2.348E-02 0.000E+00

     total cpu time spent up to now is      170.6 secs

     total energy              =   -2519.24621584 Ry
     estimated scf accuracy    <       0.15771430 Ry

     iteration # 15     ecut=    80.00 Ry     beta= 0.30
     Davidson diagonalization with overlap
     ethr =  5.24E-05,  avg # of iterations =  2.1

     negative rho (up, down):  2.124E-02 0.000E+00

     total cpu time spent up to now is      178.1 secs

     total energy              =   -2519.24872393 Ry
     estimated scf accuracy    <       0.10140340 Ry

     iteration # 16     ecut=    80.00 Ry     beta= 0.30
     Davidson diagonalization with overlap
     ethr =  3.37E-05,  avg # of iterations =  4.9

     negative rho (up, down):  1.897E-02 0.000E+00

     total cpu time spent up to now is      187.4 secs

     total energy              =   -2519.24142703 Ry
     estimated scf accuracy    <       0.09944688 Ry

     iteration # 17     ecut=    80.00 Ry     beta= 0.30
     Davidson diagonalization with overlap
     c_bands:  3 eigenvalues not converged
     ethr =  3.30E-05,  avg # of iterations =  8.1

     negative rho (up, down):  1.817E-02 0.000E+00

     total cpu time spent up to now is      195.6 secs

     total energy              =   -2519.23347194 Ry
     estimated scf accuracy    <       0.06494174 Ry

     iteration # 18     ecut=    80.00 Ry     beta= 0.30
     Davidson diagonalization with overlap
     ethr =  2.16E-05,  avg # of iterations = 13.4

     negative rho (up, down):  1.703E-02 0.000E+00

     total cpu time spent up to now is      205.0 secs

     total energy              =   -2519.23555627 Ry
     estimated scf accuracy    <       0.11603779 Ry

     iteration # 19     ecut=    80.00 Ry     beta= 0.30
     Davidson diagonalization with overlap
     ethr =  2.16E-05,  avg # of iterations =  1.8

     negative rho (up, down):  1.726E-02 0.000E+00

     total cpu time spent up to now is      213.1 secs

     total energy              =   -2519.23217542 Ry
     estimated scf accuracy    <       0.05170760 Ry

     iteration # 20     ecut=    80.00 Ry     beta= 0.30
     Davidson diagonalization with overlap
     ethr =  1.72E-05,  avg # of iterations =  3.4

     negative rho (up, down):  1.825E-02 0.000E+00

     total cpu time spent up to now is      221.2 secs

     total energy              =   -2519.23029064 Ry
     estimated scf accuracy    <       0.03276596 Ry

     iteration # 21     ecut=    80.00 Ry     beta= 0.30
     Davidson diagonalization with overlap
     ethr =  1.09E-05,  avg # of iterations =  4.3

     negative rho (up, down):  2.775E-02 0.000E+00

     total cpu time spent up to now is      229.3 secs

     total energy              =   -2519.22929282 Ry
     estimated scf accuracy    <       0.01449150 Ry

     iteration # 22     ecut=    80.00 Ry     beta= 0.30
     Davidson diagonalization with overlap
     c_bands:  3 eigenvalues not converged
     ethr =  4.81E-06,  avg # of iterations = 11.4

     negative rho (up, down):  3.490E-02 0.000E+00

     total cpu time spent up to now is      238.6 secs

     total energy              =   -2519.22757657 Ry
     estimated scf accuracy    <       0.01307512 Ry

     iteration # 23     ecut=    80.00 Ry     beta= 0.30
     Davidson diagonalization with overlap
     ethr =  4.34E-06,  avg # of iterations =  5.4

     negative rho (up, down):  3.505E-02 0.000E+00

     total cpu time spent up to now is      247.2 secs

     total energy              =   -2519.22688929 Ry
     estimated scf accuracy    <       0.00843032 Ry

     iteration # 24     ecut=    80.00 Ry     beta= 0.30
     Davidson diagonalization with overlap
     c_bands:  4 eigenvalues not converged
     ethr =  2.80E-06,  avg # of iterations =  9.2

     negative rho (up, down):  3.482E-02 0.000E+00

     total cpu time spent up to now is      256.6 secs

     total energy              =   -2519.22750115 Ry
     estimated scf accuracy    <       0.01579015 Ry

     iteration # 25     ecut=    80.00 Ry     beta= 0.30
     Davidson diagonalization with overlap
     ethr =  2.80E-06,  avg # of iterations =  2.8

     negative rho (up, down):  3.830E-02 0.000E+00

     total cpu time spent up to now is      263.7 secs

     total energy              =   -2519.22772788 Ry
     estimated scf accuracy    <       0.01608329 Ry

     iteration # 26     ecut=    80.00 Ry     beta= 0.30
     Davidson diagonalization with overlap
     ethr =  2.80E-06,  avg # of iterations =  1.0

     negative rho (up, down):  3.527E-02 0.000E+00

     total cpu time spent up to now is      271.2 secs

     total energy              =   -2519.22718098 Ry
     estimated scf accuracy    <       0.03335164 Ry

     iteration # 27     ecut=    80.00 Ry     beta= 0.30
     Davidson diagonalization with overlap
     ethr =  2.80E-06,  avg # of iterations =  1.1

     negative rho (up, down):  2.264E-02 0.000E+00

     total cpu time spent up to now is      278.8 secs

     total energy              =   -2519.22683123 Ry
     estimated scf accuracy    <       0.01364125 Ry

     iteration # 28     ecut=    80.00 Ry     beta= 0.30
     Davidson diagonalization with overlap
     ethr =  2.80E-06,  avg # of iterations =  1.0

     negative rho (up, down):  2.497E-02 0.000E+00

     total cpu time spent up to now is      286.1 secs

     total energy              =   -2519.22670462 Ry
     estimated scf accuracy    <       0.00783381 Ry

     iteration # 29     ecut=    80.00 Ry     beta= 0.30
     Davidson diagonalization with overlap
     ethr =  2.60E-06,  avg # of iterations =  1.0

     negative rho (up, down):  2.486E-02 0.000E+00

     total cpu time spent up to now is      292.9 secs

     total energy              =   -2519.22659034 Ry
     estimated scf accuracy    <       0.00692306 Ry

     iteration # 30     ecut=    80.00 Ry     beta= 0.30
     Davidson diagonalization with overlap
     ethr =  2.30E-06,  avg # of iterations =  1.0

     negative rho (up, down):  2.285E-02 0.000E+00

     total cpu time spent up to now is      299.8 secs

     total energy              =   -2519.22662095 Ry
     estimated scf accuracy    <       0.00381722 Ry

     iteration # 31     ecut=    80.00 Ry     beta= 0.30
     Davidson diagonalization with overlap
     ethr =  1.27E-06,  avg # of iterations =  1.1

     negative rho (up, down):  2.265E-02 0.000E+00

     total cpu time spent up to now is      307.5 secs

     total energy              =   -2519.22669207 Ry
     estimated scf accuracy    <       0.00194223 Ry

     iteration # 32     ecut=    80.00 Ry     beta= 0.30
     Davidson diagonalization with overlap
     ethr =  6.45E-07,  avg # of iterations =  1.0

     negative rho (up, down):  1.880E-02 0.000E+00

     total cpu time spent up to now is      314.5 secs

     total energy              =   -2519.22666945 Ry
     estimated scf accuracy    <       0.00143865 Ry

     iteration # 33     ecut=    80.00 Ry     beta= 0.30
     Davidson diagonalization with overlap
     ethr =  4.78E-07,  avg # of iterations =  1.0

     negative rho (up, down):  1.842E-02 0.000E+00

     total cpu time spent up to now is      322.2 secs

     total energy              =   -2519.22668273 Ry
     estimated scf accuracy    <       0.00084808 Ry

     iteration # 34     ecut=    80.00 Ry     beta= 0.30
     Davidson diagonalization with overlap
     ethr =  2.82E-07,  avg # of iterations =  1.0

     negative rho (up, down):  1.869E-02 0.000E+00

     total cpu time spent up to now is      329.5 secs

     total energy              =   -2519.22668105 Ry
     estimated scf accuracy    <       0.00030271 Ry

     iteration # 35     ecut=    80.00 Ry     beta= 0.30
     Davidson diagonalization with overlap
     ethr =  1.01E-07,  avg # of iterations =  1.0

     negative rho (up, down):  1.819E-02 0.000E+00

     total cpu time spent up to now is      336.5 secs

     total energy              =   -2519.22664911 Ry
     estimated scf accuracy    <       0.00014073 Ry

     iteration # 36     ecut=    80.00 Ry     beta= 0.30
     Davidson diagonalization with overlap
     ethr =  4.68E-08,  avg # of iterations =  3.6

     negative rho (up, down):  1.804E-02 0.000E+00

     total cpu time spent up to now is      344.7 secs

     total energy              =   -2519.22664387 Ry
     estimated scf accuracy    <       0.00005946 Ry

     iteration # 37     ecut=    80.00 Ry     beta= 0.30
     Davidson diagonalization with overlap
     ethr =  1.98E-08,  avg # of iterations =  2.0

     negative rho (up, down):  1.778E-02 0.000E+00

     total cpu time spent up to now is      353.4 secs

     total energy              =   -2519.22663950 Ry
     estimated scf accuracy    <       0.00004835 Ry

     iteration # 38     ecut=    80.00 Ry     beta= 0.30
     Davidson diagonalization with overlap
     ethr =  1.61E-08,  avg # of iterations =  3.9

     negative rho (up, down):  1.733E-02 0.000E+00

     total cpu time spent up to now is      361.3 secs

     total energy              =   -2519.22663438 Ry
     estimated scf accuracy    <       0.00003348 Ry

     iteration # 39     ecut=    80.00 Ry     beta= 0.30
     Davidson diagonalization with overlap
     ethr =  1.11E-08,  avg # of iterations =  4.9

     negative rho (up, down):  1.748E-02 0.000E+00

     total cpu time spent up to now is      370.0 secs

     total energy              =   -2519.22663173 Ry
     estimated scf accuracy    <       0.00003546 Ry

     iteration # 40     ecut=    80.00 Ry     beta= 0.30
     Davidson diagonalization with overlap
     ethr =  1.11E-08,  avg # of iterations =  8.4

     negative rho (up, down):  1.733E-02 0.000E+00

     total cpu time spent up to now is      379.7 secs

     total energy              =   -2519.22662412 Ry
     estimated scf accuracy    <       0.00003088 Ry

     iteration # 41     ecut=    80.00 Ry     beta= 0.30
     Davidson diagonalization with overlap
     ethr =  1.03E-08,  avg # of iterations =  4.2

     negative rho (up, down):  1.610E-02 0.000E+00

     total cpu time spent up to now is      388.4 secs

     total energy              =   -2519.22661472 Ry
     estimated scf accuracy    <       0.00001709 Ry

     iteration # 42     ecut=    80.00 Ry     beta= 0.30
     Davidson diagonalization with overlap
     ethr =  5.68E-09,  avg # of iterations =  6.2

     negative rho (up, down):  1.554E-02 0.000E+00

     total cpu time spent up to now is      398.7 secs

     total energy              =   -2519.22661996 Ry
     estimated scf accuracy    <       0.00000643 Ry

     iteration # 43     ecut=    80.00 Ry     beta= 0.30
     Davidson diagonalization with overlap
     ethr =  2.14E-09,  avg # of iterations =  4.6

     negative rho (up, down):  1.555E-02 0.000E+00

     total cpu time spent up to now is      408.1 secs

     total energy              =   -2519.22661788 Ry
     estimated scf accuracy    <       0.00001118 Ry

     iteration # 44     ecut=    80.00 Ry     beta= 0.30
     Davidson diagonalization with overlap
     ethr =  2.14E-09,  avg # of iterations =  4.6

     negative rho (up, down):  1.556E-02 0.000E+00

     total cpu time spent up to now is      416.6 secs

     total energy              =   -2519.22661733 Ry
     estimated scf accuracy    <       0.00000154 Ry

     iteration # 45     ecut=    80.00 Ry     beta= 0.30
     Davidson diagonalization with overlap
     ethr =  5.13E-10,  avg # of iterations =  3.3

     negative rho (up, down):  1.547E-02 0.000E+00

     total cpu time spent up to now is      424.3 secs

     End of self-consistent calculation

          k = 0.0000 0.0000 0.0000 ( 81491 PWs)   bands (ev):

   -58.2426 -58.2021 -57.6376 -57.6210 -57.5965 -57.2327 -57.1899 -56.7400
   -56.6427 -56.6022 -56.4498 -56.4089 -34.7379 -34.5365 -34.5036 -34.4659
   -34.3560 -34.2910 -34.2291 -33.9589 -33.9526 -33.8971 -33.8396 -33.8200
   -33.8165 -33.8095 -33.7824 -33.7749 -33.5143 -33.4289 -33.4200 -33.3830
   -33.3624 -33.3548 -33.1213 -33.0592 -33.0262 -32.9972 -32.9688 -32.9574
   -32.8853 -32.7814 -32.7612 -32.7468 -32.7095 -32.6699 -32.6042 -32.5021
   -22.2010 -18.8612 -18.5249 -18.0571 -18.0031 -17.9568 -17.9323 -17.7665
   -17.4543 -17.4401 -17.3914 -17.3020 -17.2482 -17.2421 -17.2161 -17.0894
   -17.0766 -17.0453 -16.8997 -16.7873 -16.7243 -16.4154 -15.6301 -15.5914
   -15.5426 -15.5323  -8.8437  -6.5391  -6.1939  -6.0255  -5.8423  -5.6720
    -5.4182  -5.3278  -5.2888  -5.2135  -5.1229  -5.0126  -4.9933  -4.9820
    -4.9437  -4.9184  -4.7592  -4.6910  -4.6777  -4.6083  -4.5334  -4.4011
    -4.3720  -4.3669  -4.3467  -4.2134  -4.0903  -4.0230  -3.9719  -3.9291
    -3.7696  -3.6502  -3.6116  -3.5588  -3.4111  -3.2822  -3.2694  -3.1703
    -3.1572  -3.1480  -3.0578  -2.9509  -2.8020  -2.7767  -2.7266  -2.6452
    -2.5198  -2.5137  -2.4680  -2.4444  -2.3934  -2.3509  -2.1832  -2.0341
    -1.9823  -1.9619  -1.8105  -1.7828  -1.7364  -1.6884  -1.4621  -1.4112
    -1.3895  -1.3382  -1.2773  -1.1935  -1.1581  -1.1178  -0.8317  -0.8143
    -0.6864  -0.6462  -0.5967  -0.5773  -0.5722  -0.4939  -0.3317   0.8205
     0.9475   1.2129   1.2487   1.5019   1.6649   1.7921   1.8064   1.8118
     1.9054   1.9345   1.9469   2.0577   2.2277   2.3395   2.4098   2.4742
     2.4969   2.5081   2.6034   2.6539   2.7383   2.7608   2.7841   2.7937
     2.8219   2.8910   3.0030   3.0191   3.0246

          k = 0.0000 0.2277 0.0000 ( 81407 PWs)   bands (ev):

   -58.2426 -58.2021 -57.6376 -57.6210 -57.5965 -57.2328 -57.1899 -56.7400
   -56.6427 -56.6022 -56.4498 -56.4089 -34.7390 -34.5365 -34.5036 -34.4637
   -34.3562 -34.2910 -34.2294 -33.9594 -33.9532 -33.8971 -33.8477 -33.8290
   -33.8200 -33.8078 -33.7748 -33.7507 -33.5259 -33.4286 -33.4200 -33.3830
   -33.3625 -33.3548 -33.1210 -33.0610 -33.0294 -32.9955 -32.9713 -32.9463
   -32.8853 -32.7814 -32.7716 -32.7437 -32.7095 -32.6699 -32.6042 -32.5021
   -22.2009 -18.7622 -18.4363 -18.1201 -18.0236 -17.9479 -17.9307 -17.6282
   -17.6079 -17.5487 -17.4502 -17.4125 -17.3011 -17.2130 -17.1464 -17.0878
   -17.0302 -16.9920 -16.8793 -16.7913 -16.7773 -16.4142 -15.6263 -15.5889
   -15.5424 -15.5323  -8.8435  -6.2513  -6.1391  -5.7913  -5.6656  -5.6629
    -5.5619  -5.4722  -5.3889  -5.1798  -5.1006  -5.0196  -4.9436  -4.9435
    -4.8974  -4.8744  -4.7150  -4.6920  -4.6744  -4.5915  -4.4330  -4.4076
    -4.3191  -4.2412  -4.1970  -4.1284  -4.0915  -4.0305  -3.8776  -3.8653
    -3.8321  -3.7079  -3.5565  -3.5260  -3.4304  -3.4085  -3.4032  -3.2598
    -3.1730  -3.1552  -3.0853  -2.9921  -2.9026  -2.8633  -2.8143  -2.7180
    -2.6650  -2.5491  -2.4469  -2.4076  -2.3841  -2.2316  -2.2066  -2.1338
    -1.9964  -1.9801  -1.9475  -1.8885  -1.8696  -1.7526  -1.5501  -1.4962
    -1.4924  -1.3191  -1.2707  -1.1789  -1.1415  -1.1345  -0.9259  -0.8499
    -0.7847  -0.7490  -0.7042  -0.6449  -0.6197  -0.5624  -0.4247   0.8979
     0.9582   1.2431   1.3358   1.4975   1.7141   1.8006   1.8255   1.8582
     1.8756   1.9783   1.9862   2.0465   2.0638   2.1727   2.3997   2.5045
     2.5337   2.6542   2.6790   2.7446   2.7743   2.7865   2.8215   2.8746
     3.0149   3.0364   3.0424   3.1662   3.3054

          k = 0.0000-0.4554 0.0000 ( 81286 PWs)   bands (ev):

   -58.2426 -58.2021 -57.6375 -57.6210 -57.5965 -57.2328 -57.1899 -56.7400
   -56.6427 -56.6022 -56.4498 -56.4089 -34.7400 -34.5365 -34.5036 -34.4615
   -34.3564 -34.2909 -34.2297 -33.9600 -33.9537 -33.8970 -33.8653 -33.8200
   -33.8176 -33.8060 -33.7747 -33.7324 -33.5383 -33.4283 -33.4200 -33.3829
   -33.3625 -33.3548 -33.1208 -33.0627 -33.0326 -32.9937 -32.9721 -32.9360
   -32.8853 -32.7836 -32.7814 -32.7403 -32.7095 -32.6700 -32.6042 -32.5022
   -22.2008 -18.6333 -18.3141 -18.2129 -18.0733 -17.9339 -17.8094 -17.7807
   -17.6610 -17.5091 -17.4903 -17.4368 -17.3702 -17.2557 -17.1659 -17.1027
   -17.0927 -16.9271 -16.8173 -16.7880 -16.7783 -16.4131 -15.6230 -15.5866
   -15.5422 -15.5323  -8.8433  -6.1396  -5.8524  -5.8288  -5.6561  -5.6552
    -5.4457  -5.3740  -5.1997  -5.1670  -5.0851  -5.0065  -4.9294  -4.9027
    -4.8688  -4.7498  -4.7269  -4.6662  -4.6137  -4.5295  -4.4267  -4.2817
    -4.2739  -4.2666  -4.1957  -4.1533  -4.1140  -4.0696  -3.9153  -3.9025
    -3.7400  -3.7398  -3.6230  -3.5737  -3.5535  -3.4751  -3.4046  -3.2794
    -3.1746  -3.1657  -3.1337  -3.0979  -3.0883  -2.8742  -2.7834  -2.7149
    -2.6726  -2.6344  -2.5908  -2.5489  -2.4210  -2.3330  -2.3045  -2.2045
    -2.1618  -2.0389  -1.9600  -1.8911  -1.7491  -1.7235  -1.6888  -1.4401
    -1.4291  -1.3340  -1.2678  -1.1903  -1.1617  -1.1190  -1.0610  -0.8862
    -0.8792  -0.8165  -0.7072  -0.6838  -0.6654  -0.5634  -0.5509   0.8471
     1.0092   1.2411   1.2436   1.4274   1.4554   1.7334   1.8410   1.8656
     1.9099   2.0728   2.0915   2.1073   2.1670   2.2994   2.3986   2.5040
     2.5480   2.7005   2.7295   2.7894   2.8186   2.8217   2.9198   3.0352
     3.0524   3.0782   3.2195   3.2460   3.3280

          k = 0.2500 0.0000 0.0000 ( 81478 PWs)   bands (ev):

   -58.2369 -58.2079 -57.6317 -57.6207 -57.6025 -57.2272 -57.1955 -56.7403
   -56.6368 -56.6082 -56.4439 -56.4148 -34.6746 -34.5317 -34.5075 -34.4501
   -34.3723 -34.3586 -34.1664 -33.9494 -33.9268 -33.8913 -33.8492 -33.8309
   -33.8269 -33.8077 -33.7904 -33.7522 -33.5027 -33.4418 -33.4311 -33.4150
   -33.3864 -33.3558 -33.0910 -33.0581 -33.0219 -33.0014 -32.9712 -32.8933
   -32.8703 -32.7968 -32.7620 -32.7457 -32.7387 -32.6942 -32.6203 -32.5708
   -22.2006 -18.7154 -18.3851 -17.9958 -17.9339 -17.8881 -17.8818 -17.8228
   -17.6194 -17.5164 -17.3835 -17.3197 -17.2909 -17.2037 -17.1780 -17.1686
   -17.0470 -16.9933 -16.9718 -16.7991 -16.7779 -16.4170 -15.6554 -15.6282
   -15.5973 -15.5926  -8.8417  -6.3389  -5.9937  -5.8513  -5.6659  -5.4967
    -5.4072  -5.2946  -5.2764  -5.2341  -5.1127  -5.0676  -4.9948  -4.9423
    -4.9326  -4.9124  -4.9097  -4.8709  -4.8420  -4.7593  -4.6566  -4.4257
    -4.3946  -4.3615  -4.3402  -4.3327  -4.0213  -3.9637  -3.9325  -3.7463
    -3.6740  -3.6228  -3.4983  -3.4645  -3.2910  -3.2858  -3.2465  -3.0947
    -3.0539  -3.0388  -2.9987  -2.9721  -2.9210  -2.8254  -2.7692  -2.6498
    -2.5816  -2.5321  -2.4512  -2.3977  -2.2840  -2.2152  -2.1955  -2.1622
    -2.1134  -2.0352  -2.0167  -1.9456  -1.9302  -1.7387  -1.6939  -1.6902
    -1.4479  -1.3750  -1.3269  -1.3044  -1.2174  -1.0120  -0.9504  -0.9105
    -0.7961  -0.7350  -0.7184  -0.6936  -0.5411  -0.4419  -0.3966   1.0294
     1.1050   1.2593   1.4754   1.6491   1.7247   1.7476   1.8060   1.8296
     1.8761   1.9497   1.9849   2.0576   2.1763   2.2960   2.4125   2.4670
     2.4759   2.6201   2.6381   2.6813   2.7197   2.7738   2.8451   2.9347
     2.9898   2.9933   3.0021   3.2306   3.2310

          k = 0.2500 0.2277 0.0000 ( 81485 PWs)   bands (ev):

   -58.2369 -58.2079 -57.6317 -57.6207 -57.6025 -57.2272 -57.1955 -56.7403
   -56.6368 -56.6082 -56.4439 -56.4148 -34.6755 -34.5317 -34.5075 -34.4483
   -34.3721 -34.3589 -34.1667 -33.9494 -33.9278 -33.8913 -33.8493 -33.8270
   -33.8228 -33.8162 -33.8061 -33.7244 -33.5124 -33.4430 -33.4302 -33.4150
   -33.3864 -33.3558 -33.0935 -33.0579 -33.0244 -33.0004 -32.9644 -32.8914
   -32.8704 -32.7968 -32.7678 -32.7469 -32.7387 -32.6943 -32.6203 -32.5708
   -22.2005 -18.6211 -18.3054 -18.0857 -17.9221 -17.9095 -17.8286 -17.7024
   -17.6605 -17.6243 -17.4504 -17.3852 -17.3257 -17.2139 -17.1795 -17.0919
   -17.0514 -17.0138 -16.9816 -16.8290 -16.7793 -16.4158 -15.6527 -15.6261
   -15.5977 -15.5937  -8.8415  -6.0536  -5.9521  -5.6081  -5.4936  -5.4655
    -5.4159  -5.3308  -5.2562  -5.1739  -5.0806  -5.0609  -5.0119  -4.9478
    -4.8970  -4.8786  -4.8087  -4.7964  -4.7753  -4.6656  -4.6402  -4.5709
    -4.4150  -4.3562  -4.2372  -4.2166  -3.9595  -3.9047  -3.8527  -3.8188
    -3.7533  -3.5952  -3.5048  -3.4706  -3.4296  -3.3216  -3.2964  -3.2792
    -3.1423  -3.1036  -3.0763  -3.0101  -2.9580  -2.8495  -2.8053  -2.7648
    -2.7067  -2.6408  -2.6026  -2.4533  -2.4162  -2.3687  -2.3326  -2.2675
    -2.1686  -2.1287  -2.0822  -1.9167  -1.8778  -1.7501  -1.6847  -1.6023
    -1.5666  -1.3853  -1.3662  -1.3252  -1.2529  -0.9892  -0.9387  -0.9032
    -0.8059  -0.7827  -0.7583  -0.6902  -0.6088  -0.4545  -0.4393   1.0137
     1.1808   1.3632   1.5352   1.5749   1.7148   1.7637   1.8207   1.8875
     1.9552   1.9980   2.0896   2.1619   2.1911   2.2123   2.3988   2.4312
     2.5250   2.6636   2.7116   2.7271   2.7755   2.8608   2.9082   3.0082
     3.1116   3.1197   3.2145   3.2412   3.2788

          k = 0.2500-0.4554 0.0000 ( 81408 PWs)   bands (ev):

   -58.2369 -58.2079 -57.6317 -57.6207 -57.6025 -57.2273 -57.1955 -56.7403
   -56.6368 -56.6082 -56.4439 -56.4148 -34.6765 -34.5317 -34.5075 -34.4464
   -34.3719 -34.3591 -34.1670 -33.9494 -33.9288 -33.8913 -33.8493 -33.8318
   -33.8269 -33.8141 -33.8045 -33.7070 -33.5225 -33.4443 -33.4294 -33.4150
   -33.3864 -33.3559 -33.0960 -33.0577 -33.0268 -32.9993 -32.9573 -32.8889
   -32.8704 -32.7968 -32.7768 -32.7458 -32.7386 -32.6943 -32.6203 -32.5708
   -22.2004 -18.4952 -18.1886 -18.1505 -17.9849 -17.9248 -17.7910 -17.7049
   -17.6599 -17.6042 -17.4611 -17.4584 -17.3180 -17.3011 -17.1958 -17.1658
   -17.1266 -16.9674 -16.9085 -16.8404 -16.7818 -16.4147 -15.6503 -15.6243
   -15.5982 -15.5948  -8.8414  -5.9559  -5.6291  -5.5105  -5.4529  -5.3703
    -5.3585  -5.2645  -5.1229  -5.0879  -5.0395  -4.9682  -4.9673  -4.9243
    -4.9058  -4.8727  -4.8291  -4.7723  -4.7137  -4.5610  -4.5473  -4.4680
    -4.3567  -4.2758  -4.2550  -4.1615  -4.0275  -4.0031  -3.9471  -3.7666
    -3.6288  -3.6161  -3.6009  -3.4967  -3.4897  -3.3963  -3.3877  -3.3686
    -3.3123  -3.2208  -3.2078  -3.1793  -3.0572  -2.9567  -2.9279  -2.8520
    -2.8469  -2.8093  -2.6185  -2.5644  -2.5230  -2.4968  -2.4559  -2.4539
    -2.3091  -2.1988  -2.0900  -1.7745  -1.7577  -1.7122  -1.6303  -1.5529
    -1.4781  -1.4567  -1.3634  -1.3433  -1.2365  -1.0191  -0.9157  -0.8906
    -0.8605  -0.8060  -0.7971  -0.6835  -0.5836  -0.5534  -0.4442   1.0213
     1.1981   1.3531   1.3972   1.5747   1.6453   1.8059   1.8757   1.8922
     1.9362   2.0285   2.1521   2.1783   2.2821   2.3858   2.4020   2.5325
     2.5776   2.6686   2.7420   2.8503   2.9182   2.9251   2.9817   3.0356
     3.1284   3.2642   3.2767   3.3220   3.3782

          k =-0.5000 0.0000 0.0000 ( 81532 PWs)   bands (ev):

   -58.2256 -58.2192 -57.6214 -57.6184 -57.6150 -57.2181 -57.2047 -56.7406
   -56.6228 -56.6223 -56.4318 -56.4270 -34.5231 -34.5214 -34.5161 -34.5153
   -34.4142 -34.4088 -34.0181 -34.0069 -33.9341 -33.8975 -33.8692 -33.8590
   -33.8118 -33.8095 -33.8053 -33.5997 -33.5882 -33.4785 -33.4672 -33.4074
   -33.3925 -33.3572 -33.1248 -33.0119 -33.0114 -32.9737 -32.9014 -32.9008
   -32.8340 -32.8335 -32.7626 -32.7449 -32.7377 -32.7328 -32.6588 -32.6548
   -22.2003 -18.3583 -18.3512 -18.0641 -18.0095 -17.7688 -17.7224 -17.6999
   -17.6997 -17.6069 -17.5805 -17.4701 -17.3380 -17.1473 -17.1452 -17.0793
   -17.0722 -17.0182 -16.9500 -16.8486 -16.8245 -16.4186 -15.6704 -15.6699
   -15.6645 -15.6560  -8.8398  -5.8369  -5.8365  -5.5823  -5.5106  -5.4288
    -5.4188  -5.3641  -5.3529  -5.3492  -5.2514  -5.1835  -5.0722  -5.0554
    -5.0453  -4.9818  -4.9497  -4.7034  -4.6751  -4.6706  -4.6559  -4.4533
    -4.4295  -4.3997  -4.2854  -4.2786  -4.1865  -3.9943  -3.9918  -3.5936
    -3.4700  -3.4603  -3.4302  -3.4145  -3.3903  -3.2965  -3.2917  -3.1813
    -3.0969  -3.0723  -3.0390  -2.8587  -2.8151  -2.7980  -2.7067  -2.6200
    -2.5484  -2.4317  -2.3497  -2.3426  -2.3312  -2.3089  -2.2724  -2.2186
    -2.2056  -2.1662  -2.1557  -2.0803  -2.0556  -1.8958  -1.8534  -1.6854
    -1.6776  -1.6708  -1.6589  -1.2950  -1.2739  -1.2519  -0.8033  -0.7987
    -0.7946  -0.7597  -0.7296  -0.5722  -0.5662  -0.5587  -0.4452   1.3045
     1.3085   1.4727   1.4781   1.5758   1.5797   1.7084   1.7291   1.7819
     2.0249   2.0535   2.1659   2.1805   2.2463   2.2642   2.3000   2.3409
     2.5134   2.5718   2.6316   2.7381   2.7792   2.8487   2.8605   2.8698
     3.1516   3.1696   3.2601   3.3348   3.3360

          k =-0.5000 0.2277 0.0000 ( 81508 PWs)   bands (ev):

   -58.2256 -58.2192 -57.6213 -57.6184 -57.6150 -57.2181 -57.2048 -56.7405
   -56.6228 -56.6223 -56.4318 -56.4270 -34.5232 -34.5221 -34.5167 -34.5153
   -34.4131 -34.4077 -34.0183 -34.0071 -33.9341 -33.8983 -33.8693 -33.8590
   -33.8115 -33.8090 -33.8041 -33.5947 -33.5834 -33.4836 -33.4722 -33.4075
   -33.3926 -33.3573 -33.1280 -33.0125 -33.0121 -32.9653 -32.9013 -32.9007
   -32.8340 -32.8335 -32.7622 -32.7525 -32.7370 -32.7322 -32.6588 -32.6548
   -22.2002 -18.2887 -18.2792 -18.0289 -17.9782 -17.8174 -17.7996 -17.7185
   -17.6706 -17.5739 -17.5326 -17.4372 -17.3689 -17.2363 -17.2134 -17.1028
   -17.0511 -17.0439 -17.0351 -16.8368 -16.8129 -16.4174 -15.6702 -15.6694
   -15.6642 -15.6562  -8.8396  -5.6127  -5.6111  -5.5678  -5.5052  -5.3595
    -5.2447  -5.2377  -5.2016  -5.1781  -5.1581  -5.0398  -5.0122  -4.9718
    -4.9321  -4.8843  -4.8704  -4.7524  -4.7295  -4.6177  -4.6043  -4.4987
    -4.4916  -4.3946  -4.2696  -4.2050  -4.2042  -4.0380  -3.9527  -3.7732
    -3.7594  -3.6097  -3.5662  -3.5279  -3.4181  -3.3564  -3.3161  -3.2175
    -3.1906  -3.1681  -3.0558  -2.9533  -2.9475  -2.8824  -2.8527  -2.7339
    -2.6652  -2.6036  -2.5889  -2.5835  -2.4976  -2.4429  -2.3463  -2.2914
    -2.2367  -2.2144  -2.1377  -2.0740  -2.0580  -1.8626  -1.7789  -1.6631
    -1.6267  -1.5946  -1.5591  -1.2892  -1.2131  -1.2094  -0.8199  -0.8172
    -0.8101  -0.7825  -0.7082  -0.5882  -0.5797  -0.5358  -0.4477   1.3361
     1.3371   1.5036   1.5101   1.7121   1.7146   1.7604   1.7662   1.7954
     1.9884   2.0449   2.1453   2.2674   2.3402   2.3899   2.4689   2.4937
     2.5147   2.5382   2.5747   2.7359   2.8526   2.9467   3.0246   3.0352
     3.1459   3.1711   3.2645   3.3435   3.3470

          k =-0.5000-0.4554 0.0000 ( 81484 PWs)   bands (ev):

   -58.2256 -58.2192 -57.6213 -57.6184 -57.6149 -57.2181 -57.2048 -56.7405
   -56.6228 -56.6223 -56.4318 -56.4270 -34.5232 -34.5227 -34.5174 -34.5153
   -34.4121 -34.4066 -34.0185 -34.0073 -33.9342 -33.8991 -33.8693 -33.8590
   -33.8112 -33.8086 -33.8028 -33.5891 -33.5780 -33.4893 -33.4778 -33.4075
   -33.3926 -33.3573 -33.1311 -33.0131 -33.0127 -32.9563 -32.9012 -32.9006
   -32.8340 -32.8336 -32.7656 -32.7560 -32.7368 -32.7320 -32.6588 -32.6548
   -22.2001 -18.1746 -18.1515 -18.0160 -18.0155 -17.9133 -17.8587 -17.7010
   -17.5796 -17.5557 -17.5487 -17.3507 -17.3388 -17.3354 -17.2805 -17.2247
   -17.1479 -17.0380 -17.0292 -16.8301 -16.8063 -16.4163 -15.6700 -15.6689
   -15.6640 -15.6565  -8.8395  -5.5709  -5.5226  -5.3856  -5.2624  -5.2615
    -5.2156  -5.0744  -5.0466  -5.0026  -4.9644  -4.9078  -4.8772  -4.7734
    -4.7395  -4.7358  -4.7164  -4.6318  -4.6033  -4.5864  -4.5468  -4.5352
    -4.5288  -4.4912  -4.4101  -4.3453  -4.2132  -4.1653  -4.1626  -3.9437
    -3.8493  -3.7061  -3.6617  -3.6430  -3.5911  -3.4578  -3.3820  -3.3018
    -3.2728  -3.2353  -3.2203  -3.1906  -3.1066  -2.9177  -2.9069  -2.8361
    -2.8077  -2.8054  -2.7809  -2.6622  -2.6447  -2.6374  -2.5555  -2.4845
    -2.3625  -2.1937  -2.1360  -1.9975  -1.9882  -1.7176  -1.7036  -1.6784
    -1.6163  -1.4523  -1.3603  -1.3561  -1.1759  -1.1102  -0.8576  -0.8526
    -0.8169  -0.7773  -0.6499  -0.6266  -0.5819  -0.5286  -0.4428   1.4428
     1.4463   1.4583   1.4624   1.6726   1.7115   1.8182   1.9094   1.9242
     2.0008   2.0078   2.0383   2.2818   2.3309   2.4110   2.5207   2.5717
     2.5764   2.7652   2.8000   2.8176   2.8590   3.1205   3.1225   3.1319
     3.2112   3.2733   3.2841   3.3534   3.3562

     the Fermi energy is    -0.4172 ev

!    total energy              =   -2519.22661741 Ry
     estimated scf accuracy    <       0.00000059 Ry
     smearing contrib. (-TS)   =       0.00474572 Ry
     internal energy E=F+TS    =   -2519.23136314 Ry

     The total energy is F=E-TS. E is the sum of the following terms:
     one-electron contribution =  -26253.98409919 Ry
     hartree contribution      =   13175.95739670 Ry
     xc contribution           =    -409.90598222 Ry
     ewald contribution        =   11216.15600821 Ry
     one-center paw contrib.   =    -247.45468664 Ry

     convergence has been achieved in  45 iterations

     negative rho (up, down):  1.547E-02 0.000E+00

     Forces acting on atoms (cartesian axes, Ry/au):

     atom    1 type  2   force =    -0.00000594    0.00000000    0.11441617
     atom    2 type  2   force =     0.00082333    0.00000000   -0.12522905
     atom    3 type  2   force =     0.00003053    0.00000000    0.00996426
     atom    4 type  2   force =    -0.01875841    0.00000000    0.03225412
     atom    5 type  2   force =    -0.00215149    0.00000000   -0.12656182
     atom    6 type  2   force =    -0.00119327    0.00000000    0.11159615
     atom    7 type  3   force =    -0.00002177    0.00000000    0.04812555
     atom    8 type  3   force =     0.00001158    0.00000000    0.06484362
     atom    9 type  3   force =     0.00004521    0.06683757   -0.03425833
     atom   10 type  3   force =     0.00004521   -0.06683757   -0.03425833
     atom   11 type  3   force =     0.00356122    0.00000000   -0.05328618
     atom   12 type  3   force =    -0.00017803    0.00000000   -0.06559726
     atom   13 type  3   force =     0.00080463   -0.02034610   -0.00361331
     atom   14 type  3   force =     0.00080463    0.02034610   -0.00361331
     atom   15 type  3   force =    -0.00038364    0.00000000   -0.05915223
     atom   16 type  3   force =    -0.00109592    0.00000000   -0.05396162
     atom   17 type  3   force =     0.03554969    0.02471920    0.00309890
     atom   18 type  3   force =     0.03554969   -0.02471920    0.00309890
     atom   19 type  2   force =     0.00008092    0.00000000    0.11430488
     atom   20 type  2   force =    -0.00087654    0.00000000   -0.12532830
     atom   21 type  2   force =    -0.00009634    0.00000000    0.01252686
     atom   22 type  2   force =     0.01950468    0.00000000    0.03282046
     atom   23 type  2   force =    -0.01046149    0.00000000   -0.07076043
     atom   24 type  2   force =     0.00133580    0.00000000    0.11067247
     atom   25 type  3   force =     0.00006817    0.00000000    0.04646186
     atom   26 type  3   force =     0.00002575    0.00000000    0.06530123
     atom   27 type  3   force =    -0.00006713    0.06684469   -0.03427347
     atom   28 type  3   force =    -0.00006713   -0.06684469   -0.03427347
     atom   29 type  3   force =    -0.00094890    0.00000000    0.02362114
     atom   30 type  3   force =     0.00029819    0.00000000   -0.06366238
     atom   31 type  3   force =    -0.00079363   -0.02037057   -0.00367037
     atom   32 type  3   force =    -0.00079363    0.02037057   -0.00367037
     atom   33 type  3   force =     0.00152994    0.00000000   -0.05127474
     atom   34 type  3   force =     0.00017548    0.00000000   -0.05781693
     atom   35 type  3   force =    -0.03851687    0.02257396    0.00729558
     atom   36 type  3   force =    -0.03851687   -0.02257396    0.00729558
     atom   37 type  3   force =     0.00035727    0.00000000    0.29376224
     atom   38 type  3   force =     0.12893088    0.00000000   -0.10304005
     atom   39 type  1   force =    -0.11460582    0.00000000    0.00584198

     Total force =     0.448362     Total SCF correction =     0.001237

     BFGS Geometry Optimization
     Energy error            =      1.1E-01 Ry
     Gradient error          =      2.9E-01 Ry/Bohr

     number of scf cycles    =   1
     number of bfgs steps    =   0

     energy             new  =   -2519.2266174138 Ry

     new trust radius        =       0.2937624542 bohr
     new conv_thr            =       0.0000010000 Ry


ATOMIC_POSITIONS (angstrom)
Ti               0.0000000000        4.8723546300        9.7447092600    0   0   0
Ti               1.4793500000        1.6241182100        9.7447092600    0   0   0
Ti               0.0000161541        1.6241182100       12.9982185377
Ti               1.4694234796        4.8723546300       13.0100138246
Ti              -0.0011385175        4.8723546300       16.1742084667
Ti               1.4787185494        1.6241182100       16.3002362407
O                0.0000000000        1.6241182100       11.0129506900    0   0   0
O                0.0000000000        1.6241182100        8.4764678300    0   0   0
O                1.4793500000        3.6041132000        9.7447092600    0   0   0
O                1.4793500000        6.1405960600        9.7447092600    0   0   0
O                0.0018845183        4.8723546300       14.2329892786
O                0.0000000000        4.8723546300       11.7247042500    0   0   0
O                1.4797757945        0.3451100901       12.9910336003
O                1.4797757945        2.9031263299       12.9910336003
O               -0.0002030162        1.6241182100       17.4781215176
O               -0.0005799379        1.6241182100       14.9443854179
O                1.4981620840        3.6171940375       16.2428219679
O                1.4981620840        6.1275152225       16.2428219679
Ti               2.9587000000        4.8723546300        9.7447092600    0   0   0
Ti               4.4380500000        1.6241182100        9.7447092600    0   0   0
Ti               2.9586490194        1.6241182100       12.9995746066
Ti               4.4483714319        4.8723546300       13.0103135214
Ti               2.9531640176        4.8723546300       16.2037372923
Ti               4.4387568742        1.6241182100       16.2997474505
O                2.9587000000        1.6241182100       11.0129506900    0   0   0
O                2.9587000000        1.6241182100        8.4764678300    0   0   0
O                4.4380500000        3.6041132000        9.7447092600    0   0   0
O                4.4380500000        6.1405960600        9.7447092600    0   0   0
O                2.9581978646        4.8723546300       14.2736868798
O                2.9587000000        4.8723546300       11.7247042500    0   0   0
O                4.4376300297        0.3450971376       12.9910034035
O                4.4376300297        2.9031392824       12.9910034035
O                2.9595096079        1.6241182100       17.4822901062
O                2.9587928625        1.6241182100       14.9423452771
O                4.4176677515        3.6160588264       16.2450427553
O                4.4176677515        6.1286504336       16.2450427553
O                0.0001890588        4.8723546300       18.0966343812
O                1.1682272841        4.8723546300       18.7866556512
H                1.3393532096        4.8723546300       19.7942735401



     Writing config-only to output data dir ./tmp_s0_OOH__2x1v_mir/s0_OOH__2x1v_mir.save/ :
     XML data file
     NEW-OLD atomic charge density approx. for the potential

     Check: negative core charge=   -0.000001

     negative rho (up, down):  1.596E-02 0.000E+00

     total cpu time spent up to now is      429.2 secs

     per-process dynamical memory:   247.2 Mb

     Self-consistent Calculation

     iteration #  1     ecut=    80.00 Ry     beta= 0.30
     Davidson diagonalization with overlap
     c_bands:  2 eigenvalues not converged
     ethr =  1.00E-06,  avg # of iterations = 19.7

     negative rho (up, down):  1.561E-02 0.000E+00

     total cpu time spent up to now is      455.2 secs

     total energy              =   -2519.38422842 Ry
     estimated scf accuracy    <       0.29939458 Ry

     iteration #  2     ecut=    80.00 Ry     beta= 0.30
     Davidson diagonalization with overlap
     ethr =  9.95E-05,  avg # of iterations =  2.0

     negative rho (up, down):  1.534E-02 0.000E+00

     total cpu time spent up to now is      464.1 secs

     total energy              =   -2519.37306813 Ry
     estimated scf accuracy    <       0.05661158 Ry

     iteration #  3     ecut=    80.00 Ry     beta= 0.30
     Davidson diagonalization with overlap
     ethr =  1.88E-05,  avg # of iterations =  7.4

     negative rho (up, down):  1.528E-02 0.000E+00

     total cpu time spent up to now is      475.2 secs

     total energy              =   -2519.37333571 Ry
     estimated scf accuracy    <       0.06692480 Ry

     iteration #  4     ecut=    80.00 Ry     beta= 0.30
     Davidson diagonalization with overlap
     ethr =  1.88E-05,  avg # of iterations =  1.7

     negative rho (up, down):  1.514E-02 0.000E+00

     total cpu time spent up to now is      483.2 secs

     total energy              =   -2519.37183629 Ry
     estimated scf accuracy    <       0.01778712 Ry

     iteration #  5     ecut=    80.00 Ry     beta= 0.30
     Davidson diagonalization with overlap
     ethr =  5.91E-06,  avg # of iterations =  7.1

     negative rho (up, down):  1.509E-02 0.000E+00

     total cpu time spent up to now is      491.8 secs

     total energy              =   -2519.37052757 Ry
     estimated scf accuracy    <       0.07560993 Ry

     iteration #  6     ecut=    80.00 Ry     beta= 0.30
     Davidson diagonalization with overlap
     ethr =  5.91E-06,  avg # of iterations =  3.1

     negative rho (up, down):  1.509E-02 0.000E+00

     total cpu time spent up to now is      499.9 secs

     total energy              =   -2519.37188709 Ry
     estimated scf accuracy    <       0.00246341 Ry

     iteration #  7     ecut=    80.00 Ry     beta= 0.30
     Davidson diagonalization with overlap
     ethr =  8.18E-07,  avg # of iterations =  8.0

     negative rho (up, down):  1.510E-02 0.000E+00

     total cpu time spent up to now is      510.0 secs

     total energy              =   -2519.37199476 Ry
     estimated scf accuracy    <       0.00185849 Ry

     iteration #  8     ecut=    80.00 Ry     beta= 0.30
     Davidson diagonalization with overlap
     ethr =  6.17E-07,  avg # of iterations =  1.0

     negative rho (up, down):  1.510E-02 0.000E+00

     total cpu time spent up to now is      517.4 secs

     total energy              =   -2519.37196740 Ry
     estimated scf accuracy    <       0.00150381 Ry

     iteration #  9     ecut=    80.00 Ry     beta= 0.30
     Davidson diagonalization with overlap
     ethr =  5.00E-07,  avg # of iterations =  1.1

     negative rho (up, down):  1.510E-02 0.000E+00

     total cpu time spent up to now is      525.3 secs

     total energy              =   -2519.37196918 Ry
     estimated scf accuracy    <       0.00097300 Ry

     iteration # 10     ecut=    80.00 Ry     beta= 0.30
     Davidson diagonalization with overlap
     ethr =  3.23E-07,  avg # of iterations =  1.0

     negative rho (up, down):  1.509E-02 0.000E+00

     total cpu time spent up to now is      532.1 secs

     total energy              =   -2519.37197180 Ry
     estimated scf accuracy    <       0.00031798 Ry

     iteration # 11     ecut=    80.00 Ry     beta= 0.30
     Davidson diagonalization with overlap
     ethr =  1.06E-07,  avg # of iterations =  2.6

     negative rho (up, down):  1.510E-02 0.000E+00

     total cpu time spent up to now is      539.9 secs

     total energy              =   -2519.37198167 Ry
     estimated scf accuracy    <       0.00005200 Ry

     iteration # 12     ecut=    80.00 Ry     beta= 0.30
     Davidson diagonalization with overlap
     ethr =  1.73E-08,  avg # of iterations =  2.0

     negative rho (up, down):  1.512E-02 0.000E+00

     total cpu time spent up to now is      547.9 secs

     total energy              =   -2519.37199125 Ry
     estimated scf accuracy    <       0.00003251 Ry

     iteration # 13     ecut=    80.00 Ry     beta= 0.30
     Davidson diagonalization with overlap
     ethr =  1.08E-08,  avg # of iterations =  2.0

     negative rho (up, down):  1.514E-02 0.000E+00

     total cpu time spent up to now is      555.7 secs

     total energy              =   -2519.37199521 Ry
     estimated scf accuracy    <       0.00000520 Ry

     iteration # 14     ecut=    80.00 Ry     beta= 0.30
     Davidson diagonalization with overlap
     ethr =  1.73E-09,  avg # of iterations =  4.2

     negative rho (up, down):  1.516E-02 0.000E+00

     total cpu time spent up to now is      563.6 secs

     total energy              =   -2519.37199733 Ry
     estimated scf accuracy    <       0.00000318 Ry

     iteration # 15     ecut=    80.00 Ry     beta= 0.30
     Davidson diagonalization with overlap
     ethr =  1.06E-09,  avg # of iterations =  2.0

     negative rho (up, down):  1.523E-02 0.000E+00

     total cpu time spent up to now is      573.4 secs

     total energy              =   -2519.37199839 Ry
     estimated scf accuracy    <       0.00000182 Ry

     iteration # 16     ecut=    80.00 Ry     beta= 0.30
     Davidson diagonalization with overlap
     ethr =  6.04E-10,  avg # of iterations =  2.0

     negative rho (up, down):  1.529E-02 0.000E+00

     total cpu time spent up to now is      580.5 secs

     total energy              =   -2519.37199864 Ry
     estimated scf accuracy    <       0.00000115 Ry

     iteration # 17     ecut=    80.00 Ry     beta= 0.30
     Davidson diagonalization with overlap
     ethr =  3.80E-10,  avg # of iterations =  1.9

     negative rho (up, down):  1.535E-02 0.000E+00

     total cpu time spent up to now is      588.6 secs

     total energy              =   -2519.37199864 Ry
     estimated scf accuracy    <       0.00000100 Ry

     iteration # 18     ecut=    80.00 Ry     beta= 0.30
     Davidson diagonalization with overlap
     ethr =  3.32E-10,  avg # of iterations =  1.0

     negative rho (up, down):  1.542E-02 0.000E+00

     total cpu time spent up to now is      594.8 secs

     End of self-consistent calculation

          k = 0.0000 0.0000 0.0000 ( 81491 PWs)   bands (ev):

   -58.0295 -57.9875 -57.5403 -57.4987 -57.4227 -57.1719 -57.0414 -56.9995
   -56.4751 -56.4346 -56.3173 -56.2763 -34.5241 -34.3252 -34.2911 -34.2519
   -34.1499 -34.1414 -34.0772 -33.8866 -33.8531 -33.7402 -33.7298 -33.7275
   -33.6944 -33.6768 -33.6428 -33.6236 -33.5032 -33.3803 -33.3777 -33.3272
   -33.2387 -33.2276 -33.1925 -33.1769 -32.9592 -32.8501 -32.8249 -32.8212
   -32.7203 -32.6480 -32.6212 -32.6162 -32.5829 -32.5076 -32.4778 -32.3616
   -23.5245 -18.6920 -18.4223 -18.0229 -17.8673 -17.8523 -17.7432 -17.5535
   -17.4065 -17.3082 -17.2643 -17.2272 -17.2072 -17.1126 -17.0847 -17.0196
   -16.9000 -16.8353 -16.7673 -16.6946 -16.5065 -16.2385 -15.6382 -15.5693
   -15.4686 -15.3944  -8.7352  -6.3382  -6.2516  -5.9818  -5.8760  -5.8105
    -5.5401  -5.4236  -5.1087  -5.0792  -5.0690  -5.0577  -4.8897  -4.7806
    -4.7681  -4.7463  -4.6624  -4.6134  -4.6123  -4.5420  -4.4209  -4.3510
    -4.3163  -4.2880  -4.1547  -4.1470  -4.0809  -4.0721  -3.9261  -3.8154
    -3.6011  -3.5593  -3.4721  -3.3912  -3.1804  -3.1778  -3.1378  -3.0271
    -3.0238  -2.9817  -2.9751  -2.7905  -2.7639  -2.6101  -2.5788  -2.5715
    -2.5086  -2.4738  -2.4007  -2.3435  -2.3368  -2.1852  -2.0839  -2.0057
    -1.8919  -1.8756  -1.8537  -1.6550  -1.6257  -1.6059  -1.4776  -1.3585
    -1.3493  -1.2695  -1.2089  -1.0749  -1.0738  -1.0388  -0.8007  -0.6752
    -0.6152  -0.5257  -0.5201  -0.5196  -0.4881  -0.4121  -0.3317   1.0238
     1.1605   1.3442   1.4484   1.6324   1.7538   1.8978   1.9093   2.0163
     2.0684   2.1426   2.1495   2.1959   2.4772   2.4892   2.6260   2.6521
     2.6560   2.7061   2.7534   2.7742   2.8499   2.9050   2.9153   2.9759
     3.0003   3.0554   3.1033   3.1968   3.2602

          k = 0.0000 0.2277 0.0000 ( 81407 PWs)   bands (ev):

   -58.0295 -57.9875 -57.5403 -57.4987 -57.4227 -57.1719 -57.0414 -56.9995
   -56.4751 -56.4346 -56.3173 -56.2763 -34.5252 -34.3252 -34.2911 -34.2496
   -34.1502 -34.1416 -34.0772 -33.8879 -33.8531 -33.7402 -33.7275 -33.7213
   -33.7025 -33.6944 -33.6405 -33.5971 -33.5032 -33.3794 -33.3778 -33.3367
   -33.2384 -33.2276 -33.1924 -33.1770 -32.9589 -32.8534 -32.8244 -32.8195
   -32.7203 -32.6525 -32.6191 -32.6162 -32.5829 -32.5076 -32.4778 -32.3616
   -23.5245 -18.6068 -18.3323 -17.9168 -17.9066 -17.8656 -17.8556 -17.4315
   -17.4226 -17.4058 -17.4024 -17.3654 -17.2984 -17.0703 -16.9916 -16.9016
   -16.8828 -16.8668 -16.8520 -16.6718 -16.5075 -16.2374 -15.6353 -15.5696
   -15.4662 -15.3940  -8.7352  -6.2434  -6.0380  -5.9468  -5.6247  -5.5637
    -5.5209  -5.4780  -5.3701  -5.3469  -5.0066  -4.9757  -4.9011  -4.7636
    -4.7410  -4.7295  -4.6620  -4.6033  -4.5453  -4.5166  -4.3201  -4.2768
    -4.2243  -4.2025  -4.1142  -4.1115  -4.0988  -3.9029  -3.7532  -3.7034
    -3.6337  -3.6310  -3.3888  -3.3849  -3.3207  -3.2892  -3.1793  -3.1696
    -3.1436  -2.9986  -2.9857  -2.9287  -2.8192  -2.7372  -2.6526  -2.6463
    -2.5601  -2.4517  -2.3704  -2.3387  -2.2542  -2.1971  -2.1293  -2.0329
    -1.9148  -1.8671  -1.8413  -1.8193  -1.7439  -1.7191  -1.5420  -1.3959
    -1.3864  -1.3460  -1.3038  -1.0721  -1.0588  -1.0543  -0.8455  -0.7798
    -0.7401  -0.6570  -0.5869  -0.5771  -0.5674  -0.4684  -0.3880   1.1016
     1.1438   1.4464   1.4840   1.6868   1.8761   1.9130   1.9589   2.0213
     2.0361   2.1358   2.1587   2.1698   2.2919   2.4274   2.4740   2.6837
     2.7117   2.7316   2.7491   2.8733   2.9219   2.9766   2.9782   3.0483
     3.1492   3.2214   3.2834   3.3418   3.4190

          k = 0.0000-0.4554 0.0000 ( 81286 PWs)   bands (ev):

   -58.0295 -57.9875 -57.5402 -57.4987 -57.4227 -57.1719 -57.0415 -56.9995
   -56.4751 -56.4346 -56.3173 -56.2763 -34.5262 -34.3252 -34.2911 -34.2473
   -34.1504 -34.1418 -34.0772 -33.8893 -33.8530 -33.7402 -33.7275 -33.7197
   -33.7118 -33.6943 -33.6382 -33.5798 -33.5032 -33.3785 -33.3778 -33.3466
   -33.2381 -33.2277 -33.1924 -33.1771 -32.9587 -32.8567 -32.8240 -32.8177
   -32.7203 -32.6570 -32.6170 -32.6162 -32.5829 -32.5076 -32.4778 -32.3617
   -23.5244 -18.5076 -18.1994 -17.9995 -17.8860 -17.8621 -17.7653 -17.6063
   -17.5070 -17.4960 -17.4000 -17.2856 -17.2778 -17.2242 -16.9970 -16.9886
   -16.9046 -16.7799 -16.7685 -16.6551 -16.5085 -16.2363 -15.6328 -15.5700
   -15.4640 -15.3936  -8.7352  -6.2323  -5.9539  -5.6430  -5.6219  -5.5522
    -5.5197  -5.3520  -5.2253  -5.2222  -5.1316  -4.8919  -4.7839  -4.7676
    -4.6885  -4.6639  -4.6538  -4.6249  -4.5385  -4.4326  -4.3261  -4.2933
    -4.2454  -4.1154  -4.0740  -4.0540  -3.9448  -3.9062  -3.7102  -3.6968
    -3.6242  -3.5704  -3.5652  -3.5310  -3.4618  -3.3856  -3.2428  -3.1866
    -3.1775  -3.0912  -3.0124  -2.9700  -2.9195  -2.7228  -2.6785  -2.6292
    -2.5800  -2.5582  -2.4578  -2.4319  -2.3630  -2.2579  -2.1782  -2.1109
    -2.0829  -1.9812  -1.9226  -1.8076  -1.6003  -1.5501  -1.5364  -1.5131
    -1.4302  -1.3092  -1.2817  -1.1772  -1.0561  -1.0404  -0.9079  -0.8823
    -0.8701  -0.6591  -0.6373  -0.6303  -0.6005  -0.4905  -0.4625   1.0380
     1.1822   1.4330   1.4527   1.5799   1.6186   1.9195   1.9432   2.0519
     2.1392   2.2013   2.2479   2.2817   2.3587   2.4258   2.4730   2.7144
     2.7413   2.7497   2.8387   2.8971   2.9503   2.9854   3.0534   3.2268
     3.2450   3.3003   3.4100   3.4305   3.4353

          k = 0.2500 0.0000 0.0000 ( 81478 PWs)   bands (ev):

   -58.0241 -57.9930 -57.5344 -57.5046 -57.4219 -57.1728 -57.0359 -57.0051
   -56.4692 -56.4405 -56.3113 -56.2823 -34.4608 -34.3209 -34.2928 -34.2361
   -34.1576 -34.1448 -34.0884 -33.8392 -33.8292 -33.7660 -33.7536 -33.7260
   -33.7219 -33.6842 -33.6365 -33.5603 -33.5061 -33.4363 -33.3872 -33.3150
   -33.2518 -33.2445 -33.2223 -33.1959 -32.8961 -32.8459 -32.8254 -32.7602
   -32.7053 -32.6441 -32.6317 -32.6248 -32.5765 -32.5686 -32.4930 -32.4309
   -23.5243 -18.5412 -18.2879 -17.8928 -17.8251 -17.7496 -17.7203 -17.6684
   -17.5463 -17.3741 -17.3034 -17.1970 -17.1909 -17.1637 -17.1359 -17.0369
   -16.8698 -16.8373 -16.7712 -16.7375 -16.4916 -16.2382 -15.6766 -15.6389
   -15.4999 -15.4526  -8.7328  -6.1888  -6.1264  -5.8301  -5.7047  -5.6309
    -5.3919  -5.3073  -5.1576  -5.1259  -5.0627  -5.0251  -4.9132  -4.9081
    -4.8073  -4.7970  -4.7672  -4.7145  -4.6860  -4.6562  -4.5613  -4.3892
    -4.3686  -4.3248  -4.3151  -4.1283  -3.9167  -3.8808  -3.8535  -3.7512
    -3.5501  -3.5486  -3.3110  -3.2679  -3.2125  -3.0905  -3.0817  -2.9887
    -2.9394  -2.9344  -2.8819  -2.8438  -2.7247  -2.6799  -2.6444  -2.5919
    -2.5464  -2.4891  -2.3937  -2.3139  -2.2433  -2.1275  -2.1174  -1.9944
    -1.9792  -1.9590  -1.9512  -1.9090  -1.8917  -1.5841  -1.5832  -1.5273
    -1.4995  -1.3290  -1.3049  -1.2343  -1.1600  -0.9323  -0.9142  -0.8535
    -0.7259  -0.6836  -0.6386  -0.5330  -0.5063  -0.3716  -0.3656   1.2315
     1.3019   1.4441   1.6395   1.8283   1.8898   1.9204   1.9406   1.9681
     2.0425   2.0866   2.1585   2.2379   2.3019   2.4802   2.5943   2.6368
     2.6687   2.7031   2.8222   2.8267   2.8267   2.9185   2.9478   3.0837
     3.1099   3.1611   3.1961   3.2048   3.3894

          k = 0.2500 0.2277 0.0000 ( 81485 PWs)   bands (ev):

   -58.0241 -57.9930 -57.5344 -57.5046 -57.4219 -57.1728 -57.0359 -57.0051
   -56.4692 -56.4405 -56.3113 -56.2823 -34.4618 -34.3209 -34.2928 -34.2342
   -34.1574 -34.1451 -34.0886 -33.8393 -33.8303 -33.7661 -33.7536 -33.7260
   -33.7154 -33.6959 -33.6346 -33.5469 -33.5062 -33.4367 -33.3858 -33.3230
   -33.2529 -33.2437 -33.2224 -33.1959 -32.8959 -32.8483 -32.8244 -32.7598
   -32.7053 -32.6475 -32.6317 -32.6237 -32.5765 -32.5686 -32.4930 -32.4309
   -23.5243 -18.4605 -18.2063 -17.8747 -17.8053 -17.7938 -17.7386 -17.6350
   -17.4643 -17.4594 -17.3649 -17.3528 -17.3071 -17.0481 -17.0431 -16.9967
   -16.9614 -16.9070 -16.8362 -16.6617 -16.4925 -16.2369 -15.6742 -15.6403
   -15.4981 -15.4530  -8.7328  -6.1748  -5.8533  -5.8002  -5.4473  -5.3681
    -5.3496  -5.3049  -5.2531  -5.1287  -5.0829  -4.9838  -4.9067  -4.8614
    -4.8298  -4.7728  -4.7241  -4.6622  -4.6059  -4.5780  -4.5513  -4.4242
    -4.3944  -4.3160  -4.1193  -4.0639  -3.9108  -3.8330  -3.8019  -3.7637
    -3.5937  -3.4001  -3.3476  -3.3155  -3.3017  -3.2064  -3.1718  -3.0913
    -3.0603  -2.9813  -2.9325  -2.8859  -2.8618  -2.7728  -2.7059  -2.6482
    -2.5971  -2.5798  -2.5237  -2.4041  -2.3721  -2.3354  -2.1964  -2.1443
    -2.1280  -2.0746  -1.9335  -1.8083  -1.7622  -1.7031  -1.5861  -1.5198
    -1.4233  -1.4155  -1.3429  -1.2334  -1.2270  -0.9324  -0.9045  -0.8279
    -0.7571  -0.7182  -0.6364  -0.5930  -0.5706  -0.4080  -0.3682   1.2140
     1.3559   1.5705   1.6996   1.7727   1.8418   1.9491   2.0228   2.0877
     2.1224   2.1663   2.2507   2.2751   2.3038   2.3374   2.5557   2.6417
     2.6809   2.7392   2.8430   2.8916   2.9175   2.9633   3.0159   3.1771
     3.2249   3.2497   3.2879   3.3675   3.4424

          k = 0.2500-0.4554 0.0000 ( 81408 PWs)   bands (ev):

   -58.0241 -57.9930 -57.5343 -57.5046 -57.4219 -57.1728 -57.0359 -57.0051
   -56.4692 -56.4405 -56.3114 -56.2823 -34.4627 -34.3208 -34.2928 -34.2323
   -34.1572 -34.1453 -34.0888 -33.8394 -33.8314 -33.7661 -33.7536 -33.7260
   -33.7095 -33.7050 -33.6326 -33.5351 -33.5062 -33.4372 -33.3844 -33.3311
   -33.2539 -33.2431 -33.2224 -33.1959 -32.8957 -32.8508 -32.8233 -32.7595
   -32.7053 -32.6509 -32.6317 -32.6225 -32.5765 -32.5687 -32.4930 -32.4309
   -23.5242 -18.3662 -18.0754 -17.9375 -17.8062 -17.7925 -17.6634 -17.6285
   -17.5926 -17.4361 -17.4008 -17.3573 -17.3326 -17.2046 -17.0530 -17.0214
   -16.9595 -16.9193 -16.7984 -16.6376 -16.4932 -16.2357 -15.6722 -15.6416
   -15.4963 -15.4534  -8.7328  -6.1687  -5.8193  -5.4196  -5.3316  -5.3078
    -5.2619  -5.2096  -5.0689  -5.0325  -4.9987  -4.9413  -4.9172  -4.8830
    -4.8364  -4.8109  -4.7178  -4.6859  -4.5816  -4.4806  -4.4459  -4.3841
    -4.3071  -4.1283  -4.0485  -4.0226  -3.9615  -3.8481  -3.7862  -3.6508
    -3.6489  -3.5428  -3.4242  -3.4199  -3.3258  -3.2566  -3.2348  -3.2032
    -3.1456  -3.0987  -3.0819  -3.0557  -2.9633  -2.8833  -2.8363  -2.8069
    -2.6933  -2.6623  -2.5943  -2.5336  -2.4712  -2.4614  -2.3828  -2.3523
    -2.2147  -2.1750  -1.9139  -1.6578  -1.6155  -1.6078  -1.5570  -1.5042
    -1.4354  -1.4216  -1.3367  -1.2954  -1.1621  -0.9130  -0.8699  -0.8321
    -0.8045  -0.7216  -0.6808  -0.6732  -0.5977  -0.4343  -0.3685   1.2234
     1.3677   1.5552   1.6015   1.6780   1.8247   1.9994   2.0731   2.0871
     2.1420   2.1888   2.2667   2.3151   2.4166   2.5228   2.5751   2.6845
     2.7542   2.8085   2.8472   2.9440   2.9651   3.0519   3.1234   3.2326
     3.2941   3.3128   3.4378   3.4671   3.4911

          k =-0.5000 0.0000 0.0000 ( 81532 PWs)   bands (ev):

   -58.0150 -58.0022 -57.5226 -57.5164 -57.4211 -57.1737 -57.0263 -57.0148
   -56.4552 -56.4545 -56.2973 -56.2964 -34.3148 -34.3101 -34.2999 -34.2972
   -34.2028 -34.1914 -33.9491 -33.9138 -33.8008 -33.7929 -33.7390 -33.7263
   -33.7053 -33.7003 -33.6299 -33.5454 -33.4888 -33.4092 -33.3999 -33.3946
   -33.2897 -33.2780 -33.2136 -33.2032 -32.8359 -32.8353 -32.7395 -32.7386
   -32.6690 -32.6684 -32.6369 -32.6319 -32.6033 -32.6013 -32.5285 -32.5253
   -23.5241 -18.1766 -18.1487 -17.9814 -17.9470 -17.6607 -17.6235 -17.4867
   -17.4864 -17.4802 -17.4696 -17.4422 -17.4237 -17.0379 -16.9985 -16.9699
   -16.9309 -16.9144 -16.8943 -16.5595 -16.5455 -16.2380 -15.7224 -15.7128
   -15.5255 -15.5208  -8.7303  -6.1413  -5.6281  -5.6278  -5.3685  -5.3650
    -5.3499  -5.2784  -5.2653  -5.2449  -5.1948  -5.1717  -5.1477  -5.0720
    -5.0076  -4.9465  -4.9080  -4.5888  -4.5570  -4.5188  -4.5113  -4.3601
    -4.3000  -4.2530  -4.2360  -4.2056  -4.1994  -3.7967  -3.7930  -3.4820
    -3.4425  -3.3916  -3.3502  -3.3023  -3.2864  -3.1817  -3.1386  -3.0620
    -3.0267  -2.9161  -2.8933  -2.7367  -2.6845  -2.6552  -2.5772  -2.4253
    -2.4086  -2.3746  -2.3290  -2.2772  -2.2696  -2.2145  -2.1656  -2.1418
    -2.1344  -2.0708  -2.0498  -2.0216  -2.0168  -1.8475  -1.7652  -1.5456
    -1.5129  -1.4918  -1.4905  -1.4641  -1.2110  -1.1943  -0.8526  -0.8450
    -0.6723  -0.6221  -0.5813  -0.5720  -0.4937  -0.4931  -0.4323   1.4972
     1.5121   1.6477   1.6663   1.7849   1.7915   1.8787   1.9042   1.9970
     2.0858   2.2364   2.3037   2.3982   2.4002   2.4043   2.4247   2.5198
     2.5421   2.7142   2.7793   2.8229   2.9627   2.9663   2.9946   3.0058
     3.0682   3.2826   3.2956   3.4361   3.5229

          k =-0.5000 0.2277 0.0000 ( 81508 PWs)   bands (ev):

   -58.0150 -58.0022 -57.5226 -57.5164 -57.4211 -57.1736 -57.0263 -57.0148
   -56.4552 -56.4545 -56.2973 -56.2964 -34.3148 -34.3107 -34.3006 -34.2972
   -34.2017 -34.1903 -33.9493 -33.9140 -33.8008 -33.7929 -33.7398 -33.7263
   -33.7045 -33.6998 -33.6283 -33.5463 -33.4890 -33.4055 -33.3964 -33.3926
   -33.2941 -33.2821 -33.2136 -33.2032 -32.8366 -32.8359 -32.7394 -32.7385
   -32.6690 -32.6684 -32.6379 -32.6330 -32.6031 -32.6011 -32.5285 -32.5253
   -23.5241 -18.1182 -18.0810 -17.9391 -17.9043 -17.6686 -17.6301 -17.5584
   -17.5445 -17.4546 -17.4329 -17.3986 -17.3727 -17.1215 -17.0954 -17.0663
   -17.0225 -16.8838 -16.8653 -16.5511 -16.5397 -16.2367 -15.7215 -15.7133
   -15.5253 -15.5206  -8.7303  -6.1371  -5.4121  -5.4053  -5.3561  -5.3436
    -5.3412  -5.1633  -5.1449  -5.0587  -5.0370  -5.0249  -5.0105  -4.9211
    -4.8821  -4.8319  -4.8147  -4.6001  -4.5899  -4.4899  -4.4760  -4.4164
    -4.3989  -4.3408  -4.2739  -4.0053  -4.0045  -3.9144  -3.8627  -3.6389
    -3.6361  -3.5642  -3.5220  -3.4010  -3.3258  -3.2676  -3.2329  -3.0879
    -3.0541  -2.9511  -2.9199  -2.8426  -2.7824  -2.7258  -2.7071  -2.6071
    -2.5576  -2.5266  -2.4971  -2.4754  -2.4324  -2.3448  -2.3208  -2.2861
    -2.2302  -2.1517  -2.1153  -1.9295  -1.9126  -1.8222  -1.7799  -1.5534
    -1.4727  -1.4437  -1.3862  -1.3690  -1.0911  -1.0873  -0.8508  -0.8351
    -0.7099  -0.6718  -0.6325  -0.6282  -0.4910  -0.4721  -0.3993   1.5311
     1.5404   1.6826   1.6983   1.8844   1.9005   1.9630   1.9749   1.9848
     2.0692   2.2694   2.3255   2.4073   2.4336   2.6007   2.6275   2.6457
     2.6692   2.6754   2.7067   2.7513   2.9968   3.0190   3.0338   3.1778
     3.2163   3.2839   3.3133   3.4463   3.5314

          k =-0.5000-0.4554 0.0000 ( 81484 PWs)   bands (ev):

   -58.0150 -58.0022 -57.5226 -57.5164 -57.4211 -57.1736 -57.0263 -57.0148
   -56.4552 -56.4545 -56.2973 -56.2964 -34.3148 -34.3114 -34.3012 -34.2972
   -34.2007 -34.1892 -33.9494 -33.9142 -33.8008 -33.7929 -33.7406 -33.7264
   -33.7038 -33.6993 -33.6267 -33.5472 -33.4892 -33.4014 -33.3925 -33.3906
   -33.2988 -33.2865 -33.2136 -33.2032 -32.8372 -32.8366 -32.7393 -32.7384
   -32.6690 -32.6684 -32.6389 -32.6340 -32.6030 -32.6010 -32.5284 -32.5253
   -23.5240 -18.0463 -17.9818 -17.8229 -17.8059 -17.8047 -17.7915 -17.5790
   -17.5234 -17.4019 -17.3822 -17.2780 -17.2711 -17.2196 -17.2154 -17.2026
   -17.1908 -16.8709 -16.8516 -16.5447 -16.5348 -16.2354 -15.7208 -15.7137
   -15.5251 -15.5204  -8.7303  -6.1344  -5.3803  -5.3565  -5.3170  -5.1683
    -5.1469  -5.0567  -5.0544  -4.8644  -4.8631  -4.7899  -4.7364  -4.6385
    -4.6133  -4.6046  -4.5941  -4.5741  -4.5551  -4.5363  -4.5001  -4.3585
    -4.3493  -4.3317  -4.3097  -4.2830  -4.2103  -4.0221  -3.9952  -3.9027
    -3.8483  -3.6274  -3.5257  -3.4946  -3.4797  -3.3180  -3.2695  -3.0910
    -3.0842  -3.0802  -3.0298  -3.0225  -3.0004  -2.8765  -2.7992  -2.7540
    -2.7327  -2.6709  -2.6233  -2.5959  -2.5841  -2.5749  -2.4920  -2.4851
    -2.3695  -2.1605  -2.1515  -1.8903  -1.8699  -1.6382  -1.6270  -1.5658
    -1.4560  -1.4014  -1.2926  -1.2623  -0.9761  -0.9611  -0.8509  -0.8166
    -0.7525  -0.7292  -0.6702  -0.6693  -0.4927  -0.4647  -0.3692   1.6378
     1.6479   1.6489   1.6595   1.8349   1.9088   1.9672   2.1063   2.1336
     2.1379   2.1734   2.2253   2.4080   2.4323   2.5756   2.6881   2.7361
     2.7854   2.8035   2.9258   2.9880   3.0474   3.0660   3.0923   3.2715
     3.3199   3.3603   3.4148   3.4667   3.5374

     the Fermi energy is    -0.3585 ev

!    total energy              =   -2519.37199823 Ry
     estimated scf accuracy    <       0.00000036 Ry
     smearing contrib. (-TS)   =       0.00484431 Ry
     internal energy E=F+TS    =   -2519.37684254 Ry

     The total energy is F=E-TS. E is the sum of the following terms:
     one-electron contribution =  -26240.88311433 Ry
     hartree contribution      =   13170.41823019 Ry
     xc contribution           =    -409.90468975 Ry
     ewald contribution        =   11208.44979373 Ry
     one-center paw contrib.   =    -247.45706238 Ry

     convergence has been achieved in  18 iterations

     negative rho (up, down):  1.542E-02 0.000E+00

     Forces acting on atoms (cartesian axes, Ry/au):

     atom    1 type  2   force =    -0.00002883    0.00000000    0.11379310
     atom    2 type  2   force =     0.00160349    0.00000000   -0.12190049
     atom    3 type  2   force =    -0.00012764    0.00000000    0.02184560
     atom    4 type  2   force =     0.00979600    0.00000000   -0.00554648
     atom    5 type  2   force =     0.00635582    0.00000000   -0.00316061
     atom    6 type  2   force =    -0.00187885    0.00000000    0.07126648
     atom    7 type  3   force =     0.00001855    0.00000000    0.04106472
     atom    8 type  3   force =     0.00003306    0.00000000    0.06553635
     atom    9 type  3   force =    -0.00087959    0.06736461   -0.03432647
     atom   10 type  3   force =    -0.00087959   -0.06736461   -0.03432647
     atom   11 type  3   force =     0.00060478    0.00000000   -0.00444722
     atom   12 type  3   force =    -0.00018666    0.00000000   -0.05864467
     atom   13 type  3   force =     0.00016374   -0.01624538   -0.00388253
     atom   14 type  3   force =     0.00016374    0.01624538   -0.00388253
     atom   15 type  3   force =     0.00004510    0.00000000   -0.03696781
     atom   16 type  3   force =    -0.00071913    0.00000000   -0.03301842
     atom   17 type  3   force =     0.00484347    0.02394776    0.00522372
     atom   18 type  3   force =     0.00484347   -0.02394776    0.00522372
     atom   19 type  2   force =     0.00006814    0.00000000    0.11932213
     atom   20 type  2   force =    -0.00170180    0.00000000   -0.12204384
     atom   21 type  2   force =    -0.00002162    0.00000000    0.02042690
     atom   22 type  2   force =    -0.00924324    0.00000000   -0.00472973
     atom   23 type  2   force =    -0.00884559    0.00000000   -0.06151270
     atom   24 type  2   force =     0.00178892    0.00000000    0.07116524
     atom   25 type  3   force =     0.00011002    0.00000000    0.03884698
     atom   26 type  3   force =     0.00004475    0.00000000    0.06588447
     atom   27 type  3   force =     0.00087995    0.06738628   -0.03432950
     atom   28 type  3   force =     0.00087995   -0.06738628   -0.03432950
     atom   29 type  3   force =     0.00040443    0.00000000    0.01225195
     atom   30 type  3   force =     0.00040097    0.00000000   -0.05431567
     atom   31 type  3   force =    -0.00006996   -0.01647896   -0.00394691
     atom   32 type  3   force =    -0.00006996    0.01647896   -0.00394691
     atom   33 type  3   force =     0.00012796    0.00000000   -0.03199424
     atom   34 type  3   force =     0.00095439    0.00000000   -0.03432370
     atom   35 type  3   force =    -0.00461473    0.02580143    0.01275041
     atom   36 type  3   force =    -0.00461473   -0.02580143    0.01275041
     atom   37 type  3   force =    -0.03290721    0.00000000    0.11046649
     atom   38 type  3   force =     0.12683365    0.00000000   -0.01931910
     atom   39 type  1   force =    -0.09417520    0.00000000   -0.04292318

     Total force =     0.254085     Total SCF correction =     0.002397
     Energy error            =      1.5E-01 Ry
     Gradient error          =      1.3E-01 Ry/Bohr

     number of scf cycles    =   2
     number of bfgs steps    =   1

     energy             old  =   -2519.2266174138 Ry
     energy             new  =   -2519.3719982283 Ry

     CASE: energy            _new < energy            _old

     new trust radius        =       0.3192792033 bohr
     new conv_thr            =       0.0000006342 Ry


ATOMIC_POSITIONS (angstrom)
Ti               0.0000000000        4.8723546300        9.7447092600    0   0   0
Ti               1.4793500000        1.6241182100        9.7447092600    0   0   0
Ti              -0.0001056052        1.6241182100       13.0219213655
Ti               1.4756736024        4.8723546300       13.0105533062
Ti               0.0048055231        4.8723546300       16.1471914044
Ti               1.4766165695        1.6241182100       16.3924716117
O                0.0000000000        1.6241182100       11.0129506900    0   0   0
O                0.0000000000        1.6241182100        8.4764678300    0   0   0
O                1.4793500000        3.6041132000        9.7447092600    0   0   0
O                1.4793500000        6.1405960600        9.7447092600    0   0   0
O                0.0031600755        4.8723546300       14.2185008317
O                0.0000000000        4.8723546300       11.7247042500    0   0   0
O                1.4800910613        0.3250448478       12.9864736667
O                1.4800910613        2.9231915722       12.9864736667
O               -0.0002302854        1.6241182100       17.4300382321
O               -0.0015049716        1.6241182100       14.9012262214
O                1.5097026975        3.6457785902       16.2486248157
O                1.5097026975        6.0989306698       16.2486248157
Ti               2.9587000000        4.8723546300        9.7447092600    0   0   0
Ti               4.4380500000        1.6241182100        9.7447092600    0   0   0
Ti               2.9586092564        1.6241182100       13.0223432153
Ti               4.4428142136        4.8723546300       13.0117757286
Ti               2.9423548212        4.8723546300       16.1289445940
Ti               4.4407958812        1.6241182100       16.3917075523
O                2.9587000000        1.6241182100       11.0129506900    0   0   0
O                2.9587000000        1.6241182100        8.4764678300    0   0   0
O                4.4380500000        3.6041132000        9.7447092600    0   0   0
O                4.4380500000        6.1405960600        9.7447092600    0   0   0
O                2.9584230147        4.8723546300       14.2903799887
O                2.9587000000        4.8723546300       11.7247042500    0   0   0
O                4.4374105208        0.3247939256       12.9863683895
O                4.4374105208        2.9234424944       12.9863683895
O                2.9599258693        1.6241182100       17.4406606261
O                2.9597794026        1.6241182100       14.8971552662
O                4.4057962830        3.6460908243       16.2591561396
O                4.4057962830        6.0986184357       16.2591561396
O               -0.0326188021        4.8723546300       18.2623737257
O                1.3192437500        4.8723546300       18.7479301481
H                1.2236640094        4.8723546300       19.7524934290



     Writing config-only to output data dir ./tmp_s0_OOH__2x1v_mir/s0_OOH__2x1v_mir.save/ :
     XML data file
     NEW-OLD atomic charge density approx. for the potential

     Check: negative core charge=   -0.000001

     negative rho (up, down):  1.842E-02 0.000E+00

     total cpu time spent up to now is      599.0 secs

     per-process dynamical memory:   247.8 Mb

     Self-consistent Calculation

     iteration #  1     ecut=    80.00 Ry     beta= 0.30
     Davidson diagonalization with overlap
     c_bands:  1 eigenvalues not converged
     c_bands:  3 eigenvalues not converged
     ethr =  1.00E-06,  avg # of iterations = 19.9

     negative rho (up, down):  1.873E-02 0.000E+00

     total cpu time spent up to now is      625.6 secs

     total energy              =   -2519.44009925 Ry
     estimated scf accuracy    <       0.51472934 Ry

     iteration #  2     ecut=    80.00 Ry     beta= 0.30
     Davidson diagonalization with overlap
     ethr =  1.71E-04,  avg # of iterations =  2.0

     negative rho (up, down):  1.834E-02 0.000E+00

     total cpu time spent up to now is      633.8 secs

     total energy              =   -2519.44827809 Ry
     estimated scf accuracy    <       0.30384988 Ry

     iteration #  3     ecut=    80.00 Ry     beta= 0.30
     Davidson diagonalization with overlap
     ethr =  1.01E-04,  avg # of iterations =  1.0

     negative rho (up, down):  1.945E-02 0.000E+00

     total cpu time spent up to now is      641.5 secs

     total energy              =   -2519.43835104 Ry
     estimated scf accuracy    <       0.11730731 Ry

     iteration #  4     ecut=    80.00 Ry     beta= 0.30
     Davidson diagonalization with overlap
     ethr =  3.90E-05,  avg # of iterations =  5.7

     negative rho (up, down):  2.005E-02 0.000E+00

     total cpu time spent up to now is      650.3 secs

     total energy              =   -2519.42973555 Ry
     estimated scf accuracy    <       0.28138427 Ry

     iteration #  5     ecut=    80.00 Ry     beta= 0.30
     Davidson diagonalization with overlap
     ethr =  3.90E-05,  avg # of iterations =  1.9

     negative rho (up, down):  2.046E-02 0.000E+00

     total cpu time spent up to now is      658.2 secs

     total energy              =   -2519.43674311 Ry
     estimated scf accuracy    <       0.53963762 Ry

     iteration #  6     ecut=    80.00 Ry     beta= 0.30
     Davidson diagonalization with overlap
     ethr =  3.90E-05,  avg # of iterations =  1.0

     negative rho (up, down):  2.102E-02 0.000E+00

     total cpu time spent up to now is      665.7 secs

     total energy              =   -2519.43469713 Ry
     estimated scf accuracy    <       0.04852670 Ry

     iteration #  7     ecut=    80.00 Ry     beta= 0.30
     Davidson diagonalization with overlap
     ethr =  1.61E-05,  avg # of iterations =  2.8

     negative rho (up, down):  2.095E-02 0.000E+00

     total cpu time spent up to now is      674.1 secs

     total energy              =   -2519.43359421 Ry
     estimated scf accuracy    <       0.29230624 Ry

     iteration #  8     ecut=    80.00 Ry     beta= 0.30
     Davidson diagonalization with overlap
     ethr =  1.61E-05,  avg # of iterations =  1.0

     negative rho (up, down):  2.087E-02 0.000E+00

     total cpu time spent up to now is      681.8 secs

     total energy              =   -2519.43749792 Ry
     estimated scf accuracy    <       0.03081801 Ry

     iteration #  9     ecut=    80.00 Ry     beta= 0.30
     Davidson diagonalization with overlap
     ethr =  1.02E-05,  avg # of iterations =  1.1

     negative rho (up, down):  2.072E-02 0.000E+00

     total cpu time spent up to now is      688.6 secs

     total energy              =   -2519.43753690 Ry
     estimated scf accuracy    <       0.00710389 Ry

     iteration # 10     ecut=    80.00 Ry     beta= 0.30
     Davidson diagonalization with overlap
     ethr =  2.36E-06,  avg # of iterations = 11.6

     negative rho (up, down):  2.034E-02 0.000E+00

     total cpu time spent up to now is      698.1 secs

     total energy              =   -2519.43753566 Ry
     estimated scf accuracy    <       0.00201025 Ry

     iteration # 11     ecut=    80.00 Ry     beta= 0.30
     Davidson diagonalization with overlap
     ethr =  6.68E-07,  avg # of iterations =  8.3

     negative rho (up, down):  1.962E-02 0.000E+00

     total cpu time spent up to now is      707.0 secs

     total energy              =   -2519.43751528 Ry
     estimated scf accuracy    <       0.00079683 Ry

     iteration # 12     ecut=    80.00 Ry     beta= 0.30
     Davidson diagonalization with overlap
     ethr =  2.65E-07,  avg # of iterations =  3.1

     negative rho (up, down):  1.914E-02 0.000E+00

     total cpu time spent up to now is      714.5 secs

     total energy              =   -2519.43751343 Ry
     estimated scf accuracy    <       0.00003510 Ry

     iteration # 13     ecut=    80.00 Ry     beta= 0.30
     Davidson diagonalization with overlap
     ethr =  1.17E-08,  avg # of iterations =  5.7

     negative rho (up, down):  1.827E-02 0.000E+00

     total cpu time spent up to now is      723.3 secs

     total energy              =   -2519.43749899 Ry
     estimated scf accuracy    <       0.00004052 Ry

     iteration # 14     ecut=    80.00 Ry     beta= 0.30
     Davidson diagonalization with overlap
     ethr =  1.17E-08,  avg # of iterations =  3.1

     negative rho (up, down):  1.751E-02 0.000E+00

     total cpu time spent up to now is      732.1 secs

     total energy              =   -2519.43748772 Ry
     estimated scf accuracy    <       0.00005459 Ry

     iteration # 15     ecut=    80.00 Ry     beta= 0.30
     Davidson diagonalization with overlap
     ethr =  1.17E-08,  avg # of iterations =  1.3

     negative rho (up, down):  1.664E-02 0.000E+00

     total cpu time spent up to now is      739.9 secs

     total energy              =   -2519.43748041 Ry
     estimated scf accuracy    <       0.00001137 Ry

     iteration # 16     ecut=    80.00 Ry     beta= 0.30
     Davidson diagonalization with overlap
     ethr =  3.78E-09,  avg # of iterations =  2.0

     negative rho (up, down):  1.621E-02 0.000E+00

     total cpu time spent up to now is      747.9 secs

     total energy              =   -2519.43747860 Ry
     estimated scf accuracy    <       0.00000354 Ry

     iteration # 17     ecut=    80.00 Ry     beta= 0.30
     Davidson diagonalization with overlap
     ethr =  1.18E-09,  avg # of iterations =  2.0

     negative rho (up, down):  1.598E-02 0.000E+00

     total cpu time spent up to now is      756.2 secs

     total energy              =   -2519.43747834 Ry
     estimated scf accuracy    <       0.00000849 Ry

     iteration # 18     ecut=    80.00 Ry     beta= 0.30
     Davidson diagonalization with overlap
     ethr =  1.18E-09,  avg # of iterations =  1.9

     negative rho (up, down):  1.587E-02 0.000E+00

     total cpu time spent up to now is      764.5 secs

     total energy              =   -2519.43747820 Ry
     estimated scf accuracy    <       0.00000079 Ry

     iteration # 19     ecut=    80.00 Ry     beta= 0.30
     Davidson diagonalization with overlap
     ethr =  2.61E-10,  avg # of iterations =  4.2

     negative rho (up, down):  1.581E-02 0.000E+00

     total cpu time spent up to now is      772.1 secs

     End of self-consistent calculation

          k = 0.0000 0.0000 0.0000 ( 81491 PWs)   bands (ev):

   -57.9596 -57.9195 -57.4735 -57.4319 -57.3674 -57.2260 -56.8880 -56.8423
   -56.5996 -56.5505 -56.4038 -56.3633 -34.4560 -34.2541 -34.2254 -34.1819
   -34.1020 -34.0719 -34.0091 -33.9069 -33.8001 -33.6685 -33.6586 -33.6446
   -33.6236 -33.6134 -33.6080 -33.5938 -33.4596 -33.4497 -33.4092 -33.2121
   -33.1705 -33.0921 -33.0805 -33.0472 -33.0261 -32.8921 -32.8861 -32.8838
   -32.8547 -32.7793 -32.7789 -32.7505 -32.6846 -32.6464 -32.5427 -32.4360
   -22.5482 -18.6600 -18.4119 -18.0987 -17.9221 -17.7640 -17.6765 -17.4865
   -17.4051 -17.3525 -17.3121 -17.1602 -17.0913 -17.0744 -17.0442 -16.9734
   -16.9212 -16.7711 -16.7447 -16.6417 -16.4742 -16.1362 -16.0907 -15.8824
   -15.4333 -15.3720  -7.7087  -6.2799  -6.2104  -5.9946  -5.8718  -5.7711
    -5.5947  -5.1418  -5.0930  -5.0378  -5.0066  -4.8897  -4.7574  -4.7190
    -4.7082  -4.7032  -4.7000  -4.6775  -4.5448  -4.5000  -4.4567  -4.4026
    -4.3871  -4.3407  -4.1802  -4.1622  -4.1382  -3.9491  -3.8641  -3.7314
    -3.7119  -3.5952  -3.4909  -3.4780  -3.2604  -3.1856  -3.0756  -3.0561
    -3.0418  -2.9398  -2.9091  -2.8465  -2.6994  -2.6840  -2.6327  -2.6158
    -2.6031  -2.5821  -2.4522  -2.3652  -2.3096  -2.2979  -2.1329  -2.1300
    -1.9296  -1.8580  -1.7994  -1.7655  -1.6920  -1.6635  -1.5573  -1.5323
    -1.5111  -1.4361  -1.3389  -1.2236  -1.1206  -1.0510  -1.0167  -0.9791
    -0.9050  -0.5154  -0.5124  -0.4641  -0.4524  -0.4007  -0.2921   1.0872
     1.2414   1.3885   1.5068   1.6919   1.8008   1.9229   1.9715   2.0840
     2.1299   2.2105   2.2185   2.3208   2.5241   2.6112   2.6570   2.6866
     2.7183   2.7243   2.7532   2.8044   2.9146   2.9395   2.9922   3.0087
     3.0839   3.1773   3.1776   3.1819   3.3128

          k = 0.0000 0.2277 0.0000 ( 81407 PWs)   bands (ev):

   -57.9596 -57.9195 -57.4735 -57.4319 -57.3674 -57.2260 -56.8880 -56.8423
   -56.5996 -56.5505 -56.4038 -56.3633 -34.4570 -34.2540 -34.2254 -34.1796
   -34.1022 -34.0721 -34.0091 -33.9085 -33.8001 -33.6685 -33.6515 -33.6446
   -33.6209 -33.6202 -33.6134 -33.5938 -33.4496 -33.4462 -33.4092 -33.2111
   -33.1785 -33.0921 -33.0803 -33.0471 -33.0262 -32.8964 -32.8858 -32.8838
   -32.8533 -32.7826 -32.7789 -32.7487 -32.6846 -32.6464 -32.5427 -32.4361
   -22.5481 -18.5919 -18.3174 -18.0079 -17.9208 -17.8398 -17.7383 -17.4747
   -17.4066 -17.3652 -17.3309 -17.2891 -17.2746 -17.1584 -16.9545 -16.8896
   -16.7736 -16.7579 -16.7493 -16.7361 -16.4742 -16.1331 -16.0903 -15.8835
   -15.4310 -15.3715  -7.7078  -6.2146  -5.9770  -5.9359  -5.6877  -5.5850
    -5.4819  -5.4177  -5.2953  -5.1001  -4.9852  -4.9689  -4.7073  -4.7041
    -4.6892  -4.6616  -4.6612  -4.6436  -4.4943  -4.4842  -4.4197  -4.3717
    -4.2052  -4.1528  -4.1504  -4.1016  -3.9178  -3.8942  -3.7329  -3.7168
    -3.6647  -3.5685  -3.5663  -3.3606  -3.3352  -3.2794  -3.2580  -3.2464
    -3.1682  -3.0669  -3.0451  -2.9401  -2.8097  -2.7929  -2.6677  -2.5901
    -2.5635  -2.5434  -2.3714  -2.3699  -2.3483  -2.2068  -2.0260  -2.0235
    -2.0082  -1.9545  -1.8436  -1.8314  -1.7614  -1.7581  -1.7281  -1.6247
    -1.5538  -1.4929  -1.4619  -1.3007  -1.2216  -1.1492  -1.0666  -1.0257
    -1.0231  -0.5908  -0.5521  -0.5391  -0.5039  -0.4396  -0.3684   1.1723
     1.1958   1.5053   1.5364   1.7706   1.9220   1.9739   2.0164   2.0739
     2.1035   2.1669   2.2318   2.2543   2.3154   2.5206   2.6523   2.7034
     2.7213   2.7657   2.8735   2.9444   2.9849   3.0182   3.0789   3.1060
     3.2127   3.2513   3.3110   3.3490   3.4562

          k = 0.0000-0.4554 0.0000 ( 81286 PWs)   bands (ev):

   -57.9596 -57.9195 -57.4735 -57.4319 -57.3674 -57.2260 -56.8880 -56.8423
   -56.5996 -56.5505 -56.4038 -56.3633 -34.4581 -34.2540 -34.2254 -34.1773
   -34.1025 -34.0723 -34.0091 -33.9101 -33.8001 -33.6686 -33.6445 -33.6442
   -33.6317 -33.6170 -33.6134 -33.5938 -33.4494 -33.4346 -33.4093 -33.2101
   -33.1868 -33.0921 -33.0801 -33.0471 -33.0262 -32.9010 -32.8856 -32.8838
   -32.8516 -32.7859 -32.7789 -32.7470 -32.6847 -32.6464 -32.5427 -32.4361
   -22.5480 -18.5205 -18.1751 -17.9326 -17.9244 -17.8711 -17.7532 -17.5554
   -17.5157 -17.3994 -17.3967 -17.3052 -17.2999 -17.2103 -16.9214 -16.8701
   -16.8571 -16.7516 -16.7320 -16.6468 -16.4742 -16.1308 -16.0900 -15.8846
   -15.4289 -15.3711  -7.7070  -6.2058  -5.9508  -5.5796  -5.5711  -5.5472
    -5.5060  -5.4115  -5.2418  -5.1088  -4.8148  -4.8106  -4.7651  -4.7041
    -4.6360  -4.6202  -4.6168  -4.5902  -4.5782  -4.4353  -4.4125  -4.3568
    -4.1707  -4.0635  -4.0519  -4.0000  -3.8459  -3.8348  -3.7086  -3.6432
    -3.6367  -3.6241  -3.5967  -3.5397  -3.5213  -3.4532  -3.4214  -3.2545
    -3.1476  -3.0711  -3.0469  -2.9374  -2.9320  -2.7535  -2.7512  -2.7317
    -2.5984  -2.5297  -2.5170  -2.3677  -2.3346  -2.2350  -2.1529  -2.1213
    -2.0547  -2.0353  -1.9715  -1.9099  -1.8626  -1.8307  -1.7674  -1.6086
    -1.4987  -1.4499  -1.3617  -1.2799  -1.2783  -1.2139  -1.1908  -1.1065
    -1.0167  -0.6605  -0.5990  -0.5879  -0.5353  -0.4816  -0.4031   1.0948
     1.2284   1.5022   1.5124   1.6764   1.7128   1.9058   1.9296   2.1196
     2.2202   2.2350   2.3178   2.3547   2.5190   2.5351   2.5909   2.7382
     2.7790   2.8578   2.9694   3.0099   3.0721   3.0766   3.0977   3.2279
     3.2988   3.3028   3.3087   3.3863   3.5059

          k = 0.2500 0.0000 0.0000 ( 81478 PWs)   bands (ev):

   -57.9538 -57.9254 -57.4676 -57.4379 -57.3659 -57.2276 -56.8832 -56.8471
   -56.5941 -56.5561 -56.3979 -56.3693 -34.3926 -34.2490 -34.2271 -34.1660
   -34.0883 -34.0768 -34.0408 -33.8419 -33.7848 -33.7149 -33.6903 -33.6510
   -33.6154 -33.6125 -33.6071 -33.5930 -33.4793 -33.4616 -33.3983 -33.1585
   -33.1427 -33.0932 -33.0917 -33.0861 -33.0494 -32.8894 -32.8785 -32.8571
   -32.8239 -32.7915 -32.7751 -32.7547 -32.7541 -32.6315 -32.5582 -32.5048
   -22.5479 -18.5087 -18.2814 -17.9611 -17.8883 -17.6906 -17.6559 -17.6016
   -17.4910 -17.3806 -17.2711 -17.2364 -17.2364 -17.0921 -17.0114 -16.9321
   -16.8538 -16.8203 -16.7113 -16.7055 -16.4356 -16.2188 -16.1740 -15.8840
   -15.4695 -15.4336  -7.7074  -6.1234  -6.0568  -5.8438  -5.7316  -5.5985
    -5.3398  -5.1439  -5.1182  -5.0368  -4.9532  -4.9491  -4.9430  -4.8881
    -4.7643  -4.7262  -4.7040  -4.6514  -4.6129  -4.6117  -4.5880  -4.5105
    -4.4184  -4.3374  -4.3252  -4.1405  -3.9147  -3.8427  -3.7959  -3.7000
    -3.5907  -3.5606  -3.5274  -3.3115  -3.2712  -3.1258  -3.0580  -3.0126
    -2.9847  -2.8964  -2.8681  -2.7960  -2.6981  -2.6710  -2.6301  -2.6221
    -2.5710  -2.5259  -2.4619  -2.3751  -2.3705  -2.2305  -2.2097  -2.0993
    -2.0317  -2.0037  -1.9287  -1.8501  -1.8400  -1.7794  -1.6689  -1.6019
    -1.5475  -1.4863  -1.4280  -1.2683  -1.2621  -1.2441  -1.1417  -1.0475
    -1.0344  -0.7031  -0.6710  -0.4840  -0.4482  -0.3643  -0.3554   1.3020
     1.3612   1.5053   1.6645   1.9104   1.9148   1.9727   1.9854   2.0074
     2.0830   2.1120   2.2995   2.3163   2.3627   2.4637   2.5893   2.6758
     2.8152   2.8343   2.8396   2.9309   2.9317   2.9449   3.0114   3.0529
     3.1272   3.1503   3.2033   3.3222   3.3387

          k = 0.2500 0.2277 0.0000 ( 81485 PWs)   bands (ev):

   -57.9538 -57.9254 -57.4676 -57.4379 -57.3658 -57.2276 -56.8832 -56.8471
   -56.5941 -56.5561 -56.3979 -56.3693 -34.3936 -34.2490 -34.2271 -34.1641
   -34.0881 -34.0770 -34.0410 -33.8433 -33.7848 -33.7149 -33.6903 -33.6456
   -33.6221 -33.6101 -33.6071 -33.5930 -33.4799 -33.4603 -33.3899 -33.1653
   -33.1421 -33.0942 -33.0911 -33.0861 -33.0494 -32.8924 -32.8785 -32.8567
   -32.8237 -32.7915 -32.7775 -32.7541 -32.7536 -32.6315 -32.5582 -32.5048
   -22.5478 -18.4460 -18.1940 -17.8970 -17.8641 -17.8022 -17.6242 -17.5891
   -17.4275 -17.4181 -17.3907 -17.3389 -17.2157 -17.1031 -17.0766 -16.9134
   -16.8664 -16.8061 -16.7405 -16.6821 -16.4355 -16.2194 -16.1719 -15.8845
   -15.4677 -15.4340  -7.7067  -6.1090  -5.8504  -5.7611  -5.4992  -5.3216
    -5.3070  -5.2336  -5.0971  -5.0785  -4.9884  -4.9356  -4.8794  -4.8447
    -4.7863  -4.7637  -4.6902  -4.5956  -4.5765  -4.5474  -4.4899  -4.3999
    -4.3840  -4.3143  -4.1683  -4.0743  -3.9768  -3.8143  -3.7957  -3.6893
    -3.5754  -3.5396  -3.3963  -3.3316  -3.3038  -3.2384  -3.2176  -3.1515
    -3.0572  -3.0088  -2.9713  -2.9060  -2.8335  -2.8032  -2.7599  -2.6497
    -2.5863  -2.5674  -2.5093  -2.4809  -2.3772  -2.3498  -2.3323  -2.2255
    -2.0634  -2.0259  -1.9096  -1.8887  -1.7925  -1.7794  -1.7658  -1.6768
    -1.6466  -1.6147  -1.3944  -1.3440  -1.2407  -1.2161  -1.1816  -1.0492
    -1.0456  -0.6924  -0.6508  -0.5498  -0.5148  -0.3886  -0.3606   1.2837
     1.4048   1.6313   1.7381   1.8481   1.9100   2.0292   2.0830   2.1014
     2.1643   2.1789   2.2344   2.3492   2.3560   2.3970   2.6144   2.7376
     2.7537   2.7955   2.9329   3.0098   3.0171   3.0321   3.0760   3.1227
     3.2542   3.2596   3.3348   3.3562   3.4505

          k = 0.2500-0.4554 0.0000 ( 81408 PWs)   bands (ev):

   -57.9538 -57.9254 -57.4675 -57.4379 -57.3658 -57.2276 -56.8833 -56.8471
   -56.5941 -56.5561 -56.3979 -56.3693 -34.3946 -34.2490 -34.2271 -34.1621
   -34.0879 -34.0772 -34.0412 -33.8448 -33.7848 -33.7150 -33.6903 -33.6400
   -33.6284 -33.6074 -33.6071 -33.5930 -33.4804 -33.4590 -33.3819 -33.1721
   -33.1415 -33.0951 -33.0905 -33.0860 -33.0494 -32.8957 -32.8785 -32.8561
   -32.8235 -32.7915 -32.7800 -32.7541 -32.7525 -32.6315 -32.5582 -32.5048
   -22.5477 -18.3813 -18.0518 -17.8881 -17.8701 -17.7385 -17.6838 -17.5912
   -17.4977 -17.4783 -17.3743 -17.3275 -17.2720 -17.2474 -17.0178 -16.9798
   -16.8799 -16.8166 -16.7167 -16.6476 -16.4355 -16.2202 -16.1704 -15.8850
   -15.4660 -15.4345  -7.7061  -6.1051  -5.8486  -5.3483  -5.3086  -5.2301
    -5.1976  -5.1844  -5.0502  -4.9776  -4.9604  -4.9448  -4.8590  -4.8376
    -4.8115  -4.7468  -4.6709  -4.5819  -4.5509  -4.4640  -4.4469  -4.3446
    -4.2506  -4.0723  -4.0340  -3.9757  -3.9572  -3.8577  -3.7579  -3.7347
    -3.6748  -3.6599  -3.5284  -3.3966  -3.3466  -3.2744  -3.2638  -3.2144
    -3.2006  -3.1084  -3.0426  -3.0294  -2.9386  -2.9057  -2.8760  -2.7788
    -2.7365  -2.6938  -2.6915  -2.5576  -2.5359  -2.5290  -2.4041  -2.3269
    -2.2599  -2.1124  -1.8198  -1.8035  -1.7792  -1.7712  -1.7595  -1.6855
    -1.5776  -1.5532  -1.4271  -1.3894  -1.2471  -1.2185  -1.1079  -0.9993
    -0.9908  -0.6936  -0.6908  -0.6301  -0.5753  -0.4028  -0.3621   1.3012
     1.4135   1.6360   1.6549   1.7423   1.8731   1.9396   2.1493   2.1630
     2.1931   2.1997   2.3280   2.3710   2.4242   2.5756   2.7412   2.7616
     2.8086   2.8369   2.9759   3.0285   3.0420   3.1447   3.2021   3.2894
     3.3273   3.3448   3.4293   3.4880   3.5388

          k =-0.5000 0.0000 0.0000 ( 81532 PWs)   bands (ev):

   -57.9405 -57.9388 -57.4552 -57.4504 -57.3643 -57.2293 -56.8766 -56.8538
   -56.5860 -56.5643 -56.3837 -56.3835 -34.2386 -34.2379 -34.2359 -34.2355
   -34.1281 -34.1267 -33.8972 -33.8707 -33.7416 -33.7389 -33.7171 -33.6348
   -33.6310 -33.6093 -33.6003 -33.5997 -33.5890 -33.4754 -33.2570 -33.2368
   -33.1366 -33.1159 -33.0798 -33.0612 -32.9794 -32.9549 -32.8863 -32.8599
   -32.8240 -32.8079 -32.7649 -32.7647 -32.6674 -32.6670 -32.5951 -32.5950
   -22.5475 -18.1323 -18.1278 -17.9958 -17.9781 -17.6523 -17.6032 -17.5458
   -17.5046 -17.4199 -17.4194 -17.3538 -17.3440 -17.1122 -17.0145 -16.8623
   -16.8549 -16.7572 -16.7401 -16.5778 -16.5251 -16.2921 -16.2837 -15.8852
   -15.5055 -15.5017  -7.7062  -6.0481  -5.5605  -5.5596  -5.4143  -5.3976
    -5.3381  -5.2689  -5.1624  -5.1581  -5.1130  -5.0898  -5.0729  -5.0551
    -4.9197  -4.8893  -4.8679  -4.6439  -4.5140  -4.4907  -4.4852  -4.3833
    -4.3776  -4.3312  -4.1723  -4.1661  -4.1303  -3.7599  -3.7437  -3.5857
    -3.4528  -3.4480  -3.3453  -3.3218  -3.2778  -3.2051  -3.1950  -3.0450
    -3.0101  -2.9025  -2.8831  -2.8673  -2.8461  -2.6463  -2.6090  -2.5903
    -2.5369  -2.3750  -2.3580  -2.3333  -2.2798  -2.2726  -2.2622  -2.0537
    -2.0499  -2.0039  -1.9979  -1.9622  -1.9555  -1.9170  -1.8026  -1.7348
    -1.7259  -1.6926  -1.5410  -1.5288  -1.3277  -1.3244  -1.2932  -1.2824
    -0.8086  -0.7986  -0.5286  -0.5273  -0.4646  -0.4631  -0.4138   1.5827
     1.5831   1.6946   1.7316   1.8569   1.8574   1.9405   1.9759   2.0141
     2.0771   2.1150   2.2045   2.4629   2.4842   2.4884   2.5179   2.6353
     2.7244   2.8826   2.9010   2.9088   2.9385   2.9465   2.9757   3.0290
     3.1073   3.2475   3.2539   3.6058   3.6103

          k =-0.5000 0.2277 0.0000 ( 81508 PWs)   bands (ev):

   -57.9405 -57.9388 -57.4552 -57.4504 -57.3642 -57.2293 -56.8766 -56.8538
   -56.5860 -56.5643 -56.3837 -56.3835 -34.2387 -34.2385 -34.2365 -34.2355
   -34.1270 -34.1256 -33.8974 -33.8709 -33.7418 -33.7389 -33.7180 -33.6340
   -33.6304 -33.6106 -33.6003 -33.5978 -33.5891 -33.4729 -33.2540 -33.2340
   -33.1403 -33.1194 -33.0798 -33.0612 -32.9792 -32.9547 -32.8876 -32.8611
   -32.8240 -32.8079 -32.7656 -32.7654 -32.6673 -32.6669 -32.5951 -32.5950
   -22.5475 -18.0916 -18.0876 -17.9376 -17.9253 -17.6137 -17.6026 -17.5388
   -17.4924 -17.4821 -17.4663 -17.3059 -17.2997 -17.1853 -17.1145 -16.9678
   -16.9592 -16.7252 -16.7086 -16.5736 -16.5151 -16.2901 -16.2823 -15.8854
   -15.5053 -15.5015  -7.7057  -6.0480  -5.4182  -5.4026  -5.3356  -5.3315
    -5.2070  -5.1862  -5.0112  -4.9799  -4.9624  -4.9580  -4.9180  -4.9109
    -4.8189  -4.7980  -4.7794  -4.6218  -4.5391  -4.4792  -4.4479  -4.4197
    -4.3822  -4.3783  -4.3254  -3.9819  -3.9569  -3.9202  -3.8458  -3.7264
    -3.6509  -3.4802  -3.4754  -3.3893  -3.3663  -3.3430  -3.2769  -3.1164
    -3.0825  -3.0014  -2.9713  -2.9044  -2.8837  -2.8339  -2.7684  -2.6582
    -2.6512  -2.5271  -2.5242  -2.4566  -2.3705  -2.3604  -2.3102  -2.2864
    -2.2847  -2.1250  -2.0809  -1.9676  -1.9598  -1.8013  -1.7859  -1.7586
    -1.5878  -1.5651  -1.4895  -1.4726  -1.3083  -1.2931  -1.2147  -1.2006
    -0.8219  -0.8133  -0.5878  -0.5854  -0.4501  -0.4472  -0.3998   1.6187
     1.6197   1.7295   1.7673   1.9127   1.9677   2.0046   2.0472   2.0488
     2.0545   2.2081   2.2741   2.4854   2.4887   2.5546   2.6244   2.7392
     2.7638   2.7863   2.7940   2.9438   2.9814   3.0841   3.1315   3.1877
     3.2236   3.2882   3.2936   3.5516   3.5548

          k =-0.5000-0.4554 0.0000 ( 81484 PWs)   bands (ev):

   -57.9405 -57.9388 -57.4552 -57.4504 -57.3642 -57.2293 -56.8766 -56.8538
   -56.5860 -56.5643 -56.3837 -56.3835 -34.2391 -34.2388 -34.2370 -34.2356
   -34.1259 -34.1245 -33.8975 -33.8710 -33.7419 -33.7389 -33.7189 -33.6332
   -33.6297 -33.6116 -33.6003 -33.5962 -33.5894 -33.4704 -33.2508 -33.2309
   -33.1443 -33.1232 -33.0798 -33.0612 -32.9791 -32.9545 -32.8889 -32.8622
   -32.8239 -32.8078 -32.7662 -32.7660 -32.6672 -32.6668 -32.5951 -32.5950
   -22.5474 -18.0527 -18.0490 -17.7965 -17.7898 -17.7344 -17.7336 -17.5059
   -17.5029 -17.4027 -17.3931 -17.3249 -17.3047 -17.1834 -17.1654 -17.1263
   -17.1197 -16.7095 -16.6923 -16.5699 -16.5071 -16.2884 -16.2811 -15.8856
   -15.5051 -15.5013  -7.7053  -6.0487  -5.4212  -5.4052  -5.2016  -5.1862
    -4.9860  -4.9835  -4.8277  -4.8075  -4.7993  -4.7428  -4.7188  -4.7019
    -4.6156  -4.5828  -4.5642  -4.5132  -4.4933  -4.4874  -4.4359  -4.3919
    -4.3499  -4.3416  -4.2789  -4.2494  -4.2490  -4.0031  -3.9636  -3.9043
    -3.8986  -3.7094  -3.5877  -3.5405  -3.5128  -3.2928  -3.2037  -3.0977
    -3.0694  -3.0524  -3.0352  -3.0178  -3.0111  -2.9929  -2.9818  -2.8977
    -2.8392  -2.6904  -2.6863  -2.6691  -2.5696  -2.5423  -2.5327  -2.4392
    -2.3416  -2.1988  -2.1917  -1.9135  -1.9037  -1.7827  -1.6306  -1.6194
    -1.4896  -1.4602  -1.4138  -1.3774  -1.3288  -1.3096  -1.1346  -1.1221
    -0.8081  -0.8046  -0.6337  -0.6293  -0.4494  -0.4429  -0.3861   1.7107
     1.7254   1.7349   1.7369   1.8537   1.9902   2.0383   2.0881   2.0953
     2.1744   2.2020   2.2084   2.4843   2.4881   2.5291   2.5894   2.8210
     2.8832   2.9090   2.9828   3.0781   3.1065   3.2140   3.2287   3.3047
     3.3146   3.3548   3.3653   3.5576   3.5626

     the Fermi energy is    -0.3386 ev

!    total energy              =   -2519.43747805 Ry
     estimated scf accuracy    <       0.00000041 Ry
     smearing contrib. (-TS)   =       0.00369946 Ry
     internal energy E=F+TS    =   -2519.44117751 Ry

     The total energy is F=E-TS. E is the sum of the following terms:
     one-electron contribution =  -26191.56432227 Ry
     hartree contribution      =   13145.79615918 Ry
     xc contribution           =    -409.96605452 Ry
     ewald contribution        =   11183.76460661 Ry
     one-center paw contrib.   =    -247.47156651 Ry

     convergence has been achieved in  19 iterations

     negative rho (up, down):  1.581E-02 0.000E+00

     Forces acting on atoms (cartesian axes, Ry/au):

     atom    1 type  2   force =    -0.00005252    0.00000000    0.11743591
     atom    2 type  2   force =     0.00088719    0.00000000   -0.10605982
     atom    3 type  2   force =    -0.00039102    0.00000000    0.02024065
     atom    4 type  2   force =     0.00079589    0.00000000   -0.02551280
     atom    5 type  2   force =    -0.00849845    0.00000000    0.03595546
     atom    6 type  2   force =     0.00754431    0.00000000   -0.04040401
     atom    7 type  3   force =     0.00006608    0.00000000    0.03146577
     atom    8 type  3   force =     0.00005175    0.00000000    0.05969510
     atom    9 type  3   force =    -0.00031453    0.06710822   -0.03576598
     atom   10 type  3   force =    -0.00031453   -0.06710822   -0.03576598
     atom   11 type  3   force =    -0.00123519    0.00000000    0.02380029
     atom   12 type  3   force =    -0.00007762    0.00000000   -0.05889067
     atom   13 type  3   force =     0.00090789   -0.00556081   -0.00426608
     atom   14 type  3   force =     0.00090789    0.00556081   -0.00426608
     atom   15 type  3   force =     0.00238523    0.00000000    0.03771732
     atom   16 type  3   force =     0.00001154    0.00000000    0.01152873
     atom   17 type  3   force =    -0.01704115   -0.01920367    0.01169208
     atom   18 type  3   force =    -0.01704115    0.01920367    0.01169208
     atom   19 type  2   force =     0.00006861    0.00000000    0.12006020
     atom   20 type  2   force =    -0.00096634    0.00000000   -0.10608639
     atom   21 type  2   force =     0.00025953    0.00000000    0.01837862
     atom   22 type  2   force =    -0.00041106    0.00000000   -0.02417137
     atom   23 type  2   force =     0.00952183    0.00000000   -0.02571329
     atom   24 type  2   force =    -0.00743410    0.00000000   -0.04146288
     atom   25 type  3   force =     0.00007453    0.00000000    0.02864120
     atom   26 type  3   force =     0.00002264    0.00000000    0.05948143
     atom   27 type  3   force =     0.00033187    0.06712993   -0.03575474
     atom   28 type  3   force =     0.00033187   -0.06712993   -0.03575474
     atom   29 type  3   force =     0.00042024    0.00000000   -0.01829857
     atom   30 type  3   force =     0.00045464    0.00000000   -0.05320496
     atom   31 type  3   force =    -0.00075291   -0.00583635   -0.00445010
     atom   32 type  3   force =    -0.00075291    0.00583635   -0.00445010
     atom   33 type  3   force =    -0.00279227    0.00000000    0.03008273
     atom   34 type  3   force =     0.00060266    0.00000000    0.01166953
     atom   35 type  3   force =     0.01399999   -0.01318080    0.01814174
     atom   36 type  3   force =     0.01399999    0.01318080    0.01814174
     atom   37 type  3   force =     0.05353269    0.00000000    0.01219824
     atom   38 type  3   force =    -0.04116025    0.00000000    0.02874940
     atom   39 type  1   force =    -0.00794283    0.00000000   -0.04648966

     Total force =     0.148444     Total SCF correction =     0.002452
     Energy error            =      6.5E-02 Ry
     Gradient error          =      5.4E-02 Ry/Bohr

     number of scf cycles    =   3
     number of bfgs steps    =   2

     energy             old  =   -2519.3719982283 Ry
     energy             new  =   -2519.4374780479 Ry

     CASE: energy            _new < energy            _old

     new trust radius        =       0.0466128375 bohr
     new conv_thr            =       0.0000002677 Ry


ATOMIC_POSITIONS (angstrom)
Ti               0.0000000000        4.8723546300        9.7447092600    0   0   0
Ti               1.4793500000        1.6241182100        9.7447092600    0   0   0
Ti              -0.0002753058        1.6241182100       13.0303655942
Ti               1.4757670080        4.8723546300       12.9994614669
Ti               0.0008988116        4.8723546300       16.1629581259
Ti               1.4799916811        1.6241182100       16.3731192020
O                0.0000000000        1.6241182100       11.0129506900    0   0   0
O                0.0000000000        1.6241182100        8.4764678300    0   0   0
O                1.4793500000        3.6041132000        9.7447092600    0   0   0
O                1.4793500000        6.1405960600        9.7447092600    0   0   0
O                0.0026056067        4.8723546300       14.2290387897
O                0.0000000000        4.8723546300       11.7247042500    0   0   0
O                1.4804895130        0.3229386186       12.9846746713
O                1.4804895130        2.9252978014       12.9846746713
O                0.0008217970        1.6241182100       17.4474783834
O               -0.0014846602        1.6241182100       14.9070122790
O                1.5021145896        3.6367705648       16.2536721404
O                1.5021145896        6.1079386952       16.2536721404
Ti               2.9587000000        4.8723546300        9.7447092600    0   0   0
Ti               4.4380500000        1.6241182100        9.7447092600    0   0   0
Ti               2.9587242694        1.6241182100       13.0300020202
Ti               4.4428789721        4.8723546300       13.0012581837
Ti               2.9467529685        4.8723546300       16.1189214020
Ti               4.4374717804        1.6241182100       16.3718883467
O                2.9587000000        1.6241182100       11.0129506900    0   0   0
O                2.9587000000        1.6241182100        8.4764678300    0   0   0
O                4.4380500000        3.6041132000        9.7447092600    0   0   0
O                4.4380500000        6.1405960600        9.7447092600    0   0   0
O                2.9585977407        4.8723546300       14.2820445443
O                2.9587000000        4.8723546300       11.7247042500    0   0   0
O                4.4370783511        0.3225714117       12.9844895235
O                4.4370783511        2.9256650083       12.9844895235
O                2.9586916469        1.6241182100       17.4546232875
O                2.9600235121        1.6241182100       14.9030283167
O                4.4120310460        3.6396967788       16.2668824855
O                4.4120310460        6.1050124812       16.2668824855
O               -0.0081971814        4.8723546300       18.2656151681
O                1.2982798196        4.8723546300       18.7609281266
H                1.2221912228        4.8723546300       19.7329716238



     Writing config-only to output data dir ./tmp_s0_OOH__2x1v_mir/s0_OOH__2x1v_mir.save/ :
     XML data file
     NEW-OLD atomic charge density approx. for the potential

     Check: negative core charge=   -0.000001

     negative rho (up, down):  1.568E-02 0.000E+00

     total cpu time spent up to now is      776.7 secs

     per-process dynamical memory:   247.9 Mb

     Self-consistent Calculation

     iteration #  1     ecut=    80.00 Ry     beta= 0.30
     Davidson diagonalization with overlap
     ethr =  1.00E-06,  avg # of iterations =  9.1

     negative rho (up, down):  1.566E-02 0.000E+00

     total cpu time spent up to now is      792.3 secs

     total energy              =   -2519.44159876 Ry
     estimated scf accuracy    <       0.14984242 Ry

     iteration #  2     ecut=    80.00 Ry     beta= 0.30
     Davidson diagonalization with overlap
     ethr =  4.98E-05,  avg # of iterations =  1.1

     negative rho (up, down):  1.550E-02 0.000E+00

     total cpu time spent up to now is      799.8 secs

     total energy              =   -2519.44736635 Ry
     estimated scf accuracy    <       0.54729643 Ry

     iteration #  3     ecut=    80.00 Ry     beta= 0.30
     Davidson diagonalization with overlap
     ethr =  4.98E-05,  avg # of iterations =  1.0

     negative rho (up, down):  1.544E-02 0.000E+00

     total cpu time spent up to now is      807.3 secs

     total energy              =   -2519.44929740 Ry
     estimated scf accuracy    <       0.01647429 Ry

     iteration #  4     ecut=    80.00 Ry     beta= 0.30
     Davidson diagonalization with overlap
     ethr =  5.47E-06,  avg # of iterations =  2.0

     negative rho (up, down):  1.539E-02 0.000E+00

     total cpu time spent up to now is      822.7 secs

     total energy              =   -2519.44947461 Ry
     estimated scf accuracy    <       0.05642310 Ry

     iteration #  5     ecut=    80.00 Ry     beta= 0.30
     Davidson diagonalization with overlap
     ethr =  5.47E-06,  avg # of iterations =  1.0

     negative rho (up, down):  1.536E-02 0.000E+00

     total cpu time spent up to now is      830.1 secs

     total energy              =   -2519.44980265 Ry
     estimated scf accuracy    <       0.00110129 Ry

     iteration #  6     ecut=    80.00 Ry     beta= 0.30
     Davidson diagonalization with overlap
     ethr =  3.66E-07,  avg # of iterations =  2.0

     negative rho (up, down):  1.534E-02 0.000E+00

     total cpu time spent up to now is      838.3 secs

     total energy              =   -2519.44971314 Ry
     estimated scf accuracy    <       0.00398984 Ry

     iteration #  7     ecut=    80.00 Ry     beta= 0.30
     Davidson diagonalization with overlap
     ethr =  3.66E-07,  avg # of iterations =  2.0

     negative rho (up, down):  1.533E-02 0.000E+00

     total cpu time spent up to now is      846.6 secs

     total energy              =   -2519.44984869 Ry
     estimated scf accuracy    <       0.01101248 Ry

     iteration #  8     ecut=    80.00 Ry     beta= 0.30
     Davidson diagonalization with overlap
     ethr =  3.66E-07,  avg # of iterations =  1.0

     negative rho (up, down):  1.533E-02 0.000E+00

     total cpu time spent up to now is      854.0 secs

     total energy              =   -2519.44983318 Ry
     estimated scf accuracy    <       0.00295401 Ry

     iteration #  9     ecut=    80.00 Ry     beta= 0.30
     Davidson diagonalization with overlap
     ethr =  3.66E-07,  avg # of iterations =  1.0

     negative rho (up, down):  1.532E-02 0.000E+00

     total cpu time spent up to now is      861.5 secs

     total energy              =   -2519.44984819 Ry
     estimated scf accuracy    <       0.00019848 Ry

     iteration # 10     ecut=    80.00 Ry     beta= 0.30
     Davidson diagonalization with overlap
     ethr =  6.59E-08,  avg # of iterations =  1.0

     negative rho (up, down):  1.532E-02 0.000E+00

     total cpu time spent up to now is      868.8 secs

     total energy              =   -2519.44985149 Ry
     estimated scf accuracy    <       0.00018989 Ry

     iteration # 11     ecut=    80.00 Ry     beta= 0.30
     Davidson diagonalization with overlap
     ethr =  6.31E-08,  avg # of iterations =  1.0

     negative rho (up, down):  1.533E-02 0.000E+00

     total cpu time spent up to now is      875.3 secs

     total energy              =   -2519.44984765 Ry
     estimated scf accuracy    <       0.00041700 Ry

     iteration # 12     ecut=    80.00 Ry     beta= 0.30
     Davidson diagonalization with overlap
     ethr =  6.31E-08,  avg # of iterations =  1.0

     negative rho (up, down):  1.536E-02 0.000E+00

     total cpu time spent up to now is      881.7 secs

     total energy              =   -2519.44985066 Ry
     estimated scf accuracy    <       0.00000630 Ry

     iteration # 13     ecut=    80.00 Ry     beta= 0.30
     Davidson diagonalization with overlap
     ethr =  2.09E-09,  avg # of iterations =  2.2

     negative rho (up, down):  1.540E-02 0.000E+00

     total cpu time spent up to now is      889.8 secs

     total energy              =   -2519.44985120 Ry
     estimated scf accuracy    <       0.00000086 Ry

     iteration # 14     ecut=    80.00 Ry     beta= 0.30
     Davidson diagonalization with overlap
     c_bands:  1 eigenvalues not converged
     ethr =  2.84E-10,  avg # of iterations =  6.2

     negative rho (up, down):  1.542E-02 0.000E+00

     total cpu time spent up to now is      899.2 secs

     total energy              =   -2519.44985130 Ry
     estimated scf accuracy    <       0.00000048 Ry

     iteration # 15     ecut=    80.00 Ry     beta= 0.30
     Davidson diagonalization with overlap
     ethr =  1.60E-10,  avg # of iterations =  2.6

     negative rho (up, down):  1.546E-02 0.000E+00

     total cpu time spent up to now is      907.7 secs

     total energy              =   -2519.44985131 Ry
     estimated scf accuracy    <       0.00000079 Ry

     iteration # 16     ecut=    80.00 Ry     beta= 0.30
     Davidson diagonalization with overlap
     ethr =  1.60E-10,  avg # of iterations =  2.0

     negative rho (up, down):  1.560E-02 0.000E+00

     total cpu time spent up to now is      914.1 secs

     End of self-consistent calculation

          k = 0.0000 0.0000 0.0000 ( 81491 PWs)   bands (ev):

   -57.9824 -57.9422 -57.4828 -57.4414 -57.3418 -57.2672 -56.9322 -56.8886
   -56.5585 -56.5154 -56.4065 -56.3660 -34.4774 -34.2792 -34.2496 -34.2036
   -34.1080 -34.0938 -34.0305 -33.8975 -33.8087 -33.6779 -33.6722 -33.6512
   -33.6505 -33.6210 -33.6056 -33.5741 -33.5006 -33.4697 -33.4168 -33.2106
   -33.1434 -33.1343 -33.1232 -33.0830 -33.0693 -32.8905 -32.8573 -32.8393
   -32.8310 -32.7829 -32.7540 -32.7360 -32.6489 -32.6276 -32.5447 -32.4390
   -23.2446 -18.6678 -18.4117 -18.0814 -17.9101 -17.7712 -17.6924 -17.5025
   -17.4425 -17.3251 -17.3153 -17.1759 -17.0929 -17.0896 -17.0077 -16.9972
   -16.8839 -16.7694 -16.7539 -16.6637 -16.4507 -16.0974 -16.0590 -16.0250
   -15.4378 -15.3777  -8.0756  -6.3575  -6.2728  -6.0464  -5.9079  -5.7930
    -5.5909  -5.2199  -5.1006  -5.0528  -5.0218  -4.9508  -4.8971  -4.7289
    -4.7172  -4.6916  -4.6883  -4.6747  -4.5730  -4.4960  -4.4124  -4.4061
    -4.3954  -4.3770  -4.1809  -4.1555  -4.1416  -3.9649  -3.8858  -3.7552
    -3.5978  -3.5430  -3.5064  -3.4577  -3.2560  -3.1819  -3.0946  -3.0480
    -3.0414  -2.9523  -2.9185  -2.8296  -2.7163  -2.6430  -2.6350  -2.6165
    -2.6033  -2.5866  -2.4761  -2.3577  -2.3174  -2.2231  -2.1467  -2.1245
    -1.9374  -1.8708  -1.8204  -1.7520  -1.7036  -1.6567  -1.5699  -1.5475
    -1.4209  -1.3462  -1.2684  -1.2137  -1.1665  -1.0587  -1.0498  -0.9962
    -0.8285  -0.5327  -0.5185  -0.4692  -0.4601  -0.4084  -0.3178   1.0639
     1.2163   1.3687   1.4819   1.6546   1.7746   1.9220   1.9593   2.0639
     2.1110   2.1912   2.2382   2.3157   2.5159   2.5973   2.6904   2.6974
     2.7104   2.7151   2.7180   2.8535   2.8982   2.9066   2.9576   2.9883
     3.0780   3.1406   3.1671   3.1968   3.2963

          k = 0.0000 0.2277 0.0000 ( 81407 PWs)   bands (ev):

   -57.9824 -57.9422 -57.4828 -57.4414 -57.3418 -57.2672 -56.9322 -56.8886
   -56.5585 -56.5154 -56.4065 -56.3660 -34.4784 -34.2792 -34.2496 -34.2014
   -34.1082 -34.0940 -34.0305 -33.8991 -33.8087 -33.6779 -33.6646 -33.6512
   -33.6505 -33.6362 -33.6018 -33.5741 -33.4847 -33.4700 -33.4168 -33.2192
   -33.1429 -33.1342 -33.1229 -33.0828 -33.0694 -32.8903 -32.8623 -32.8393
   -32.8287 -32.7862 -32.7522 -32.7360 -32.6489 -32.6276 -32.5447 -32.4390
   -23.2445 -18.5963 -18.3194 -17.9866 -17.9071 -17.8557 -17.7502 -17.4556
   -17.4434 -17.3710 -17.3489 -17.2987 -17.2944 -17.1159 -16.9429 -16.8882
   -16.7906 -16.7804 -16.7571 -16.7158 -16.4512 -16.0916 -16.0564 -16.0316
   -15.4355 -15.3772  -8.0749  -6.3409  -6.0578  -5.9684  -5.6637  -5.5820
    -5.5015  -5.4331  -5.3079  -5.1301  -5.0477  -4.9843  -4.8405  -4.7195
    -4.6872  -4.6791  -4.6782  -4.6577  -4.5212  -4.4833  -4.3906  -4.3816
    -4.2108  -4.1704  -4.1505  -4.1243  -3.9299  -3.9095  -3.7370  -3.6732
    -3.5815  -3.5800  -3.5423  -3.3677  -3.3329  -3.2878  -3.2536  -3.2341
    -3.1721  -3.0351  -3.0094  -2.9483  -2.8194  -2.7863  -2.6751  -2.6063
    -2.5797  -2.5437  -2.3710  -2.3599  -2.3247  -2.2238  -2.0532  -2.0207
    -2.0013  -1.9162  -1.8622  -1.8130  -1.7756  -1.7528  -1.7237  -1.5790
    -1.4980  -1.4601  -1.3851  -1.3202  -1.1913  -1.1083  -1.1006  -1.0392
    -1.0341  -0.6181  -0.5604  -0.5459  -0.5085  -0.4496  -0.3773   1.1469
     1.1686   1.4804   1.5214   1.7543   1.9254   1.9636   1.9867   2.0498
     2.0833   2.1905   2.2100   2.2448   2.3131   2.5135   2.6246   2.6819
     2.7136   2.7568   2.9138   2.9265   2.9626   2.9932   3.0731   3.0815
     3.1859   3.2746   3.3251   3.3439   3.3997

          k = 0.0000-0.4554 0.0000 ( 81286 PWs)   bands (ev):

   -57.9824 -57.9422 -57.4828 -57.4414 -57.3418 -57.2672 -56.9322 -56.8886
   -56.5585 -56.5154 -56.4065 -56.3660 -34.4794 -34.2792 -34.2496 -34.1992
   -34.1084 -34.0942 -34.0305 -33.9007 -33.8087 -33.6779 -33.6567 -33.6511
   -33.6505 -33.6486 -33.5980 -33.5741 -33.4716 -33.4702 -33.4168 -33.2280
   -33.1424 -33.1341 -33.1226 -33.0827 -33.0695 -32.8900 -32.8673 -32.8393
   -32.8265 -32.7894 -32.7505 -32.7360 -32.6489 -32.6277 -32.5447 -32.4390
   -23.2445 -18.5204 -18.1809 -17.9484 -17.9042 -17.8489 -17.7665 -17.5378
   -17.5292 -17.4362 -17.4189 -17.3021 -17.2725 -17.2265 -16.9491 -16.8572
   -16.8556 -16.7594 -16.6971 -16.6691 -16.4518 -16.0854 -16.0508 -16.0422
   -15.4334 -15.3768  -8.0742  -6.3360  -6.0502  -5.5867  -5.5769  -5.5609
    -5.5220  -5.3566  -5.2180  -5.1395  -4.9996  -4.8249  -4.7868  -4.7170
    -4.6839  -4.6375  -4.6295  -4.6075  -4.5952  -4.4449  -4.3813  -4.3712
    -4.1830  -4.0933  -4.0730  -3.9796  -3.8531  -3.8496  -3.6589  -3.6491
    -3.6389  -3.6075  -3.5584  -3.5523  -3.5426  -3.4606  -3.4006  -3.2503
    -3.1745  -3.0571  -2.9731  -2.9616  -2.9406  -2.7654  -2.7310  -2.7031
    -2.5892  -2.5435  -2.5228  -2.3680  -2.3630  -2.2513  -2.1846  -2.0652
    -2.0555  -2.0396  -1.9180  -1.8760  -1.8300  -1.7727  -1.7617  -1.5745
    -1.4714  -1.4088  -1.3511  -1.2967  -1.2648  -1.2205  -1.1655  -1.1452
    -1.0247  -0.7088  -0.6070  -0.5933  -0.5396  -0.4848  -0.4042   1.0694
     1.2002   1.4781   1.4963   1.6632   1.6961   1.9189   1.9379   2.0993
     2.2233   2.2377   2.2725   2.3332   2.5121   2.5249   2.5476   2.7249
     2.7698   2.8522   2.9508   2.9625   3.0450   3.0713   3.1590   3.1999
     3.2794   3.2942   3.3521   3.3852   3.4960

          k = 0.2500 0.0000 0.0000 ( 81478 PWs)   bands (ev):

   -57.9766 -57.9481 -57.4768 -57.4475 -57.3388 -57.2703 -56.9271 -56.8937
   -56.5523 -56.5216 -56.4006 -56.3719 -34.4140 -34.2741 -34.2518 -34.1878
   -34.1101 -34.0982 -34.0463 -33.8318 -33.7932 -33.7245 -33.6982 -33.6645
   -33.6430 -33.6283 -33.5911 -33.5729 -33.4875 -33.4850 -33.4395 -33.1987
   -33.1358 -33.1349 -33.1303 -33.1093 -33.0508 -32.8533 -32.8346 -32.8305
   -32.8275 -32.7787 -32.7582 -32.7489 -32.6975 -32.6339 -32.5602 -32.5078
   -23.2444 -18.5170 -18.2813 -17.9441 -17.8675 -17.7121 -17.6602 -17.6175
   -17.5269 -17.3963 -17.2522 -17.2450 -17.2295 -17.1157 -17.0304 -16.9137
   -16.8499 -16.7699 -16.7274 -16.7200 -16.4071 -16.1667 -16.1366 -16.0459
   -15.4745 -15.4396  -8.0750  -6.3054  -6.0789  -5.8779  -5.7221  -5.6201
    -5.3310  -5.1559  -5.1543  -5.1193  -4.9900  -4.9667  -4.9616  -4.9272
    -4.7783  -4.7493  -4.7244  -4.6644  -4.6244  -4.6040  -4.5954  -4.4942
    -4.4094  -4.3861  -4.3606  -4.1059  -3.9031  -3.8523  -3.8209  -3.7257
    -3.5719  -3.5396  -3.4560  -3.2678  -3.2569  -3.1346  -3.0374  -3.0271
    -2.9776  -2.9123  -2.8782  -2.8159  -2.6706  -2.6561  -2.6486  -2.6418
    -2.5617  -2.5286  -2.4547  -2.3653  -2.3566  -2.1878  -2.1744  -2.1089
    -2.0277  -2.0123  -1.9239  -1.8611  -1.8596  -1.7577  -1.6680  -1.5664
    -1.5503  -1.4577  -1.3513  -1.2727  -1.2471  -1.2372  -1.0909  -1.0578
    -1.0550  -0.7096  -0.6889  -0.4895  -0.4601  -0.3700  -0.3693   1.2780
     1.3398   1.4882   1.6387   1.8954   1.8978   1.9436   1.9685   2.0067
     2.0783   2.0909   2.2808   2.3252   2.3533   2.4642   2.5621   2.6874
     2.7909   2.8063   2.8581   2.9041   2.9107   2.9350   2.9987   3.0525
     3.1291   3.1321   3.1823   3.3099   3.3342

          k = 0.2500 0.2277 0.0000 ( 81485 PWs)   bands (ev):

   -57.9766 -57.9481 -57.4768 -57.4475 -57.3388 -57.2703 -56.9271 -56.8937
   -56.5523 -56.5216 -56.4006 -56.3719 -34.4150 -34.2741 -34.2519 -34.1859
   -34.1099 -34.0984 -34.0465 -33.8333 -33.7932 -33.7245 -33.6982 -33.6587
   -33.6430 -33.6362 -33.5881 -33.5729 -33.4880 -33.4842 -33.4300 -33.2059
   -33.1368 -33.1343 -33.1302 -33.1092 -33.0504 -32.8571 -32.8334 -32.8305
   -32.8273 -32.7811 -32.7571 -32.7488 -32.6974 -32.6339 -32.5602 -32.5078
   -23.2443 -18.4506 -18.1966 -17.8643 -17.8551 -17.8162 -17.6376 -17.6224
   -17.4357 -17.4141 -17.4004 -17.3582 -17.2371 -17.0724 -17.0684 -16.9335
   -16.8768 -16.8149 -16.6999 -16.6876 -16.4077 -16.1659 -16.1349 -16.0483
   -15.4727 -15.4400  -8.0745  -6.3006  -5.8892  -5.7769  -5.4695  -5.3315
    -5.3105  -5.2457  -5.1140  -5.0955  -5.0796  -4.9728  -4.9066  -4.8756
    -4.7928  -4.7744  -4.7240  -4.6160  -4.5778  -4.5508  -4.5099  -4.4287
    -4.4094  -4.3287  -4.1660  -4.0508  -3.9819  -3.8250  -3.7861  -3.7086
    -3.5422  -3.4812  -3.3756  -3.3266  -3.2729  -3.2437  -3.2121  -3.1579
    -3.0598  -2.9949  -2.9752  -2.8877  -2.8259  -2.8149  -2.7536  -2.6490
    -2.6080  -2.5817  -2.5188  -2.4793  -2.3791  -2.3374  -2.3271  -2.2133
    -2.0686  -2.0549  -1.8937  -1.8766  -1.8058  -1.7745  -1.7306  -1.6770
    -1.5857  -1.5026  -1.3772  -1.3529  -1.2147  -1.2066  -1.1385  -1.0827
    -1.0499  -0.6997  -0.6773  -0.5548  -0.5312  -0.3957  -0.3651   1.2599
     1.3830   1.6068   1.7201   1.8317   1.9072   2.0125   2.0698   2.0974
     2.1612   2.1653   2.2296   2.3208   2.3404   2.3940   2.6166   2.7140
     2.7402   2.7694   2.9219   2.9837   2.9974   3.0344   3.0681   3.1009
     3.2349   3.2705   3.3248   3.3575   3.4563

          k = 0.2500-0.4554 0.0000 ( 81408 PWs)   bands (ev):

   -57.9766 -57.9481 -57.4768 -57.4475 -57.3388 -57.2703 -56.9272 -56.8937
   -56.5523 -56.5216 -56.4006 -56.3719 -34.4159 -34.2741 -34.2519 -34.1840
   -34.1098 -34.0986 -34.0468 -33.8348 -33.7931 -33.7245 -33.6982 -33.6527
   -33.6434 -33.6430 -33.5850 -33.5730 -33.4885 -33.4835 -33.4211 -33.2131
   -33.1378 -33.1338 -33.1302 -33.1091 -33.0500 -32.8609 -32.8321 -32.8305
   -32.8271 -32.7835 -32.7561 -32.7488 -32.6974 -32.6339 -32.5602 -32.5078
   -23.2443 -18.3809 -18.0595 -17.8858 -17.8558 -17.7199 -17.6974 -17.6274
   -17.5044 -17.4715 -17.3817 -17.3458 -17.2923 -17.2353 -17.0070 -17.0007
   -16.8991 -16.8155 -16.6694 -16.6562 -16.4082 -16.1654 -16.1334 -16.0509
   -15.4711 -15.4404  -8.0739  -6.2991  -5.8860  -5.3639  -5.3033  -5.2447
    -5.2028  -5.1328  -5.0672  -5.0495  -4.9713  -4.9305  -4.9242  -4.8593
    -4.8448  -4.8255  -4.6577  -4.6080  -4.5877  -4.4892  -4.4514  -4.3535
    -4.2717  -4.0828  -4.0485  -3.9908  -3.9563  -3.8206  -3.7713  -3.7146
    -3.6847  -3.6697  -3.4079  -3.3955  -3.3591  -3.2621  -3.2263  -3.2200
    -3.2170  -3.1037  -3.0542  -3.0373  -2.9475  -2.8924  -2.8771  -2.8007
    -2.7247  -2.6988  -2.6927  -2.5536  -2.5265  -2.5213  -2.4121  -2.3221
    -2.2850  -2.1356  -1.8146  -1.8075  -1.7956  -1.7014  -1.6420  -1.6208
    -1.5684  -1.5456  -1.4148  -1.3961  -1.2076  -1.1229  -1.1062  -1.0410
    -1.0280  -0.7409  -0.6969  -0.6351  -0.5843  -0.4063  -0.3659   1.2776
     1.3915   1.6181   1.6311   1.7288   1.8583   1.9498   2.1324   2.1436
     2.1884   2.2023   2.3007   2.3572   2.4424   2.5453   2.7080   2.7722
     2.7916   2.8141   2.9570   3.0053   3.0075   3.1438   3.1707   3.2919
     3.3069   3.3368   3.4239   3.4844   3.5330

          k =-0.5000 0.0000 0.0000 ( 81532 PWs)   bands (ev):

   -57.9638 -57.9609 -57.4638 -57.4606 -57.3355 -57.2736 -56.9196 -56.9012
   -56.5393 -56.5347 -56.3863 -56.3862 -34.2643 -34.2605 -34.2590 -34.2569
   -34.1504 -34.1480 -33.8984 -33.8819 -33.7510 -33.7451 -33.6956 -33.6475
   -33.6449 -33.6379 -33.6283 -33.5710 -33.5705 -33.5065 -33.2972 -33.2807
   -33.1759 -33.1595 -33.1222 -33.1090 -32.8985 -32.8945 -32.8451 -32.8425
   -32.7754 -32.7727 -32.7685 -32.7683 -32.6705 -32.6702 -32.5973 -32.5972
   -23.2442 -18.1507 -18.1263 -18.0084 -17.9433 -17.6492 -17.6271 -17.5617
   -17.4827 -17.4357 -17.4353 -17.3786 -17.3749 -17.0726 -17.0232 -16.8813
   -16.8772 -16.7590 -16.7508 -16.4915 -16.4871 -16.2540 -16.2530 -16.0491
   -15.5116 -15.5075  -8.0744  -6.2749  -5.5772  -5.5766  -5.4386  -5.3722
    -5.2993  -5.2688  -5.1859  -5.1822  -5.1132  -5.1041  -5.0989  -5.0897
    -5.0798  -4.8938  -4.8760  -4.6297  -4.5744  -4.4827  -4.4784  -4.3934
    -4.3605  -4.3462  -4.2225  -4.1735  -4.1370  -3.7719  -3.7568  -3.5495
    -3.4581  -3.4432  -3.3682  -3.2943  -3.2501  -3.1957  -3.1884  -3.0278
    -3.0052  -2.9087  -2.8952  -2.8240  -2.7959  -2.6371  -2.5752  -2.5685
    -2.5407  -2.3782  -2.3697  -2.3446  -2.2767  -2.2701  -2.2268  -2.0717
    -2.0702  -2.0277  -2.0247  -1.9781  -1.9739  -1.8700  -1.8154  -1.7317
    -1.6471  -1.6384  -1.4523  -1.4362  -1.3290  -1.3209  -1.3208  -1.3076
    -0.8315  -0.8116  -0.5349  -0.5344  -0.4689  -0.4685  -0.4188   1.5616
     1.5625   1.6848   1.7138   1.8376   1.8379   1.9188   1.9668   2.0257
     2.0403   2.1292   2.2052   2.4301   2.4765   2.4777   2.4806   2.5992
     2.6868   2.8673   2.8802   2.9036   2.9296   2.9532   2.9807   3.0244
     3.0824   3.2469   3.2586   3.5883   3.5944

          k =-0.5000 0.2277 0.0000 ( 81508 PWs)   bands (ev):

   -57.9638 -57.9609 -57.4638 -57.4606 -57.3355 -57.2736 -56.9196 -56.9012
   -56.5393 -56.5347 -56.3863 -56.3862 -34.2643 -34.2608 -34.2593 -34.2576
   -34.1493 -34.1470 -33.8986 -33.8821 -33.7510 -33.7451 -33.6967 -33.6467
   -33.6442 -33.6380 -33.6295 -33.5710 -33.5686 -33.5042 -33.2940 -33.2777
   -33.1797 -33.1632 -33.1222 -33.1090 -32.8984 -32.8944 -32.8462 -32.8438
   -32.7753 -32.7727 -32.7691 -32.7690 -32.6704 -32.6701 -32.5973 -32.5972
   -23.2441 -18.1112 -18.0717 -17.9523 -17.8992 -17.6326 -17.6251 -17.5283
   -17.5080 -17.5015 -17.4507 -17.3287 -17.3273 -17.1481 -17.1237 -16.9861
   -16.9815 -16.7271 -16.7180 -16.4839 -16.4823 -16.2533 -16.2512 -16.0500
   -15.5113 -15.5073  -8.0740  -6.2746  -5.4427  -5.3867  -5.3510  -5.3422
    -5.1965  -5.1724  -5.0777  -4.9939  -4.9901  -4.9767  -4.9416  -4.9356
    -4.9270  -4.8058  -4.7846  -4.6077  -4.5686  -4.4833  -4.4675  -4.4202
    -4.3855  -4.3717  -4.3561  -3.9859  -3.9673  -3.9373  -3.8490  -3.6989
    -3.6403  -3.4964  -3.4924  -3.3839  -3.3420  -3.3126  -3.2871  -3.0827
    -3.0497  -2.9399  -2.9317  -2.9011  -2.8891  -2.8033  -2.7525  -2.6717
    -2.6611  -2.5510  -2.5442  -2.4550  -2.3770  -2.3666  -2.3224  -2.3099
    -2.2946  -2.1532  -2.1144  -1.9591  -1.9373  -1.7957  -1.7915  -1.7524
    -1.4848  -1.4823  -1.3986  -1.3667  -1.2955  -1.2784  -1.2563  -1.2368
    -0.8558  -0.8385  -0.5965  -0.5932  -0.4549  -0.4522  -0.4031   1.5985
     1.6010   1.7197   1.7494   1.8934   1.9548   1.9943   2.0229   2.0299
     2.0354   2.2157   2.2654   2.4773   2.4814   2.5737   2.6206   2.7169
     2.7256   2.7527   2.7622   2.9339   2.9536   3.0696   3.1088   3.1778
     3.2307   3.2813   3.2895   3.5431   3.5484

          k =-0.5000-0.4554 0.0000 ( 81484 PWs)   bands (ev):

   -57.9638 -57.9609 -57.4638 -57.4606 -57.3355 -57.2736 -56.9197 -56.9012
   -56.5393 -56.5347 -56.3863 -56.3862 -34.2643 -34.2613 -34.2596 -34.2582
   -34.1483 -34.1459 -33.8987 -33.8822 -33.7510 -33.7451 -33.6977 -33.6459
   -33.6436 -33.6382 -33.6305 -33.5710 -33.5668 -33.5019 -33.2905 -33.2744
   -33.1839 -33.1672 -33.1222 -33.1090 -32.8983 -32.8942 -32.8473 -32.8450
   -32.7753 -32.7726 -32.7697 -32.7696 -32.6703 -32.6700 -32.5973 -32.5972
   -23.2441 -18.0734 -18.0088 -17.8184 -17.7802 -17.7494 -17.7487 -17.5319
   -17.5303 -17.3708 -17.3706 -17.3441 -17.2892 -17.1940 -17.1851 -17.1491
   -17.1466 -16.7105 -16.7004 -16.4788 -16.4771 -16.2527 -16.2493 -16.0511
   -15.5112 -15.5071  -8.0736  -6.2750  -5.4447  -5.3848  -5.2053  -5.1827
    -5.0341  -4.9996  -4.9990  -4.8155  -4.8129  -4.7299  -4.7198  -4.6757
    -4.6367  -4.6134  -4.5727  -4.5352  -4.5168  -4.5097  -4.4907  -4.3835
    -4.3539  -4.3170  -4.2759  -4.2632  -4.2607  -3.9864  -3.9367  -3.9182
    -3.9137  -3.7153  -3.5820  -3.5144  -3.4853  -3.2730  -3.1933  -3.1002
    -3.0380  -3.0370  -3.0365  -3.0000  -2.9965  -2.9565  -2.9471  -2.8919
    -2.8532  -2.7155  -2.7092  -2.6768  -2.5838  -2.5667  -2.5292  -2.4531
    -2.3595  -2.2257  -2.2238  -1.8991  -1.8839  -1.7830  -1.6183  -1.6067
    -1.3886  -1.3814  -1.3343  -1.2966  -1.2887  -1.2522  -1.1794  -1.1556
    -0.8539  -0.8499  -0.6436  -0.6383  -0.4543  -0.4477  -0.3869   1.7000
     1.7103   1.7132   1.7178   1.8374   1.9558   2.0073   2.0889   2.1130
     2.1563   2.1833   2.1885   2.4754   2.4797   2.5520   2.5920   2.8125
     2.8603   2.8990   2.9456   3.0432   3.0723   3.1855   3.2071   3.2891
     3.2994   3.3490   3.3843   3.5505   3.5573

     the Fermi energy is    -0.3446 ev

!    total energy              =   -2519.44985108 Ry
     estimated scf accuracy    <       0.00000014 Ry
     smearing contrib. (-TS)   =       0.00341954 Ry
     internal energy E=F+TS    =   -2519.45327062 Ry

     The total energy is F=E-TS. E is the sum of the following terms:
     one-electron contribution =  -26185.85564244 Ry
     hartree contribution      =   13142.88011898 Ry
     xc contribution           =    -409.98309806 Ry
     ewald contribution        =   11180.97155053 Ry
     one-center paw contrib.   =    -247.46619964 Ry

     convergence has been achieved in  16 iterations

     negative rho (up, down):  1.560E-02 0.000E+00

     Forces acting on atoms (cartesian axes, Ry/au):

     atom    1 type  2   force =    -0.00004266    0.00000000    0.11494404
     atom    2 type  2   force =     0.00079975    0.00000000   -0.10503772
     atom    3 type  2   force =    -0.00006046    0.00000000    0.01388666
     atom    4 type  2   force =    -0.00594150    0.00000000   -0.01622541
     atom    5 type  2   force =    -0.00256828    0.00000000    0.02485684
     atom    6 type  2   force =    -0.00000186    0.00000000   -0.00717715
     atom    7 type  3   force =     0.00003223    0.00000000    0.03257950
     atom    8 type  3   force =     0.00004709    0.00000000    0.05968181
     atom    9 type  3   force =    -0.00034250    0.06801921   -0.03550991
     atom   10 type  3   force =    -0.00034250   -0.06801921   -0.03550991
     atom   11 type  3   force =    -0.00093400    0.00000000    0.01536168
     atom   12 type  3   force =    -0.00003523    0.00000000   -0.05964227
     atom   13 type  3   force =     0.00085294   -0.00182330   -0.00334059
     atom   14 type  3   force =     0.00085294    0.00182330   -0.00334059
     atom   15 type  3   force =     0.00022288    0.00000000    0.01085642
     atom   16 type  3   force =    -0.00077062    0.00000000    0.00505639
     atom   17 type  3   force =    -0.00831748   -0.00535648    0.00951432
     atom   18 type  3   force =    -0.00831748    0.00535648    0.00951432
     atom   19 type  2   force =     0.00006035    0.00000000    0.11773252
     atom   20 type  2   force =    -0.00087544    0.00000000   -0.10506810
     atom   21 type  2   force =    -0.00004397    0.00000000    0.01052536
     atom   22 type  2   force =     0.00618441    0.00000000   -0.01541381
     atom   23 type  2   force =     0.00152152    0.00000000   -0.02418451
     atom   24 type  2   force =     0.00000191    0.00000000   -0.00638222
     atom   25 type  3   force =     0.00009590    0.00000000    0.03009162
     atom   26 type  3   force =     0.00001435    0.00000000    0.05934461
     atom   27 type  3   force =     0.00035131    0.06803367   -0.03549718
     atom   28 type  3   force =     0.00035131   -0.06803367   -0.03549718
     atom   29 type  3   force =     0.00061126    0.00000000   -0.01143991
     atom   30 type  3   force =     0.00040354    0.00000000   -0.05536339
     atom   31 type  3   force =    -0.00074713   -0.00194540   -0.00348424
     atom   32 type  3   force =    -0.00074713    0.00194540   -0.00348424
     atom   33 type  3   force =    -0.00054283    0.00000000    0.01009008
     atom   34 type  3   force =     0.00114793    0.00000000    0.00705206
     atom   35 type  3   force =     0.00710850   -0.00365954    0.01571603
     atom   36 type  3   force =     0.00710850    0.00365954    0.01571603
     atom   37 type  3   force =     0.02241482    0.00000000    0.01105225
     atom   38 type  3   force =    -0.00218135    0.00000000   -0.02181466
     atom   39 type  1   force =    -0.01737099    0.00000000    0.00984042

     Total force =     0.073574     Total SCF correction =     0.000670
     Energy error            =      1.2E-02 Ry
     Gradient error          =      2.5E-02 Ry/Bohr

     number of scf cycles    =   4
     number of bfgs steps    =   3

     energy             old  =   -2519.4374780479 Ry
     energy             new  =   -2519.4498510784 Ry

     CASE: energy            _new < energy            _old

     new trust radius        =       0.0651997757 bohr
     new conv_thr            =       0.0000001243 Ry


ATOMIC_POSITIONS (angstrom)
Ti               0.0000000000        4.8723546300        9.7447092600    0   0   0
Ti               1.4793500000        1.6241182100        9.7447092600    0   0   0
Ti              -0.0004043004        1.6241182100       13.0461457875
Ti               1.4713976115        4.8723546300       12.9825035248
Ti              -0.0025322300        4.8723546300       16.1860603534
Ti               1.4813915014        1.6241182100       16.3651626242
O                0.0000000000        1.6241182100       11.0129506900    0   0   0
O                0.0000000000        1.6241182100        8.4764678300    0   0   0
O                1.4793500000        3.6041132000        9.7447092600    0   0   0
O                1.4793500000        6.1405960600        9.7447092600    0   0   0
O                0.0017544180        4.8723546300       14.2440911366
O                0.0000000000        4.8723546300       11.7247042500    0   0   0
O                1.4813455911        0.3192807047       12.9810303748
O                1.4813455911        2.9289557153       12.9810303748
O                0.0014616996        1.6241182100       17.4603583129
O               -0.0021246106        1.6241182100       14.9105269141
O                1.4933901045        3.6304400360       16.2635465761
O                1.4933901045        6.1142692240       16.2635465761
Ti               2.9587000000        4.8723546300        9.7447092600    0   0   0
Ti               4.4380500000        1.6241182100        9.7447092600    0   0   0
Ti               2.9587395920        1.6241182100       13.0428487298
Ti               4.4475508487        4.8723546300       12.9852341297
Ti               2.9491989106        4.8723546300       16.0911286074
Ti               4.4360934170        1.6241182100       16.3642997587
O                2.9587000000        1.6241182100       11.0129506900    0   0   0
O                2.9587000000        1.6241182100        8.4764678300    0   0   0
O                4.4380500000        3.6041132000        9.7447092600    0   0   0
O                4.4380500000        6.1405960600        9.7447092600    0   0   0
O                2.9591428347        4.8723546300       14.2707385379
O                2.9587000000        4.8723546300       11.7247042500    0   0   0
O                4.4363380725        0.3187548882       12.9806950331
O                4.4363380725        2.9294815318       12.9806950331
O                2.9577602400        1.6241182100       17.4657849625
O                2.9610626717        1.6241182100       14.9079466802
O                4.4191695214        3.6358931595       16.2831850694
O                4.4191695214        6.1088161005       16.2831850694
O                0.0181685258        4.8723546300       18.2878694651
O                1.2967489538        4.8723546300       18.7469064548
H                1.2007437575        4.8723546300       19.7294575596



     Writing config-only to output data dir ./tmp_s0_OOH__2x1v_mir/s0_OOH__2x1v_mir.save/ :
     XML data file
     NEW-OLD atomic charge density approx. for the potential

     Check: negative core charge=   -0.000001

     negative rho (up, down):  1.543E-02 0.000E+00

     total cpu time spent up to now is      918.3 secs

     per-process dynamical memory:   247.9 Mb

     Self-consistent Calculation

     iteration #  1     ecut=    80.00 Ry     beta= 0.30
     Davidson diagonalization with overlap
     ethr =  1.00E-06,  avg # of iterations = 11.2

     negative rho (up, down):  1.548E-02 0.000E+00

     total cpu time spent up to now is      934.9 secs

     total energy              =   -2519.44191506 Ry
     estimated scf accuracy    <       0.27090915 Ry

     iteration #  2     ecut=    80.00 Ry     beta= 0.30
     Davidson diagonalization with overlap
     ethr =  9.00E-05,  avg # of iterations =  1.0

     negative rho (up, down):  1.529E-02 0.000E+00

     total cpu time spent up to now is      941.1 secs

     total energy              =   -2519.45330031 Ry
     estimated scf accuracy    <       0.58674897 Ry

     iteration #  3     ecut=    80.00 Ry     beta= 0.30
     Davidson diagonalization with overlap
     ethr =  9.00E-05,  avg # of iterations =  1.0

     negative rho (up, down):  1.522E-02 0.000E+00

     total cpu time spent up to now is      947.4 secs

     total energy              =   -2519.45450554 Ry
     estimated scf accuracy    <       0.02346487 Ry

     iteration #  4     ecut=    80.00 Ry     beta= 0.30
     Davidson diagonalization with overlap
     ethr =  7.80E-06,  avg # of iterations =  2.0

     negative rho (up, down):  1.519E-02 0.000E+00

     total cpu time spent up to now is      964.8 secs

     total energy              =   -2519.45488010 Ry
     estimated scf accuracy    <       0.10355840 Ry

     iteration #  5     ecut=    80.00 Ry     beta= 0.30
     Davidson diagonalization with overlap
     ethr =  7.80E-06,  avg # of iterations =  1.0

     negative rho (up, down):  1.515E-02 0.000E+00

     total cpu time spent up to now is      974.4 secs

     total energy              =   -2519.45546973 Ry
     estimated scf accuracy    <       0.00129958 Ry

     iteration #  6     ecut=    80.00 Ry     beta= 0.30
     Davidson diagonalization with overlap
     ethr =  4.32E-07,  avg # of iterations =  2.0

     negative rho (up, down):  1.510E-02 0.000E+00

     total cpu time spent up to now is      988.6 secs

     total energy              =   -2519.45512877 Ry
     estimated scf accuracy    <       0.01362064 Ry

     iteration #  7     ecut=    80.00 Ry     beta= 0.30
     Davidson diagonalization with overlap
     ethr =  4.32E-07,  avg # of iterations =  2.3

     negative rho (up, down):  1.510E-02 0.000E+00

     total cpu time spent up to now is      995.5 secs

     total energy              =   -2519.45570016 Ry
     estimated scf accuracy    <       0.02724946 Ry

     iteration #  8     ecut=    80.00 Ry     beta= 0.30
     Davidson diagonalization with overlap
     ethr =  4.32E-07,  avg # of iterations =  1.0

     negative rho (up, down):  1.509E-02 0.000E+00

     total cpu time spent up to now is     1001.8 secs

     total energy              =   -2519.45570246 Ry
     estimated scf accuracy    <       0.02611285 Ry

     iteration #  9     ecut=    80.00 Ry     beta= 0.30
     Davidson diagonalization with overlap
     ethr =  4.32E-07,  avg # of iterations =  1.0

     negative rho (up, down):  1.509E-02 0.000E+00

     total cpu time spent up to now is     1008.1 secs

     total energy              =   -2519.45570577 Ry
     estimated scf accuracy    <       0.02585144 Ry

     iteration # 10     ecut=    80.00 Ry     beta= 0.30
     Davidson diagonalization with overlap
     ethr =  4.32E-07,  avg # of iterations =  1.0

     negative rho (up, down):  1.509E-02 0.000E+00

     total cpu time spent up to now is     1014.3 secs

     total energy              =   -2519.45570500 Ry
     estimated scf accuracy    <       0.02608308 Ry

     iteration # 11     ecut=    80.00 Ry     beta= 0.30
     Davidson diagonalization with overlap
     ethr =  4.32E-07,  avg # of iterations =  1.0

     negative rho (up, down):  1.513E-02 0.000E+00

     total cpu time spent up to now is     1020.7 secs

     total energy              =   -2519.45538754 Ry
     estimated scf accuracy    <       0.02596449 Ry

     iteration # 12     ecut=    80.00 Ry     beta= 0.30
     Davidson diagonalization with overlap
     ethr =  4.32E-07,  avg # of iterations =  1.7

     negative rho (up, down):  1.515E-02 0.000E+00

     total cpu time spent up to now is     1031.3 secs

     total energy              =   -2519.45553313 Ry
     estimated scf accuracy    <       0.00056448 Ry

     iteration # 13     ecut=    80.00 Ry     beta= 0.30
     Davidson diagonalization with overlap
     ethr =  1.88E-07,  avg # of iterations =  2.0

     negative rho (up, down):  1.516E-02 0.000E+00

     total cpu time spent up to now is     1040.3 secs

     total energy              =   -2519.45555004 Ry
     estimated scf accuracy    <       0.00024243 Ry

     iteration # 14     ecut=    80.00 Ry     beta= 0.30
     Davidson diagonalization with overlap
     ethr =  8.05E-08,  avg # of iterations =  1.3

     negative rho (up, down):  1.517E-02 0.000E+00

     total cpu time spent up to now is     1070.6 secs

     total energy              =   -2519.45555906 Ry
     estimated scf accuracy    <       0.00015532 Ry

     iteration # 15     ecut=    80.00 Ry     beta= 0.30
     Davidson diagonalization with overlap
     ethr =  5.16E-08,  avg # of iterations =  1.3

     negative rho (up, down):  1.518E-02 0.000E+00

     total cpu time spent up to now is     1078.4 secs

     total energy              =   -2519.45555835 Ry
     estimated scf accuracy    <       0.00016573 Ry

     iteration # 16     ecut=    80.00 Ry     beta= 0.30
     Davidson diagonalization with overlap
     ethr =  5.16E-08,  avg # of iterations =  1.0

     negative rho (up, down):  1.520E-02 0.000E+00

     total cpu time spent up to now is     1085.8 secs

     total energy              =   -2519.45555403 Ry
     estimated scf accuracy    <       0.00017184 Ry

     iteration # 17     ecut=    80.00 Ry     beta= 0.30
     Davidson diagonalization with overlap
     ethr =  5.16E-08,  avg # of iterations =  1.0

     negative rho (up, down):  1.520E-02 0.000E+00

     total cpu time spent up to now is     1095.6 secs

     total energy              =   -2519.45555678 Ry
     estimated scf accuracy    <       0.00016038 Ry

     iteration # 18     ecut=    80.00 Ry     beta= 0.30
     Davidson diagonalization with overlap
     ethr =  5.16E-08,  avg # of iterations =  1.0

     negative rho (up, down):  1.512E-02 0.000E+00

     total cpu time spent up to now is     1105.3 secs

     total energy              =   -2519.45550871 Ry
     estimated scf accuracy    <       0.00016950 Ry

     iteration # 19     ecut=    80.00 Ry     beta= 0.30
     Davidson diagonalization with overlap
     ethr =  5.16E-08,  avg # of iterations =  3.2

     negative rho (up, down):  1.511E-02 0.000E+00

     total cpu time spent up to now is     1116.4 secs

     total energy              =   -2519.45551895 Ry
     estimated scf accuracy    <       0.00015359 Ry

     iteration # 20     ecut=    80.00 Ry     beta= 0.30
     Davidson diagonalization with overlap
     ethr =  5.10E-08,  avg # of iterations =  1.3

     negative rho (up, down):  1.524E-02 0.000E+00

     total cpu time spent up to now is     1126.1 secs

     total energy              =   -2519.45551145 Ry
     estimated scf accuracy    <       0.00017044 Ry

     iteration # 21     ecut=    80.00 Ry     beta= 0.30
     Davidson diagonalization with overlap
     ethr =  5.10E-08,  avg # of iterations =  5.6

     negative rho (up, down):  1.525E-02 0.000E+00

     total cpu time spent up to now is     1133.8 secs

     total energy              =   -2519.45552103 Ry
     estimated scf accuracy    <       0.00002001 Ry

     iteration # 22     ecut=    80.00 Ry     beta= 0.30
     Davidson diagonalization with overlap
     ethr =  6.65E-09,  avg # of iterations =  3.3

     negative rho (up, down):  1.528E-02 0.000E+00

     total cpu time spent up to now is     1142.6 secs

     total energy              =   -2519.45551932 Ry
     estimated scf accuracy    <       0.00002866 Ry

     iteration # 23     ecut=    80.00 Ry     beta= 0.30
     Davidson diagonalization with overlap
     ethr =  6.65E-09,  avg # of iterations =  2.7

     negative rho (up, down):  1.527E-02 0.000E+00

     total cpu time spent up to now is     1150.8 secs

     total energy              =   -2519.45551947 Ry
     estimated scf accuracy    <       0.00001342 Ry

     iteration # 24     ecut=    80.00 Ry     beta= 0.30
     Davidson diagonalization with overlap
     ethr =  4.46E-09,  avg # of iterations =  2.2

     negative rho (up, down):  1.526E-02 0.000E+00

     total cpu time spent up to now is     1159.2 secs

     total energy              =   -2519.45551965 Ry
     estimated scf accuracy    <       0.00000200 Ry

     iteration # 25     ecut=    80.00 Ry     beta= 0.30
     Davidson diagonalization with overlap
     ethr =  6.66E-10,  avg # of iterations =  4.9

     negative rho (up, down):  1.527E-02 0.000E+00

     total cpu time spent up to now is     1167.3 secs

     total energy              =   -2519.45551980 Ry
     estimated scf accuracy    <       0.00000088 Ry

     iteration # 26     ecut=    80.00 Ry     beta= 0.30
     Davidson diagonalization with overlap
     ethr =  2.91E-10,  avg # of iterations =  1.1

     negative rho (up, down):  1.529E-02 0.000E+00

     total cpu time spent up to now is     1174.7 secs

     total energy              =   -2519.45551975 Ry
     estimated scf accuracy    <       0.00000024 Ry

     iteration # 27     ecut=    80.00 Ry     beta= 0.30
     Davidson diagonalization with overlap
     ethr =  8.05E-11,  avg # of iterations =  3.3

     negative rho (up, down):  1.532E-02 0.000E+00

     total cpu time spent up to now is     1182.9 secs

     End of self-consistent calculation

          k = 0.0000 0.0000 0.0000 ( 81491 PWs)   bands (ev):

   -57.9827 -57.9405 -57.4680 -57.4267 -57.2966 -57.2541 -56.9431 -56.9001
   -56.5396 -56.4929 -56.3685 -56.3280 -34.4746 -34.2849 -34.2502 -34.2015
   -34.0932 -34.0913 -34.0278 -33.8576 -33.7940 -33.6690 -33.6610 -33.6560
   -33.6305 -33.6091 -33.5649 -33.5193 -33.5066 -33.4437 -33.3874 -33.2166
   -33.1513 -33.1311 -33.1277 -33.0787 -33.0706 -32.8539 -32.8413 -32.8169
   -32.8094 -32.7470 -32.7179 -32.7132 -32.6103 -32.5986 -32.5055 -32.4012
   -23.9283 -18.6603 -18.3899 -18.0513 -17.8887 -17.7416 -17.6812 -17.4912
   -17.4866 -17.2766 -17.2701 -17.1643 -17.0776 -17.0672 -16.9943 -16.9859
   -16.8376 -16.7431 -16.7358 -16.6563 -16.4464 -16.0512 -15.9968 -15.9344
   -15.4044 -15.3475  -8.2721  -6.6109  -6.2692  -6.0729  -5.8772  -5.7835
    -5.5810  -5.4449  -5.1112  -5.0462  -5.0349  -5.0087  -4.8898  -4.7126
    -4.7077  -4.6626  -4.6542  -4.6473  -4.5756  -4.4686  -4.3987  -4.3882
    -4.3874  -4.3316  -4.1712  -4.1612  -4.1076  -3.9403  -3.8882  -3.7516
    -3.5738  -3.4940  -3.4626  -3.4308  -3.2053  -3.1625  -3.0929  -3.0254
    -3.0186  -2.9441  -2.9131  -2.8033  -2.7045  -2.6409  -2.6363  -2.6010
    -2.5840  -2.5505  -2.4626  -2.3145  -2.2953  -2.1692  -2.1362  -2.1050
    -1.9282  -1.8594  -1.8160  -1.7449  -1.7020  -1.6366  -1.5620  -1.5347
    -1.3662  -1.3376  -1.2142  -1.1791  -1.1297  -1.0787  -1.0317  -0.9833
    -0.7513  -0.5153  -0.4862  -0.4331  -0.4315  -0.3841  -0.3090   1.0634
     1.2137   1.3720   1.4775   1.6428   1.7774   1.9597   1.9725   2.0684
     2.1183   2.1960   2.3069   2.3401   2.5300   2.6041   2.7197   2.7222
     2.7339   2.7354   2.7493   2.8877   2.9076   2.9158   2.9555   3.0226
     3.1114   3.1392   3.1835   3.2041   3.3136

          k = 0.0000 0.2277 0.0000 ( 81407 PWs)   bands (ev):

   -57.9827 -57.9405 -57.4680 -57.4267 -57.2965 -57.2541 -56.9431 -56.9001
   -56.5396 -56.4929 -56.3686 -56.3280 -34.4756 -34.2849 -34.2502 -34.1993
   -34.0935 -34.0915 -34.0277 -33.8592 -33.7940 -33.6690 -33.6560 -33.6530
   -33.6305 -33.6263 -33.5608 -33.5193 -33.4887 -33.4442 -33.3873 -33.2255
   -33.1513 -33.1309 -33.1274 -33.0788 -33.0702 -32.8537 -32.8458 -32.8169
   -32.8077 -32.7502 -32.7162 -32.7132 -32.6103 -32.5986 -32.5055 -32.4012
   -23.9283 -18.5896 -18.2992 -17.9573 -17.8738 -17.8443 -17.7274 -17.4858
   -17.4133 -17.3468 -17.3385 -17.2840 -17.2628 -17.0960 -16.9117 -16.8443
   -16.7829 -16.7724 -16.7390 -16.6953 -16.4471 -16.0478 -15.9922 -15.9397
   -15.4022 -15.3471  -8.2712  -6.6076  -6.0867  -5.9576  -5.6176  -5.5723
    -5.4952  -5.4242  -5.4000  -5.2944  -5.0217  -4.9786  -4.8954  -4.7069
    -4.6693  -4.6688  -4.6494  -4.6422  -4.5254  -4.4671  -4.3922  -4.3057
    -4.2061  -4.1748  -4.1317  -4.1079  -3.9261  -3.8839  -3.7167  -3.6585
    -3.5692  -3.5665  -3.4628  -3.3606  -3.3147  -3.2754  -3.2062  -3.2019
    -3.1570  -3.0106  -2.9759  -2.9355  -2.8065  -2.7569  -2.6700  -2.5948
    -2.5866  -2.5218  -2.3470  -2.3383  -2.2917  -2.2117  -2.0606  -2.0003
    -1.9801  -1.8770  -1.8601  -1.8003  -1.7660  -1.7418  -1.7013  -1.5867
    -1.4323  -1.4135  -1.3268  -1.3032  -1.1911  -1.1346  -1.0244  -1.0182
    -1.0085  -0.6130  -0.5339  -0.5148  -0.4700  -0.4259  -0.3479   1.1429
     1.1610   1.4760   1.5324   1.7661   1.9683   1.9784   1.9802   2.0593
     2.0879   2.2137   2.2391   2.2616   2.3492   2.5293   2.6383   2.6872
     2.7442   2.7771   2.9332   2.9359   2.9796   3.0219   3.0855   3.1096
     3.1959   3.2988   3.3248   3.3704   3.3795

          k = 0.0000-0.4554 0.0000 ( 81286 PWs)   bands (ev):

   -57.9827 -57.9405 -57.4680 -57.4267 -57.2965 -57.2541 -56.9431 -56.9001
   -56.5396 -56.4929 -56.3686 -56.3280 -34.4767 -34.2849 -34.2502 -34.1971
   -34.0937 -34.0916 -34.0277 -33.8609 -33.7940 -33.6690 -33.6560 -33.6447
   -33.6399 -33.6304 -33.5565 -33.5193 -33.4745 -33.4448 -33.3873 -33.2347
   -33.1513 -33.1306 -33.1271 -33.0788 -33.0697 -32.8534 -32.8505 -32.8169
   -32.8058 -32.7534 -32.7145 -32.7133 -32.6103 -32.5987 -32.5055 -32.4012
   -23.9282 -18.5147 -18.1640 -17.9370 -17.8698 -17.8058 -17.7477 -17.5151
   -17.4968 -17.4767 -17.4099 -17.2541 -17.2526 -17.2153 -16.9496 -16.8231
   -16.8143 -16.7414 -16.6789 -16.6605 -16.4479 -16.0450 -15.9864 -15.9464
   -15.4002 -15.3467  -8.2704  -6.6068  -6.0784  -5.5740  -5.5689  -5.5447
    -5.5177  -5.3812  -5.2852  -5.1885  -5.0777  -4.8230  -4.7784  -4.7238
    -4.6420  -4.6284  -4.6186  -4.5967  -4.5836  -4.4540  -4.3900  -4.2773
    -4.1635  -4.0999  -4.0716  -3.9488  -3.8413  -3.8229  -3.6474  -3.6343
    -3.6249  -3.6096  -3.5621  -3.5557  -3.4628  -3.4446  -3.3722  -3.1999
    -3.1756  -3.0301  -2.9596  -2.9287  -2.9150  -2.7466  -2.7060  -2.6618
    -2.5635  -2.5432  -2.5052  -2.3741  -2.3498  -2.2302  -2.1969  -2.0563
    -2.0497  -2.0157  -1.8861  -1.8621  -1.8111  -1.7326  -1.6710  -1.5408
    -1.4624  -1.3597  -1.3277  -1.2836  -1.2705  -1.1906  -1.1787  -1.1045
    -0.9981  -0.7274  -0.5808  -0.5589  -0.5007  -0.4537  -0.3647   1.0640
     1.1906   1.4726   1.5108   1.6771   1.7092   1.9459   1.9901   2.1036
     2.2527   2.2546   2.2921   2.3358   2.5280   2.5385   2.5502   2.7462
     2.7913   2.8708   2.9596   2.9673   3.0513   3.1073   3.2027   3.2088
     3.2668   3.3283   3.3383   3.4270   3.4763

          k = 0.2500 0.0000 0.0000 ( 81478 PWs)   bands (ev):

   -57.9772 -57.9460 -57.4620 -57.4327 -57.2908 -57.2600 -56.9380 -56.9052
   -56.5342 -56.4983 -56.3626 -56.3340 -34.4113 -34.2805 -34.2520 -34.1858
   -34.1075 -34.0954 -34.0316 -33.7930 -33.7779 -33.7179 -33.6773 -33.6532
   -33.6452 -33.6165 -33.5485 -33.5187 -33.4609 -33.4574 -33.4459 -33.2050
   -33.1468 -33.1436 -33.1422 -33.1203 -33.0156 -32.8383 -32.8121 -32.8071
   -32.7904 -32.7427 -32.7261 -32.7222 -32.6679 -32.5952 -32.5211 -32.4700
   -23.9281 -18.5109 -18.2607 -17.9182 -17.8326 -17.7150 -17.6291 -17.6062
   -17.5523 -17.3727 -17.2406 -17.1993 -17.1989 -17.1093 -17.0163 -16.8933
   -16.8203 -16.7319 -16.7191 -16.6997 -16.4189 -16.0972 -16.0873 -15.9427
   -15.4424 -15.4103  -8.2719  -6.5925  -6.0687  -5.8857  -5.6847  -5.6112
    -5.4278  -5.3247  -5.1431  -5.1292  -5.0035  -4.9702  -4.9534  -4.8780
    -4.7707  -4.7458  -4.6987  -4.6502  -4.6105  -4.5866  -4.5801  -4.4650
    -4.3903  -4.3776  -4.3597  -4.0725  -3.8904  -3.8331  -3.8108  -3.7275
    -3.5658  -3.5060  -3.4040  -3.2458  -3.2252  -3.1146  -3.0131  -2.9882
    -2.9511  -2.9075  -2.8661  -2.8116  -2.6560  -2.6549  -2.6342  -2.6020
    -2.5376  -2.5125  -2.4271  -2.3525  -2.3353  -2.1497  -2.1240  -2.0983
    -2.0152  -2.0018  -1.9101  -1.8346  -1.8334  -1.7504  -1.6634  -1.5657
    -1.5207  -1.4585  -1.2801  -1.2763  -1.2126  -1.2062  -1.0606  -1.0216
    -1.0173  -0.6802  -0.6697  -0.4593  -0.4385  -0.3487  -0.3385   1.2758
     1.3414   1.4964   1.6296   1.8923   1.9080   1.9458   1.9767   2.0367
     2.0938   2.1004   2.2956   2.3357   2.4023   2.4832   2.5619   2.7105
     2.7963   2.8243   2.8902   2.8998   2.9199   2.9612   3.0127   3.0751
     3.1320   3.1647   3.1980   3.3378   3.3620

          k = 0.2500 0.2277 0.0000 ( 81485 PWs)   bands (ev):

   -57.9772 -57.9460 -57.4620 -57.4327 -57.2908 -57.2600 -56.9380 -56.9052
   -56.5342 -56.4983 -56.3626 -56.3340 -34.4123 -34.2805 -34.2520 -34.1840
   -34.1073 -34.0956 -34.0318 -33.7945 -33.7780 -33.7180 -33.6774 -33.6471
   -33.6452 -33.6253 -33.5450 -33.5187 -33.4605 -33.4578 -33.4355 -33.2124
   -33.1466 -33.1446 -33.1417 -33.1203 -33.0152 -32.8414 -32.8115 -32.8071
   -32.7902 -32.7451 -32.7261 -32.7211 -32.6679 -32.5952 -32.5211 -32.4700
   -23.9281 -18.4453 -18.1779 -17.8423 -17.8165 -17.7934 -17.6533 -17.6121
   -17.4226 -17.3976 -17.3673 -17.3444 -17.2241 -17.0544 -17.0286 -16.9220
   -16.8585 -16.7886 -16.6774 -16.6657 -16.4203 -16.0947 -16.0870 -15.9446
   -15.4406 -15.4107  -8.2713  -6.5912  -5.8978  -5.7647  -5.4230  -5.4043
    -5.3161  -5.3026  -5.2377  -5.1088  -5.0757  -4.9533  -4.9018  -4.8536
    -4.7734  -4.7554  -4.7190  -4.6105  -4.5632  -4.5154  -4.5039  -4.4166
    -4.3969  -4.3147  -4.1550  -4.0254  -3.9713  -3.8105  -3.7561  -3.6998
    -3.5163  -3.4464  -3.3654  -3.3071  -3.2504  -3.2218  -3.1794  -3.1307
    -3.0375  -2.9735  -2.9530  -2.8509  -2.8031  -2.7991  -2.7342  -2.6350
    -2.6041  -2.5748  -2.5108  -2.4641  -2.3561  -2.3151  -2.3012  -2.1876
    -2.0717  -2.0422  -1.8863  -1.8543  -1.7920  -1.7647  -1.7072  -1.6530
    -1.5571  -1.4212  -1.3421  -1.3294  -1.2247  -1.1725  -1.0987  -1.0579
    -1.0093  -0.6737  -0.6675  -0.5232  -0.5141  -0.3658  -0.3336   1.2580
     1.3823   1.6024   1.7265   1.8426   1.9362   2.0224   2.0746   2.1137
     2.1670   2.1877   2.2482   2.3111   2.3517   2.4257   2.6424   2.7236
     2.7545   2.7798   2.9393   2.9815   3.0094   3.0636   3.0900   3.1181
     3.2519   3.2822   3.3545   3.3865   3.4819

          k = 0.2500-0.4554 0.0000 ( 81408 PWs)   bands (ev):

   -57.9772 -57.9460 -57.4620 -57.4327 -57.2908 -57.2600 -56.9380 -56.9052
   -56.5343 -56.4983 -56.3627 -56.3340 -34.4132 -34.2805 -34.2520 -34.1821
   -34.1071 -34.0958 -34.0321 -33.7961 -33.7780 -33.7180 -33.6774 -33.6452
   -33.6408 -33.6332 -33.5414 -33.5187 -33.4601 -33.4583 -33.4259 -33.2200
   -33.1464 -33.1456 -33.1412 -33.1202 -33.0147 -32.8448 -32.8107 -32.8071
   -32.7900 -32.7475 -32.7261 -32.7201 -32.6679 -32.5952 -32.5211 -32.4700
   -23.9281 -18.3768 -18.0454 -17.8741 -17.8045 -17.6939 -17.6797 -17.6449
   -17.4925 -17.4339 -17.3682 -17.3357 -17.2705 -17.2144 -17.0059 -16.9645
   -16.8870 -16.7789 -16.6488 -16.6363 -16.4218 -16.0930 -16.0863 -15.9466
   -15.4390 -15.4111  -8.2706  -6.5911  -5.8936  -5.3749  -5.3519  -5.2980
    -5.2407  -5.1883  -5.0771  -5.0558  -4.9483  -4.9330  -4.8886  -4.8408
    -4.8318  -4.8109  -4.6401  -4.5951  -4.5789  -4.4915  -4.4119  -4.3386
    -4.2600  -4.0773  -4.0515  -3.9780  -3.9227  -3.7823  -3.7622  -3.7123
    -3.6605  -3.6566  -3.3897  -3.3425  -3.3406  -3.2523  -3.2141  -3.1882
    -3.1792  -3.0602  -3.0433  -3.0261  -2.9384  -2.8748  -2.8498  -2.7991
    -2.6997  -2.6971  -2.6701  -2.5383  -2.5025  -2.4871  -2.3990  -2.3042
    -2.2834  -2.1363  -1.8265  -1.8070  -1.8041  -1.6628  -1.6036  -1.5384
    -1.5159  -1.5018  -1.3939  -1.3648  -1.1691  -1.0750  -1.0686  -1.0298
    -1.0258  -0.7572  -0.6665  -0.6030  -0.5604  -0.3724  -0.3337   1.2763
     1.3901   1.6156   1.6412   1.7430   1.8695   1.9702   2.1370   2.1505
     2.2133   2.2411   2.2958   2.3668   2.4831   2.5359   2.7086   2.8064
     2.8107   2.8179   2.9643   3.0115   3.0163   3.1642   3.1745   3.3238
     3.3244   3.3703   3.4065   3.4416   3.5088

          k =-0.5000 0.0000 0.0000 ( 81532 PWs)   bands (ev):

   -57.9683 -57.9550 -57.4490 -57.4458 -57.2804 -57.2704 -56.9303 -56.9129
   -56.5263 -56.5063 -56.3484 -56.3483 -34.2745 -34.2611 -34.2562 -34.2500
   -34.1525 -34.1412 -33.8855 -33.8675 -33.7378 -33.7280 -33.6595 -33.6360
   -33.6334 -33.6258 -33.6090 -33.5181 -33.5175 -33.4921 -33.3042 -33.2891
   -33.1821 -33.1672 -33.1373 -33.1240 -32.8675 -32.8543 -32.8345 -32.8156
   -32.7585 -32.7458 -32.7325 -32.7324 -32.6329 -32.6326 -32.5584 -32.5583
   -23.9280 -18.1549 -18.1211 -18.0002 -17.8792 -17.6489 -17.6324 -17.5414
   -17.4389 -17.4243 -17.4240 -17.3742 -17.3607 -17.0244 -16.9948 -16.8699
   -16.8666 -16.7338 -16.7290 -16.4971 -16.4890 -16.1863 -16.1732 -15.9452
   -15.4813 -15.4789  -8.2718  -6.5772  -5.5679  -5.5670  -5.4609  -5.4184
    -5.3408  -5.2431  -5.2369  -5.1796  -5.1759  -5.1048  -5.0947  -5.0899
    -5.0703  -4.8837  -4.8234  -4.6120  -4.5676  -4.4748  -4.4556  -4.3998
    -4.3419  -4.3102  -4.2254  -4.1629  -4.1282  -3.7604  -3.7472  -3.5112
    -3.4400  -3.4338  -3.3659  -3.2665  -3.2324  -3.1704  -3.1679  -2.9861
    -2.9724  -2.9220  -2.8933  -2.7729  -2.7544  -2.6100  -2.5487  -2.5302
    -2.5157  -2.3669  -2.3559  -2.3270  -2.2638  -2.2370  -2.1676  -2.0680
    -2.0647  -2.0280  -2.0217  -1.9592  -1.9553  -1.8385  -1.8240  -1.7308
    -1.5904  -1.5749  -1.4111  -1.4013  -1.3048  -1.2964  -1.2873  -1.2871
    -0.8364  -0.8042  -0.5062  -0.5053  -0.4355  -0.4345  -0.3855   1.5600
     1.5713   1.7032   1.7195   1.8412   1.8468   1.9253   1.9927   2.0059
     2.0521   2.1501   2.2142   2.4246   2.4646   2.4967   2.5077   2.5993
     2.6881   2.8672   2.8922   2.9342   2.9364   2.9681   3.0216   3.0594
     3.0898   3.2787   3.2969   3.6017   3.6140

          k =-0.5000 0.2277 0.0000 ( 81508 PWs)   bands (ev):

   -57.9683 -57.9550 -57.4490 -57.4458 -57.2804 -57.2704 -56.9303 -56.9129
   -56.5263 -56.5063 -56.3484 -56.3483 -34.2745 -34.2618 -34.2562 -34.2506
   -34.1515 -34.1402 -33.8857 -33.8676 -33.7378 -33.7280 -33.6602 -33.6351
   -33.6328 -33.6262 -33.6103 -33.5175 -33.5161 -33.4899 -33.3008 -33.2859
   -33.1861 -33.1711 -33.1374 -33.1240 -32.8674 -32.8542 -32.8356 -32.8168
   -32.7585 -32.7458 -32.7331 -32.7330 -32.6328 -32.6325 -32.5584 -32.5583
   -23.9279 -18.1185 -18.0641 -17.9439 -17.8361 -17.6351 -17.6297 -17.5030
   -17.4982 -17.4860 -17.4023 -17.3227 -17.3206 -17.1118 -17.0878 -16.9735
   -16.9712 -16.6985 -16.6957 -16.4926 -16.4851 -16.1851 -16.1715 -15.9461
   -15.4811 -15.4787  -8.2713  -6.5770  -5.4645  -5.3960  -5.3758  -5.3428
    -5.3135  -5.1853  -5.1244  -4.9829  -4.9819  -4.9525  -4.9368  -4.9282
    -4.9178  -4.7990  -4.7401  -4.5841  -4.5526  -4.4684  -4.4600  -4.4088
    -4.3843  -4.3709  -4.3102  -3.9751  -3.9574  -3.9308  -3.8340  -3.6607
    -3.6173  -3.4868  -3.4799  -3.3618  -3.3158  -3.2984  -3.2672  -3.0493
    -3.0148  -2.9435  -2.9119  -2.8545  -2.8510  -2.7544  -2.7239  -2.6563
    -2.6449  -2.5519  -2.5397  -2.4240  -2.3616  -2.3467  -2.3109  -2.3102
    -2.2787  -2.1541  -2.1223  -1.9424  -1.8924  -1.7824  -1.7716  -1.7446
    -1.4346  -1.4290  -1.3377  -1.2923  -1.2733  -1.2629  -1.2249  -1.2125
    -0.8652  -0.8346  -0.5706  -0.5667  -0.4217  -0.4191  -0.3700   1.6008
     1.6108   1.7399   1.7542   1.9014   1.9659   1.9732   2.0224   2.0391
     2.0429   2.2373   2.2704   2.4918   2.5044   2.6084   2.6308   2.7152
     2.7224   2.7498   2.7666   2.9456   2.9819   3.0891   3.1120   3.1894
     3.2647   3.3076   3.3212   3.5689   3.5751

          k =-0.5000-0.4554 0.0000 ( 81484 PWs)   bands (ev):

   -57.9683 -57.9550 -57.4490 -57.4458 -57.2804 -57.2704 -56.9304 -56.9129
   -56.5263 -56.5063 -56.3484 -56.3483 -34.2745 -34.2624 -34.2562 -34.2512
   -34.1505 -34.1391 -33.8858 -33.8678 -33.7378 -33.7280 -33.6610 -33.6342
   -33.6322 -33.6266 -33.6115 -33.5175 -33.5141 -33.4877 -33.2971 -33.2824
   -33.1905 -33.1753 -33.1374 -33.1240 -32.8672 -32.8541 -32.8368 -32.8180
   -32.7584 -32.7457 -32.7337 -32.7336 -32.6327 -32.6324 -32.5584 -32.5583
   -23.9279 -18.0839 -17.9916 -17.8160 -17.7361 -17.7358 -17.7160 -17.5422
   -17.5336 -17.3404 -17.3281 -17.3215 -17.2489 -17.1737 -17.1690 -17.1445
   -17.1393 -16.6791 -16.6769 -16.4890 -16.4819 -16.1840 -16.1698 -15.9470
   -15.4809 -15.4785  -8.2708  -6.5772  -5.4666  -5.3725  -5.3578  -5.2065
    -5.1541  -4.9876  -4.9853  -4.8053  -4.7905  -4.7398  -4.6763  -4.6198
    -4.6159  -4.6011  -4.5519  -4.5281  -4.5043  -4.4992  -4.4848  -4.4007
    -4.3075  -4.2868  -4.2676  -4.2489  -4.2381  -3.9632  -3.9085  -3.9032
    -3.8981  -3.6957  -3.5724  -3.4852  -3.4565  -3.2395  -3.1652  -3.1022
    -3.0379  -3.0275  -3.0242  -2.9627  -2.9612  -2.9088  -2.8842  -2.8700
    -2.8544  -2.7143  -2.7077  -2.6651  -2.5726  -2.5648  -2.4975  -2.4455
    -2.3598  -2.2268  -2.2178  -1.8620  -1.8425  -1.7849  -1.6077  -1.5734
    -1.3636  -1.3547  -1.2790  -1.2505  -1.2012  -1.1911  -1.1375  -1.1350
    -0.8689  -0.8646  -0.6201  -0.6132  -0.4212  -0.4149  -0.3538   1.7128
     1.7139   1.7248   1.7295   1.8547   1.9216   1.9970   2.1024   2.1430
     2.1547   2.1902   2.1936   2.4929   2.5015   2.5753   2.6148   2.8317
     2.8602   2.9108   2.9581   3.0262   3.0823   3.1984   3.2311   3.2942
     3.3024   3.3644   3.4376   3.5785   3.5875

     the Fermi energy is    -0.3139 ev

!    total energy              =   -2519.45551966 Ry
     estimated scf accuracy    <       0.00000008 Ry
     smearing contrib. (-TS)   =       0.00311821 Ry
     internal energy E=F+TS    =   -2519.45863787 Ry

     The total energy is F=E-TS. E is the sum of the following terms:
     one-electron contribution =  -26171.77972857 Ry
     hartree contribution      =   13135.91441237 Ry
     xc contribution           =    -409.98787159 Ry
     ewald contribution        =   11173.85865825 Ry
     one-center paw contrib.   =    -247.46410834 Ry

     convergence has been achieved in  27 iterations

     negative rho (up, down):  1.532E-02 0.000E+00

     Forces acting on atoms (cartesian axes, Ry/au):

     atom    1 type  2   force =    -0.00004086    0.00000000    0.10967238
     atom    2 type  2   force =     0.00058527    0.00000000   -0.10219401
     atom    3 type  2   force =     0.00004247    0.00000000    0.00362240
     atom    4 type  2   force =    -0.00978154    0.00000000   -0.00496022
     atom    5 type  2   force =    -0.00064465    0.00000000    0.01252364
     atom    6 type  2   force =    -0.00219025    0.00000000    0.01279928
     atom    7 type  3   force =     0.00001373    0.00000000    0.03290304
     atom    8 type  3   force =     0.00004715    0.00000000    0.05895921
     atom    9 type  3   force =    -0.00080964    0.06952413   -0.03512519
     atom   10 type  3   force =    -0.00080964   -0.06952413   -0.03512519
     atom   11 type  3   force =    -0.00070628    0.00000000    0.00522401
     atom   12 type  3   force =     0.00009408    0.00000000   -0.06069897
     atom   13 type  3   force =     0.00046125    0.00266895   -0.00175130
     atom   14 type  3   force =     0.00046125   -0.00266895   -0.00175130
     atom   15 type  3   force =    -0.00064577    0.00000000   -0.00322589
     atom   16 type  3   force =    -0.00120391    0.00000000    0.00376606
     atom   17 type  3   force =    -0.00005060    0.00352034    0.00709236
     atom   18 type  3   force =    -0.00005060   -0.00352034    0.00709236
     atom   19 type  2   force =     0.00005888    0.00000000    0.11539283
     atom   20 type  2   force =    -0.00065613    0.00000000   -0.10221699
     atom   21 type  2   force =    -0.00012254    0.00000000    0.00051087
     atom   22 type  2   force =     0.00990731    0.00000000   -0.00459224
     atom   23 type  2   force =    -0.00266183    0.00000000   -0.01423617
     atom   24 type  2   force =     0.00203638    0.00000000    0.01461447
     atom   25 type  3   force =     0.00011807    0.00000000    0.03063057
     atom   26 type  3   force =     0.00000820    0.00000000    0.05872784
     atom   27 type  3   force =     0.00081638    0.06953577   -0.03510811
     atom   28 type  3   force =     0.00081638   -0.06953577   -0.03510811
     atom   29 type  3   force =     0.00067964    0.00000000   -0.00839399
     atom   30 type  3   force =     0.00028034    0.00000000   -0.05820425
     atom   31 type  3   force =    -0.00040173    0.00279069   -0.00196048
     atom   32 type  3   force =    -0.00040173   -0.00279069   -0.00196048
     atom   33 type  3   force =     0.00042343    0.00000000   -0.00187241
     atom   34 type  3   force =     0.00135857    0.00000000    0.00587345
     atom   35 type  3   force =    -0.00037752    0.00233421    0.01246839
     atom   36 type  3   force =    -0.00037752   -0.00233421    0.01246839
     atom   37 type  3   force =    -0.01803407    0.00000000   -0.01279889
     atom   38 type  3   force =     0.02418524    0.00000000    0.02536964
     atom   39 type  1   force =    -0.00242716    0.00000000   -0.00842700

     Total force =     0.058804     Total SCF correction =     0.000754
     Energy error            =      5.7E-03 Ry
     Gradient error          =      2.5E-02 Ry/Bohr

     number of scf cycles    =   5
     number of bfgs steps    =   4

     energy             old  =   -2519.4498510784 Ry
     energy             new  =   -2519.4555196586 Ry

     CASE: energy            _new < energy            _old

     new trust radius        =       0.0377351924 bohr
     new conv_thr            =       0.0000001268 Ry


ATOMIC_POSITIONS (angstrom)
Ti               0.0000000000        4.8723546300        9.7447092600    0   0   0
Ti               1.4793500000        1.6241182100        9.7447092600    0   0   0
Ti              -0.0004419496        1.6241182100       13.0544779046
Ti               1.4639487300        4.8723546300       12.9739070382
Ti              -0.0045708670        4.8723546300       16.1986704711
Ti               1.4810144646        1.6241182100       16.3704070792
O                0.0000000000        1.6241182100       11.0129506900    0   0   0
O                0.0000000000        1.6241182100        8.4764678300    0   0   0
O                1.4793500000        3.6041132000        9.7447092600    0   0   0
O                1.4793500000        6.1405960600        9.7447092600    0   0   0
O                0.0011212733        4.8723546300       14.2515695856
O                0.0000000000        4.8723546300       11.7247042500    0   0   0
O                1.4819497209        0.3188000952       12.9785691077
O                1.4819497209        2.9294363248       12.9785691077
O                0.0014265619        1.6241182100       17.4632420493
O               -0.0030300041        1.6241182100       14.9130067952
O                1.4906658742        3.6299041223       16.2713748531
O                1.4906658742        6.1148051377       16.2713748531
Ti               2.9587000000        4.8723546300        9.7447092600    0   0   0
Ti               4.4380500000        1.6241182100        9.7447092600    0   0   0
Ti               2.9586878452        1.6241182100       13.0484878485
Ti               4.4552067272        4.8723546300       12.9772276899
Ti               2.9487665326        4.8723546300       16.0711646852
Ti               4.4364019758        1.6241182100       16.3705914537
O                2.9587000000        1.6241182100       11.0129506900    0   0   0
O                2.9587000000        1.6241182100        8.4764678300    0   0   0
O                4.4380500000        3.6041132000        9.7447092600    0   0   0
O                4.4380500000        6.1405960600        9.7447092600    0   0   0
O                2.9596894869        4.8723546300       14.2620366970
O                2.9587000000        4.8723546300       11.7247042500    0   0   0
O                4.4358125235        0.3182775716       12.9780570181
O                4.4358125235        2.9299588484       12.9780570181
O                2.9575884688        1.6241182100       17.4686511207
O                2.9621870169        1.6241182100       14.9119529167
O                4.4208876593        3.6357584990       16.2965078800
O                4.4208876593        6.1089507610       16.2965078800
O                0.0196486422        4.8723546300       18.2964968633
O                1.3105368093        4.8723546300       18.7554505825
H                1.1893323911        4.8723546300       19.7213685317



     Writing config-only to output data dir ./tmp_s0_OOH__2x1v_mir/s0_OOH__2x1v_mir.save/ :
     XML data file
     NEW-OLD atomic charge density approx. for the potential

     Check: negative core charge=   -0.000001

     negative rho (up, down):  1.549E-02 0.000E+00

     total cpu time spent up to now is     1187.1 secs

     per-process dynamical memory:   247.5 Mb

     Self-consistent Calculation

     iteration #  1     ecut=    80.00 Ry     beta= 0.30
     Davidson diagonalization with overlap
     ethr =  1.00E-06,  avg # of iterations =  6.3

     negative rho (up, down):  1.589E-02 0.000E+00

     total cpu time spent up to now is     1202.0 secs

     total energy              =   -2519.44773926 Ry
     estimated scf accuracy    <       0.17199187 Ry

     iteration #  2     ecut=    80.00 Ry     beta= 0.30
     Davidson diagonalization with overlap
     ethr =  5.71E-05,  avg # of iterations =  1.3

     negative rho (up, down):  1.579E-02 0.000E+00

     total cpu time spent up to now is     1209.4 secs

     total energy              =   -2519.46064155 Ry
     estimated scf accuracy    <       0.16435543 Ry

     iteration #  3     ecut=    80.00 Ry     beta= 0.30
     Davidson diagonalization with overlap
     ethr =  5.46E-05,  avg # of iterations =  1.0

     negative rho (up, down):  1.571E-02 0.000E+00

     total cpu time spent up to now is     1216.8 secs

     total energy              =   -2519.45610830 Ry
     estimated scf accuracy    <       0.13895467 Ry

     iteration #  4     ecut=    80.00 Ry     beta= 0.30
     Davidson diagonalization with overlap
     ethr =  4.62E-05,  avg # of iterations =  1.0

     negative rho (up, down):  1.617E-02 0.000E+00

     total cpu time spent up to now is     1223.3 secs

     total energy              =   -2519.45759933 Ry
     estimated scf accuracy    <       0.03416444 Ry

     iteration #  5     ecut=    80.00 Ry     beta= 0.30
     Davidson diagonalization with overlap
     ethr =  1.14E-05,  avg # of iterations =  1.0

     negative rho (up, down):  1.621E-02 0.000E+00

     total cpu time spent up to now is     1230.0 secs

     total energy              =   -2519.45814697 Ry
     estimated scf accuracy    <       0.01072439 Ry

     iteration #  6     ecut=    80.00 Ry     beta= 0.30
     Davidson diagonalization with overlap
     ethr =  3.56E-06,  avg # of iterations =  1.0

     negative rho (up, down):  1.635E-02 0.000E+00

     total cpu time spent up to now is     1238.4 secs

     total energy              =   -2519.45813728 Ry
     estimated scf accuracy    <       0.00494726 Ry

     iteration #  7     ecut=    80.00 Ry     beta= 0.30
     Davidson diagonalization with overlap
     ethr =  1.64E-06,  avg # of iterations =  1.0

     negative rho (up, down):  1.632E-02 0.000E+00

     total cpu time spent up to now is     1245.9 secs

     total energy              =   -2519.45810854 Ry
     estimated scf accuracy    <       0.00365587 Ry

     iteration #  8     ecut=    80.00 Ry     beta= 0.30
     Davidson diagonalization with overlap
     ethr =  1.21E-06,  avg # of iterations =  1.0

     negative rho (up, down):  1.625E-02 0.000E+00

     total cpu time spent up to now is     1254.9 secs

     total energy              =   -2519.45810020 Ry
     estimated scf accuracy    <       0.00034365 Ry

     iteration #  9     ecut=    80.00 Ry     beta= 0.30
     Davidson diagonalization with overlap
     ethr =  1.14E-07,  avg # of iterations =  1.0

     negative rho (up, down):  1.622E-02 0.000E+00

     total cpu time spent up to now is     1264.4 secs

     total energy              =   -2519.45812658 Ry
     estimated scf accuracy    <       0.00312910 Ry

     iteration # 10     ecut=    80.00 Ry     beta= 0.30
     Davidson diagonalization with overlap
     ethr =  1.14E-07,  avg # of iterations =  1.0

     negative rho (up, down):  1.611E-02 0.000E+00

     total cpu time spent up to now is     1272.8 secs

     total energy              =   -2519.45810188 Ry
     estimated scf accuracy    <       0.00159161 Ry

     iteration # 11     ecut=    80.00 Ry     beta= 0.30
     Davidson diagonalization with overlap
     ethr =  1.14E-07,  avg # of iterations =  1.0

     negative rho (up, down):  1.605E-02 0.000E+00

     total cpu time spent up to now is     1287.6 secs

     total energy              =   -2519.45811669 Ry
     estimated scf accuracy    <       0.00008312 Ry

     iteration # 12     ecut=    80.00 Ry     beta= 0.30
     Davidson diagonalization with overlap
     ethr =  2.76E-08,  avg # of iterations =  1.0

     negative rho (up, down):  1.595E-02 0.000E+00

     total cpu time spent up to now is     1294.0 secs

     total energy              =   -2519.45811706 Ry
     estimated scf accuracy    <       0.00000110 Ry

     iteration # 13     ecut=    80.00 Ry     beta= 0.30
     Davidson diagonalization with overlap
     ethr =  3.65E-10,  avg # of iterations =  5.0

     negative rho (up, down):  1.590E-02 0.000E+00

     total cpu time spent up to now is     1302.3 secs

     total energy              =   -2519.45811707 Ry
     estimated scf accuracy    <       0.00000118 Ry

     iteration # 14     ecut=    80.00 Ry     beta= 0.30
     Davidson diagonalization with overlap
     ethr =  3.65E-10,  avg # of iterations =  1.0

     negative rho (up, down):  1.573E-02 0.000E+00

     total cpu time spent up to now is     1313.1 secs

     total energy              =   -2519.45811675 Ry
     estimated scf accuracy    <       0.00000053 Ry

     iteration # 15     ecut=    80.00 Ry     beta= 0.30
     Davidson diagonalization with overlap
     ethr =  1.77E-10,  avg # of iterations =  3.0

     negative rho (up, down):  1.569E-02 0.000E+00

     total cpu time spent up to now is     1326.4 secs

     total energy              =   -2519.45811675 Ry
     estimated scf accuracy    <       0.00000047 Ry

     iteration # 16     ecut=    80.00 Ry     beta= 0.30
     Davidson diagonalization with overlap
     ethr =  1.57E-10,  avg # of iterations =  2.0

     negative rho (up, down):  1.559E-02 0.000E+00

     total cpu time spent up to now is     1333.6 secs

     total energy              =   -2519.45811670 Ry
     estimated scf accuracy    <       0.00000081 Ry

     iteration # 17     ecut=    80.00 Ry     beta= 0.30
     Davidson diagonalization with overlap
     ethr =  1.57E-10,  avg # of iterations =  2.0

     negative rho (up, down):  1.551E-02 0.000E+00

     total cpu time spent up to now is     1342.0 secs

     total energy              =   -2519.45811673 Ry
     estimated scf accuracy    <       0.00000015 Ry

     iteration # 18     ecut=    80.00 Ry     beta= 0.30
     Davidson diagonalization with overlap
     ethr =  4.90E-11,  avg # of iterations =  2.0

     negative rho (up, down):  1.543E-02 0.000E+00

     total cpu time spent up to now is     1349.0 secs

     End of self-consistent calculation

          k = 0.0000 0.0000 0.0000 ( 81491 PWs)   bands (ev):

   -58.0216 -57.9723 -57.4954 -57.4536 -57.2859 -57.2448 -56.9683 -56.9256
   -56.5476 -56.5012 -56.3869 -56.3464 -34.5094 -34.3291 -34.2804 -34.2371
   -34.1248 -34.1232 -34.0621 -33.8446 -33.8175 -33.7012 -33.6879 -33.6612
   -33.6534 -33.6359 -33.5542 -33.5313 -33.5049 -33.4337 -33.3775 -33.2416
   -33.1772 -33.1562 -33.1496 -33.1041 -33.0857 -32.8726 -32.8473 -32.8277
   -32.8156 -32.7663 -32.7372 -32.7239 -32.6282 -32.6086 -32.5233 -32.4196
   -23.7890 -18.6954 -18.4140 -18.0560 -17.9130 -17.7565 -17.7122 -17.5526
   -17.5221 -17.2759 -17.2619 -17.1951 -17.1009 -17.0694 -17.0169 -17.0045
   -16.8496 -16.7524 -16.7426 -16.6775 -16.4645 -16.0734 -16.0164 -15.9654
   -15.4250 -15.3701  -8.2108  -6.5616  -6.2995  -6.1031  -5.8633  -5.8083
    -5.6159  -5.3698  -5.1448  -5.0687  -5.0417  -5.0382  -4.9199  -4.7403
    -4.7394  -4.6794  -4.6762  -4.6416  -4.5986  -4.4852  -4.4178  -4.4092
    -4.4055  -4.3085  -4.1843  -4.1828  -4.1247  -3.9602  -3.9256  -3.7656
    -3.5914  -3.5242  -3.4843  -3.4483  -3.2171  -3.1785  -3.1196  -3.0403
    -3.0221  -2.9757  -2.9450  -2.8251  -2.7298  -2.6865  -2.6481  -2.6297
    -2.5950  -2.5672  -2.4781  -2.3198  -2.3007  -2.1902  -2.1658  -2.1317
    -1.9386  -1.8713  -1.8463  -1.7708  -1.7292  -1.6536  -1.5785  -1.5583
    -1.3712  -1.3620  -1.2342  -1.2017  -1.1399  -1.1123  -1.0554  -1.0064
    -0.7528  -0.5384  -0.5041  -0.4560  -0.4471  -0.4101  -0.3301   1.0286
     1.1772   1.3431   1.4405   1.6180   1.7760   1.9465   1.9712   2.0348
     2.0900   2.1627   2.3147   2.3300   2.5062   2.5850   2.7042   2.7116
     2.7279   2.7298   2.7371   2.8780   2.8826   2.9132   2.9417   3.0027
     3.0945   3.1147   3.1674   3.1847   3.3086

          k = 0.0000 0.2277 0.0000 ( 81407 PWs)   bands (ev):

   -58.0216 -57.9723 -57.4954 -57.4536 -57.2859 -57.2448 -56.9683 -56.9256
   -56.5476 -56.5012 -56.3869 -56.3464 -34.5104 -34.3291 -34.2804 -34.2350
   -34.1250 -34.1235 -34.0620 -33.8463 -33.8175 -33.7012 -33.6801 -33.6612
   -33.6534 -33.6528 -33.5500 -33.5137 -33.5049 -33.4344 -33.3775 -33.2504
   -33.1772 -33.1560 -33.1493 -33.1042 -33.0852 -32.8723 -32.8518 -32.8277
   -32.8139 -32.7695 -32.7355 -32.7239 -32.6282 -32.6087 -32.5233 -32.4196
   -23.7889 -18.6264 -18.3247 -17.9669 -17.8867 -17.8752 -17.7459 -17.5500
   -17.3996 -17.3739 -17.3675 -17.3105 -17.2711 -17.1100 -16.9073 -16.8552
   -16.8065 -16.7981 -16.7551 -16.7031 -16.4653 -16.0695 -16.0107 -15.9720
   -15.4228 -15.3697  -8.2098  -6.5577  -6.1182  -5.9875  -5.6170  -5.5937
    -5.5154  -5.4542  -5.3314  -5.3101  -5.0168  -5.0008  -4.9133  -4.7342
    -4.7009  -4.6965  -4.6736  -4.6618  -4.5503  -4.4859  -4.4228  -4.2795
    -4.2297  -4.1854  -4.1503  -4.1215  -3.9478  -3.9038  -3.7380  -3.6777
    -3.5989  -3.5858  -3.4847  -3.3862  -3.3323  -3.2939  -3.2152  -3.2040
    -3.1834  -3.0241  -2.9954  -2.9603  -2.8287  -2.7769  -2.6949  -2.6295
    -2.6075  -2.5455  -2.3695  -2.3482  -2.3100  -2.2371  -2.0997  -2.0117
    -1.9860  -1.9015  -1.8836  -1.8194  -1.7904  -1.7571  -1.7126  -1.6223
    -1.4453  -1.4218  -1.3430  -1.3171  -1.2172  -1.1685  -1.0462  -1.0324
    -1.0224  -0.6365  -0.5567  -0.5353  -0.4855  -0.4479  -0.3664   1.1060
     1.1251   1.4387   1.5052   1.7367   1.9514   1.9574   1.9836   2.0529
     2.0622   2.1822   2.2260   2.2482   2.3697   2.5050   2.6291   2.6700
     2.7482   2.7552   2.9068   2.9211   2.9726   3.0011   3.0656   3.0933
     3.1764   3.2753   3.3284   3.3519   3.3717

          k = 0.0000-0.4554 0.0000 ( 81286 PWs)   bands (ev):

   -58.0216 -57.9723 -57.4953 -57.4536 -57.2859 -57.2448 -56.9683 -56.9256
   -56.5476 -56.5012 -56.3869 -56.3464 -34.5114 -34.3291 -34.2804 -34.2329
   -34.1251 -34.1237 -34.0620 -33.8480 -33.8175 -33.7012 -33.6722 -33.6658
   -33.6612 -33.6533 -33.5457 -33.5049 -33.4997 -33.4350 -33.3774 -33.2596
   -33.1772 -33.1557 -33.1491 -33.1042 -33.0846 -32.8721 -32.8566 -32.8277
   -32.8120 -32.7726 -32.7338 -32.7239 -32.6282 -32.6087 -32.5233 -32.4197
   -23.7889 -18.5542 -18.1909 -17.9679 -17.8907 -17.8008 -17.7698 -17.5416
   -17.5377 -17.4829 -17.4345 -17.2652 -17.2595 -17.2462 -16.9767 -16.8244
   -16.8190 -16.7574 -16.6913 -16.6863 -16.4661 -16.0663 -16.0014 -15.9824
   -15.4209 -15.3692  -8.2089  -6.5569  -6.1100  -5.6049  -5.6039  -5.5731
    -5.5484  -5.2919  -5.2667  -5.1845  -5.0980  -4.8485  -4.7976  -4.7454
    -4.6677  -4.6603  -4.6501  -4.6244  -4.6005  -4.4817  -4.4263  -4.2442
    -4.1793  -4.1012  -4.0909  -3.9647  -3.8590  -3.8426  -3.6776  -3.6544
    -3.6524  -3.6312  -3.5919  -3.5843  -3.4846  -3.4648  -3.3783  -3.2118
    -3.1785  -3.0325  -2.9869  -2.9537  -2.9307  -2.7707  -2.7257  -2.6831
    -2.5825  -2.5754  -2.5292  -2.4178  -2.3736  -2.2430  -2.2288  -2.0752
    -2.0647  -2.0300  -1.9150  -1.8792  -1.8270  -1.7487  -1.6779  -1.5581
    -1.4876  -1.3681  -1.3351  -1.3091  -1.3043  -1.2133  -1.2101  -1.1143
    -1.0220  -0.7529  -0.6048  -0.5768  -0.5160  -0.4722  -0.3827   1.0270
     1.1549   1.4325   1.4851   1.6506   1.6837   1.9470   2.0071   2.0699
     2.2245   2.2617   2.3021   2.3163   2.5038   2.5084   2.5360   2.7462
     2.7718   2.8563   2.9305   2.9537   3.0343   3.0907   3.1886   3.2022
     3.2431   3.3083   3.3454   3.4094   3.4699

          k = 0.2500 0.0000 0.0000 ( 81478 PWs)   bands (ev):

   -58.0172 -57.9768 -57.4895 -57.4595 -57.2800 -57.2507 -56.9632 -56.9308
   -56.5422 -56.5067 -56.3810 -56.3524 -34.4462 -34.3258 -34.2813 -34.2219
   -34.1406 -34.1296 -34.0618 -33.8019 -33.7805 -33.7489 -33.6979 -33.6802
   -33.6529 -33.6432 -33.5379 -33.5048 -33.4707 -33.4508 -33.4468 -33.2299
   -33.1730 -33.1687 -33.1674 -33.1450 -33.0276 -32.8443 -32.8182 -32.8179
   -32.8089 -32.7620 -32.7414 -32.7368 -32.6781 -32.6131 -32.5389 -32.4885
   -23.7888 -18.5466 -18.2850 -17.9289 -17.8495 -17.7518 -17.6494 -17.6372
   -17.6026 -17.3857 -17.2714 -17.1959 -17.1857 -17.1331 -17.0399 -16.9123
   -16.8163 -16.7448 -16.7418 -16.7169 -16.4392 -16.1177 -16.1008 -15.9780
   -15.4637 -15.4334  -8.2111  -6.5398  -6.0995  -5.9182  -5.6725  -5.6360
    -5.3654  -5.3436  -5.1690  -5.1632  -5.0269  -5.0084  -4.9832  -4.8863
    -4.7885  -4.7691  -4.7168  -4.6764  -4.6333  -4.6021  -4.5878  -4.4689
    -4.3969  -4.3808  -4.3664  -4.0906  -3.9115  -3.8537  -3.8301  -3.7497
    -3.5927  -3.5267  -3.4206  -3.2759  -3.2437  -3.1397  -3.0421  -3.0016
    -2.9630  -2.9319  -2.8954  -2.8390  -2.6872  -2.6839  -2.6620  -2.5933
    -2.5525  -2.5267  -2.4396  -2.3714  -2.3486  -2.1618  -2.1331  -2.1103
    -2.0400  -2.0274  -1.9470  -1.8566  -1.8423  -1.7703  -1.6829  -1.5887
    -1.5361  -1.4814  -1.3107  -1.2935  -1.2353  -1.2221  -1.0846  -1.0380
    -1.0209  -0.7013  -0.6896  -0.4815  -0.4640  -0.3686  -0.3573   1.2393
     1.3080   1.4653   1.5941   1.8675   1.8801   1.9319   1.9482   2.0303
     2.0595   2.0960   2.2747   2.3043   2.4178   2.4648   2.5511   2.6954
     2.7783   2.8237   2.8693   2.8755   2.9046   2.9526   2.9984   3.0612
     3.1179   3.1525   3.1909   3.3230   3.3461

          k = 0.2500 0.2277 0.0000 ( 81485 PWs)   bands (ev):

   -58.0172 -57.9768 -57.4895 -57.4595 -57.2800 -57.2507 -56.9632 -56.9308
   -56.5422 -56.5067 -56.3810 -56.3524 -34.4471 -34.3258 -34.2813 -34.2201
   -34.1404 -34.1298 -34.0620 -33.8019 -33.7820 -33.7490 -33.6979 -33.6742
   -33.6530 -33.6518 -33.5343 -33.5048 -33.4605 -33.4505 -33.4473 -33.2373
   -33.1727 -33.1697 -33.1669 -33.1450 -33.0272 -32.8475 -32.8179 -32.8176
   -32.8087 -32.7644 -32.7404 -32.7368 -32.6781 -32.6131 -32.5389 -32.4885
   -23.7888 -18.4828 -18.2034 -17.8712 -17.8312 -17.8033 -17.7034 -17.6343
   -17.4571 -17.4209 -17.3769 -17.3481 -17.2445 -17.0613 -17.0227 -16.9451
   -16.8787 -16.8017 -16.6924 -16.6818 -16.4407 -16.1145 -16.1006 -15.9803
   -15.4620 -15.4338  -8.2103  -6.5384  -5.9316  -5.7948  -5.4106  -5.3564
    -5.3427  -5.3013  -5.2700  -5.1388  -5.1043  -4.9738  -4.9296  -4.8734
    -4.7944  -4.7684  -4.7331  -4.6373  -4.5785  -4.5240  -4.5218  -4.4255
    -4.3951  -4.3381  -4.1690  -4.0440  -3.9969  -3.8304  -3.7570  -3.7246
    -3.5398  -3.4639  -3.3924  -3.3274  -3.2829  -3.2443  -3.2024  -3.1498
    -3.0574  -2.9901  -2.9747  -2.8702  -2.8307  -2.8112  -2.7528  -2.6558
    -2.6309  -2.5957  -2.5342  -2.4771  -2.3622  -2.3280  -2.3151  -2.2022
    -2.1138  -2.0549  -1.9126  -1.8704  -1.8095  -1.7809  -1.7382  -1.6679
    -1.5706  -1.4358  -1.3597  -1.3453  -1.2554  -1.1929  -1.1257  -1.0675
    -1.0214  -0.6957  -0.6883  -0.5440  -0.5403  -0.3857  -0.3526   1.2218
     1.3493   1.5654   1.6970   1.8136   1.9280   1.9938   2.0399   2.1011
     2.1457   2.1828   2.2383   2.2811   2.3253   2.4305   2.6318   2.7162
     2.7396   2.7686   2.9241   2.9585   2.9908   3.0526   3.0754   3.1082
     3.2462   3.2599   3.3394   3.3754   3.4686

          k = 0.2500-0.4554 0.0000 ( 81408 PWs)   bands (ev):

   -58.0172 -57.9768 -57.4895 -57.4595 -57.2800 -57.2507 -56.9632 -56.9308
   -56.5422 -56.5067 -56.3810 -56.3524 -34.4480 -34.3258 -34.2813 -34.2183
   -34.1401 -34.1300 -34.0623 -33.8020 -33.7834 -33.7491 -33.6980 -33.6683
   -33.6593 -33.6530 -33.5306 -33.5048 -33.4511 -33.4500 -33.4478 -33.2448
   -33.1726 -33.1707 -33.1665 -33.1449 -33.0267 -32.8509 -32.8179 -32.8168
   -32.8085 -32.7668 -32.7393 -32.7368 -32.6781 -32.6131 -32.5389 -32.4885
   -23.7887 -18.4168 -18.0719 -17.9049 -17.8231 -17.7279 -17.7049 -17.6608
   -17.5165 -17.4219 -17.3983 -17.3631 -17.2839 -17.2213 -17.0325 -16.9593
   -16.9088 -16.7904 -16.6634 -16.6559 -16.4422 -16.1119 -16.1003 -15.9826
   -15.4604 -15.4342  -8.2096  -6.5383  -5.9273  -5.3833  -5.3388  -5.2860
    -5.2688  -5.2189  -5.1084  -5.0464  -4.9665  -4.9582  -4.8940  -4.8608
    -4.8516  -4.8390  -4.6605  -4.6122  -4.5912  -4.5199  -4.4001  -4.3373
    -4.2824  -4.0900  -4.0803  -4.0077  -3.9425  -3.7995  -3.7837  -3.7370
    -3.6840  -3.6520  -3.4186  -3.3706  -3.3574  -3.2834  -3.2396  -3.2119
    -3.1957  -3.0691  -3.0648  -3.0549  -2.9467  -2.8754  -2.8621  -2.8345
    -2.7290  -2.7270  -2.6930  -2.5553  -2.5225  -2.4923  -2.4099  -2.3185
    -2.3038  -2.1725  -1.8609  -1.8238  -1.8233  -1.6956  -1.6150  -1.5609
    -1.5220  -1.5081  -1.4126  -1.3816  -1.1852  -1.1002  -1.0973  -1.0516
    -1.0296  -0.7830  -0.6873  -0.6235  -0.5853  -0.3924  -0.3528   1.2404
     1.3572   1.5755   1.6158   1.7243   1.8419   1.9661   2.1025   2.1193
     2.2082   2.2382   2.2699   2.3395   2.4941   2.5072   2.6900   2.7888
     2.7914   2.8107   2.9498   2.9936   3.0023   3.1537   3.1596   3.3103
     3.3196   3.3592   3.3837   3.4263   3.5000

          k =-0.5000 0.0000 0.0000 ( 81532 PWs)   bands (ev):

   -58.0114 -57.9826 -57.4780 -57.4711 -57.2676 -57.2632 -56.9554 -56.9386
   -56.5340 -56.5150 -56.3668 -56.3667 -34.3221 -34.3018 -34.2833 -34.2783
   -34.1938 -34.1691 -33.9240 -33.8882 -33.7579 -33.7542 -33.6644 -33.6623
   -33.6586 -33.6187 -33.5978 -33.5076 -33.5038 -33.4819 -33.3286 -33.3148
   -33.2068 -33.1925 -33.1639 -33.1489 -32.8782 -32.8658 -32.8405 -32.8217
   -32.7687 -32.7566 -32.7517 -32.7516 -32.6513 -32.6511 -32.5762 -32.5761
   -23.7886 -18.1813 -18.1709 -18.0255 -17.8997 -17.6919 -17.6460 -17.5405
   -17.4552 -17.4548 -17.4541 -17.3962 -17.3738 -17.0159 -16.9848 -16.8935
   -16.8902 -16.7503 -16.7451 -16.5162 -16.5105 -16.1969 -16.1912 -15.9810
   -15.5033 -15.5028  -8.2114  -6.5225  -5.6013  -5.5988  -5.4889  -5.3933
    -5.3313  -5.2430  -5.2335  -5.2006  -5.1997  -5.1328  -5.1314  -5.1171
    -5.0895  -4.9013  -4.8325  -4.6222  -4.5667  -4.4999  -4.4701  -4.4269
    -4.3628  -4.3225  -4.2398  -4.1797  -4.1501  -3.7872  -3.7787  -3.5181
    -3.4574  -3.4532  -3.3890  -3.2805  -3.2641  -3.1948  -3.1886  -3.0074
    -2.9880  -2.9543  -2.9112  -2.7812  -2.7682  -2.6206  -2.5693  -2.5490
    -2.5321  -2.3958  -2.3810  -2.3391  -2.2772  -2.2447  -2.1888  -2.1145
    -2.0855  -2.0411  -2.0381  -1.9816  -1.9768  -1.8582  -1.8234  -1.7362
    -1.6063  -1.5869  -1.4366  -1.4241  -1.3273  -1.3168  -1.3150  -1.3085
    -0.8579  -0.8257  -0.5291  -0.5264  -0.4543  -0.4528  -0.4069   1.5178
     1.5462   1.6777   1.6839   1.8039   1.8188   1.9100   1.9451   1.9907
     2.0425   2.1377   2.1971   2.3987   2.4423   2.4749   2.4922   2.5919
     2.6757   2.8549   2.8870   2.9154   2.9310   2.9612   3.0170   3.0576
     3.0706   3.2610   3.2846   3.5910   3.6010

          k =-0.5000 0.2277 0.0000 ( 81508 PWs)   bands (ev):

   -58.0114 -57.9826 -57.4780 -57.4711 -57.2676 -57.2632 -56.9554 -56.9386
   -56.5340 -56.5150 -56.3668 -56.3667 -34.3221 -34.3024 -34.2833 -34.2789
   -34.1928 -34.1681 -33.9242 -33.8883 -33.7579 -33.7542 -33.6635 -33.6629
   -33.6581 -33.6194 -33.5991 -33.5055 -33.5038 -33.4797 -33.3251 -33.3116
   -33.2109 -33.1964 -33.1639 -33.1489 -32.8781 -32.8657 -32.8417 -32.8229
   -32.7686 -32.7565 -32.7524 -32.7523 -32.6512 -32.6510 -32.5762 -32.5761
   -23.7886 -18.1446 -18.1187 -17.9700 -17.8576 -17.6722 -17.6504 -17.5329
   -17.5258 -17.4845 -17.4039 -17.3444 -17.3428 -17.1092 -17.0780 -16.9953
   -16.9923 -16.7157 -16.7118 -16.5120 -16.5062 -16.1957 -16.1892 -15.9819
   -15.5031 -15.5026  -8.2108  -6.5223  -5.4922  -5.4297  -5.3763  -5.3436
    -5.3062  -5.2104  -5.1387  -5.0204  -5.0077  -4.9626  -4.9539  -4.9487
    -4.9181  -4.8198  -4.7554  -4.5921  -4.5602  -4.4943  -4.4770  -4.4237
    -4.4015  -4.3875  -4.3185  -3.9998  -3.9892  -3.9528  -3.8585  -3.6606
    -3.6272  -3.5176  -3.4948  -3.3776  -3.3325  -3.3268  -3.2876  -3.0788
    -3.0344  -2.9778  -2.9266  -2.8705  -2.8607  -2.7676  -2.7400  -2.6836
    -2.6692  -2.5794  -2.5649  -2.4288  -2.3735  -2.3572  -2.3378  -2.3273
    -2.3003  -2.1721  -2.1389  -1.9593  -1.9081  -1.8025  -1.7978  -1.7596
    -1.4500  -1.4441  -1.3596  -1.3118  -1.2964  -1.2874  -1.2388  -1.2278
    -0.8876  -0.8556  -0.5940  -0.5898  -0.4409  -0.4383  -0.3912   1.5626
     1.5831   1.7170   1.7183   1.8864   1.9142   1.9549   1.9877   2.0114
     2.0224   2.2225   2.2545   2.4674   2.4879   2.5980   2.6180   2.6935
     2.7073   2.7320   2.7505   2.9324   2.9952   3.0766   3.0882   3.1802
     3.2680   3.2904   3.3103   3.5483   3.5555

          k =-0.5000-0.4554 0.0000 ( 81484 PWs)   bands (ev):

   -58.0114 -57.9826 -57.4780 -57.4711 -57.2675 -57.2632 -56.9554 -56.9386
   -56.5340 -56.5150 -56.3668 -56.3667 -34.3221 -34.3030 -34.2833 -34.2795
   -34.1918 -34.1670 -33.9243 -33.8885 -33.7579 -33.7542 -33.6634 -33.6626
   -33.6575 -33.6201 -33.6003 -33.5038 -33.5034 -33.4775 -33.3215 -33.3082
   -33.2153 -33.2005 -33.1639 -33.1489 -32.8779 -32.8656 -32.8429 -32.8242
   -32.7686 -32.7565 -32.7530 -32.7529 -32.6512 -32.6509 -32.5762 -32.5761
   -23.7886 -18.1099 -18.0556 -17.8396 -17.7661 -17.7658 -17.7247 -17.5893
   -17.5551 -17.3435 -17.3276 -17.3123 -17.2465 -17.1909 -17.1811 -17.1689
   -17.1627 -16.6962 -16.6925 -16.5087 -16.5029 -16.1945 -16.1872 -15.9829
   -15.5029 -15.5024  -8.2103  -6.5224  -5.4944  -5.4132  -5.2799  -5.2350
    -5.1816  -5.0177  -5.0145  -4.8354  -4.8137  -4.7713  -4.7034  -4.6185
    -4.6143  -4.5997  -4.5802  -4.5399  -4.5170  -4.5168  -4.5052  -4.4357
    -4.3147  -4.2938  -4.2788  -4.2784  -4.2576  -3.9657  -3.9393  -3.9164
    -3.9032  -3.6969  -3.6062  -3.5020  -3.4856  -3.2519  -3.1784  -3.1479
    -3.0631  -3.0473  -3.0464  -2.9831  -2.9814  -2.9236  -2.9048  -2.8948
    -2.8710  -2.7419  -2.7377  -2.6783  -2.5903  -2.5728  -2.5044  -2.4638
    -2.3764  -2.2544  -2.2369  -1.8755  -1.8547  -1.8006  -1.6294  -1.6054
    -1.3868  -1.3703  -1.3034  -1.2764  -1.2163  -1.2019  -1.1531  -1.1319
    -0.8941  -0.8906  -0.6458  -0.6363  -0.4409  -0.4341  -0.3751   1.6722
     1.6807   1.6990   1.7054   1.8433   1.8640   1.9694   2.0817   2.1258
     2.1458   2.1537   2.1677   2.4689   2.4851   2.5647   2.6049   2.8094
     2.8461   2.8990   2.9578   2.9878   3.0761   3.1884   3.2219   3.2801
     3.2843   3.3531   3.4482   3.5581   3.5681

     the Fermi energy is    -0.3337 ev

!    total energy              =   -2519.45811679 Ry
     estimated scf accuracy    <       0.00000007 Ry
     smearing contrib. (-TS)   =       0.00306262 Ry
     internal energy E=F+TS    =   -2519.46117941 Ry

     The total energy is F=E-TS. E is the sum of the following terms:
     one-electron contribution =  -26151.10324158 Ry
     hartree contribution      =   13125.38597644 Ry
     xc contribution           =    -409.98841357 Ry
     ewald contribution        =   11163.71001215 Ry
     one-center paw contrib.   =    -247.46551286 Ry

     convergence has been achieved in  18 iterations

     negative rho (up, down):  1.543E-02 0.000E+00

     Forces acting on atoms (cartesian axes, Ry/au):

     atom    1 type  2   force =    -0.00004835    0.00000000    0.10541863
     atom    2 type  2   force =     0.00053326    0.00000000   -0.10048842
     atom    3 type  2   force =    -0.00008301    0.00000000    0.00108301
     atom    4 type  2   force =    -0.00447900    0.00000000    0.00054432
     atom    5 type  2   force =     0.00072889    0.00000000    0.01326267
     atom    6 type  2   force =    -0.00100927    0.00000000    0.01379641
     atom    7 type  3   force =     0.00001708    0.00000000    0.03220549
     atom    8 type  3   force =     0.00004819    0.00000000    0.05848275
     atom    9 type  3   force =    -0.00154577    0.07017196   -0.03493062
     atom   10 type  3   force =    -0.00154577   -0.07017196   -0.03493062
     atom   11 type  3   force =    -0.00070680    0.00000000   -0.00085796
     atom   12 type  3   force =     0.00020186    0.00000000   -0.06209935
     atom   13 type  3   force =    -0.00006183    0.00316489   -0.00098749
     atom   14 type  3   force =    -0.00006183   -0.00316489   -0.00098749
     atom   15 type  3   force =    -0.00039718    0.00000000   -0.00236463
     atom   16 type  3   force =    -0.00113743    0.00000000    0.00323124
     atom   17 type  3   force =     0.00274369    0.00447173    0.00493779
     atom   18 type  3   force =     0.00274369   -0.00447173    0.00493779
     atom   19 type  2   force =     0.00006240    0.00000000    0.11571086
     atom   20 type  2   force =    -0.00060179    0.00000000   -0.10050180
     atom   21 type  2   force =     0.00001250    0.00000000   -0.00104602
     atom   22 type  2   force =     0.00459572    0.00000000    0.00076451
     atom   23 type  2   force =    -0.00370355    0.00000000   -0.00416830
     atom   24 type  2   force =     0.00079273    0.00000000    0.01547934
     atom   25 type  3   force =     0.00011876    0.00000000    0.02997966
     atom   26 type  3   force =     0.00000503    0.00000000    0.05841958
     atom   27 type  3   force =     0.00155187    0.07018842   -0.03490879
     atom   28 type  3   force =     0.00155187   -0.07018842   -0.03490879
     atom   29 type  3   force =     0.00065713    0.00000000   -0.00894629
     atom   30 type  3   force =     0.00014941    0.00000000   -0.06005384
     atom   31 type  3   force =     0.00010097    0.00338970   -0.00130219
     atom   32 type  3   force =     0.00010097   -0.00338970   -0.00130219
     atom   33 type  3   force =     0.00015855    0.00000000   -0.00143019
     atom   34 type  3   force =     0.00120789    0.00000000    0.00425704
     atom   35 type  3   force =    -0.00301184    0.00320773    0.00958970
     atom   36 type  3   force =    -0.00301184   -0.00320773    0.00958970
     atom   37 type  3   force =    -0.00634850    0.00000000   -0.01219997
     atom   38 type  3   force =     0.00972961    0.00000000    0.00143235
     atom   39 type  1   force =    -0.00005834    0.00000000    0.01529210

     Total force =     0.041217     Total SCF correction =     0.000445
     Energy error            =      2.6E-03 Ry
     Gradient error          =      1.5E-02 Ry/Bohr

     number of scf cycles    =   6
     number of bfgs steps    =   5

     energy             old  =   -2519.4555196586 Ry
     energy             new  =   -2519.4581167871 Ry

     CASE: energy            _new < energy            _old

     new trust radius        =       0.0425922230 bohr
     new conv_thr            =       0.0000000774 Ry


ATOMIC_POSITIONS (angstrom)
Ti               0.0000000000        4.8723546300        9.7447092600    0   0   0
Ti               1.4793500000        1.6241182100        9.7447092600    0   0   0
Ti              -0.0005759582        1.6241182100       13.0630298342
Ti               1.4546486814        4.8723546300       12.9663379438
Ti              -0.0062805232        4.8723546300       16.2211443694
Ti               1.4806122940        1.6241182100       16.3820526158
O                0.0000000000        1.6241182100       11.0129506900    0   0   0
O                0.0000000000        1.6241182100        8.4764678300    0   0   0
O                1.4793500000        3.6041132000        9.7447092600    0   0   0
O                1.4793500000        6.1405960600        9.7447092600    0   0   0
O               -0.0000222364        4.8723546300       14.2578262583
O                0.0000000000        4.8723546300       11.7247042500    0   0   0
O                1.4824118185        0.3206679841       12.9755986344
O                1.4824118185        2.9275684359       12.9755986344
O                0.0012832282        1.6241182100       17.4668666646
O               -0.0046428994        1.6241182100       14.9185582588
O                1.4897829300        3.6313636781       16.2821785995
O                1.4897829300        6.1133455819       16.2821785995
Ti               2.9587000000        4.8723546300        9.7447092600    0   0   0
Ti               4.4380500000        1.6241182100        9.7447092600    0   0   0
Ti               2.9586875869        1.6241182100       13.0531879745
Ti               4.4647892095        4.8723546300       12.9703842288
Ti               2.9462056977        4.8723546300       16.0513824498
Ti               4.4365842436        1.6241182100       16.3843080909
O                2.9587000000        1.6241182100       11.0129506900    0   0   0
O                2.9587000000        1.6241182100        8.4764678300    0   0   0
O                4.4380500000        3.6041132000        9.7447092600    0   0   0
O                4.4380500000        6.1405960600        9.7447092600    0   0   0
O                2.9606617984        4.8723546300       14.2465039769
O                2.9587000000        4.8723546300       11.7247042500    0   0   0
O                4.4354527073        0.3203175207       12.9746736540
O                4.4354527073        2.9279188993       12.9746736540
O                2.9573504255        1.6241182100       17.4723591169
O                2.9640587545        1.6241182100       14.9194491901
O                4.4205078751        3.6369431399       16.3157122169
O                4.4205078751        6.1077661201       16.3157122169
O                0.0217899201        4.8723546300       18.2951926155
O                1.3233704634        4.8723546300       18.7624000860
H                1.1804889472        4.8723546300       19.7268529379



     Writing config-only to output data dir ./tmp_s0_OOH__2x1v_mir/s0_OOH__2x1v_mir.save/ :
     XML data file
     NEW-OLD atomic charge density approx. for the potential

     Check: negative core charge=   -0.000001

     negative rho (up, down):  1.543E-02 0.000E+00

     total cpu time spent up to now is     1353.0 secs

     per-process dynamical memory:   247.6 Mb

     Self-consistent Calculation

     iteration #  1     ecut=    80.00 Ry     beta= 0.30
     Davidson diagonalization with overlap
     ethr =  1.00E-06,  avg # of iterations =  6.8

     negative rho (up, down):  1.619E-02 0.000E+00

     total cpu time spent up to now is     1367.9 secs

     total energy              =   -2519.43308693 Ry
     estimated scf accuracy    <       0.47112751 Ry

     iteration #  2     ecut=    80.00 Ry     beta= 0.30
     Davidson diagonalization with overlap
     ethr =  1.57E-04,  avg # of iterations =  1.2

     negative rho (up, down):  1.607E-02 0.000E+00

     total cpu time spent up to now is     1374.4 secs

     total energy              =   -2519.46539018 Ry
     estimated scf accuracy    <       0.19266500 Ry

     iteration #  3     ecut=    80.00 Ry     beta= 0.30
     Davidson diagonalization with overlap
     ethr =  6.40E-05,  avg # of iterations =  1.3

     negative rho (up, down):  1.569E-02 0.000E+00

     total cpu time spent up to now is     1382.3 secs

     total energy              =   -2519.44989180 Ry
     estimated scf accuracy    <       0.32432951 Ry

     iteration #  4     ecut=    80.00 Ry     beta= 0.30
     Davidson diagonalization with overlap
     ethr =  6.40E-05,  avg # of iterations =  1.2

     negative rho (up, down):  1.610E-02 0.000E+00

     total cpu time spent up to now is     1389.6 secs

     total energy              =   -2519.46410398 Ry
     estimated scf accuracy    <       0.52109917 Ry

     iteration #  5     ecut=    80.00 Ry     beta= 0.30
     Davidson diagonalization with overlap
     ethr =  6.40E-05,  avg # of iterations =  1.0

     negative rho (up, down):  1.627E-02 0.000E+00

     total cpu time spent up to now is     1397.0 secs

     total energy              =   -2519.46247022 Ry
     estimated scf accuracy    <       0.41834402 Ry

     iteration #  6     ecut=    80.00 Ry     beta= 0.30
     Davidson diagonalization with overlap
     ethr =  6.40E-05,  avg # of iterations =  1.0

     negative rho (up, down):  1.628E-02 0.000E+00

     total cpu time spent up to now is     1403.6 secs

     total energy              =   -2519.46231452 Ry
     estimated scf accuracy    <       0.26044929 Ry

     iteration #  7     ecut=    80.00 Ry     beta= 0.30
     Davidson diagonalization with overlap
     ethr =  6.40E-05,  avg # of iterations =  1.0

     negative rho (up, down):  1.635E-02 0.000E+00

     total cpu time spent up to now is     1411.1 secs

     total energy              =   -2519.46268331 Ry
     estimated scf accuracy    <       0.22120395 Ry

     iteration #  8     ecut=    80.00 Ry     beta= 0.30
     Davidson diagonalization with overlap
     ethr =  6.40E-05,  avg # of iterations =  1.0

     negative rho (up, down):  1.657E-02 0.000E+00

     total cpu time spent up to now is     1418.6 secs

     total energy              =   -2519.46224136 Ry
     estimated scf accuracy    <       0.25772422 Ry

     iteration #  9     ecut=    80.00 Ry     beta= 0.30
     Davidson diagonalization with overlap
     ethr =  6.40E-05,  avg # of iterations =  1.0

     negative rho (up, down):  1.659E-02 0.000E+00

     total cpu time spent up to now is     1427.2 secs

     total energy              =   -2519.46144206 Ry
     estimated scf accuracy    <       0.19042755 Ry

     iteration # 10     ecut=    80.00 Ry     beta= 0.30
     Davidson diagonalization with overlap
     ethr =  6.33E-05,  avg # of iterations =  1.0

     negative rho (up, down):  1.666E-02 0.000E+00

     total cpu time spent up to now is     1434.1 secs

     total energy              =   -2519.46123929 Ry
     estimated scf accuracy    <       0.11161185 Ry

     iteration # 11     ecut=    80.00 Ry     beta= 0.30
     Davidson diagonalization with overlap
     ethr =  3.71E-05,  avg # of iterations =  1.0

     negative rho (up, down):  1.687E-02 0.000E+00

     total cpu time spent up to now is     1441.6 secs

     total energy              =   -2519.45989339 Ry
     estimated scf accuracy    <       0.10755942 Ry

     iteration # 12     ecut=    80.00 Ry     beta= 0.30
     Davidson diagonalization with overlap
     ethr =  3.57E-05,  avg # of iterations =  1.0

     negative rho (up, down):  1.680E-02 0.000E+00

     total cpu time spent up to now is     1451.4 secs

     total energy              =   -2519.46047589 Ry
     estimated scf accuracy    <       0.00338276 Ry

     iteration # 13     ecut=    80.00 Ry     beta= 0.30
     Davidson diagonalization with overlap
     ethr =  1.12E-06,  avg # of iterations =  1.0

     negative rho (up, down):  1.684E-02 0.000E+00

     total cpu time spent up to now is     1460.0 secs

     total energy              =   -2519.46042921 Ry
     estimated scf accuracy    <       0.00296177 Ry

     iteration # 14     ecut=    80.00 Ry     beta= 0.30
     Davidson diagonalization with overlap
     ethr =  9.84E-07,  avg # of iterations =  1.0

     negative rho (up, down):  1.672E-02 0.000E+00

     total cpu time spent up to now is     1469.6 secs

     total energy              =   -2519.46044867 Ry
     estimated scf accuracy    <       0.00021433 Ry

     iteration # 15     ecut=    80.00 Ry     beta= 0.30
     Davidson diagonalization with overlap
     ethr =  7.12E-08,  avg # of iterations =  2.0

     negative rho (up, down):  1.655E-02 0.000E+00

     total cpu time spent up to now is     1495.7 secs

     total energy              =   -2519.46045234 Ry
     estimated scf accuracy    <       0.00023177 Ry

     iteration # 16     ecut=    80.00 Ry     beta= 0.30
     Davidson diagonalization with overlap
     ethr =  7.12E-08,  avg # of iterations =  1.0

     negative rho (up, down):  1.634E-02 0.000E+00

     total cpu time spent up to now is     1505.6 secs

     total energy              =   -2519.46045366 Ry
     estimated scf accuracy    <       0.00000766 Ry

     iteration # 17     ecut=    80.00 Ry     beta= 0.30
     Davidson diagonalization with overlap
     ethr =  2.54E-09,  avg # of iterations =  7.9

     negative rho (up, down):  1.624E-02 0.000E+00

     total cpu time spent up to now is     1514.9 secs

     total energy              =   -2519.46045378 Ry
     estimated scf accuracy    <       0.00000853 Ry

     iteration # 18     ecut=    80.00 Ry     beta= 0.30
     Davidson diagonalization with overlap
     ethr =  2.54E-09,  avg # of iterations =  2.3

     negative rho (up, down):  1.604E-02 0.000E+00

     total cpu time spent up to now is     1523.4 secs

     total energy              =   -2519.46045273 Ry
     estimated scf accuracy    <       0.00000573 Ry

     iteration # 19     ecut=    80.00 Ry     beta= 0.30
     Davidson diagonalization with overlap
     ethr =  1.91E-09,  avg # of iterations =  4.6

     negative rho (up, down):  1.588E-02 0.000E+00

     total cpu time spent up to now is     1532.6 secs

     total energy              =   -2519.46045256 Ry
     estimated scf accuracy    <       0.00000414 Ry

     iteration # 20     ecut=    80.00 Ry     beta= 0.30
     Davidson diagonalization with overlap
     ethr =  1.37E-09,  avg # of iterations =  1.0

     negative rho (up, down):  1.574E-02 0.000E+00

     total cpu time spent up to now is     1540.0 secs

     total energy              =   -2519.46045216 Ry
     estimated scf accuracy    <       0.00000159 Ry

     iteration # 21     ecut=    80.00 Ry     beta= 0.30
     Davidson diagonalization with overlap
     ethr =  5.28E-10,  avg # of iterations =  2.7

     negative rho (up, down):  1.556E-02 0.000E+00

     total cpu time spent up to now is     1548.4 secs

     total energy              =   -2519.46045201 Ry
     estimated scf accuracy    <       0.00000085 Ry

     iteration # 22     ecut=    80.00 Ry     beta= 0.30
     Davidson diagonalization with overlap
     ethr =  2.81E-10,  avg # of iterations =  2.0

     negative rho (up, down):  1.543E-02 0.000E+00

     total cpu time spent up to now is     1562.8 secs

     total energy              =   -2519.46045199 Ry
     estimated scf accuracy    <       0.00000055 Ry

     iteration # 23     ecut=    80.00 Ry     beta= 0.30
     Davidson diagonalization with overlap
     ethr =  1.84E-10,  avg # of iterations =  4.8

     negative rho (up, down):  1.541E-02 0.000E+00

     total cpu time spent up to now is     1574.4 secs

     total energy              =   -2519.46045204 Ry
     estimated scf accuracy    <       0.00000015 Ry

     iteration # 24     ecut=    80.00 Ry     beta= 0.30
     Davidson diagonalization with overlap
     ethr =  5.07E-11,  avg # of iterations =  4.0

     negative rho (up, down):  1.536E-02 0.000E+00

     total cpu time spent up to now is     1583.6 secs

     total energy              =   -2519.46045209 Ry
     estimated scf accuracy    <       0.00000038 Ry

     iteration # 25     ecut=    80.00 Ry     beta= 0.30
     Davidson diagonalization with overlap
     ethr =  5.07E-11,  avg # of iterations =  3.3

     negative rho (up, down):  1.535E-02 0.000E+00

     total cpu time spent up to now is     1591.5 secs

     total energy              =   -2519.46045210 Ry
     estimated scf accuracy    <       0.00000012 Ry

     iteration # 26     ecut=    80.00 Ry     beta= 0.30
     Davidson diagonalization with overlap
     ethr =  3.89E-11,  avg # of iterations =  2.9

     negative rho (up, down):  1.535E-02 0.000E+00

     total cpu time spent up to now is     1599.6 secs

     End of self-consistent calculation

          k = 0.0000 0.0000 0.0000 ( 81491 PWs)   bands (ev):

   -58.0530 -57.9904 -57.5065 -57.4634 -57.2758 -57.2350 -56.9756 -56.9342
   -56.5540 -56.5104 -56.4014 -56.3609 -34.5344 -34.3660 -34.2951 -34.2640
   -34.1469 -34.1396 -34.0860 -33.8332 -33.8263 -33.7183 -33.6977 -33.6581
   -33.6574 -33.6449 -33.5443 -33.5400 -33.4880 -33.4255 -33.3695 -33.2502
   -33.1838 -33.1651 -33.1585 -33.1121 -33.1008 -32.8873 -32.8500 -32.8385
   -32.8226 -32.7813 -32.7521 -32.7352 -32.6421 -32.6210 -32.5372 -32.4343
   -23.5752 -18.7236 -18.4321 -18.0647 -17.9224 -17.7531 -17.7353 -17.6001
   -17.5450 -17.2569 -17.2492 -17.2179 -17.1131 -17.0704 -17.0258 -17.0145
   -16.8583 -16.7530 -16.7419 -16.6850 -16.4722 -16.1032 -16.0394 -15.9629
   -15.4443 -15.3919  -8.1107  -6.5018  -6.3210  -6.1208  -5.8495  -5.8194
    -5.6399  -5.3022  -5.1530  -5.0725  -5.0597  -5.0242  -4.9323  -4.7626
    -4.7608  -4.6903  -4.6817  -4.6312  -4.6012  -4.4945  -4.4218  -4.4191
    -4.4070  -4.2923  -4.1986  -4.1874  -4.1418  -3.9736  -3.9501  -3.7625
    -3.5857  -3.5465  -3.5230  -3.4599  -3.2251  -3.1885  -3.1306  -3.0593
    -3.0185  -2.9950  -2.9691  -2.8447  -2.7432  -2.7253  -2.6469  -2.6342
    -2.5956  -2.5808  -2.4839  -2.3270  -2.2953  -2.2153  -2.1844  -2.1527
    -1.9535  -1.8769  -1.8606  -1.7999  -1.7570  -1.6696  -1.5719  -1.5685
    -1.3890  -1.3701  -1.2559  -1.2122  -1.1684  -1.1328  -1.0779  -1.0217
    -0.7680  -0.5551  -0.5176  -0.4763  -0.4590  -0.4326  -0.3427   1.0065
     1.1516   1.3321   1.4154   1.6164   1.7819   1.9379   1.9893   2.0111
     2.0743   2.1396   2.2969   2.3373   2.5074   2.5790   2.6883   2.7015
     2.7115   2.7349   2.7385   2.8594   2.8751   2.9155   2.9426   2.9876
     3.0825   3.1035   3.1619   3.1728   3.3095

          k = 0.0000 0.2277 0.0000 ( 81407 PWs)   bands (ev):

   -58.0530 -57.9904 -57.5065 -57.4634 -57.2758 -57.2350 -56.9756 -56.9342
   -56.5541 -56.5104 -56.4014 -56.3609 -34.5354 -34.3660 -34.2951 -34.2619
   -34.1470 -34.1399 -34.0859 -33.8348 -33.8264 -33.7183 -33.6900 -33.6615
   -33.6581 -33.6574 -33.5400 -33.5226 -33.4880 -33.4262 -33.3695 -33.2590
   -33.1838 -33.1648 -33.1582 -33.1122 -33.1003 -32.8871 -32.8550 -32.8385
   -32.8204 -32.7845 -32.7504 -32.7352 -32.6421 -32.6211 -32.5372 -32.4343
   -23.5752 -18.6572 -18.3440 -17.9819 -17.8982 -17.8806 -17.7498 -17.5963
   -17.3936 -17.3883 -17.3856 -17.3234 -17.2547 -17.1198 -16.9066 -16.8602
   -16.8151 -16.8097 -16.7554 -16.7076 -16.4730 -16.0998 -16.0358 -15.9672
   -15.4422 -15.3915  -8.1097  -6.4968  -6.1374  -6.0091  -5.6372  -5.5851
    -5.5272  -5.4740  -5.3427  -5.2240  -5.0115  -5.0038  -4.9086  -4.7532
    -4.7240  -4.7109  -4.6845  -4.6681  -4.5527  -4.4891  -4.4299  -4.2618
    -4.2408  -4.1900  -4.1603  -4.1255  -3.9590  -3.9178  -3.7438  -3.6853
    -3.6205  -3.5957  -3.5236  -3.3983  -3.3390  -3.2970  -3.2233  -3.2044
    -3.1966  -3.0341  -3.0142  -2.9780  -2.8450  -2.7947  -2.7054  -2.6593
    -2.6062  -2.5650  -2.3805  -2.3589  -2.3262  -2.2475  -2.1290  -2.0220
    -1.9895  -1.9274  -1.8964  -1.8299  -1.7984  -1.7650  -1.7160  -1.6461
    -1.4585  -1.4447  -1.3616  -1.3284  -1.2414  -1.1877  -1.0597  -1.0541
    -1.0457  -0.6514  -0.5763  -0.5530  -0.4973  -0.4638  -0.3814   1.0808
     1.1061   1.4131   1.4920   1.7166   1.9435   1.9474   2.0026   2.0302
     2.0711   2.1621   2.2148   2.2375   2.3863   2.5044   2.6292   2.6649
     2.7352   2.7552   2.8896   2.9171   2.9674   2.9860   3.0582   3.0819
     3.1671   3.2580   3.3336   3.3463   3.3772

          k = 0.0000-0.4554 0.0000 ( 81286 PWs)   bands (ev):

   -58.0530 -57.9904 -57.5065 -57.4634 -57.2758 -57.2350 -56.9756 -56.9342
   -56.5541 -56.5104 -56.4014 -56.3609 -34.5364 -34.3660 -34.2951 -34.2599
   -34.1471 -34.1401 -34.0859 -33.8365 -33.8264 -33.7183 -33.6831 -33.6736
   -33.6581 -33.6574 -33.5357 -33.5086 -33.4880 -33.4269 -33.3694 -33.2681
   -33.1838 -33.1645 -33.1579 -33.1122 -33.0998 -32.8868 -32.8601 -32.8385
   -32.8183 -32.7876 -32.7488 -32.7352 -32.6421 -32.6211 -32.5372 -32.4343
   -23.5751 -18.5888 -18.2106 -17.9909 -17.8994 -17.7921 -17.7829 -17.5803
   -17.5597 -17.4691 -17.4439 -17.2768 -17.2689 -17.2411 -16.9836 -16.8277
   -16.8195 -16.7577 -16.7006 -16.6976 -16.4737 -16.0970 -16.0316 -15.9721
   -15.4403 -15.3911  -8.1087  -6.4956  -6.1293  -5.6295  -5.6259  -5.5940
    -5.5648  -5.2563  -5.2011  -5.1781  -5.1005  -4.8564  -4.8018  -4.7516
    -4.6838  -4.6775  -4.6651  -4.6418  -4.6032  -4.4829  -4.4408  -4.2218
    -4.1830  -4.0949  -4.0898  -3.9788  -3.8649  -3.8573  -3.6996  -3.6754
    -3.6573  -3.6350  -3.6030  -3.5959  -3.5234  -3.4624  -3.3891  -3.2201
    -3.1774  -3.0316  -2.9987  -2.9730  -2.9543  -2.7899  -2.7368  -2.6904
    -2.6124  -2.5808  -2.5476  -2.4513  -2.4006  -2.2450  -2.2374  -2.0824
    -2.0749  -2.0318  -1.9454  -1.8900  -1.8497  -1.7633  -1.7035  -1.5714
    -1.4974  -1.3848  -1.3437  -1.3327  -1.3248  -1.2311  -1.2249  -1.1391
    -1.0445  -0.7637  -0.6265  -0.5916  -0.5278  -0.4845  -0.4007   1.0025
     1.1376   1.4024   1.4700   1.6365   1.6685   1.9445   2.0287   2.0460
     2.2216   2.2705   2.2800   2.3321   2.4887   2.5030   2.5335   2.7358
     2.7663   2.8543   2.9125   2.9548   3.0297   3.0787   3.1779   3.1963
     3.2324   3.2927   3.3705   3.3870   3.4716

          k = 0.2500 0.0000 0.0000 ( 81478 PWs)   bands (ev):

   -58.0497 -57.9939 -57.5008 -57.4692 -57.2699 -57.2410 -56.9702 -56.9396
   -56.5480 -56.5165 -56.3955 -56.3668 -34.4714 -34.3635 -34.2953 -34.2496
   -34.1618 -34.1533 -34.0785 -33.8103 -33.7745 -33.7609 -33.7016 -33.6901
   -33.6521 -33.6503 -33.5280 -33.4885 -33.4793 -33.4426 -33.4378 -33.2384
   -33.1803 -33.1777 -33.1748 -33.1520 -33.0442 -32.8464 -32.8290 -32.8258
   -32.8237 -32.7770 -32.7564 -32.7481 -32.6909 -32.6270 -32.5528 -32.5031
   -23.5750 -18.5755 -18.3029 -17.9480 -17.8516 -17.7722 -17.6616 -17.6602
   -17.6291 -17.3749 -17.2943 -17.1923 -17.1742 -17.1398 -17.0518 -16.9207
   -16.8133 -16.7537 -16.7506 -16.7176 -16.4453 -16.1488 -16.1329 -15.9691
   -15.4840 -15.4559  -8.1113  -6.4749  -6.1224  -5.9399  -5.6614  -5.6463
    -5.3986  -5.2581  -5.1846  -5.1801  -5.0363  -5.0243  -5.0048  -4.8745
    -4.7942  -4.7746  -4.7263  -4.6933  -4.6429  -4.6084  -4.5893  -4.4785
    -4.3980  -4.3827  -4.3458  -4.1061  -3.9204  -3.8637  -3.8385  -3.7540
    -3.6033  -3.5355  -3.4432  -3.2914  -3.2519  -3.1599  -3.0630  -3.0163
    -2.9694  -2.9441  -2.9151  -2.8562  -2.7130  -2.7051  -2.6759  -2.5887
    -2.5545  -2.5331  -2.4516  -2.3852  -2.3576  -2.1789  -2.1434  -2.1158
    -2.0580  -2.0389  -1.9703  -1.8761  -1.8310  -1.7970  -1.7058  -1.5941
    -1.5520  -1.4880  -1.3330  -1.3210  -1.2633  -1.2301  -1.1075  -1.0507
    -1.0339  -0.7192  -0.7065  -0.5015  -0.4849  -0.3832  -0.3726   1.2136
     1.2872   1.4449   1.5735   1.8609   1.8632   1.9178   1.9397   2.0303
     2.0358   2.1090   2.2635   2.2875   2.4313   2.4562   2.5416   2.6849
     2.7642   2.8330   2.8551   2.8629   2.9049   2.9486   2.9971   3.0571
     3.1106   3.1419   3.1910   3.3140   3.3345

          k = 0.2500 0.2277 0.0000 ( 81485 PWs)   bands (ev):

   -58.0497 -57.9939 -57.5008 -57.4692 -57.2699 -57.2410 -56.9702 -56.9396
   -56.5481 -56.5165 -56.3955 -56.3668 -34.4723 -34.3635 -34.2953 -34.2479
   -34.1615 -34.1535 -34.0787 -33.8103 -33.7754 -33.7616 -33.7016 -33.6844
   -33.6604 -33.6503 -33.5243 -33.4885 -33.4691 -33.4423 -33.4383 -33.2458
   -33.1799 -33.1786 -33.1744 -33.1520 -33.0437 -32.8501 -32.8290 -32.8248
   -32.8235 -32.7794 -32.7553 -32.7481 -32.6908 -32.6270 -32.5528 -32.5031
   -23.5750 -18.5143 -18.2221 -17.9001 -17.8489 -17.7919 -17.7348 -17.6420
   -17.4816 -17.4373 -17.3774 -17.3387 -17.2454 -17.0636 -17.0216 -16.9549
   -16.8868 -16.8046 -16.6943 -16.6905 -16.4467 -16.1459 -16.1332 -15.9706
   -15.4823 -15.4563  -8.1105  -6.4731  -5.9549  -5.8168  -5.4064  -5.3767
    -5.3549  -5.2941  -5.2088  -5.1576  -5.1220  -4.9752  -4.9425  -4.8762
    -4.8097  -4.7751  -4.7330  -4.6476  -4.5835  -4.5278  -4.5194  -4.4262
    -4.3866  -4.3530  -4.1743  -4.0540  -4.0068  -3.8375  -3.7530  -3.7367
    -3.5566  -3.4794  -3.4091  -3.3357  -3.2988  -3.2635  -3.2176  -3.1620
    -3.0707  -3.0038  -2.9816  -2.8882  -2.8517  -2.8187  -2.7671  -2.6700
    -2.6467  -2.6092  -2.5428  -2.4872  -2.3653  -2.3313  -2.3261  -2.2115
    -2.1467  -2.0478  -1.9299  -1.8773  -1.8302  -1.7953  -1.7676  -1.6834
    -1.5818  -1.4628  -1.3679  -1.3595  -1.2748  -1.2150  -1.1480  -1.0832
    -1.0397  -0.7125  -0.7033  -0.5633  -0.5604  -0.4030  -0.3678   1.1964
     1.3314   1.5398   1.6792   1.7942   1.9272   1.9758   2.0156   2.0943
     2.1391   2.1830   2.2349   2.2703   2.3157   2.4381   2.6286   2.7082
     2.7320   2.7700   2.9198   2.9503   2.9850   3.0413   3.0709   3.1027
     3.2434   3.2513   3.3298   3.3672   3.4608

          k = 0.2500-0.4554 0.0000 ( 81408 PWs)   bands (ev):

   -58.0497 -57.9939 -57.5008 -57.4692 -57.2699 -57.2410 -56.9703 -56.9396
   -56.5481 -56.5165 -56.3955 -56.3668 -34.4732 -34.3635 -34.2953 -34.2462
   -34.1612 -34.1537 -34.0789 -33.8104 -33.7764 -33.7622 -33.7017 -33.6792
   -33.6672 -33.6504 -33.5206 -33.4884 -33.4597 -33.4420 -33.4388 -33.2533
   -33.1797 -33.1796 -33.1740 -33.1519 -33.0432 -32.8538 -32.8290 -32.8237
   -32.8233 -32.7817 -32.7543 -32.7481 -32.6908 -32.6270 -32.5528 -32.5031
   -23.5749 -18.4520 -18.0904 -17.9277 -17.8420 -17.7457 -17.7220 -17.6590
   -17.5305 -17.4172 -17.4094 -17.3760 -17.2753 -17.2273 -17.0396 -16.9586
   -16.9168 -16.7930 -16.6704 -16.6624 -16.4480 -16.1434 -16.1337 -15.9722
   -15.4808 -15.4567  -8.1097  -6.4728  -5.9503  -5.4084  -5.3712  -5.2916
    -5.2416  -5.1761  -5.1344  -5.0390  -4.9754  -4.9642  -4.8853  -4.8826
    -4.8588  -4.8507  -4.6684  -4.6141  -4.5922  -4.5265  -4.3852  -4.3289
    -4.2891  -4.0879  -4.0876  -4.0292  -3.9533  -3.8159  -3.7931  -3.7465
    -3.6917  -3.6458  -3.4384  -3.3920  -3.3845  -3.2956  -3.2496  -3.2366
    -3.2065  -3.0781  -3.0708  -3.0680  -2.9551  -2.8712  -2.8683  -2.8594
    -2.7527  -2.7511  -2.7056  -2.5613  -2.5323  -2.4934  -2.4125  -2.3292
    -2.3046  -2.1987  -1.8800  -1.8474  -1.8333  -1.7329  -1.6289  -1.5840
    -1.5480  -1.5157  -1.4230  -1.3918  -1.2053  -1.1175  -1.1163  -1.0660
    -1.0532  -0.7934  -0.7045  -0.6407  -0.6072  -0.4112  -0.3680   1.2155
     1.3399   1.5461   1.6010   1.7181   1.8247   1.9626   2.0791   2.0984
     2.2004   2.2373   2.2700   2.3312   2.4951   2.5044   2.6816   2.7733
     2.7857   2.8074   2.9477   2.9832   3.0045   3.1445   3.1602   3.2985
     3.3194   3.3539   3.3684   3.4155   3.4879

          k =-0.5000 0.0000 0.0000 ( 81532 PWs)   bands (ev):

   -58.0459 -57.9977 -57.4911 -57.4789 -57.2572 -57.2537 -56.9614 -56.9485
   -56.5370 -56.5276 -56.3812 -56.3811 -34.3609 -34.3340 -34.2963 -34.2950
   -34.2266 -34.1853 -33.9502 -33.8924 -33.7688 -33.7583 -33.6762 -33.6657
   -33.6608 -33.6070 -33.5891 -33.4967 -33.4870 -33.4747 -33.3348 -33.3253
   -33.2138 -33.2030 -33.1702 -33.1557 -32.8910 -32.8838 -32.8408 -32.8311
   -32.7763 -32.7703 -32.7667 -32.7666 -32.6660 -32.6658 -32.5902 -32.5900
   -23.5748 -18.2187 -18.1956 -18.0416 -17.9202 -17.7170 -17.6395 -17.5354
   -17.4782 -17.4777 -17.4650 -17.4007 -17.3652 -17.0035 -16.9818 -16.9043
   -16.9009 -16.7508 -16.7463 -16.5236 -16.5178 -16.2302 -16.2279 -15.9712
   -15.5262 -15.5247  -8.1118  -6.4551  -5.6280  -5.6226  -5.5008  -5.4448
    -5.2364  -5.2362  -5.2293  -5.2070  -5.1996  -5.1634  -5.1476  -5.1329
    -5.1024  -4.9079  -4.8347  -4.6310  -4.5565  -4.5108  -4.4737  -4.4371
    -4.3691  -4.3117  -4.2353  -4.1818  -4.1574  -3.8045  -3.8013  -3.5219
    -3.4654  -3.4638  -3.3998  -3.2925  -3.2756  -3.2158  -3.2013  -3.0294
    -2.9929  -2.9692  -2.9134  -2.7917  -2.7879  -2.6317  -2.5877  -2.5675
    -2.5454  -2.4160  -2.3989  -2.3483  -2.2764  -2.2512  -2.2097  -2.1474
    -2.0890  -2.0358  -2.0292  -1.9989  -1.9934  -1.8755  -1.8225  -1.7525
    -1.6266  -1.6066  -1.4651  -1.4439  -1.3531  -1.3472  -1.3298  -1.3234
    -0.8710  -0.8416  -0.5479  -0.5433  -0.4713  -0.4690  -0.4273   1.4836
     1.5338   1.6551   1.6591   1.7751   1.8018   1.8931   1.9289   1.9987
     2.0460   2.1246   2.1870   2.3894   2.4367   2.4637   2.4886   2.5888
     2.6711   2.8570   2.8947   2.9021   2.9169   2.9722   3.0212   3.0570
     3.0696   3.2467   3.2774   3.5681   3.5881

          k =-0.5000 0.2277 0.0000 ( 81508 PWs)   bands (ev):

   -58.0458 -57.9977 -57.4911 -57.4789 -57.2572 -57.2537 -56.9614 -56.9485
   -56.5370 -56.5276 -56.3812 -56.3811 -34.3609 -34.3346 -34.2963 -34.2956
   -34.2256 -34.1842 -33.9503 -33.8926 -33.7688 -33.7583 -33.6753 -33.6651
   -33.6613 -33.6078 -33.5903 -33.4945 -33.4870 -33.4725 -33.3314 -33.3222
   -33.2180 -33.2067 -33.1702 -33.1557 -32.8909 -32.8837 -32.8420 -32.8324
   -32.7762 -32.7702 -32.7673 -32.7672 -32.6659 -32.6657 -32.5902 -32.5900
   -23.5748 -18.1727 -18.1583 -17.9867 -17.8789 -17.6870 -17.6506 -17.5570
   -17.5418 -17.4787 -17.4053 -17.3506 -17.3445 -17.1004 -17.0748 -17.0031
   -17.0015 -16.7178 -16.7141 -16.5192 -16.5131 -16.2286 -16.2264 -15.9718
   -15.5260 -15.5245  -8.1112  -6.4546  -5.5043  -5.4830  -5.4016  -5.3650
    -5.2174  -5.2067  -5.1465  -5.0498  -5.0230  -4.9740  -4.9561  -4.9442
    -4.9200  -4.8294  -4.7637  -4.5965  -4.5604  -4.5045  -4.4824  -4.4265
    -4.4075  -4.3854  -4.3055  -4.0157  -4.0127  -3.9578  -3.8656  -3.6589
    -3.6336  -3.5388  -3.4974  -3.3807  -3.3510  -3.3337  -3.2966  -3.1077
    -3.0448  -2.9984  -2.9316  -2.8896  -2.8759  -2.7821  -2.7512  -2.7035
    -2.6873  -2.5928  -2.5766  -2.4186  -2.3837  -2.3659  -2.3488  -2.3298
    -2.3100  -2.1835  -2.1442  -1.9783  -1.9240  -1.8199  -1.8143  -1.7794
    -1.4714  -1.4594  -1.3955  -1.3476  -1.3066  -1.2985  -1.2566  -1.2447
    -0.9002  -0.8699  -0.6139  -0.6087  -0.4582  -0.4554  -0.4113   1.5321
     1.5657   1.6880   1.7035   1.8611   1.9087   1.9541   1.9599   1.9945
     2.0166   2.2088   2.2462   2.4544   2.4852   2.5889   2.6117   2.6855
     2.7042   2.7286   2.7488   2.9246   3.0137   3.0722   3.0785   3.1764
     3.2752   3.2789   3.3093   3.5320   3.5418

          k =-0.5000-0.4554 0.0000 ( 81484 PWs)   bands (ev):

   -58.0458 -57.9977 -57.4911 -57.4789 -57.2572 -57.2537 -56.9614 -56.9485
   -56.5370 -56.5276 -56.3812 -56.3811 -34.3609 -34.3352 -34.2964 -34.2962
   -34.2246 -34.1832 -33.9504 -33.8928 -33.7688 -33.7583 -33.6744 -33.6646
   -33.6618 -33.6085 -33.5915 -33.4924 -33.4871 -33.4703 -33.3278 -33.3188
   -33.2224 -33.2108 -33.1702 -33.1557 -32.8907 -32.8835 -32.8432 -32.8336
   -32.7762 -32.7702 -32.7679 -32.7679 -32.6658 -32.6656 -32.5902 -32.5901
   -23.5748 -18.1235 -18.1203 -17.8496 -17.7883 -17.7879 -17.7251 -17.6130
   -17.5559 -17.3399 -17.3253 -17.3030 -17.2504 -17.1983 -17.1866 -17.1751
   -17.1667 -16.6987 -16.6949 -16.5158 -16.5095 -16.2273 -16.2249 -15.9726
   -15.5258 -15.5243  -8.1107  -6.4546  -5.5063  -5.4695  -5.2412  -5.2003
    -5.1748  -5.0399  -5.0357  -4.8564  -4.8267  -4.7911  -4.7285  -4.6162
    -4.6125  -4.5987  -4.5863  -4.5340  -4.5174  -4.5118  -4.5068  -4.4651
    -4.3165  -4.3003  -4.2937  -4.2772  -4.2595  -3.9594  -3.9592  -3.9218
    -3.9011  -3.6865  -3.6221  -3.5100  -3.5073  -3.2533  -3.1879  -3.1809
    -3.0747  -3.0581  -3.0531  -2.9996  -2.9955  -2.9519  -2.9277  -2.9178
    -2.8725  -2.7550  -2.7487  -2.6942  -2.5965  -2.5715  -2.4991  -2.4683
    -2.3778  -2.2769  -2.2480  -1.8898  -1.8677  -1.8249  -1.6486  -1.6362
    -1.4021  -1.3765  -1.3409  -1.3064  -1.2273  -1.2253  -1.1592  -1.1525
    -0.9051  -0.9024  -0.6686  -0.6554  -0.4588  -0.4515  -0.3953   1.6395
     1.6532   1.6819   1.6936   1.7995   1.8782   1.9588   2.0792   2.1070
     2.1218   2.1417   2.1564   2.4573   2.4837   2.5553   2.6006   2.7932
     2.8419   2.8974   2.9556   2.9719   3.0806   3.1847   3.2204   3.2786
     3.2821   3.3404   3.4629   3.5420   3.5549

     the Fermi energy is    -0.3503 ev

!    total energy              =   -2519.46045208 Ry
     estimated scf accuracy    <       0.00000004 Ry
     smearing contrib. (-TS)   =       0.00305851 Ry
     internal energy E=F+TS    =   -2519.46351059 Ry

     The total energy is F=E-TS. E is the sum of the following terms:
     one-electron contribution =  -26117.95018744 Ry
     hartree contribution      =   13108.72463402 Ry
     xc contribution           =    -409.97832230 Ry
     ewald contribution        =   11147.20790488 Ry
     one-center paw contrib.   =    -247.46753974 Ry

     convergence has been achieved in  26 iterations

     negative rho (up, down):  1.535E-02 0.000E+00

     Forces acting on atoms (cartesian axes, Ry/au):

     atom    1 type  2   force =    -0.00006178    0.00000000    0.10126044
     atom    2 type  2   force =     0.00042499    0.00000000   -0.09831093
     atom    3 type  2   force =    -0.00026199    0.00000000    0.00043742
     atom    4 type  2   force =     0.00272510    0.00000000    0.00623011
     atom    5 type  2   force =     0.00023317    0.00000000    0.01059570
     atom    6 type  2   force =     0.00048031    0.00000000    0.00876562
     atom    7 type  3   force =     0.00003657    0.00000000    0.03079232
     atom    8 type  3   force =     0.00005075    0.00000000    0.05778526
     atom    9 type  3   force =    -0.00245669    0.07054844   -0.03484841
     atom   10 type  3   force =    -0.00245669   -0.07054844   -0.03484841
     atom   11 type  3   force =    -0.00051575    0.00000000   -0.00520581
     atom   12 type  3   force =     0.00036292    0.00000000   -0.06505324
     atom   13 type  3   force =    -0.00059105    0.00193732   -0.00012031
     atom   14 type  3   force =    -0.00059105   -0.00193732   -0.00012031
     atom   15 type  3   force =     0.00063438    0.00000000    0.00270549
     atom   16 type  3   force =    -0.00077481    0.00000000    0.00282540
     atom   17 type  3   force =     0.00506884    0.00323913    0.00247047
     atom   18 type  3   force =     0.00506884   -0.00323913    0.00247047
     atom   19 type  2   force =     0.00006766    0.00000000    0.11721953
     atom   20 type  2   force =    -0.00049388    0.00000000   -0.09831737
     atom   21 type  2   force =     0.00020413    0.00000000   -0.00039240
     atom   22 type  2   force =    -0.00255473    0.00000000    0.00639710
     atom   23 type  2   force =    -0.00245574    0.00000000    0.00283291
     atom   24 type  2   force =    -0.00080158    0.00000000    0.00964138
     atom   25 type  3   force =     0.00010793    0.00000000    0.02880127
     atom   26 type  3   force =     0.00000214    0.00000000    0.05787728
     atom   27 type  3   force =     0.00246226    0.07057406   -0.03481937
     atom   28 type  3   force =     0.00246226   -0.07057406   -0.03481937
     atom   29 type  3   force =     0.00034095    0.00000000   -0.00312996
     atom   30 type  3   force =    -0.00007216    0.00000000   -0.06318411
     atom   31 type  3   force =     0.00060504    0.00222002   -0.00061390
     atom   32 type  3   force =     0.00060504   -0.00222002   -0.00061390
     atom   33 type  3   force =    -0.00085301    0.00000000    0.00328303
     atom   34 type  3   force =     0.00076429    0.00000000    0.00201704
     atom   35 type  3   force =    -0.00536262    0.00320908    0.00602800
     atom   36 type  3   force =    -0.00536262   -0.00320908    0.00602800
     atom   37 type  3   force =     0.00527238    0.00000000   -0.00633069
     atom   38 type  3   force =    -0.00461665    0.00000000    0.00198619
     atom   39 type  1   force =     0.00230283    0.00000000    0.01227805

     Total force =     0.031065     Total SCF correction =     0.000936
     Energy error            =      2.3E-03 Ry
     Gradient error          =      1.2E-02 Ry/Bohr

     number of scf cycles    =   7
     number of bfgs steps    =   6

     energy             old  =   -2519.4581167871 Ry
     energy             new  =   -2519.4604520755 Ry

     CASE: energy            _new < energy            _old

     new trust radius        =       0.0461356286 bohr
     new conv_thr            =       0.0000000614 Ry


ATOMIC_POSITIONS (angstrom)
Ti               0.0000000000        4.8723546300        9.7447092600    0   0   0
Ti               1.4793500000        1.6241182100        9.7447092600    0   0   0
Ti              -0.0008660391        1.6241182100       13.0697428667
Ti               1.4496697349        4.8723546300       12.9650924583
Ti              -0.0077256749        4.8723546300       16.2455154832
Ti               1.4806335416        1.6241182100       16.3951039547
O                0.0000000000        1.6241182100       11.0129506900    0   0   0
O                0.0000000000        1.6241182100        8.4764678300    0   0   0
O                1.4793500000        3.6041132000        9.7447092600    0   0   0
O                1.4793500000        6.1405960600        9.7447092600    0   0   0
O               -0.0012418116        4.8723546300       14.2593297891
O                0.0000000000        4.8723546300       11.7247042500    0   0   0
O                1.4823387177        0.3235145674       12.9733495472
O                1.4823387177        2.9247218526       12.9733495472
O                0.0017245203        1.6241182100       17.4726325166
O               -0.0063631823        1.6241182100       14.9253650105
O                1.4925277199        3.6341382337       16.2919724875
O                1.4925277199        6.1105710263       16.2919724875
Ti               2.9587000000        4.8723546300        9.7447092600    0   0   0
Ti               4.4380500000        1.6241182100        9.7447092600    0   0   0
Ti               2.9588379252        1.6241182100       13.0564313138
Ti               4.4701014211        4.8723546300       12.9698039164
Ti               2.9429611484        4.8723546300       16.0389839902
Ti               4.4361617025        1.6241182100       16.3994686741
O                2.9587000000        1.6241182100       11.0129506900    0   0   0
O                2.9587000000        1.6241182100        8.4764678300    0   0   0
O                4.4380500000        3.6041132000        9.7447092600    0   0   0
O                4.4380500000        6.1405960600        9.7447092600    0   0   0
O                2.9615935197        4.8723546300       14.2333499702
O                2.9587000000        4.8723546300       11.7247042500    0   0   0
O                4.4356106919        0.3234922386       12.9717516215
O                4.4356106919        2.9247441814       12.9717516215
O                2.9564651720        1.6241182100       17.4785953874
O                2.9659657943        1.6241182100       14.9270945607
O                4.4165948517        3.6396318856       16.3342197411
O                4.4165948517        6.1050773744       16.3342197411
O                0.0273734079        4.8723546300       18.2881036841
O                1.3280121056        4.8723546300       18.7727146950
H                1.1769501017        4.8723546300       19.7368886369



     Writing config-only to output data dir ./tmp_s0_OOH__2x1v_mir/s0_OOH__2x1v_mir.save/ :
     XML data file
     NEW-OLD atomic charge density approx. for the potential

     Check: negative core charge=   -0.000001

     negative rho (up, down):  1.563E-02 0.000E+00

     total cpu time spent up to now is     1604.2 secs

     per-process dynamical memory:   248.3 Mb

     Self-consistent Calculation

     iteration #  1     ecut=    80.00 Ry     beta= 0.30
     Davidson diagonalization with overlap
     ethr =  1.00E-06,  avg # of iterations =  8.1

     negative rho (up, down):  1.606E-02 0.000E+00

     total cpu time spent up to now is     1623.5 secs

     total energy              =   -2519.43823463 Ry
     estimated scf accuracy    <       0.52136224 Ry

     iteration #  2     ecut=    80.00 Ry     beta= 0.30
     Davidson diagonalization with overlap
     ethr =  1.73E-04,  avg # of iterations =  1.0

     negative rho (up, down):  1.598E-02 0.000E+00

     total cpu time spent up to now is     1632.9 secs

     total energy              =   -2519.46479874 Ry
     estimated scf accuracy    <       0.19635080 Ry

     iteration #  3     ecut=    80.00 Ry     beta= 0.30
     Davidson diagonalization with overlap
     ethr =  6.52E-05,  avg # of iterations =  1.0

     negative rho (up, down):  1.589E-02 0.000E+00

     total cpu time spent up to now is     1643.0 secs

     total energy              =   -2519.45695075 Ry
     estimated scf accuracy    <       0.16786799 Ry

     iteration #  4     ecut=    80.00 Ry     beta= 0.30
     Davidson diagonalization with overlap
     ethr =  5.58E-05,  avg # of iterations =  1.0

     negative rho (up, down):  1.628E-02 0.000E+00

     total cpu time spent up to now is     1649.1 secs

     total energy              =   -2519.46138992 Ry
     estimated scf accuracy    <       0.31683284 Ry

     iteration #  5     ecut=    80.00 Ry     beta= 0.30
     Davidson diagonalization with overlap
     ethr =  5.58E-05,  avg # of iterations =  1.0

     negative rho (up, down):  1.657E-02 0.000E+00

     total cpu time spent up to now is     1655.4 secs

     total energy              =   -2519.46173165 Ry
     estimated scf accuracy    <       0.04306809 Ry

     iteration #  6     ecut=    80.00 Ry     beta= 0.30
     Davidson diagonalization with overlap
     ethr =  1.43E-05,  avg # of iterations =  1.0

     negative rho (up, down):  1.682E-02 0.000E+00

     total cpu time spent up to now is     1661.6 secs

     total energy              =   -2519.46198290 Ry
     estimated scf accuracy    <       0.00058102 Ry

     iteration #  7     ecut=    80.00 Ry     beta= 0.30
     Davidson diagonalization with overlap
     ethr =  1.93E-07,  avg # of iterations =  3.3

     negative rho (up, down):  1.708E-02 0.000E+00

     total cpu time spent up to now is     1669.0 secs

     total energy              =   -2519.46197342 Ry
     estimated scf accuracy    <       0.00225779 Ry

     iteration #  8     ecut=    80.00 Ry     beta= 0.30
     Davidson diagonalization with overlap
     ethr =  1.93E-07,  avg # of iterations =  1.2

     negative rho (up, down):  1.704E-02 0.000E+00

     total cpu time spent up to now is     1675.5 secs

     total energy              =   -2519.46195991 Ry
     estimated scf accuracy    <       0.00019067 Ry

     iteration #  9     ecut=    80.00 Ry     beta= 0.30
     Davidson diagonalization with overlap
     ethr =  6.33E-08,  avg # of iterations =  3.8

     negative rho (up, down):  1.696E-02 0.000E+00

     total cpu time spent up to now is     1683.0 secs

     total energy              =   -2519.46201330 Ry
     estimated scf accuracy    <       0.01259147 Ry

     iteration # 10     ecut=    80.00 Ry     beta= 0.30
     Davidson diagonalization with overlap
     ethr =  6.33E-08,  avg # of iterations =  1.0

     negative rho (up, down):  1.682E-02 0.000E+00

     total cpu time spent up to now is     1689.9 secs

     total energy              =   -2519.46182986 Ry
     estimated scf accuracy    <       0.00570784 Ry

     iteration # 11     ecut=    80.00 Ry     beta= 0.30
     Davidson diagonalization with overlap
     ethr =  6.33E-08,  avg # of iterations =  2.6

     negative rho (up, down):  1.672E-02 0.000E+00

     total cpu time spent up to now is     1697.7 secs

     total energy              =   -2519.46190282 Ry
     estimated scf accuracy    <       0.01212366 Ry

     iteration # 12     ecut=    80.00 Ry     beta= 0.30
     Davidson diagonalization with overlap
     ethr =  6.33E-08,  avg # of iterations =  1.4

     negative rho (up, down):  1.666E-02 0.000E+00

     total cpu time spent up to now is     1704.6 secs

     total energy              =   -2519.46198070 Ry
     estimated scf accuracy    <       0.00002933 Ry

     iteration # 13     ecut=    80.00 Ry     beta= 0.30
     Davidson diagonalization with overlap
     ethr =  9.75E-09,  avg # of iterations =  2.2

     negative rho (up, down):  1.643E-02 0.000E+00

     total cpu time spent up to now is     1711.5 secs

     total energy              =   -2519.46197873 Ry
     estimated scf accuracy    <       0.00005176 Ry

     iteration # 14     ecut=    80.00 Ry     beta= 0.30
     Davidson diagonalization with overlap
     ethr =  9.75E-09,  avg # of iterations =  2.0

     negative rho (up, down):  1.626E-02 0.000E+00

     total cpu time spent up to now is     1718.4 secs

     total energy              =   -2519.46197850 Ry
     estimated scf accuracy    <       0.00000171 Ry

     iteration # 15     ecut=    80.00 Ry     beta= 0.30
     Davidson diagonalization with overlap
     ethr =  5.70E-10,  avg # of iterations =  6.1

     negative rho (up, down):  1.613E-02 0.000E+00

     total cpu time spent up to now is     1727.0 secs

     total energy              =   -2519.46197796 Ry
     estimated scf accuracy    <       0.00000219 Ry

     iteration # 16     ecut=    80.00 Ry     beta= 0.30
     Davidson diagonalization with overlap
     ethr =  5.70E-10,  avg # of iterations =  4.8

     negative rho (up, down):  1.597E-02 0.000E+00

     total cpu time spent up to now is     1735.6 secs

     total energy              =   -2519.46197780 Ry
     estimated scf accuracy    <       0.00000169 Ry

     iteration # 17     ecut=    80.00 Ry     beta= 0.30
     Davidson diagonalization with overlap
     ethr =  5.61E-10,  avg # of iterations =  1.9

     negative rho (up, down):  1.585E-02 0.000E+00

     total cpu time spent up to now is     1742.6 secs

     total energy              =   -2519.46197756 Ry
     estimated scf accuracy    <       0.00000068 Ry

     iteration # 18     ecut=    80.00 Ry     beta= 0.30
     Davidson diagonalization with overlap
     ethr =  2.24E-10,  avg # of iterations =  4.1

     negative rho (up, down):  1.573E-02 0.000E+00

     total cpu time spent up to now is     1751.6 secs

     total energy              =   -2519.46197751 Ry
     estimated scf accuracy    <       0.00000037 Ry

     iteration # 19     ecut=    80.00 Ry     beta= 0.30
     Davidson diagonalization with overlap
     ethr =  1.25E-10,  avg # of iterations =  4.2

     negative rho (up, down):  1.564E-02 0.000E+00

     total cpu time spent up to now is     1759.4 secs

     total energy              =   -2519.46197757 Ry
     estimated scf accuracy    <       0.00000033 Ry

     iteration # 20     ecut=    80.00 Ry     beta= 0.30
     Davidson diagonalization with overlap
     ethr =  1.10E-10,  avg # of iterations =  1.0

     negative rho (up, down):  1.559E-02 0.000E+00

     total cpu time spent up to now is     1766.0 secs

     total energy              =   -2519.46197761 Ry
     estimated scf accuracy    <       0.00000021 Ry

     iteration # 21     ecut=    80.00 Ry     beta= 0.30
     Davidson diagonalization with overlap
     ethr =  7.11E-11,  avg # of iterations =  3.0

     negative rho (up, down):  1.557E-02 0.000E+00

     total cpu time spent up to now is     1773.1 secs

     total energy              =   -2519.46197764 Ry
     estimated scf accuracy    <       0.00000022 Ry

     iteration # 22     ecut=    80.00 Ry     beta= 0.30
     Davidson diagonalization with overlap
     ethr =  7.11E-11,  avg # of iterations =  1.0

     negative rho (up, down):  1.556E-02 0.000E+00

     total cpu time spent up to now is     1779.5 secs

     total energy              =   -2519.46197765 Ry
     estimated scf accuracy    <       0.00000006 Ry

     iteration # 23     ecut=    80.00 Ry     beta= 0.30
     Davidson diagonalization with overlap
     ethr =  2.12E-11,  avg # of iterations =  3.0

     negative rho (up, down):  1.556E-02 0.000E+00

     total cpu time spent up to now is     1786.8 secs

     total energy              =   -2519.46197765 Ry
     estimated scf accuracy    <       0.00000008 Ry

     iteration # 24     ecut=    80.00 Ry     beta= 0.30
     Davidson diagonalization with overlap
     ethr =  2.12E-11,  avg # of iterations =  1.1

     negative rho (up, down):  1.556E-02 0.000E+00

     total cpu time spent up to now is     1793.0 secs

     End of self-consistent calculation

          k = 0.0000 0.0000 0.0000 ( 81491 PWs)   bands (ev):

   -58.0555 -57.9841 -57.4991 -57.4546 -57.2716 -57.2308 -56.9692 -56.9291
   -56.5675 -56.5245 -56.4043 -56.3637 -34.5331 -34.3704 -34.2861 -34.2641
   -34.1434 -34.1360 -34.0838 -33.8294 -33.8186 -33.7149 -33.6894 -33.6467
   -33.6446 -33.6357 -33.5423 -33.5355 -33.4862 -33.4222 -33.3676 -33.2454
   -33.1761 -33.1622 -33.1605 -33.1118 -33.1061 -32.8908 -32.8599 -32.8538
   -32.8339 -32.7836 -32.7544 -32.7506 -32.6448 -32.6387 -32.5399 -32.4378
   -23.4688 -18.7293 -18.4356 -18.0709 -17.9169 -17.7357 -17.7351 -17.6140
   -17.5448 -17.2462 -17.2239 -17.2177 -17.1128 -17.0701 -17.0266 -17.0163
   -16.8585 -16.7421 -16.7406 -16.6835 -16.4713 -16.1304 -16.0678 -15.9761
   -15.4540 -15.4038  -8.0760  -6.4703  -6.3200  -6.1192  -5.8456  -5.8159
    -5.6416  -5.2814  -5.1402  -5.0624  -5.0588  -5.0012  -4.9252  -4.7630
    -4.7621  -4.6804  -4.6779  -4.6255  -4.5881  -4.4912  -4.4215  -4.4127
    -4.3928  -4.2925  -4.2027  -4.1829  -4.1520  -3.9775  -3.9545  -3.7501
    -3.5626  -3.5576  -3.5461  -3.4621  -3.2237  -3.1866  -3.1257  -3.0632
    -3.0184  -2.9898  -2.9730  -2.8532  -2.7455  -2.7357  -2.6395  -2.6174
    -2.5915  -2.5855  -2.4809  -2.3349  -2.2819  -2.2343  -2.1803  -2.1585
    -1.9719  -1.8734  -1.8565  -1.8177  -1.7788  -1.6774  -1.5650  -1.5548
    -1.4131  -1.3609  -1.2815  -1.2095  -1.1879  -1.1397  -1.0900  -1.0261
    -0.7893  -0.5615  -0.5220  -0.4836  -0.4613  -0.4400  -0.3440   1.0108
     1.1537   1.3436   1.4192   1.6326   1.7900   1.9461   2.0053   2.0129
     2.0805   2.1417   2.2925   2.3289   2.5226   2.5861   2.6860   2.6884
     2.7094   2.7312   2.7428   2.8604   2.8630   2.9239   2.9518   2.9857
     3.0811   3.1044   3.1666   3.1671   3.3155

          k = 0.0000 0.2277 0.0000 ( 81407 PWs)   bands (ev):

   -58.0555 -57.9841 -57.4991 -57.4546 -57.2716 -57.2308 -56.9692 -56.9291
   -56.5675 -56.5245 -56.4043 -56.3637 -34.5341 -34.3704 -34.2861 -34.2621
   -34.1434 -34.1362 -34.0838 -33.8311 -33.8186 -33.7149 -33.6820 -33.6526
   -33.6467 -33.6445 -33.5380 -33.5176 -33.4862 -33.4230 -33.3676 -33.2542
   -33.1761 -33.1617 -33.1602 -33.1115 -33.1061 -32.8906 -32.8651 -32.8538
   -32.8316 -32.7867 -32.7527 -32.7506 -32.6449 -32.6387 -32.5399 -32.4378
   -23.4688 -18.6653 -18.3474 -17.9878 -17.8980 -17.8677 -17.7395 -17.6103
   -17.3924 -17.3865 -17.3821 -17.3197 -17.2240 -17.1253 -16.9127 -16.8551
   -16.8103 -16.8066 -16.7444 -16.7112 -16.4720 -16.1272 -16.0650 -15.9795
   -15.4519 -15.4034  -8.0750  -6.4643  -6.1361  -6.0087  -5.6395  -5.5834
    -5.5266  -5.4734  -5.3412  -5.1856  -5.0073  -4.9943  -4.8921  -4.7543
    -4.7234  -4.7074  -4.6741  -4.6628  -4.5386  -4.4753  -4.4116  -4.2655
    -4.2386  -4.1891  -4.1624  -4.1173  -3.9562  -3.9225  -3.7330  -3.6807
    -3.6199  -3.5955  -3.5584  -3.3967  -3.3336  -3.2860  -3.2222  -3.2066
    -3.1876  -3.0359  -3.0246  -2.9791  -2.8475  -2.8024  -2.7003  -2.6687
    -2.5964  -2.5697  -2.3791  -2.3653  -2.3327  -2.2390  -2.1359  -2.0338
    -1.9883  -1.9438  -1.8980  -1.8305  -1.7919  -1.7683  -1.7073  -1.6520
    -1.4787  -1.4602  -1.3846  -1.3278  -1.2514  -1.1927  -1.0757  -1.0651
    -1.0616  -0.6562  -0.5830  -0.5590  -0.4998  -0.4679  -0.3878   1.0838
     1.1150   1.4163   1.4999   1.7178   1.9429   1.9612   2.0166   2.0320
     2.0833   2.1657   2.2145   2.2235   2.3933   2.5214   2.6338   2.6703
     2.7360   2.7515   2.8936   2.9153   2.9612   2.9846   3.0618   3.0815
     3.1675   3.2546   3.3218   3.3587   3.3853

          k = 0.0000-0.4554 0.0000 ( 81286 PWs)   bands (ev):

   -58.0554 -57.9840 -57.4991 -57.4546 -57.2716 -57.2308 -56.9692 -56.9291
   -56.5675 -56.5245 -56.4043 -56.3637 -34.5351 -34.3704 -34.2861 -34.2601
   -34.1435 -34.1364 -34.0838 -33.8328 -33.8186 -33.7149 -33.6760 -33.6640
   -33.6468 -33.6445 -33.5337 -33.5034 -33.4862 -33.4237 -33.3675 -33.2634
   -33.1761 -33.1611 -33.1598 -33.1111 -33.1062 -32.8903 -32.8703 -32.8538
   -32.8293 -32.7899 -32.7510 -32.7506 -32.6449 -32.6387 -32.5399 -32.4378
   -23.4687 -18.6003 -18.2132 -17.9907 -17.8910 -17.7831 -17.7823 -17.5937
   -17.5595 -17.4635 -17.4386 -17.2852 -17.2685 -17.2090 -16.9736 -16.8272
   -16.8217 -16.7467 -16.7034 -16.6978 -16.4728 -16.1248 -16.0619 -15.9833
   -15.4500 -15.4029  -8.0740  -6.4629  -6.1282  -5.6320  -5.6253  -5.5937
    -5.5631  -5.2648  -5.1750  -5.1703  -5.0865  -4.8523  -4.7925  -4.7439
    -4.6834  -4.6675  -4.6546  -4.6389  -4.5953  -4.4637  -4.4275  -4.2246
    -4.1742  -4.0856  -4.0721  -3.9837  -3.8629  -3.8598  -3.6990  -3.6757
    -3.6516  -3.6233  -3.6012  -3.5785  -3.5586  -3.4419  -3.4045  -3.2191
    -3.1759  -3.0299  -2.9955  -2.9752  -2.9733  -2.7972  -2.7358  -2.6843
    -2.6242  -2.5785  -2.5500  -2.4545  -2.4136  -2.2449  -2.2212  -2.0881
    -2.0738  -2.0268  -1.9656  -1.8918  -1.8652  -1.7708  -1.7301  -1.5759
    -1.4928  -1.4066  -1.3502  -1.3470  -1.3308  -1.2340  -1.2262  -1.1660
    -1.0565  -0.7632  -0.6347  -0.5958  -0.5305  -0.4869  -0.4116   1.0066
     1.1487   1.4021   1.4755   1.6428   1.6679   1.9338   2.0469   2.0475
     2.2373   2.2772   2.2829   2.3387   2.4847   2.5190   2.5379   2.7298
     2.7651   2.8607   2.9156   2.9652   3.0371   3.0771   3.1773   3.1789
     3.2316   3.2902   3.3633   3.3910   3.4764

          k = 0.2500 0.0000 0.0000 ( 81478 PWs)   bands (ev):

   -58.0526 -57.9870 -57.4936 -57.4602 -57.2659 -57.2366 -56.9636 -56.9348
   -56.5613 -56.5307 -56.3983 -56.3697 -34.4703 -34.3681 -34.2860 -34.2503
   -34.1577 -34.1509 -34.0750 -33.8027 -33.7711 -33.7571 -33.6890 -33.6820
   -33.6428 -33.6390 -33.5264 -33.4869 -33.4746 -33.4389 -33.4349 -33.2334
   -33.1735 -33.1732 -33.1676 -33.1466 -33.0643 -32.8560 -32.8449 -32.8375
   -32.8272 -32.7793 -32.7635 -32.7586 -32.7086 -32.6297 -32.5555 -32.5066
   -23.4686 -18.5813 -18.3068 -17.9552 -17.8424 -17.7770 -17.6614 -17.6600
   -17.6191 -17.3510 -17.2941 -17.1927 -17.1716 -17.1309 -17.0510 -16.9208
   -16.8126 -16.7552 -16.7486 -16.7058 -16.4414 -16.1787 -16.1665 -15.9807
   -15.4945 -15.4683  -8.0767  -6.4403  -6.1225  -5.9411  -5.6595  -5.6421
    -5.4040  -5.2331  -5.1887  -5.1697  -5.0277  -5.0146  -5.0042  -4.8502
    -4.7872  -4.7647  -4.7214  -4.6898  -4.6386  -4.6057  -4.5892  -4.4895
    -4.3966  -4.3695  -4.3324  -4.1131  -3.9168  -3.8630  -3.8352  -3.7432
    -3.5953  -3.5323  -3.4614  -3.2883  -3.2461  -3.1625  -3.0629  -3.0227
    -2.9662  -2.9422  -2.9128  -2.8565  -2.7162  -2.7066  -2.6708  -2.5885
    -2.5501  -2.5353  -2.4605  -2.3874  -2.3621  -2.1981  -2.1505  -2.1158
    -2.0647  -2.0350  -1.9668  -1.8852  -1.8165  -1.8110  -1.7278  -1.5834
    -1.5661  -1.4843  -1.3461  -1.3422  -1.2851  -1.2270  -1.1188  -1.0539
    -1.0485  -0.7268  -0.7156  -0.5093  -0.4919  -0.3877  -0.3787   1.2151
     1.2918   1.4476   1.5814   1.8663   1.8687   1.9199   1.9449   2.0380
     2.0438   2.1255   2.2630   2.2919   2.4314   2.4581   2.5386   2.6766
     2.7621   2.8462   2.8576   2.8583   2.9171   2.9472   3.0035   3.0619
     3.1091   3.1343   3.1979   3.3138   3.3307

          k = 0.2500 0.2277 0.0000 ( 81485 PWs)   bands (ev):

   -58.0526 -57.9870 -57.4936 -57.4602 -57.2659 -57.2366 -56.9636 -56.9348
   -56.5613 -56.5308 -56.3984 -56.3697 -34.4712 -34.3681 -34.2860 -34.2487
   -34.1574 -34.1512 -34.0752 -33.8027 -33.7720 -33.7578 -33.6891 -33.6765
   -33.6510 -33.6391 -33.5228 -33.4869 -33.4642 -33.4386 -33.4354 -33.2409
   -33.1741 -33.1730 -33.1674 -33.1465 -33.0638 -32.8599 -32.8449 -32.8362
   -32.8270 -32.7816 -32.7635 -32.7576 -32.7086 -32.6297 -32.5555 -32.5066
   -23.4686 -18.5225 -18.2258 -17.9036 -17.8502 -17.7773 -17.7428 -17.6348
   -17.4814 -17.4350 -17.3637 -17.3330 -17.2299 -17.0652 -17.0276 -16.9516
   -16.8822 -16.7995 -16.6953 -16.6824 -16.4427 -16.1764 -16.1667 -15.9820
   -15.4929 -15.4687  -8.0759  -6.4383  -5.9567  -5.8164  -5.4117  -5.3778
    -5.3541  -5.2950  -5.1707  -5.1603  -5.1189  -4.9607  -4.9352  -4.8605
    -4.8031  -4.7738  -4.7255  -4.6421  -4.5795  -4.5230  -4.5048  -4.4199
    -4.3855  -4.3518  -4.1730  -4.0556  -3.9969  -3.8319  -3.7476  -3.7351
    -3.5572  -3.4914  -3.4091  -3.3329  -3.2930  -3.2671  -3.2148  -3.1605
    -3.0736  -3.0009  -2.9747  -2.8939  -2.8517  -2.8209  -2.7730  -2.6728
    -2.6464  -2.6093  -2.5395  -2.4909  -2.3674  -2.3355  -2.3232  -2.2144
    -2.1511  -2.0351  -1.9344  -1.8758  -1.8445  -1.8060  -1.7804  -1.6938
    -1.5909  -1.4927  -1.3693  -1.3597  -1.2797  -1.2293  -1.1599  -1.0995
    -1.0520  -0.7193  -0.7090  -0.5697  -0.5661  -0.4114  -0.3735   1.1982
     1.3389   1.5428   1.6842   1.7967   1.9359   1.9783   2.0151   2.0940
     2.1484   2.1818   2.2370   2.2767   2.3249   2.4462   2.6330   2.7029
     2.7321   2.7788   2.9244   2.9552   2.9910   3.0371   3.0687   3.1032
     3.2385   3.2588   3.3294   3.3666   3.4572

          k = 0.2500-0.4554 0.0000 ( 81408 PWs)   bands (ev):

   -58.0525 -57.9870 -57.4936 -57.4602 -57.2658 -57.2366 -56.9636 -56.9348
   -56.5613 -56.5308 -56.3984 -56.3697 -34.4722 -34.3681 -34.2860 -34.2470
   -34.1570 -34.1514 -34.0754 -33.8028 -33.7730 -33.7583 -33.6891 -33.6719
   -33.6573 -33.6391 -33.5191 -33.4869 -33.4547 -33.4383 -33.4359 -33.2484
   -33.1751 -33.1726 -33.1672 -33.1464 -33.0633 -32.8638 -32.8449 -32.8350
   -32.8268 -32.7840 -32.7635 -32.7566 -32.7086 -32.6297 -32.5555 -32.5066
   -23.4685 -18.4637 -18.0932 -17.9275 -17.8398 -17.7381 -17.7212 -17.6574
   -17.5297 -17.4162 -17.4043 -17.3701 -17.2521 -17.2321 -17.0302 -16.9655
   -16.9122 -16.7874 -16.6735 -16.6543 -16.4439 -16.1747 -16.1669 -15.9834
   -15.4914 -15.4691  -8.0752  -6.4379  -5.9521  -5.4110  -5.3773  -5.2912
    -5.2423  -5.1398  -5.1323  -5.0447  -4.9773  -4.9480  -4.8842  -4.8763
    -4.8577  -4.8327  -4.6621  -4.6033  -4.5862  -4.5133  -4.3745  -4.3241
    -4.2824  -4.0766  -4.0751  -4.0282  -3.9496  -3.8219  -3.7901  -3.7440
    -3.6870  -3.6425  -3.4386  -3.4108  -3.3908  -3.2829  -3.2500  -3.2440
    -3.2057  -3.0738  -3.0666  -3.0604  -2.9652  -2.8754  -2.8626  -2.8574
    -2.7624  -2.7602  -2.7017  -2.5562  -2.5318  -2.4917  -2.4102  -2.3342
    -2.2916  -2.2018  -1.8826  -1.8670  -1.8330  -1.7558  -1.6393  -1.5999
    -1.5804  -1.5238  -1.4227  -1.3897  -1.2226  -1.1286  -1.1184  -1.0826
    -1.0696  -0.7912  -0.7108  -0.6456  -0.6151  -0.4221  -0.3735   1.2176
     1.3481   1.5462   1.6072   1.7261   1.8286   1.9561   2.0790   2.1005
     2.1944   2.2467   2.2827   2.3426   2.4975   2.5103   2.6842   2.7729
     2.7929   2.8028   2.9513   2.9868   3.0162   3.1453   3.1593   3.2930
     3.3219   3.3477   3.3696   3.4103   3.4883

          k =-0.5000 0.0000 0.0000 ( 81532 PWs)   bands (ev):

   -58.0494 -57.9902 -57.4850 -57.4689 -57.2545 -57.2480 -56.9529 -56.9455
   -56.5479 -56.5442 -56.3841 -56.3840 -34.3658 -34.3367 -34.2889 -34.2867
   -34.2297 -34.1788 -33.9507 -33.8831 -33.7622 -33.7457 -33.6692 -33.6563
   -33.6552 -33.6021 -33.5822 -33.4982 -33.4848 -33.4680 -33.3271 -33.3227
   -33.2066 -33.2008 -33.1611 -33.1496 -32.9100 -32.9056 -32.8484 -32.8448
   -32.7895 -32.7870 -32.7690 -32.7689 -32.6695 -32.6693 -32.5929 -32.5927
   -23.4684 -18.2281 -18.2002 -18.0466 -17.9200 -17.7120 -17.6216 -17.5373
   -17.4780 -17.4775 -17.4670 -17.3896 -17.3462 -16.9975 -16.9851 -16.9029
   -16.8989 -16.7405 -16.7354 -16.5222 -16.5157 -16.2687 -16.2622 -15.9825
   -15.5394 -15.5362  -8.0773  -6.4196  -5.6300  -5.6225  -5.5043  -5.4573
    -5.2284  -5.2189  -5.2012  -5.1992  -5.1910  -5.1663  -5.1571  -5.1303
    -5.0980  -4.9058  -4.8254  -4.6382  -4.5414  -4.5080  -4.4693  -4.4319
    -4.3642  -4.2851  -4.2194  -4.1738  -4.1481  -3.8026  -3.8011  -3.5271
    -3.4633  -3.4583  -3.3943  -3.2915  -3.2713  -3.2251  -3.2084  -3.0321
    -2.9864  -2.9647  -2.9035  -2.8040  -2.8011  -2.6332  -2.5907  -2.5741
    -2.5500  -2.4173  -2.4003  -2.3600  -2.2747  -2.2522  -2.2142  -2.1496
    -2.0799  -2.0165  -2.0072  -2.0054  -1.9995  -1.8912  -1.8301  -1.7719
    -1.6395  -1.6199  -1.4924  -1.4613  -1.3720  -1.3580  -1.3331  -1.3235
    -0.8766  -0.8505  -0.5524  -0.5469  -0.4793  -0.4762  -0.4391   1.4783
     1.5407   1.6527   1.6601   1.7733   1.8066   1.8904   1.9556   2.0148
     2.0590   2.1122   2.1854   2.3949   2.4442   2.4639   2.4925   2.5888
     2.6785   2.8663   2.8962   2.9019   2.9068   2.9904   3.0256   3.0601
     3.0800   3.2423   3.2780   3.5623   3.5884

          k =-0.5000 0.2277 0.0000 ( 81508 PWs)   bands (ev):

   -58.0494 -57.9902 -57.4850 -57.4689 -57.2545 -57.2480 -56.9529 -56.9455
   -56.5479 -56.5442 -56.3841 -56.3840 -34.3658 -34.3374 -34.2895 -34.2867
   -34.2287 -34.1778 -33.9508 -33.8832 -33.7622 -33.7457 -33.6683 -33.6569
   -33.6546 -33.6027 -33.5834 -33.4960 -33.4848 -33.4658 -33.3236 -33.3196
   -33.2108 -33.2045 -33.1611 -33.1496 -32.9099 -32.9054 -32.8495 -32.8461
   -32.7894 -32.7870 -32.7696 -32.7695 -32.6694 -32.6692 -32.5929 -32.5927
   -23.4684 -18.1844 -18.1660 -17.9888 -17.8790 -17.6755 -17.6355 -17.5573
   -17.5357 -17.4803 -17.4051 -17.3423 -17.3319 -17.0959 -17.0761 -17.0006
   -16.9988 -16.7088 -16.7045 -16.5172 -16.5107 -16.2672 -16.2609 -15.9830
   -15.5392 -15.5360  -8.0767  -6.4190  -5.5083  -5.4970  -5.4015  -5.3627
    -5.2091  -5.1686  -5.1362  -5.0519  -5.0215  -4.9688  -4.9474  -4.9414
    -4.9248  -4.8293  -4.7576  -4.6000  -4.5521  -4.4987  -4.4771  -4.4217
    -4.4020  -4.3757  -4.2807  -4.0153  -4.0131  -3.9497  -3.8507  -3.6614
    -3.6321  -3.5420  -3.4908  -3.3724  -3.3498  -3.3339  -3.2917  -3.1160
    -3.0417  -2.9993  -2.9418  -2.8940  -2.8862  -2.7884  -2.7509  -2.7043
    -2.6899  -2.5901  -2.5722  -2.4129  -2.3812  -2.3687  -2.3454  -2.3201
    -2.3017  -2.1893  -2.1378  -1.9989  -1.9310  -1.8267  -1.8136  -1.7945
    -1.4923  -1.4709  -1.4317  -1.3818  -1.3041  -1.2957  -1.2671  -1.2533
    -0.9041  -0.8766  -0.6196  -0.6138  -0.4662  -0.4632  -0.4228   1.5285
     1.5692   1.6845   1.7076   1.8583   1.9338   1.9581   1.9680   1.9994
     2.0224   2.2004   2.2440   2.4546   2.4904   2.5840   2.6126   2.6923
     2.7098   2.7374   2.7578   2.9178   3.0331   3.0726   3.0854   3.1702
     3.2762   3.2846   3.3148   3.5268   3.5389

          k =-0.5000-0.4554 0.0000 ( 81484 PWs)   bands (ev):

   -58.0494 -57.9902 -57.4850 -57.4689 -57.2545 -57.2480 -56.9529 -56.9455
   -56.5479 -56.5442 -56.3841 -56.3840 -34.3658 -34.3380 -34.2901 -34.2867
   -34.2277 -34.1767 -33.9510 -33.8834 -33.7622 -33.7458 -33.6675 -33.6576
   -33.6541 -33.6032 -33.5846 -33.4939 -33.4848 -33.4636 -33.3199 -33.3161
   -33.2152 -33.2085 -33.1611 -33.1496 -32.9098 -32.9053 -32.8507 -32.8474
   -32.7893 -32.7869 -32.7702 -32.7701 -32.6693 -32.6691 -32.5929 -32.5927
   -23.4684 -18.1366 -18.1337 -17.8441 -17.7880 -17.7876 -17.7163 -17.6011
   -17.5370 -17.3354 -17.3208 -17.3041 -17.2580 -17.1983 -17.1868 -17.1659
   -17.1565 -16.6901 -16.6856 -16.5134 -16.5067 -16.2658 -16.2597 -15.9837
   -15.5390 -15.5358  -8.0763  -6.4188  -5.5098  -5.4850  -5.2311  -5.1922
    -5.1318  -5.0400  -5.0347  -4.8559  -4.8218  -4.8002  -4.7298  -4.6164
    -4.6122  -4.5966  -4.5759  -4.5224  -4.5048  -4.4983  -4.4941  -4.4790
    -4.3100  -4.3003  -4.2903  -4.2695  -4.2473  -3.9622  -3.9518  -3.9188
    -3.8998  -3.6731  -3.6094  -3.5092  -3.5064  -3.2461  -3.1984  -3.1724
    -3.0701  -3.0543  -3.0485  -3.0063  -2.9959  -2.9768  -2.9391  -2.9272
    -2.8624  -2.7493  -2.7474  -2.7108  -2.5932  -2.5619  -2.4855  -2.4622
    -2.3679  -2.2817  -2.2494  -1.8983  -1.8762  -1.8460  -1.6600  -1.6506
    -1.4063  -1.3741  -1.3721  -1.3325  -1.2621  -1.2192  -1.1809  -1.1568
    -0.9063  -0.9002  -0.6763  -0.6614  -0.4673  -0.4598  -0.4068   1.6351
     1.6504   1.6836   1.7010   1.7925   1.9086   1.9682   2.0950   2.0951
     2.1176   2.1396   2.1603   2.4596   2.4908   2.5482   2.6008   2.7904
     2.8510   2.8996   2.9485   2.9862   3.0892   3.1854   3.2266   3.2787
     3.2934   3.3278   3.4724   3.5383   3.5535

     the Fermi energy is    -0.3576 ev

!    total energy              =   -2519.46197765 Ry
     estimated scf accuracy    <       0.00000001 Ry
     smearing contrib. (-TS)   =       0.00311134 Ry
     internal energy E=F+TS    =   -2519.46508899 Ry

     The total energy is F=E-TS. E is the sum of the following terms:
     one-electron contribution =  -26080.03972332 Ry
     hartree contribution      =   13089.76739277 Ry
     xc contribution           =    -409.97306224 Ry
     ewald contribution        =   11128.24843864 Ry
     one-center paw contrib.   =    -247.46813484 Ry

     convergence has been achieved in  24 iterations

     negative rho (up, down):  1.556E-02 0.000E+00

     Forces acting on atoms (cartesian axes, Ry/au):

     atom    1 type  2   force =    -0.00007307    0.00000000    0.10000201
     atom    2 type  2   force =     0.00028570    0.00000000   -0.09614046
     atom    3 type  2   force =    -0.00024002    0.00000000    0.00055081
     atom    4 type  2   force =     0.00516250    0.00000000    0.00724800
     atom    5 type  2   force =    -0.00091492    0.00000000    0.00573364
     atom    6 type  2   force =     0.00136946    0.00000000    0.00217955
     atom    7 type  3   force =     0.00006467    0.00000000    0.02941271
     atom    8 type  3   force =     0.00005315    0.00000000    0.05707995
     atom    9 type  3   force =    -0.00294922    0.07044458   -0.03500675
     atom   10 type  3   force =    -0.00294922   -0.07044458   -0.03500675
     atom   11 type  3   force =    -0.00023702    0.00000000   -0.00441899
     atom   12 type  3   force =     0.00050276    0.00000000   -0.06691906
     atom   13 type  3   force =    -0.00063911    0.00022457    0.00085889
     atom   14 type  3   force =    -0.00063911   -0.00022457    0.00085889
     atom   15 type  3   force =     0.00124771    0.00000000    0.00735151
     atom   16 type  3   force =    -0.00048347    0.00000000    0.00318668
     atom   17 type  3   force =     0.00482126    0.00041830    0.00081057
     atom   18 type  3   force =     0.00482126   -0.00041830    0.00081057
     atom   19 type  2   force =     0.00007162    0.00000000    0.11899876
     atom   20 type  2   force =    -0.00035438    0.00000000   -0.09615225
     atom   21 type  2   force =     0.00019794    0.00000000    0.00061088
     atom   22 type  2   force =    -0.00489370    0.00000000    0.00741825
     atom   23 type  2   force =    -0.00028890    0.00000000    0.00681125
     atom   24 type  2   force =    -0.00178541    0.00000000    0.00243874
     atom   25 type  3   force =     0.00008547    0.00000000    0.02776364
     atom   26 type  3   force =    -0.00000108    0.00000000    0.05725803
     atom   27 type  3   force =     0.00295411    0.07047849   -0.03497136
     atom   28 type  3   force =     0.00295411   -0.07047849   -0.03497136
     atom   29 type  3   force =    -0.00006084    0.00000000    0.00355581
     atom   30 type  3   force =    -0.00028368    0.00000000   -0.06547542
     atom   31 type  3   force =     0.00062942    0.00043825    0.00023998
     atom   32 type  3   force =     0.00062942   -0.00043825    0.00023998
     atom   33 type  3   force =    -0.00144048    0.00000000    0.00783790
     atom   34 type  3   force =     0.00041834    0.00000000    0.00099308
     atom   35 type  3   force =    -0.00523164    0.00143698    0.00318232
     atom   36 type  3   force =    -0.00523164   -0.00143698    0.00318232
     atom   37 type  3   force =     0.00811156    0.00000000    0.00175296
     atom   38 type  3   force =    -0.00624845    0.00000000    0.00085522
     atom   39 type  1   force =     0.00056490    0.00000000    0.00983947

     Total force =     0.027468     Total SCF correction =     0.000329
     Energy error            =      1.5E-03 Ry
     Gradient error          =      9.8E-03 Ry/Bohr

     number of scf cycles    =   8
     number of bfgs steps    =   7

     energy             old  =   -2519.4604520755 Ry
     energy             new  =   -2519.4619776498 Ry

     CASE: energy            _new < energy            _old

     new trust radius        =       0.0400510883 bohr
     new conv_thr            =       0.0000000492 Ry


ATOMIC_POSITIONS (angstrom)
Ti               0.0000000000        4.8723546300        9.7447092600    0   0   0
Ti               1.4793500000        1.6241182100        9.7447092600    0   0   0
Ti              -0.0012020054        1.6241182100       13.0747719661
Ti               1.4489050164        4.8723546300       12.9686553984
Ti              -0.0095116489        4.8723546300       16.2666342226
Ti               1.4813662653        1.6241182100       16.4054127669
O                0.0000000000        1.6241182100       11.0129506900    0   0   0
O                0.0000000000        1.6241182100        8.4764678300    0   0   0
O                1.4793500000        3.6041132000        9.7447092600    0   0   0
O                1.4793500000        6.1405960600        9.7447092600    0   0   0
O               -0.0022632830        4.8723546300       14.2583223343
O                0.0000000000        4.8723546300       11.7247042500    0   0   0
O                1.4819105941        0.3258094005       12.9724433904
O                1.4819105941        2.9224270195       12.9724433904
O                0.0028417549        1.6241182100       17.4818033111
O               -0.0079361205        1.6241182100       14.9328558312
O                1.4974624314        3.6361974013       16.2995502998
O                1.4974624314        6.1085118587       16.2995502998
Ti               2.9587000000        4.8723546300        9.7447092600    0   0   0
Ti               4.4380500000        1.6241182100        9.7447092600    0   0   0
Ti               2.9590469699        1.6241182100       13.0589401006
Ti               4.4712938986        4.8723546300       12.9739552498
Ti               2.9406264830        4.8723546300       16.0348869061
Ti               4.4348450990        1.6241182100       16.4115094441
O                2.9587000000        1.6241182100       11.0129506900    0   0   0
O                2.9587000000        1.6241182100        8.4764678300    0   0   0
O                4.4380500000        3.6041132000        9.7447092600    0   0   0
O                4.4380500000        6.1405960600        9.7447092600    0   0   0
O                2.9621913027        4.8723546300       14.2270276896
O                2.9587000000        4.8723546300       11.7247042500    0   0   0
O                4.4360907126        0.3261536347       12.9699366167
O                4.4360907126        2.9220827853       12.9699366167
O                2.9548959565        1.6241182100       17.4885879956
O                2.9676283276        1.6241182100       14.9337391351
O                4.4105714639        3.6422791712       16.3495816383
O                4.4105714639        6.1024300888       16.3495816383
O                0.0341536726        4.8723546300       18.2825077786
O                1.3293958626        4.8723546300       18.7830948448
H                1.1751449319        4.8723546300       19.7495991713



     Writing config-only to output data dir ./tmp_s0_OOH__2x1v_mir/s0_OOH__2x1v_mir.save/ :
     XML data file
     NEW-OLD atomic charge density approx. for the potential

     Check: negative core charge=   -0.000001

     negative rho (up, down):  1.568E-02 0.000E+00

     total cpu time spent up to now is     1796.5 secs

     per-process dynamical memory:   247.6 Mb

     Self-consistent Calculation

     iteration #  1     ecut=    80.00 Ry     beta= 0.30
     Davidson diagonalization with overlap
     ethr =  1.00E-06,  avg # of iterations = 10.2

     negative rho (up, down):  1.616E-02 0.000E+00

     total cpu time spent up to now is     1810.9 secs

     total energy              =   -2519.44011522 Ry
     estimated scf accuracy    <       0.49015472 Ry

     iteration #  2     ecut=    80.00 Ry     beta= 0.30
     Davidson diagonalization with overlap
     ethr =  1.63E-04,  avg # of iterations =  1.0

     negative rho (up, down):  1.604E-02 0.000E+00

     total cpu time spent up to now is     1817.0 secs

     total energy              =   -2519.46534336 Ry
     estimated scf accuracy    <       0.21687672 Ry

     iteration #  3     ecut=    80.00 Ry     beta= 0.30
     Davidson diagonalization with overlap
     ethr =  7.21E-05,  avg # of iterations =  1.0

     negative rho (up, down):  1.594E-02 0.000E+00

     total cpu time spent up to now is     1823.6 secs

     total energy              =   -2519.45875372 Ry
     estimated scf accuracy    <       0.14051419 Ry

     iteration #  4     ecut=    80.00 Ry     beta= 0.30
     Davidson diagonalization with overlap
     ethr =  4.67E-05,  avg # of iterations =  1.0

     negative rho (up, down):  1.621E-02 0.000E+00

     total cpu time spent up to now is     1829.7 secs

     total energy              =   -2519.46302984 Ry
     estimated scf accuracy    <       0.27247614 Ry

     iteration #  5     ecut=    80.00 Ry     beta= 0.30
     Davidson diagonalization with overlap
     ethr =  4.67E-05,  avg # of iterations =  1.0

     negative rho (up, down):  1.655E-02 0.000E+00

     total cpu time spent up to now is     1835.9 secs

     total energy              =   -2519.46258592 Ry
     estimated scf accuracy    <       0.06734691 Ry

     iteration #  6     ecut=    80.00 Ry     beta= 0.30
     Davidson diagonalization with overlap
     ethr =  2.24E-05,  avg # of iterations =  1.0

     negative rho (up, down):  1.671E-02 0.000E+00

     total cpu time spent up to now is     1842.1 secs

     total energy              =   -2519.46299427 Ry
     estimated scf accuracy    <       0.00057620 Ry

     iteration #  7     ecut=    80.00 Ry     beta= 0.30
     Davidson diagonalization with overlap
     ethr =  1.91E-07,  avg # of iterations =  4.8

     negative rho (up, down):  1.692E-02 0.000E+00

     total cpu time spent up to now is     1849.6 secs

     total energy              =   -2519.46305427 Ry
     estimated scf accuracy    <       0.02150413 Ry

     iteration #  8     ecut=    80.00 Ry     beta= 0.30
     Davidson diagonalization with overlap
     ethr =  1.91E-07,  avg # of iterations =  1.8

     negative rho (up, down):  1.697E-02 0.000E+00

     total cpu time spent up to now is     1856.3 secs

     total energy              =   -2519.46298554 Ry
     estimated scf accuracy    <       0.00803749 Ry

     iteration #  9     ecut=    80.00 Ry     beta= 0.30
     Davidson diagonalization with overlap
     ethr =  1.91E-07,  avg # of iterations =  1.4

     negative rho (up, down):  1.681E-02 0.000E+00

     total cpu time spent up to now is     1863.2 secs

     total energy              =   -2519.46302083 Ry
     estimated scf accuracy    <       0.00032151 Ry

     iteration # 10     ecut=    80.00 Ry     beta= 0.30
     Davidson diagonalization with overlap
     ethr =  1.07E-07,  avg # of iterations =  1.2

     negative rho (up, down):  1.670E-02 0.000E+00

     total cpu time spent up to now is     1870.2 secs

     total energy              =   -2519.46300569 Ry
     estimated scf accuracy    <       0.00271384 Ry

     iteration # 11     ecut=    80.00 Ry     beta= 0.30
     Davidson diagonalization with overlap
     ethr =  1.07E-07,  avg # of iterations =  1.0

     negative rho (up, down):  1.659E-02 0.000E+00

     total cpu time spent up to now is     1876.9 secs

     total energy              =   -2519.46301125 Ry
     estimated scf accuracy    <       0.00019997 Ry

     iteration # 12     ecut=    80.00 Ry     beta= 0.30
     Davidson diagonalization with overlap
     ethr =  6.64E-08,  avg # of iterations =  1.2

     negative rho (up, down):  1.652E-02 0.000E+00

     total cpu time spent up to now is     1883.8 secs

     total energy              =   -2519.46301303 Ry
     estimated scf accuracy    <       0.00009382 Ry

     iteration # 13     ecut=    80.00 Ry     beta= 0.30
     Davidson diagonalization with overlap
     ethr =  3.12E-08,  avg # of iterations =  1.0

     negative rho (up, down):  1.627E-02 0.000E+00

     total cpu time spent up to now is     1890.2 secs

     total energy              =   -2519.46301251 Ry
     estimated scf accuracy    <       0.00000511 Ry

     iteration # 14     ecut=    80.00 Ry     beta= 0.30
     Davidson diagonalization with overlap
     ethr =  1.70E-09,  avg # of iterations =  4.1

     negative rho (up, down):  1.622E-02 0.000E+00

     total cpu time spent up to now is     1897.6 secs

     total energy              =   -2519.46301265 Ry
     estimated scf accuracy    <       0.00000175 Ry

     iteration # 15     ecut=    80.00 Ry     beta= 0.30
     Davidson diagonalization with overlap
     ethr =  5.82E-10,  avg # of iterations =  4.7

     negative rho (up, down):  1.606E-02 0.000E+00

     total cpu time spent up to now is     1904.9 secs

     total energy              =   -2519.46301220 Ry
     estimated scf accuracy    <       0.00000081 Ry

     iteration # 16     ecut=    80.00 Ry     beta= 0.30
     Davidson diagonalization with overlap
     ethr =  2.68E-10,  avg # of iterations =  7.0

     negative rho (up, down):  1.595E-02 0.000E+00

     total cpu time spent up to now is     1913.2 secs

     total energy              =   -2519.46301197 Ry
     estimated scf accuracy    <       0.00000146 Ry

     iteration # 17     ecut=    80.00 Ry     beta= 0.30
     Davidson diagonalization with overlap
     ethr =  2.68E-10,  avg # of iterations =  4.8

     negative rho (up, down):  1.589E-02 0.000E+00

     total cpu time spent up to now is     1920.7 secs

     total energy              =   -2519.46301198 Ry
     estimated scf accuracy    <       0.00000076 Ry

     iteration # 18     ecut=    80.00 Ry     beta= 0.30
     Davidson diagonalization with overlap
     ethr =  2.53E-10,  avg # of iterations =  1.0

     negative rho (up, down):  1.577E-02 0.000E+00

     total cpu time spent up to now is     1927.4 secs

     total energy              =   -2519.46301194 Ry
     estimated scf accuracy    <       0.00000052 Ry

     iteration # 19     ecut=    80.00 Ry     beta= 0.30
     Davidson diagonalization with overlap
     ethr =  1.73E-10,  avg # of iterations =  1.0

     negative rho (up, down):  1.569E-02 0.000E+00

     total cpu time spent up to now is     1934.2 secs

     total energy              =   -2519.46301198 Ry
     estimated scf accuracy    <       0.00000033 Ry

     iteration # 20     ecut=    80.00 Ry     beta= 0.30
     Davidson diagonalization with overlap
     ethr =  1.11E-10,  avg # of iterations =  2.0

     negative rho (up, down):  1.567E-02 0.000E+00

     total cpu time spent up to now is     1941.9 secs

     total energy              =   -2519.46301200 Ry
     estimated scf accuracy    <       0.00000006 Ry

     iteration # 21     ecut=    80.00 Ry     beta= 0.30
     Davidson diagonalization with overlap
     ethr =  1.97E-11,  avg # of iterations =  2.0

     negative rho (up, down):  1.563E-02 0.000E+00

     total cpu time spent up to now is     1948.6 secs

     End of self-consistent calculation

          k = 0.0000 0.0000 0.0000 ( 81491 PWs)   bands (ev):

   -58.0440 -57.9704 -57.4895 -57.4440 -57.2782 -57.2257 -56.9678 -56.9282
   -56.5823 -56.5388 -56.4047 -56.3642 -34.5213 -34.3581 -34.2708 -34.2527
   -34.1309 -34.1264 -34.0717 -33.8316 -33.8084 -33.7064 -33.6803 -33.6323
   -33.6312 -33.6256 -33.5476 -33.5352 -33.4999 -33.4207 -33.3694 -33.2447
   -33.1738 -33.1687 -33.1599 -33.1162 -33.1044 -32.8920 -32.8728 -32.8677
   -32.8462 -32.7828 -32.7646 -32.7537 -32.6537 -32.6454 -32.5404 -32.4389
   -23.4297 -18.7228 -18.4328 -18.0723 -17.9098 -17.7260 -17.7198 -17.6109
   -17.5357 -17.2487 -17.2087 -17.1957 -17.1132 -17.0728 -17.0258 -17.0152
   -16.8563 -16.7423 -16.7332 -16.6828 -16.4701 -16.1429 -16.0818 -15.9830
   -15.4611 -15.4126  -8.0735  -6.4593  -6.3110  -6.1095  -5.8476  -5.8125
    -5.6308  -5.2744  -5.1298  -5.0522  -5.0495  -4.9856  -4.9134  -4.7582
    -4.7525  -4.6728  -4.6644  -4.6241  -4.5773  -4.4848  -4.4221  -4.4094
    -4.3704  -4.3003  -4.2012  -4.1731  -4.1559  -3.9822  -3.9529  -3.7408
    -3.5673  -3.5414  -3.5373  -3.4611  -3.2217  -3.1802  -3.1219  -3.0598
    -3.0186  -2.9768  -2.9677  -2.8528  -2.7505  -2.7227  -2.6333  -2.6007
    -2.5881  -2.5836  -2.4797  -2.3426  -2.2718  -2.2432  -2.1690  -2.1558
    -1.9879  -1.8690  -1.8490  -1.8257  -1.7947  -1.6805  -1.5620  -1.5432
    -1.4287  -1.3505  -1.2994  -1.2052  -1.1894  -1.1397  -1.0988  -1.0295
    -0.8027  -0.5658  -0.5253  -0.4865  -0.4626  -0.4419  -0.3452   1.0248
     1.1674   1.3594   1.4347   1.6445   1.7946   1.9547   2.0131   2.0243
     2.0927   2.1532   2.2915   2.3136   2.5317   2.5928   2.6725   2.6914
     2.7113   2.7224   2.7415   2.8459   2.8733   2.9264   2.9579   2.9872
     3.0809   3.1022   3.1639   3.1692   3.3204

          k = 0.0000 0.2277 0.0000 ( 81407 PWs)   bands (ev):

   -58.0440 -57.9704 -57.4895 -57.4440 -57.2782 -57.2257 -56.9678 -56.9282
   -56.5823 -56.5388 -56.4047 -56.3642 -34.5223 -34.3581 -34.2708 -34.2507
   -34.1310 -34.1267 -34.0717 -33.8333 -33.8084 -33.7064 -33.6730 -33.6436
   -33.6323 -33.6311 -33.5435 -33.5159 -33.4999 -33.4213 -33.3693 -33.2537
   -33.1735 -33.1683 -33.1596 -33.1160 -33.1044 -32.8918 -32.8779 -32.8676
   -32.8440 -32.7860 -32.7646 -32.7520 -32.6538 -32.6454 -32.5404 -32.4389
   -23.4297 -18.6599 -18.3441 -17.9867 -17.8889 -17.8584 -17.7288 -17.6077
   -17.3841 -17.3837 -17.3779 -17.3152 -17.1982 -17.1258 -16.9204 -16.8500
   -16.8076 -16.8033 -16.7355 -16.7141 -16.4708 -16.1400 -16.0792 -15.9862
   -15.4590 -15.4122  -8.0725  -6.4532  -6.1259  -5.9999  -5.6304  -5.5863
    -5.5259  -5.4658  -5.3341  -5.1767  -5.0040  -4.9846  -4.8787  -4.7488
    -4.7137  -4.6971  -4.6578  -4.6539  -4.5276  -4.4594  -4.3893  -4.2792
    -4.2336  -4.1850  -4.1617  -4.1074  -3.9498  -3.9277  -3.7211  -3.6748
    -3.6112  -3.5945  -3.5671  -3.3933  -3.3265  -3.2737  -3.2205  -3.2080
    -3.1730  -3.0332  -3.0292  -2.9736  -2.8436  -2.8047  -2.6951  -2.6677
    -2.5883  -2.5662  -2.3763  -2.3674  -2.3325  -2.2272  -2.1321  -2.0456
    -1.9871  -1.9490  -1.8990  -1.8289  -1.7862  -1.7706  -1.6980  -1.6521
    -1.4919  -1.4650  -1.3997  -1.3236  -1.2526  -1.1910  -1.0929  -1.0728
    -1.0631  -0.6605  -0.5857  -0.5620  -0.5014  -0.4699  -0.3935   1.0983
     1.1332   1.4316   1.5127   1.7259   1.9441   1.9720   2.0216   2.0427
     2.0905   2.1773   2.1968   2.2250   2.3972   2.5348   2.6307   2.6742
     2.7387   2.7480   2.9031   2.9063   2.9550   2.9856   3.0625   3.0821
     3.1657   3.2556   3.3178   3.3620   3.3803

          k = 0.0000-0.4554 0.0000 ( 81286 PWs)   bands (ev):

   -58.0440 -57.9704 -57.4895 -57.4440 -57.2782 -57.2257 -56.9678 -56.9282
   -56.5823 -56.5388 -56.4047 -56.3642 -34.5233 -34.3581 -34.2708 -34.2487
   -34.1310 -34.1269 -34.0717 -33.8350 -33.8084 -33.7064 -33.6678 -33.6545
   -33.6323 -33.6311 -33.5393 -33.5011 -33.4999 -33.4218 -33.3693 -33.2630
   -33.1732 -33.1678 -33.1593 -33.1158 -33.1045 -32.8915 -32.8831 -32.8676
   -32.8417 -32.7892 -32.7646 -32.7503 -32.6538 -32.6454 -32.5404 -32.4390
   -23.4296 -18.5964 -18.2091 -17.9816 -17.8776 -17.7797 -17.7762 -17.5921
   -17.5539 -17.4638 -17.4347 -17.2887 -17.2595 -17.1816 -16.9655 -16.8361
   -16.8163 -16.7378 -16.7054 -16.6973 -16.4715 -16.1376 -16.0764 -15.9897
   -15.4572 -15.4117  -8.0716  -6.4517  -6.1178  -5.6218  -5.6162  -5.5857
    -5.5573  -5.2818  -5.1717  -5.1586  -5.0823  -4.8471  -4.7828  -4.7355
    -4.6736  -4.6537  -4.6308  -4.6303  -4.5861  -4.4472  -4.4076  -4.2403
    -4.1654  -4.0767  -4.0545  -3.9817  -3.8689  -3.8540  -3.6899  -3.6682
    -3.6470  -3.6111  -3.5927  -3.5680  -3.5629  -3.4304  -3.4103  -3.2173
    -3.1762  -3.0300  -2.9926  -2.9860  -2.9662  -2.8008  -2.7303  -2.6758
    -2.6267  -2.5745  -2.5453  -2.4440  -2.4173  -2.2398  -2.2068  -2.1011
    -2.0672  -2.0221  -1.9721  -1.8935  -1.8729  -1.7732  -1.7387  -1.5751
    -1.4891  -1.4212  -1.3540  -1.3515  -1.3345  -1.2307  -1.2242  -1.1811
    -1.0649  -0.7641  -0.6383  -0.5981  -0.5324  -0.4886  -0.4209   1.0224
     1.1685   1.4151   1.4869   1.6539   1.6690   1.9186   2.0570   2.0589
     2.2493   2.2779   2.2931   2.3433   2.4836   2.5310   2.5357   2.7242
     2.7657   2.8637   2.9245   2.9678   3.0424   3.0769   3.1601   3.1751
     3.2285   3.2909   3.3510   3.3913   3.4774

          k = 0.2500 0.0000 0.0000 ( 81478 PWs)   bands (ev):

   -58.0412 -57.9732 -57.4842 -57.4494 -57.2741 -57.2299 -56.9620 -56.9340
   -56.5762 -56.5450 -56.3988 -56.3701 -34.4585 -34.3558 -34.2706 -34.2390
   -34.1451 -34.1388 -34.0654 -33.7931 -33.7704 -33.7510 -33.6764 -33.6729
   -33.6326 -33.6245 -33.5330 -33.5007 -33.4740 -33.4361 -33.4359 -33.2327
   -33.1727 -33.1713 -33.1642 -33.1454 -33.0782 -32.8690 -32.8590 -32.8496
   -32.8284 -32.7785 -32.7774 -32.7579 -32.7235 -32.6303 -32.5560 -32.5078
   -23.4295 -18.5745 -18.3051 -17.9514 -17.8310 -17.7792 -17.6519 -17.6509
   -17.6044 -17.3318 -17.2851 -17.1952 -17.1742 -17.1226 -17.0509 -16.9186
   -16.8151 -16.7537 -16.7474 -16.6964 -16.4390 -16.1918 -16.1827 -15.9872
   -15.5024 -15.4775  -8.0741  -6.4293  -6.1135  -5.9323  -5.6629  -5.6385
    -5.3935  -5.2273  -5.1853  -5.1609  -5.0154  -4.9995  -4.9950  -4.8298
    -4.7785  -4.7564  -4.7133  -4.6804  -4.6333  -4.6021  -4.5873  -4.4960
    -4.3961  -4.3555  -4.3261  -4.1143  -3.9095  -3.8621  -3.8321  -3.7312
    -3.5832  -3.5250  -3.4666  -3.2821  -3.2350  -3.1542  -3.0554  -3.0229
    -2.9618  -2.9373  -2.9025  -2.8524  -2.7080  -2.6998  -2.6629  -2.5876
    -2.5461  -2.5376  -2.4653  -2.3847  -2.3653  -2.2136  -2.1534  -2.1166
    -2.0649  -2.0301  -1.9546  -1.8915  -1.8255  -1.7968  -1.7445  -1.5762
    -1.5730  -1.4819  -1.3553  -1.3459  -1.2962  -1.2216  -1.1216  -1.0555
    -1.0548  -0.7323  -0.7219  -0.5134  -0.4944  -0.3912  -0.3835   1.2278
     1.3054   1.4587   1.6004   1.8740   1.8746   1.9261   1.9526   2.0501
     2.0581   2.1358   2.2609   2.3002   2.4170   2.4606   2.5420   2.6673
     2.7635   2.8526   2.8546   2.8605   2.9265   2.9449   3.0054   3.0651
     3.1078   3.1260   3.2042   3.3130   3.3282

          k = 0.2500 0.2277 0.0000 ( 81485 PWs)   bands (ev):

   -58.0412 -57.9732 -57.4841 -57.4494 -57.2741 -57.2299 -56.9621 -56.9340
   -56.5762 -56.5450 -56.3988 -56.3701 -34.4595 -34.3558 -34.2706 -34.2374
   -34.1447 -34.1390 -34.0656 -33.7932 -33.7717 -33.7513 -33.6765 -33.6675
   -33.6411 -33.6246 -33.5296 -33.5007 -33.4632 -33.4364 -33.4354 -33.2403
   -33.1737 -33.1707 -33.1641 -33.1453 -33.0777 -32.8728 -32.8590 -32.8485
   -32.8282 -32.7809 -32.7774 -32.7569 -32.7235 -32.6303 -32.5560 -32.5078
   -23.4295 -18.5170 -18.2236 -17.8924 -17.8437 -17.7697 -17.7400 -17.6267
   -17.4715 -17.4260 -17.3552 -17.3289 -17.2155 -17.0671 -17.0345 -16.9494
   -16.8784 -16.7958 -16.6961 -16.6743 -16.4401 -16.1901 -16.1826 -15.9885
   -15.5008 -15.4779  -8.0734  -6.4272  -5.9473  -5.8076  -5.4151  -5.3713
    -5.3522  -5.2881  -5.1635  -5.1537  -5.1110  -4.9450  -4.9228  -4.8435
    -4.7899  -4.7699  -4.7176  -4.6368  -4.5725  -4.5204  -4.4919  -4.4138
    -4.3885  -4.3451  -4.1698  -4.0543  -3.9824  -3.8255  -3.7439  -3.7319
    -3.5518  -3.4936  -3.4028  -3.3283  -3.2827  -3.2587  -3.2062  -3.1553
    -3.0733  -2.9897  -2.9674  -2.8916  -2.8439  -2.8220  -2.7723  -2.6737
    -2.6410  -2.6062  -2.5364  -2.4915  -2.3701  -2.3402  -2.3158  -2.2148
    -2.1420  -2.0296  -1.9352  -1.8751  -1.8539  -1.8123  -1.7819  -1.6983
    -1.5965  -1.5080  -1.3681  -1.3553  -1.2805  -1.2360  -1.1650  -1.1104
    -1.0568  -0.7240  -0.7136  -0.5717  -0.5683  -0.4184  -0.3778   1.2112
     1.3547   1.5577   1.6972   1.8065   1.9441   1.9866   2.0221   2.0936
     2.1581   2.1773   2.2370   2.2812   2.3364   2.4515   2.6365   2.6953
     2.7337   2.7841   2.9259   2.9572   2.9951   3.0344   3.0620   3.1044
     3.2338   3.2659   3.3295   3.3683   3.4529

          k = 0.2500-0.4554 0.0000 ( 81408 PWs)   bands (ev):

   -58.0412 -57.9732 -57.4841 -57.4494 -57.2741 -57.2299 -56.9621 -56.9340
   -56.5762 -56.5450 -56.3988 -56.3701 -34.4604 -34.3558 -34.2706 -34.2357
   -34.1444 -34.1392 -34.0658 -33.7933 -33.7730 -33.7515 -33.6765 -33.6634
   -33.6472 -33.6246 -33.5260 -33.5007 -33.4532 -33.4368 -33.4350 -33.2479
   -33.1746 -33.1701 -33.1640 -33.1452 -33.0772 -32.8767 -32.8590 -32.8473
   -32.8280 -32.7833 -32.7774 -32.7559 -32.7235 -32.6303 -32.5560 -32.5078
   -23.4294 -18.4599 -18.0904 -17.9185 -17.8201 -17.7307 -17.7152 -17.6573
   -17.5265 -17.4074 -17.4046 -17.3627 -17.2352 -17.2320 -17.0228 -16.9736
   -16.9089 -16.7827 -16.6742 -16.6478 -16.4413 -16.1891 -16.1824 -15.9898
   -15.4993 -15.4783  -8.0727  -6.4267  -5.9426  -5.4027  -5.3700  -5.2862
    -5.2347  -5.1322  -5.1233  -5.0560  -4.9759  -4.9321  -4.8778  -4.8702
    -4.8495  -4.8098  -4.6542  -4.5936  -4.5793  -4.5002  -4.3719  -4.3205
    -4.2783  -4.0659  -4.0603  -4.0188  -3.9433  -3.8196  -3.7861  -3.7414
    -3.6824  -3.6378  -3.4339  -3.4164  -3.3830  -3.2651  -3.2535  -3.2367
    -3.2030  -3.0641  -3.0585  -3.0556  -2.9759  -2.8772  -2.8569  -2.8493
    -2.7672  -2.7556  -2.6928  -2.5498  -2.5317  -2.4897  -2.4082  -2.3348
    -2.2802  -2.1953  -1.8819  -1.8797  -1.8346  -1.7605  -1.6473  -1.6057
    -1.5969  -1.5296  -1.4203  -1.3855  -1.2317  -1.1374  -1.1181  -1.0976
    -1.0711  -0.7903  -0.7146  -0.6474  -0.6183  -0.4313  -0.3775   1.2306
     1.3646   1.5592   1.6198   1.7349   1.8395   1.9470   2.0862   2.1102
     2.1906   2.2550   2.2920   2.3548   2.4974   2.5131   2.6843   2.7760
     2.7986   2.7996   2.9486   2.9910   3.0247   3.1433   3.1516   3.2894
     3.3211   3.3395   3.3772   3.4050   3.5088

          k =-0.5000 0.0000 0.0000 ( 81532 PWs)   bands (ev):

   -58.0381 -57.9764 -57.4761 -57.4575 -57.2690 -57.2350 -56.9494 -56.9467
   -56.5643 -56.5569 -56.3845 -56.3845 -34.3536 -34.3258 -34.2758 -34.2712
   -34.2189 -34.1657 -33.9410 -33.8737 -33.7526 -33.7328 -33.6607 -33.6567
   -33.6444 -33.5990 -33.5748 -33.5109 -33.4979 -33.4590 -33.3249 -33.3229
   -33.2039 -33.2023 -33.1557 -33.1482 -32.9272 -32.9192 -32.8626 -32.8557
   -32.8044 -32.7996 -32.7683 -32.7681 -32.6707 -32.6706 -32.5934 -32.5933
   -23.4293 -18.2125 -18.2052 -18.0466 -17.9063 -17.6984 -17.6090 -17.5449
   -17.4690 -17.4684 -17.4644 -17.3784 -17.3322 -16.9982 -16.9901 -16.9017
   -16.8983 -16.7334 -16.7256 -16.5211 -16.5135 -16.2830 -16.2806 -15.9889
   -15.5493 -15.5448  -8.0747  -6.4088  -5.6205  -5.6126  -5.5063  -5.4442
    -5.2265  -5.2112  -5.1967  -5.1945  -5.1853  -5.1628  -5.1566  -5.1232
    -5.0808  -4.9042  -4.8143  -4.6425  -4.5291  -4.5014  -4.4638  -4.4206
    -4.3592  -4.2608  -4.2040  -4.1672  -4.1357  -3.7950  -3.7922  -3.5346
    -3.4547  -3.4534  -3.3853  -3.2825  -3.2667  -3.2287  -3.2104  -3.0241
    -2.9783  -2.9556  -2.8946  -2.8083  -2.8069  -2.6297  -2.5854  -2.5736
    -2.5501  -2.4116  -2.3953  -2.3745  -2.2777  -2.2493  -2.2067  -2.1442
    -2.0729  -2.0102  -2.0036  -1.9998  -1.9904  -1.9034  -1.8412  -1.7908
    -1.6398  -1.6178  -1.5085  -1.4698  -1.3793  -1.3629  -1.3305  -1.3199
    -0.8801  -0.8554  -0.5527  -0.5470  -0.4856  -0.4817  -0.4484   1.4867
     1.5518   1.6622   1.6705   1.7832   1.8182   1.9063   1.9767   2.0291
     2.0702   2.1000   2.1853   2.3986   2.4485   2.4636   2.4915   2.5871
     2.6870   2.8690   2.8878   2.8927   2.9120   3.0039   3.0258   3.0667
     3.0827   3.2406   3.2791   3.5586   3.5836

          k =-0.5000 0.2277 0.0000 ( 81508 PWs)   bands (ev):

   -58.0381 -57.9763 -57.4761 -57.4575 -57.2689 -57.2350 -56.9494 -56.9467
   -56.5644 -56.5569 -56.3845 -56.3845 -34.3536 -34.3265 -34.2765 -34.2712
   -34.2179 -34.1647 -33.9412 -33.8739 -33.7526 -33.7328 -33.6599 -33.6577
   -33.6439 -33.5993 -33.5761 -33.5087 -33.4979 -33.4567 -33.3214 -33.3196
   -33.2081 -33.2061 -33.1557 -33.1482 -32.9270 -32.9191 -32.8638 -32.8570
   -32.8043 -32.7995 -32.7688 -32.7688 -32.6706 -32.6705 -32.5934 -32.5933
   -23.4293 -18.1758 -18.1669 -17.9849 -17.8662 -17.6602 -17.6198 -17.5480
   -17.5249 -17.4886 -17.4026 -17.3343 -17.3222 -17.0973 -17.0792 -16.9988
   -16.9970 -16.7026 -16.6960 -16.5159 -16.5083 -16.2816 -16.2794 -15.9894
   -15.5491 -15.5446  -8.0742  -6.4082  -5.5096  -5.4855  -5.3903  -5.3508
    -5.2003  -5.1635  -5.1177  -5.0414  -5.0162  -4.9634  -4.9445  -4.9416
    -4.9276  -4.8286  -4.7476  -4.6035  -4.5424  -4.4895  -4.4705  -4.4159
    -4.3915  -4.3672  -4.2602  -4.0072  -4.0054  -3.9429  -3.8313  -3.6679
    -3.6287  -3.5383  -3.4871  -3.3644  -3.3392  -3.3312  -3.2833  -3.1122
    -3.0345  -2.9927  -2.9518  -2.8990  -2.8746  -2.7891  -2.7477  -2.6978
    -2.6851  -2.5856  -2.5654  -2.4200  -2.3730  -2.3638  -2.3427  -2.3132
    -2.2907  -2.1937  -2.1285  -2.0179  -1.9339  -1.8300  -1.8099  -1.8009
    -1.5026  -1.4778  -1.4516  -1.3965  -1.3033  -1.2937  -1.2681  -1.2549
    -0.9071  -0.8806  -0.6209  -0.6150  -0.4722  -0.4690  -0.4316   1.5372
     1.5795   1.6937   1.7183   1.8741   1.9522   1.9681   1.9828   2.0108
     2.0283   2.1944   2.2410   2.4547   2.4903   2.5792   2.6117   2.7007
     2.7171   2.7430   2.7658   2.9069   3.0458   3.0739   3.0899   3.1589
     3.2773   3.2876   3.3176   3.5239   3.5375

          k =-0.5000-0.4554 0.0000 ( 81484 PWs)   bands (ev):

   -58.0381 -57.9763 -57.4761 -57.4575 -57.2689 -57.2350 -56.9495 -56.9467
   -56.5644 -56.5569 -56.3845 -56.3845 -34.3536 -34.3271 -34.2771 -34.2712
   -34.2168 -34.1636 -33.9413 -33.8741 -33.7526 -33.7328 -33.6590 -33.6587
   -33.6433 -33.5996 -33.5773 -33.5067 -33.4980 -33.4544 -33.3177 -33.3161
   -33.2127 -33.2102 -33.1557 -33.1482 -32.9269 -32.9189 -32.8650 -32.8583
   -32.8042 -32.7995 -32.7695 -32.7694 -32.6705 -32.6704 -32.5934 -32.5933
   -23.4292 -18.1484 -18.1159 -17.8343 -17.7793 -17.7787 -17.7038 -17.5818
   -17.5171 -17.3339 -17.3192 -17.3154 -17.2608 -17.1988 -17.1889 -17.1585
   -17.1484 -16.6842 -16.6775 -16.5118 -16.5043 -16.2805 -16.2781 -15.9900
   -15.5489 -15.5444  -8.0738  -6.4080  -5.5116  -5.4722  -5.2200  -5.1694
    -5.1246  -5.0317  -5.0252  -4.8470  -4.8126  -4.8069  -4.7186  -4.6263
    -4.6077  -4.5898  -4.5707  -4.5128  -4.4943  -4.4915  -4.4827  -4.4782
    -4.3009  -4.2921  -4.2856  -4.2624  -4.2370  -3.9618  -3.9493  -3.9193
    -3.8984  -3.6631  -3.5849  -3.5012  -3.4990  -3.2414  -3.1923  -3.1631
    -3.0628  -3.0466  -3.0429  -3.0091  -2.9912  -2.9837  -2.9463  -2.9166
    -2.8527  -2.7479  -2.7426  -2.7259  -2.5895  -2.5519  -2.4728  -2.4587
    -2.3584  -2.2778  -2.2487  -1.9051  -1.8824  -1.8629  -1.6624  -1.6541
    -1.4064  -1.3867  -1.3743  -1.3455  -1.2822  -1.2136  -1.1945  -1.1549
    -0.9071  -0.8994  -0.6786  -0.6637  -0.4737  -0.4661  -0.4154   1.6438
     1.6590   1.6919   1.7124   1.8082   1.9296   1.9814   2.0870   2.1119
     2.1244   2.1362   2.1699   2.4613   2.4922   2.5412   2.5992   2.7932
     2.8643   2.8914   2.9497   2.9968   3.0936   3.1816   3.2294   3.2743
     3.3017   3.3166   3.4739   3.5376   3.5533

     the Fermi energy is    -0.3631 ev

!    total energy              =   -2519.46301203 Ry
     estimated scf accuracy    <       0.00000003 Ry
     smearing contrib. (-TS)   =       0.00317809 Ry
     internal energy E=F+TS    =   -2519.46619012 Ry

     The total energy is F=E-TS. E is the sum of the following terms:
     one-electron contribution =  -26042.18379774 Ry
     hartree contribution      =   13070.84952109 Ry
     xc contribution           =    -409.96021473 Ry
     ewald contribution        =   11109.29668919 Ry
     one-center paw contrib.   =    -247.46838794 Ry

     convergence has been achieved in  21 iterations

     negative rho (up, down):  1.563E-02 0.000E+00

     Forces acting on atoms (cartesian axes, Ry/au):

     atom    1 type  2   force =    -0.00007919    0.00000000    0.10099745
     atom    2 type  2   force =     0.00016574    0.00000000   -0.09437944
     atom    3 type  2   force =    -0.00008843    0.00000000    0.00093159
     atom    4 type  2   force =     0.00344454    0.00000000    0.00485082
     atom    5 type  2   force =    -0.00116033    0.00000000    0.00127074
     atom    6 type  2   force =     0.00081047    0.00000000   -0.00044667
     atom    7 type  3   force =     0.00009724    0.00000000    0.02869655
     atom    8 type  3   force =     0.00005492    0.00000000    0.05647478
     atom    9 type  3   force =    -0.00303886    0.07005620   -0.03529115
     atom   10 type  3   force =    -0.00303886   -0.07005620   -0.03529115
     atom   11 type  3   force =    -0.00003150    0.00000000   -0.00088408
     atom   12 type  3   force =     0.00061099    0.00000000   -0.06690786
     atom   13 type  3   force =    -0.00033720   -0.00078668    0.00181270
     atom   14 type  3   force =    -0.00033720    0.00078668    0.00181270
     atom   15 type  3   force =     0.00085109    0.00000000    0.00742645
     atom   16 type  3   force =    -0.00043489    0.00000000    0.00297982
     atom   17 type  3   force =     0.00237503   -0.00171112   -0.00002452
     atom   18 type  3   force =     0.00237503    0.00171112   -0.00002452
     atom   19 type  2   force =     0.00007241    0.00000000    0.12050228
     atom   20 type  2   force =    -0.00023344    0.00000000   -0.09440207
     atom   21 type  2   force =     0.00006010    0.00000000    0.00106929
     atom   22 type  2   force =    -0.00310845    0.00000000    0.00498895
     atom   23 type  2   force =     0.00080387    0.00000000    0.00897013
     atom   24 type  2   force =    -0.00128733    0.00000000   -0.00015874
     atom   25 type  3   force =     0.00005325    0.00000000    0.02735805
     atom   26 type  3   force =    -0.00000475    0.00000000    0.05667935
     atom   27 type  3   force =     0.00304190    0.07009384   -0.03525125
     atom   28 type  3   force =     0.00304190   -0.07009384   -0.03525125
     atom   29 type  3   force =    -0.00026056    0.00000000    0.00734353
     atom   30 type  3   force =    -0.00046097    0.00000000   -0.06620634
     atom   31 type  3   force =     0.00030325   -0.00073074    0.00117349
     atom   32 type  3   force =     0.00030325    0.00073074    0.00117349
     atom   33 type  3   force =    -0.00105833    0.00000000    0.00848836
     atom   34 type  3   force =     0.00033971    0.00000000    0.00071016
     atom   35 type  3   force =    -0.00294973   -0.00070962    0.00129136
     atom   36 type  3   force =    -0.00294973    0.00070962    0.00129136
     atom   37 type  3   force =     0.00692535    0.00000000    0.00817556
     atom   38 type  3   force =    -0.00373133    0.00000000    0.00380622
     atom   39 type  1   force =    -0.00113894    0.00000000    0.00424391

     Total force =     0.023781     Total SCF correction =     0.000607
     Energy error            =      1.0E-03 Ry
     Gradient error          =      9.0E-03 Ry/Bohr

     number of scf cycles    =   9
     number of bfgs steps    =   8

     energy             old  =   -2519.4619776498 Ry
     energy             new  =   -2519.4630120285 Ry

     CASE: energy            _new < energy            _old

     new trust radius        =       0.0347041906 bohr
     new conv_thr            =       0.0000000449 Ry


ATOMIC_POSITIONS (angstrom)
Ti               0.0000000000        4.8723546300        9.7447092600    0   0   0
Ti               1.4793500000        1.6241182100        9.7447092600    0   0   0
Ti              -0.0015057298        1.6241182100       13.0795888586
Ti               1.4500454269        4.8723546300       12.9744691578
Ti              -0.0115575489        4.8723546300       16.2848845727
Ti               1.4821748381        1.6241182100       16.4147583313
O                0.0000000000        1.6241182100       11.0129506900    0   0   0
O                0.0000000000        1.6241182100        8.4764678300    0   0   0
O                1.4793500000        3.6041132000        9.7447092600    0   0   0
O                1.4793500000        6.1405960600        9.7447092600    0   0   0
O               -0.0031239737        4.8723546300       14.2575285301
O                0.0000000000        4.8723546300       11.7247042500    0   0   0
O                1.4813823021        0.3271930367       12.9730981384
O                1.4813823021        2.9210433833       12.9730981384
O                0.0041710796        1.6241182100       17.4935109918
O               -0.0095952401        1.6241182100       14.9409536690
O                1.5028455610        3.6369810822       16.3058058082
O                1.5028455610        6.1077281778       16.3058058082
Ti               2.9587000000        4.8723546300        9.7447092600    0   0   0
Ti               4.4380500000        1.6241182100        9.7447092600    0   0   0
Ti               2.9592260286        1.6241182100       13.0616320909
Ti               4.4707497156        4.8723546300       12.9803395570
Ti               2.9390427543        4.8723546300       16.0378062306
Ti               4.4332044450        1.6241182100       16.4226237342
O                2.9587000000        1.6241182100       11.0129506900    0   0   0
O                2.9587000000        1.6241182100        8.4764678300    0   0   0
O                4.4380500000        3.6041132000        9.7447092600    0   0   0
O                4.4380500000        6.1405960600        9.7447092600    0   0   0
O                2.9625162144        4.8723546300       14.2272042892
O                2.9587000000        4.8723546300       11.7247042500    0   0   0
O                4.4366348156        0.3278575511       12.9693915202
O                4.4366348156        2.9203788689       12.9693915202
O                2.9530366440        1.6241182100       17.5020076747
O                2.9692939789        1.6241182100       14.9396970789
O                4.4039079970        3.6440577534       16.3631771285
O                4.4039079970        6.1006515066       16.3631771285
O                0.0426089257        4.8723546300       18.2834048849
O                1.3303751681        4.8723546300       18.7953400414
H                1.1723434498        4.8723546300       19.7624876487



     Writing config-only to output data dir ./tmp_s0_OOH__2x1v_mir/s0_OOH__2x1v_mir.save/ :
     XML data file
     NEW-OLD atomic charge density approx. for the potential

     Check: negative core charge=   -0.000001

     negative rho (up, down):  1.556E-02 0.000E+00

     total cpu time spent up to now is     1953.3 secs

     per-process dynamical memory:   247.5 Mb

     Self-consistent Calculation

     iteration #  1     ecut=    80.00 Ry     beta= 0.30
     Davidson diagonalization with overlap
     ethr =  1.00E-06,  avg # of iterations = 10.3

     negative rho (up, down):  1.598E-02 0.000E+00

     total cpu time spent up to now is     1967.6 secs

     total energy              =   -2519.44364490 Ry
     estimated scf accuracy    <       0.46627178 Ry

     iteration #  2     ecut=    80.00 Ry     beta= 0.30
     Davidson diagonalization with overlap
     ethr =  1.55E-04,  avg # of iterations =  1.0

     negative rho (up, down):  1.586E-02 0.000E+00

     total cpu time spent up to now is     1974.4 secs

     total energy              =   -2519.46508230 Ry
     estimated scf accuracy    <       0.23332741 Ry

     iteration #  3     ecut=    80.00 Ry     beta= 0.30
     Davidson diagonalization with overlap
     ethr =  7.75E-05,  avg # of iterations =  1.0

     negative rho (up, down):  1.587E-02 0.000E+00

     total cpu time spent up to now is     1981.7 secs

     total energy              =   -2519.46210821 Ry
     estimated scf accuracy    <       0.06086406 Ry

     iteration #  4     ecut=    80.00 Ry     beta= 0.30
     Davidson diagonalization with overlap
     ethr =  2.02E-05,  avg # of iterations =  1.0

     negative rho (up, down):  1.626E-02 0.000E+00

     total cpu time spent up to now is     1988.7 secs

     total energy              =   -2519.46284230 Ry
     estimated scf accuracy    <       0.13406634 Ry

     iteration #  5     ecut=    80.00 Ry     beta= 0.30
     Davidson diagonalization with overlap
     ethr =  2.02E-05,  avg # of iterations =  1.0

     negative rho (up, down):  1.635E-02 0.000E+00

     total cpu time spent up to now is     1995.5 secs

     total energy              =   -2519.46366305 Ry
     estimated scf accuracy    <       0.00382849 Ry

     iteration #  6     ecut=    80.00 Ry     beta= 0.30
     Davidson diagonalization with overlap
     ethr =  1.27E-06,  avg # of iterations =  2.0

     negative rho (up, down):  1.678E-02 0.000E+00

     total cpu time spent up to now is     2003.0 secs

     total energy              =   -2519.46420463 Ry
     estimated scf accuracy    <       0.08139598 Ry

     iteration #  7     ecut=    80.00 Ry     beta= 0.30
     Davidson diagonalization with overlap
     ethr =  1.27E-06,  avg # of iterations =  1.4

     negative rho (up, down):  1.697E-02 0.000E+00

     total cpu time spent up to now is     2009.6 secs

     total energy              =   -2519.46365833 Ry
     estimated scf accuracy    <       0.05307784 Ry

     iteration #  8     ecut=    80.00 Ry     beta= 0.30
     Davidson diagonalization with overlap
     ethr =  1.27E-06,  avg # of iterations =  2.3

     negative rho (up, down):  1.689E-02 0.000E+00

     total cpu time spent up to now is     2016.6 secs

     total energy              =   -2519.46386003 Ry
     estimated scf accuracy    <       0.00197593 Ry

     iteration #  9     ecut=    80.00 Ry     beta= 0.30
     Davidson diagonalization with overlap
     ethr =  6.56E-07,  avg # of iterations =  3.1

     negative rho (up, down):  1.669E-02 0.000E+00

     total cpu time spent up to now is     2024.1 secs

     total energy              =   -2519.46388393 Ry
     estimated scf accuracy    <       0.00053321 Ry

     iteration # 10     ecut=    80.00 Ry     beta= 0.30
     Davidson diagonalization with overlap
     ethr =  1.77E-07,  avg # of iterations =  1.4

     negative rho (up, down):  1.661E-02 0.000E+00

     total cpu time spent up to now is     2031.2 secs

     total energy              =   -2519.46383472 Ry
     estimated scf accuracy    <       0.00706705 Ry

     iteration # 11     ecut=    80.00 Ry     beta= 0.30
     Davidson diagonalization with overlap
     ethr =  1.77E-07,  avg # of iterations =  1.1

     negative rho (up, down):  1.640E-02 0.000E+00

     total cpu time spent up to now is     2038.0 secs

     total energy              =   -2519.46386339 Ry
     estimated scf accuracy    <       0.00023983 Ry

     iteration # 12     ecut=    80.00 Ry     beta= 0.30
     Davidson diagonalization with overlap
     ethr =  7.97E-08,  avg # of iterations =  1.1

     negative rho (up, down):  1.624E-02 0.000E+00

     total cpu time spent up to now is     2044.4 secs

     total energy              =   -2519.46386368 Ry
     estimated scf accuracy    <       0.00002105 Ry

     iteration # 13     ecut=    80.00 Ry     beta= 0.30
     Davidson diagonalization with overlap
     ethr =  6.99E-09,  avg # of iterations =  3.3

     negative rho (up, down):  1.607E-02 0.000E+00

     total cpu time spent up to now is     2051.9 secs

     total energy              =   -2519.46386354 Ry
     estimated scf accuracy    <       0.00000156 Ry

     iteration # 14     ecut=    80.00 Ry     beta= 0.30
     Davidson diagonalization with overlap
     ethr =  5.20E-10,  avg # of iterations =  6.7

     negative rho (up, down):  1.598E-02 0.000E+00

     total cpu time spent up to now is     2060.1 secs

     total energy              =   -2519.46386346 Ry
     estimated scf accuracy    <       0.00000067 Ry

     iteration # 15     ecut=    80.00 Ry     beta= 0.30
     Davidson diagonalization with overlap
     ethr =  2.24E-10,  avg # of iterations =  1.8

     negative rho (up, down):  1.575E-02 0.000E+00

     total cpu time spent up to now is     2067.1 secs

     total energy              =   -2519.46386309 Ry
     estimated scf accuracy    <       0.00000044 Ry

     iteration # 16     ecut=    80.00 Ry     beta= 0.30
     Davidson diagonalization with overlap
     ethr =  1.45E-10,  avg # of iterations =  2.0

     negative rho (up, down):  1.571E-02 0.000E+00

     total cpu time spent up to now is     2074.4 secs

     total energy              =   -2519.46386309 Ry
     estimated scf accuracy    <       0.00000023 Ry

     iteration # 17     ecut=    80.00 Ry     beta= 0.30
     Davidson diagonalization with overlap
     ethr =  7.67E-11,  avg # of iterations =  2.0

     negative rho (up, down):  1.564E-02 0.000E+00

     total cpu time spent up to now is     2081.5 secs

     total energy              =   -2519.46386309 Ry
     estimated scf accuracy    <       0.00000017 Ry

     iteration # 18     ecut=    80.00 Ry     beta= 0.30
     Davidson diagonalization with overlap
     ethr =  5.64E-11,  avg # of iterations =  2.0

     negative rho (up, down):  1.556E-02 0.000E+00

     total cpu time spent up to now is     2088.3 secs

     total energy              =   -2519.46386314 Ry
     estimated scf accuracy    <       0.00000027 Ry

     iteration # 19     ecut=    80.00 Ry     beta= 0.30
     Davidson diagonalization with overlap
     ethr =  5.64E-11,  avg # of iterations =  1.8

     negative rho (up, down):  1.554E-02 0.000E+00

     total cpu time spent up to now is     2095.2 secs

     total energy              =   -2519.46386317 Ry
     estimated scf accuracy    <       0.00000028 Ry

     iteration # 20     ecut=    80.00 Ry     beta= 0.30
     Davidson diagonalization with overlap
     ethr =  5.64E-11,  avg # of iterations =  1.0

     negative rho (up, down):  1.553E-02 0.000E+00

     total cpu time spent up to now is     2101.7 secs

     total energy              =   -2519.46386317 Ry
     estimated scf accuracy    <       0.00000017 Ry

     iteration # 21     ecut=    80.00 Ry     beta= 0.30
     Davidson diagonalization with overlap
     ethr =  5.64E-11,  avg # of iterations =  1.0

     negative rho (up, down):  1.552E-02 0.000E+00

     total cpu time spent up to now is     2107.8 secs

     End of self-consistent calculation

          k = 0.0000 0.0000 0.0000 ( 81491 PWs)   bands (ev):

   -58.0275 -57.9550 -57.4817 -57.4353 -57.3010 -57.2168 -56.9716 -56.9321
   -56.5988 -56.5536 -56.4037 -56.3632 -34.5059 -34.3398 -34.2543 -34.2372
   -34.1159 -34.1158 -34.0564 -33.8410 -33.7992 -33.6975 -33.6737 -33.6218
   -33.6181 -33.6173 -33.5633 -33.5390 -33.5257 -33.4203 -33.3756 -33.2483
   -33.1803 -33.1720 -33.1639 -33.1207 -33.1075 -32.8919 -32.8888 -32.8812
   -32.8597 -32.7806 -32.7782 -32.7515 -32.6678 -32.6446 -32.5395 -32.4386
   -23.4597 -18.7095 -18.4260 -18.0738 -17.9033 -17.7135 -17.7058 -17.5962
   -17.5233 -17.2561 -17.1965 -17.1742 -17.1145 -17.0792 -17.0229 -17.0142
   -16.8518 -16.7482 -16.7245 -16.6841 -16.4676 -16.1489 -16.0882 -15.9874
   -15.4659 -15.4189  -8.0960  -6.4701  -6.2995  -6.0967  -5.8552  -5.8103
    -5.6126  -5.2771  -5.1265  -5.0418  -5.0372  -4.9765  -4.9006  -4.7494
    -4.7395  -4.6666  -4.6474  -4.6258  -4.5700  -4.4777  -4.4204  -4.4103
    -4.3497  -4.3122  -4.1964  -4.1656  -4.1549  -3.9865  -3.9471  -3.7330
    -3.5598  -3.5262  -3.5254  -3.4583  -3.2183  -3.1748  -3.1210  -3.0552
    -3.0204  -2.9625  -2.9606  -2.8478  -2.7458  -2.7090  -2.6296  -2.5886
    -2.5865  -2.5789  -2.4786  -2.3500  -2.2667  -2.2480  -2.1558  -2.1492
    -2.0011  -1.8688  -1.8393  -1.8308  -1.8057  -1.6813  -1.5604  -1.5348
    -1.4404  -1.3426  -1.3078  -1.1997  -1.1862  -1.1371  -1.1048  -1.0326
    -0.8131  -0.5682  -0.5276  -0.4872  -0.4627  -0.4409  -0.3466   1.0411
     1.1849   1.3731   1.4537   1.6494   1.7910   1.9611   2.0123   2.0389
     2.1051   2.1678   2.2922   2.2923   2.5374   2.5940   2.6594   2.6911
     2.7150   2.7161   2.7349   2.8322   2.8852   2.9222   2.9608   2.9903
     3.0814   3.0973   3.1592   3.1662   3.3318

          k = 0.0000 0.2277 0.0000 ( 81407 PWs)   bands (ev):

   -58.0275 -57.9550 -57.4817 -57.4353 -57.3010 -57.2168 -56.9716 -56.9321
   -56.5988 -56.5536 -56.4037 -56.3632 -34.5070 -34.3398 -34.2544 -34.2351
   -34.1162 -34.1158 -34.0564 -33.8427 -33.7992 -33.6975 -33.6665 -33.6375
   -33.6217 -33.6174 -33.5594 -33.5257 -33.5180 -33.4205 -33.3755 -33.2575
   -33.1795 -33.1719 -33.1636 -33.1205 -33.1076 -32.8937 -32.8916 -32.8812
   -32.8577 -32.7837 -32.7782 -32.7498 -32.6678 -32.6447 -32.5395 -32.4387
   -23.4597 -18.6464 -18.3368 -17.9858 -17.8765 -17.8517 -17.7184 -17.5936
   -17.3904 -17.3725 -17.3686 -17.3113 -17.1790 -17.1235 -16.9298 -16.8454
   -16.8075 -16.8011 -16.7269 -16.7176 -16.4683 -16.1460 -16.0856 -15.9906
   -15.4639 -15.4185  -8.0951  -6.4648  -6.1118  -5.9879  -5.6181  -5.5896
    -5.5252  -5.4554  -5.3247  -5.1903  -5.0039  -4.9742  -4.8705  -4.7393
    -4.7007  -4.6839  -4.6435  -4.6379  -4.5209  -4.4451  -4.3701  -4.2978
    -4.2268  -4.1816  -4.1586  -4.0986  -3.9435  -3.9323  -3.7103  -3.6690
    -3.5995  -3.5921  -3.5600  -3.3898  -3.3204  -3.2630  -3.2179  -3.2114
    -3.1590  -3.0334  -3.0288  -2.9670  -2.8386  -2.8049  -2.6929  -2.6599
    -2.5827  -2.5600  -2.3752  -2.3657  -2.3314  -2.2152  -2.1224  -2.0564
    -1.9880  -1.9504  -1.9010  -1.8276  -1.7827  -1.7706  -1.6905  -1.6492
    -1.4968  -1.4686  -1.4090  -1.3185  -1.2508  -1.1871  -1.1031  -1.0776
    -1.0644  -0.6639  -0.5861  -0.5632  -0.5017  -0.4704  -0.3981   1.1165
     1.1521   1.4504   1.5246   1.7359   1.9448   1.9762   2.0172   2.0563
     2.0884   2.1736   2.1909   2.2285   2.3988   2.5438   2.6214   2.6746
     2.7346   2.7511   2.8933   2.9137   2.9470   2.9879   3.0593   3.0828
     3.1598   3.2567   3.3160   3.3492   3.3742

          k = 0.0000-0.4554 0.0000 ( 81286 PWs)   bands (ev):

   -58.0275 -57.9550 -57.4816 -57.4353 -57.3010 -57.2168 -56.9716 -56.9321
   -56.5988 -56.5536 -56.4037 -56.3632 -34.5080 -34.3398 -34.2544 -34.2331
   -34.1164 -34.1159 -34.0564 -33.8444 -33.7992 -33.6975 -33.6625 -33.6478
   -33.6217 -33.6174 -33.5556 -33.5257 -33.5025 -33.4207 -33.3755 -33.2670
   -33.1788 -33.1718 -33.1632 -33.1203 -33.1077 -32.8987 -32.8914 -32.8812
   -32.8557 -32.7869 -32.7782 -32.7481 -32.6679 -32.6447 -32.5395 -32.4387
   -23.4596 -18.5829 -18.2012 -17.9692 -17.8668 -17.7762 -17.7703 -17.5795
   -17.5461 -17.4699 -17.4331 -17.2903 -17.2473 -17.1607 -16.9611 -16.8462
   -16.8109 -16.7293 -16.7067 -16.6981 -16.4690 -16.1438 -16.0829 -15.9940
   -15.4620 -15.4180  -8.0943  -6.4635  -6.1032  -5.6040  -5.6039  -5.5748
    -5.5493  -5.3023  -5.1788  -5.1481  -5.0932  -4.8386  -4.7726  -4.7283
    -4.6605  -4.6363  -4.6196  -4.6051  -4.5759  -4.4369  -4.3888  -4.2634
    -4.1571  -4.0684  -4.0426  -3.9756  -3.8738  -3.8480  -3.6778  -3.6578
    -3.6433  -3.6028  -3.5827  -3.5610  -3.5529  -3.4389  -3.3995  -3.2143
    -3.1816  -3.0329  -2.9914  -2.9905  -2.9579  -2.8032  -2.7255  -2.6682
    -2.6221  -2.5705  -2.5396  -2.4270  -2.4167  -2.2313  -2.1945  -2.1131
    -2.0641  -2.0161  -1.9733  -1.8967  -1.8767  -1.7742  -1.7379  -1.5710
    -1.4871  -1.4320  -1.3583  -1.3521  -1.3364  -1.2256  -1.2206  -1.1884
    -1.0704  -0.7655  -0.6393  -0.5989  -0.5328  -0.4898  -0.4279   1.0415
     1.1882   1.4325   1.4998   1.6647   1.6702   1.8996   2.0576   2.0734
     2.2541   2.2682   2.3058   2.3449   2.4831   2.5277   2.5407   2.7173
     2.7682   2.8603   2.9346   2.9648   3.0436   3.0775   3.1410   3.1700
     3.2226   3.2934   3.3439   3.3766   3.4761

          k = 0.2500 0.0000 0.0000 ( 81478 PWs)   bands (ev):

   -58.0246 -57.9579 -57.4765 -57.4406 -57.2986 -57.2193 -56.9658 -56.9379
   -56.5931 -56.5594 -56.3978 -56.3692 -34.4431 -34.3375 -34.2542 -34.2234
   -34.1300 -34.1235 -34.0549 -33.7873 -33.7764 -33.7429 -33.6668 -33.6664
   -33.6250 -33.6104 -33.5508 -33.5264 -33.4778 -33.4410 -33.4335 -33.2363
   -33.1766 -33.1742 -33.1654 -33.1482 -33.0892 -32.8855 -32.8726 -32.8626
   -32.8282 -32.7909 -32.7763 -32.7557 -32.7372 -32.6295 -32.5552 -32.5075
   -23.4595 -18.5612 -18.2994 -17.9478 -17.8211 -17.7729 -17.6385 -17.6377
   -17.5901 -17.3188 -17.2729 -17.1999 -17.1816 -17.1165 -17.0520 -16.9139
   -16.8217 -16.7497 -16.7482 -16.6878 -16.4361 -16.1974 -16.1896 -15.9914
   -15.5079 -15.4841  -8.0966  -6.4431  -6.1012  -5.9176  -5.6710  -5.6361
    -5.3752  -5.2349  -5.1749  -5.1573  -5.0026  -4.9847  -4.9809  -4.8142
    -4.7703  -4.7509  -4.7039  -4.6699  -4.6278  -4.6009  -4.5813  -4.5006
    -4.3979  -4.3425  -4.3286  -4.1110  -3.9018  -3.8608  -3.8304  -3.7198
    -3.5712  -3.5148  -3.4642  -3.2756  -3.2230  -3.1410  -3.0452  -3.0206
    -2.9598  -2.9328  -2.8903  -2.8466  -2.6959  -2.6904  -2.6556  -2.5876
    -2.5433  -2.5402  -2.4684  -2.3816  -2.3689  -2.2256  -2.1562  -2.1190
    -2.0630  -2.0262  -1.9391  -1.8954  -1.8300  -1.7872  -1.7562  -1.5841
    -1.5661  -1.4794  -1.3554  -1.3475  -1.3020  -1.2157  -1.1215  -1.0582
    -1.0557  -0.7359  -0.7263  -0.5148  -0.4946  -0.3939  -0.3869   1.2441
     1.3209   1.4718   1.6200   1.8740   1.8839   1.9279   1.9614   2.0653
     2.0695   2.1368   2.2576   2.3056   2.3949   2.4610   2.5466   2.6577
     2.7640   2.8517   2.8536   2.8599   2.9326   2.9408   3.0020   3.0647
     3.1057   3.1150   3.2072   3.3133   3.3262

          k = 0.2500 0.2277 0.0000 ( 81485 PWs)   bands (ev):

   -58.0246 -57.9579 -57.4764 -57.4406 -57.2986 -57.2193 -56.9658 -56.9379
   -56.5931 -56.5594 -56.3978 -56.3692 -34.4441 -34.3375 -34.2542 -34.2217
   -34.1297 -34.1237 -34.0551 -33.7880 -33.7772 -33.7429 -33.6669 -33.6610
   -33.6339 -33.6104 -33.5476 -33.5264 -33.4663 -33.4415 -33.4326 -33.2441
   -33.1776 -33.1735 -33.1654 -33.1480 -33.0887 -32.8890 -32.8726 -32.8618
   -32.8280 -32.7909 -32.7787 -32.7547 -32.7372 -32.6295 -32.5552 -32.5075
   -23.4595 -18.5038 -18.2175 -17.8793 -17.8352 -17.7666 -17.7262 -17.6189
   -17.4580 -17.4150 -17.3556 -17.3249 -17.2041 -17.0700 -17.0426 -16.9483
   -16.8768 -16.7930 -16.6952 -16.6669 -16.4372 -16.1959 -16.1894 -15.9927
   -15.5063 -15.4845  -8.0960  -6.4412  -5.9314  -5.7956  -5.4212  -5.3610
    -5.3475  -5.2778  -5.1796  -5.1403  -5.1021  -4.9289  -4.9094  -4.8275
    -4.7774  -4.7661  -4.7109  -4.6323  -4.5638  -4.5195  -4.4830  -4.4121
    -4.3905  -4.3370  -4.1670  -4.0502  -3.9692  -3.8198  -3.7433  -3.7279
    -3.5437  -3.4893  -3.3943  -3.3228  -3.2723  -3.2455  -3.1968  -3.1484
    -3.0715  -2.9766  -2.9610  -2.8867  -2.8342  -2.8236  -2.7688  -2.6755
    -2.6346  -2.6034  -2.5349  -2.4924  -2.3742  -2.3448  -2.3100  -2.2163
    -2.1275  -2.0268  -1.9366  -1.8753  -1.8586  -1.8148  -1.7799  -1.7000
    -1.6001  -1.5139  -1.3650  -1.3502  -1.2799  -1.2391  -1.1677  -1.1163
    -1.0585  -0.7269  -0.7172  -0.5715  -0.5680  -0.4235  -0.3808   1.2276
     1.3712   1.5758   1.7111   1.8183   1.9491   1.9959   2.0292   2.0921
     2.1554   2.1764   2.2319   2.2818   2.3467   2.4521   2.6361   2.6867
     2.7340   2.7847   2.9234   2.9551   2.9968   3.0302   3.0524   3.1044
     3.2274   3.2688   3.3299   3.3682   3.4476

          k = 0.2500-0.4554 0.0000 ( 81408 PWs)   bands (ev):

   -58.0246 -57.9579 -57.4764 -57.4406 -57.2986 -57.2193 -56.9659 -56.9379
   -56.5931 -56.5594 -56.3978 -56.3692 -34.4450 -34.3375 -34.2542 -34.2200
   -34.1293 -34.1240 -34.0553 -33.7888 -33.7780 -33.7430 -33.6669 -33.6574
   -33.6399 -33.6105 -33.5445 -33.5264 -33.4558 -33.4420 -33.4317 -33.2519
   -33.1786 -33.1729 -33.1653 -33.1479 -33.0882 -32.8927 -32.8727 -32.8609
   -32.8278 -32.7909 -32.7811 -32.7536 -32.7372 -32.6295 -32.5552 -32.5075
   -23.4594 -18.4471 -18.0840 -17.9062 -17.7947 -17.7235 -17.7073 -17.6574
   -17.5224 -17.4105 -17.3964 -17.3560 -17.2388 -17.2166 -17.0189 -16.9828
   -16.9068 -16.7784 -16.6730 -16.6419 -16.4383 -16.1952 -16.1889 -15.9940
   -15.5048 -15.4849  -8.0954  -6.4409  -5.9265  -5.3892  -5.3563  -5.2784
    -5.2238  -5.1411  -5.1172  -5.0695  -4.9735  -4.9167  -4.8677  -4.8644
    -4.8387  -4.7904  -4.6464  -4.5846  -4.5724  -4.4906  -4.3806  -4.3156
    -4.2770  -4.0570  -4.0474  -4.0066  -3.9355  -3.8130  -3.7818  -3.7417
    -3.6775  -3.6330  -3.4281  -3.4099  -3.3723  -3.2518  -3.2498  -3.2289
    -3.1989  -3.0554  -3.0527  -3.0498  -2.9882  -2.8789  -2.8470  -2.8464
    -2.7686  -2.7461  -2.6833  -2.5450  -2.5339  -2.4888  -2.4079  -2.3345
    -2.2702  -2.1845  -1.8930  -1.8765  -1.8373  -1.7568  -1.6541  -1.6070
    -1.6029  -1.5336  -1.4162  -1.3809  -1.2373  -1.1451  -1.1167  -1.1043
    -1.0711  -0.7901  -0.7165  -0.6474  -0.6190  -0.4378  -0.3802   1.2469
     1.3813   1.5759   1.6340   1.7412   1.8509   1.9343   2.0944   2.1219
     2.1865   2.2579   2.2966   2.3650   2.4934   2.5088   2.6802   2.7789
     2.7975   2.8001   2.9392   2.9943   3.0285   3.1379   3.1398   3.2868
     3.3182   3.3332   3.3827   3.3992   3.5077

          k =-0.5000 0.0000 0.0000 ( 81532 PWs)   bands (ev):

   -58.0215 -57.9610 -57.4688 -57.4483 -57.2960 -57.2219 -56.9522 -56.9516
   -56.5837 -56.5688 -56.3835 -56.3835 -34.3352 -34.3100 -34.2610 -34.2548
   -34.2030 -34.1510 -33.9292 -33.8655 -33.7443 -33.7223 -33.6702 -33.6546
   -33.6364 -33.5939 -33.5693 -33.5346 -33.5225 -33.4506 -33.3289 -33.3259
   -33.2071 -33.2067 -33.1555 -33.1507 -32.9427 -32.9296 -32.8810 -32.8668
   -32.8203 -32.8108 -32.7660 -32.7659 -32.6704 -32.6703 -32.5926 -32.5925
   -23.4594 -18.2073 -18.1876 -18.0410 -17.8876 -17.6844 -17.6046 -17.5515
   -17.4607 -17.4566 -17.4561 -17.3678 -17.3238 -17.0030 -17.0000 -16.9022
   -16.8993 -16.7271 -16.7164 -16.5186 -16.5099 -16.2893 -16.2871 -15.9930
   -15.5565 -15.5509  -8.0972  -6.4242  -5.6065  -5.5994  -5.5016  -5.4198
    -5.2313  -5.2155  -5.2073  -5.1952  -5.1795  -5.1658  -5.1419  -5.1140
    -5.0585  -4.9007  -4.8038  -4.6454  -4.5244  -4.4910  -4.4568  -4.4057
    -4.3538  -4.2415  -4.1940  -4.1608  -4.1225  -3.7857  -3.7802  -3.5443
    -3.4502  -3.4462  -3.3773  -3.2742  -3.2595  -3.2285  -3.2097  -3.0124
    -2.9697  -2.9458  -2.8872  -2.8118  -2.8059  -2.6302  -2.5758  -2.5708
    -2.5480  -2.4037  -2.3891  -2.3881  -2.2784  -2.2480  -2.1967  -2.1354
    -2.0682  -2.0137  -2.0059  -1.9889  -1.9793  -1.9124  -1.8535  -1.8063
    -1.6329  -1.6105  -1.5177  -1.4706  -1.3841  -1.3670  -1.3260  -1.3158
    -0.8822  -0.8594  -0.5508  -0.5454  -0.4898  -0.4853  -0.4548   1.5002
     1.5635   1.6752   1.6839   1.7974   1.8316   1.9262   1.9909   2.0390
     2.0741   2.0849   2.1820   2.3977   2.4482   2.4618   2.4865   2.5831
     2.6923   2.8652   2.8745   2.8859   2.9114   3.0066   3.0254   3.0720
     3.0810   3.2400   3.2799   3.5561   3.5746

          k =-0.5000 0.2277 0.0000 ( 81508 PWs)   bands (ev):

   -58.0215 -57.9610 -57.4688 -57.4483 -57.2960 -57.2219 -56.9522 -56.9516
   -56.5837 -56.5688 -56.3835 -56.3835 -34.3352 -34.3106 -34.2616 -34.2548
   -34.2020 -34.1499 -33.9294 -33.8657 -33.7443 -33.7223 -33.6713 -33.6538
   -33.6358 -33.5939 -33.5706 -33.5325 -33.5226 -33.4481 -33.3254 -33.3225
   -33.2112 -33.2108 -33.1555 -33.1507 -32.9426 -32.9295 -32.8822 -32.8681
   -32.8202 -32.8107 -32.7666 -32.7666 -32.6703 -32.6702 -32.5926 -32.5925
   -23.4593 -18.1807 -18.1392 -17.9764 -17.8484 -17.6466 -17.6047 -17.5356
   -17.5163 -17.4979 -17.4001 -17.3270 -17.3166 -17.1019 -17.0870 -16.9987
   -16.9969 -16.6971 -16.6881 -16.5132 -16.5050 -16.2879 -16.2859 -15.9935
   -15.5563 -15.5507  -8.0969  -6.4236  -5.5046  -5.4618  -5.3754  -5.3354
    -5.1919  -5.1828  -5.0980  -5.0264  -5.0090  -4.9601  -4.9494  -4.9387
    -4.9329  -4.8255  -4.7369  -4.6068  -4.5340  -4.4782  -4.4629  -4.4090
    -4.3789  -4.3631  -4.2456  -3.9971  -3.9940  -3.9368  -3.8133  -3.6768
    -3.6265  -3.5334  -3.4854  -3.3583  -3.3300  -3.3225  -3.2755  -3.1031
    -3.0251  -2.9832  -2.9581  -2.8996  -2.8615  -2.7884  -2.7454  -2.6886
    -2.6774  -2.5812  -2.5597  -2.4305  -2.3671  -2.3564  -2.3417  -2.3103
    -2.2821  -2.1973  -2.1216  -2.0333  -1.9347  -1.8345  -1.8048  -1.7998
    -1.5063  -1.4799  -1.4627  -1.4020  -1.3033  -1.2922  -1.2661  -1.2535
    -0.9089  -0.8844  -0.6200  -0.6143  -0.4760  -0.4727  -0.4375   1.5503
     1.5916   1.7066   1.7307   1.8937   1.9643   1.9823   1.9940   2.0236
     2.0298   2.1864   2.2340   2.4530   2.4854   2.5716   2.6065   2.7065
     2.7239   2.7443   2.7703   2.8896   3.0501   3.0743   3.0913   3.1452
     3.2780   3.2875   3.3158   3.5221   3.5369

          k =-0.5000-0.4554 0.0000 ( 81484 PWs)   bands (ev):

   -58.0215 -57.9610 -57.4688 -57.4482 -57.2960 -57.2219 -56.9522 -56.9516
   -56.5837 -56.5688 -56.3835 -56.3835 -34.3352 -34.3113 -34.2623 -34.2548
   -34.2010 -34.1488 -33.9295 -33.8659 -33.7443 -33.7223 -33.6725 -33.6530
   -33.6353 -33.5940 -33.5718 -33.5305 -33.5227 -33.4457 -33.3216 -33.3188
   -33.2158 -33.2150 -33.1555 -33.1507 -32.9424 -32.9293 -32.8834 -32.8694
   -32.8201 -32.8106 -32.7672 -32.7672 -32.6703 -32.6701 -32.5926 -32.5925
   -23.4593 -18.1561 -18.0829 -17.8218 -17.7674 -17.7668 -17.6900 -17.5639
   -17.4985 -17.3346 -17.3324 -17.3225 -17.2617 -17.2003 -17.1933 -17.1539
   -17.1438 -16.6789 -16.6701 -16.5090 -16.5010 -16.2868 -16.2847 -15.9941
   -15.5561 -15.5505  -8.0965  -6.4234  -5.5067  -5.4465  -5.2095  -5.1448
    -5.1418  -5.0203  -5.0127  -4.8346  -4.8082  -4.8023  -4.7034  -4.6391
    -4.6049  -4.5832  -4.5724  -4.5049  -4.4896  -4.4863  -4.4727  -4.4684
    -4.2913  -4.2812  -4.2808  -4.2553  -4.2297  -3.9607  -3.9511  -3.9213
    -3.8995  -3.6582  -3.5598  -3.4921  -3.4861  -3.2382  -3.1796  -3.1551
    -3.0546  -3.0378  -3.0377  -3.0107  -2.9848  -2.9801  -2.9471  -2.9033
    -2.8453  -2.7492  -2.7403  -2.7380  -2.5863  -2.5455  -2.4636  -2.4575
    -2.3516  -2.2714  -2.2476  -1.9119  -1.8872  -1.8760  -1.6618  -1.6504
    -1.4033  -1.3947  -1.3753  -1.3511  -1.2913  -1.2089  -1.2013  -1.1540
    -0.9080  -0.8991  -0.6781  -0.6642  -0.4777  -0.4702  -0.4209   1.6573
     1.6716   1.7023   1.7241   1.8296   1.9424   1.9928   2.0799   2.1190
     2.1230   2.1442   2.1821   2.4605   2.4890   2.5309   2.5923   2.7967
     2.8724   2.8771   2.9526   3.0015   3.0935   3.1754   3.2283   3.2659
     3.3045   3.3070   3.4688   3.5384   3.5527

     the Fermi energy is    -0.3669 ev

!    total energy              =   -2519.46386316 Ry
     estimated scf accuracy    <       0.00000004 Ry
     smearing contrib. (-TS)   =       0.00321860 Ry
     internal energy E=F+TS    =   -2519.46708176 Ry

     The total energy is F=E-TS. E is the sum of the following terms:
     one-electron contribution =  -25999.83847600 Ry
     hartree contribution      =   13049.69427918 Ry
     xc contribution           =    -409.94168627 Ry
     ewald contribution        =   11088.08720222 Ry
     one-center paw contrib.   =    -247.46840088 Ry

     convergence has been achieved in  21 iterations

     negative rho (up, down):  1.552E-02 0.000E+00

     Forces acting on atoms (cartesian axes, Ry/au):

     atom    1 type  2   force =    -0.00008272    0.00000000    0.10286206
     atom    2 type  2   force =     0.00004309    0.00000000   -0.09283185
     atom    3 type  2   force =     0.00004602    0.00000000    0.00129925
     atom    4 type  2   force =     0.00067423    0.00000000    0.00132448
     atom    5 type  2   force =    -0.00085821    0.00000000   -0.00172118
     atom    6 type  2   force =     0.00000374    0.00000000   -0.00065433
     atom    7 type  3   force =     0.00013863    0.00000000    0.02859162
     atom    8 type  3   force =     0.00005609    0.00000000    0.05588754
     atom    9 type  3   force =    -0.00294638    0.06959301   -0.03562240
     atom   10 type  3   force =    -0.00294638   -0.06959301   -0.03562240
     atom   11 type  3   force =     0.00009129    0.00000000    0.00346276
     atom   12 type  3   force =     0.00071858    0.00000000   -0.06551325
     atom   13 type  3   force =     0.00001666   -0.00102559    0.00260527
     atom   14 type  3   force =     0.00001666    0.00102559    0.00260527
     atom   15 type  3   force =     0.00006508    0.00000000    0.00510147
     atom   16 type  3   force =    -0.00044810    0.00000000    0.00251815
     atom   17 type  3   force =    -0.00124553   -0.00268780    0.00002006
     atom   18 type  3   force =    -0.00124553    0.00268780    0.00002006
     atom   19 type  2   force =     0.00007312    0.00000000    0.12176377
     atom   20 type  2   force =    -0.00010725    0.00000000   -0.09286233
     atom   21 type  2   force =    -0.00006274    0.00000000    0.00129143
     atom   22 type  2   force =    -0.00034051    0.00000000    0.00140915
     atom   23 type  2   force =     0.00110406    0.00000000    0.00891065
     atom   24 type  2   force =    -0.00052110    0.00000000   -0.00016796
     atom   25 type  3   force =     0.00000741    0.00000000    0.02748392
     atom   26 type  3   force =    -0.00000848    0.00000000    0.05609212
     atom   27 type  3   force =     0.00294733    0.06963199   -0.03557929
     atom   28 type  3   force =     0.00294733   -0.06963199   -0.03557929
     atom   29 type  3   force =    -0.00024679    0.00000000    0.00858689
     atom   30 type  3   force =    -0.00063707    0.00000000   -0.06549311
     atom   31 type  3   force =    -0.00007428   -0.00114063    0.00203221
     atom   32 type  3   force =    -0.00007428    0.00114063    0.00203221
     atom   33 type  3   force =    -0.00033010    0.00000000    0.00629842
     atom   34 type  3   force =     0.00032766    0.00000000    0.00115904
     atom   35 type  3   force =     0.00058006   -0.00225388    0.00031970
     atom   36 type  3   force =     0.00058006    0.00225388    0.00031970
     atom   37 type  3   force =     0.00240791    0.00000000    0.00996045
     atom   38 type  3   force =     0.00127071    0.00000000    0.00593252
     atom   39 type  1   force =    -0.00194025    0.00000000    0.00175723

     Total force =     0.021357     Total SCF correction =     0.000742
     Energy error            =      8.5E-04 Ry
     Gradient error          =      1.0E-02 Ry/Bohr

     number of scf cycles    =  10
     number of bfgs steps    =   9

     energy             old  =   -2519.4630120285 Ry
     energy             new  =   -2519.4638631590 Ry

     CASE: energy            _new < energy            _old

     new trust radius        =       0.0348799731 bohr
     new conv_thr            =       0.0000000498 Ry


ATOMIC_POSITIONS (angstrom)
Ti               0.0000000000        4.8723546300        9.7447092600    0   0   0
Ti               1.4793500000        1.6241182100        9.7447092600    0   0   0
Ti              -0.0017911939        1.6241182100       13.0857944497
Ti               1.4516421558        4.8723546300       12.9812331159
Ti              -0.0140753599        4.8723546300       16.3031697261
Ti               1.4829128202        1.6241182100       16.4254224784
O                0.0000000000        1.6241182100       11.0129506900    0   0   0
O                0.0000000000        1.6241182100        8.4764678300    0   0   0
O                1.4793500000        3.6041132000        9.7447092600    0   0   0
O                1.4793500000        6.1405960600        9.7447092600    0   0   0
O               -0.0039741292        4.8723546300       14.2595211248
O                0.0000000000        4.8723546300       11.7247042500    0   0   0
O                1.4808542223        0.3279169135       12.9757481552
O                1.4808542223        2.9203195065       12.9757481552
O                0.0054857678        1.6241182100       17.5086478912
O               -0.0117069382        1.6241182100       14.9509784372
O                1.5072383816        3.6362760662       16.3125829591
O                1.5072383816        6.1084331938       16.3125829591
Ti               2.9587000000        4.8723546300        9.7447092600    0   0   0
Ti               4.4380500000        1.6241182100        9.7447092600    0   0   0
Ti               2.9593663310        1.6241182100       13.0655311723
Ti               4.4700225209        4.8723546300       12.9877627376
Ti               2.9378933700        4.8723546300       16.0469121330
Ti               4.4311986445        1.6241182100       16.4355789831
O                2.9587000000        1.6241182100       11.0129506900    0   0   0
O                2.9587000000        1.6241182100        8.4764678300    0   0   0
O                4.4380500000        3.6041132000        9.7447092600    0   0   0
O                4.4380500000        6.1405960600        9.7447092600    0   0   0
O                2.9627276507        4.8723546300       14.2334206236
O                2.9587000000        4.8723546300       11.7247042500    0   0   0
O                4.4371352923        0.3288209988       12.9703632699
O                4.4371352923        2.9194154212       12.9703632699
O                2.9509505561        1.6241182100       17.5198300239
O                2.9713228054        1.6241182100       14.9466719329
O                4.3976879624        3.6445769426       16.3779330380
O                4.3976879624        6.1001323174       16.3779330380
O                0.0524159532        4.8723546300       18.2917626079
O                1.3338680493        4.8723546300       18.8119037246
H                1.1673079935        4.8723546300       19.7781465973



     Writing config-only to output data dir ./tmp_s0_OOH__2x1v_mir/s0_OOH__2x1v_mir.save/ :
     XML data file
     NEW-OLD atomic charge density approx. for the potential

     Check: negative core charge=   -0.000001

     negative rho (up, down):  1.561E-02 0.000E+00

     total cpu time spent up to now is     2111.6 secs

     per-process dynamical memory:   247.6 Mb

     Self-consistent Calculation

     iteration #  1     ecut=    80.00 Ry     beta= 0.30
     Davidson diagonalization with overlap
     ethr =  1.00E-06,  avg # of iterations = 12.3

     negative rho (up, down):  1.600E-02 0.000E+00

     total cpu time spent up to now is     2127.8 secs

     total energy              =   -2519.44919512 Ry
     estimated scf accuracy    <       0.42834288 Ry

     iteration #  2     ecut=    80.00 Ry     beta= 0.30
     Davidson diagonalization with overlap
     ethr =  1.42E-04,  avg # of iterations =  1.0

     negative rho (up, down):  1.586E-02 0.000E+00

     total cpu time spent up to now is     2133.9 secs

     total energy              =   -2519.46234855 Ry
     estimated scf accuracy    <       0.28155022 Ry

     iteration #  3     ecut=    80.00 Ry     beta= 0.30
     Davidson diagonalization with overlap
     ethr =  9.35E-05,  avg # of iterations =  1.0

     negative rho (up, down):  1.604E-02 0.000E+00

     total cpu time spent up to now is     2140.1 secs

     total energy              =   -2519.46524181 Ry
     estimated scf accuracy    <       0.02436440 Ry

     iteration #  4     ecut=    80.00 Ry     beta= 0.30
     Davidson diagonalization with overlap
     ethr =  8.09E-06,  avg # of iterations =  1.1

     negative rho (up, down):  1.689E-02 0.000E+00

     total cpu time spent up to now is     2146.4 secs

     total energy              =   -2519.46443552 Ry
     estimated scf accuracy    <       0.02531388 Ry

     iteration #  5     ecut=    80.00 Ry     beta= 0.30
     Davidson diagonalization with overlap
     ethr =  8.09E-06,  avg # of iterations =  3.1

     negative rho (up, down):  1.725E-02 0.000E+00

     total cpu time spent up to now is     2153.2 secs

     total energy              =   -2519.46427417 Ry
     estimated scf accuracy    <       0.00567633 Ry

     iteration #  6     ecut=    80.00 Ry     beta= 0.30
     Davidson diagonalization with overlap
     ethr =  1.89E-06,  avg # of iterations =  3.1

     negative rho (up, down):  1.763E-02 0.000E+00

     total cpu time spent up to now is     2160.3 secs

     total energy              =   -2519.46479966 Ry
     estimated scf accuracy    <       0.14442675 Ry

     iteration #  7     ecut=    80.00 Ry     beta= 0.30
     Davidson diagonalization with overlap
     ethr =  1.89E-06,  avg # of iterations =  4.1

     negative rho (up, down):  1.769E-02 0.000E+00

     total cpu time spent up to now is     2167.2 secs

     total energy              =   -2519.46431187 Ry
     estimated scf accuracy    <       0.03577959 Ry

     iteration #  8     ecut=    80.00 Ry     beta= 0.30
     Davidson diagonalization with overlap
     ethr =  1.89E-06,  avg # of iterations =  1.6

     negative rho (up, down):  1.745E-02 0.000E+00

     total cpu time spent up to now is     2173.6 secs

     total energy              =   -2519.46460445 Ry
     estimated scf accuracy    <       0.00491599 Ry

     iteration #  9     ecut=    80.00 Ry     beta= 0.30
     Davidson diagonalization with overlap
     ethr =  1.63E-06,  avg # of iterations =  3.3

     negative rho (up, down):  1.740E-02 0.000E+00

     total cpu time spent up to now is     2180.3 secs

     total energy              =   -2519.46467050 Ry
     estimated scf accuracy    <       0.01025078 Ry

     iteration # 10     ecut=    80.00 Ry     beta= 0.30
     Davidson diagonalization with overlap
     ethr =  1.63E-06,  avg # of iterations =  1.2

     negative rho (up, down):  1.710E-02 0.000E+00

     total cpu time spent up to now is     2186.9 secs

     total energy              =   -2519.46472884 Ry
     estimated scf accuracy    <       0.00004691 Ry

     iteration # 11     ecut=    80.00 Ry     beta= 0.30
     Davidson diagonalization with overlap
     ethr =  1.56E-08,  avg # of iterations =  5.9

     negative rho (up, down):  1.698E-02 0.000E+00

     total cpu time spent up to now is     2194.9 secs

     total energy              =   -2519.46471511 Ry
     estimated scf accuracy    <       0.00264385 Ry

     iteration # 12     ecut=    80.00 Ry     beta= 0.30
     Davidson diagonalization with overlap
     ethr =  1.56E-08,  avg # of iterations =  3.1

     negative rho (up, down):  1.678E-02 0.000E+00

     total cpu time spent up to now is     2201.9 secs

     total energy              =   -2519.46473113 Ry
     estimated scf accuracy    <       0.00001153 Ry

     iteration # 13     ecut=    80.00 Ry     beta= 0.30
     Davidson diagonalization with overlap
     ethr =  3.83E-09,  avg # of iterations =  4.0

     negative rho (up, down):  1.647E-02 0.000E+00

     total cpu time spent up to now is     2209.0 secs

     total energy              =   -2519.46472844 Ry
     estimated scf accuracy    <       0.00000603 Ry

     iteration # 14     ecut=    80.00 Ry     beta= 0.30
     Davidson diagonalization with overlap
     ethr =  2.00E-09,  avg # of iterations =  2.8

     negative rho (up, down):  1.635E-02 0.000E+00

     total cpu time spent up to now is     2216.0 secs

     total energy              =   -2519.46472778 Ry
     estimated scf accuracy    <       0.00000229 Ry

     iteration # 15     ecut=    80.00 Ry     beta= 0.30
     Davidson diagonalization with overlap
     ethr =  7.62E-10,  avg # of iterations =  3.7

     negative rho (up, down):  1.601E-02 0.000E+00

     total cpu time spent up to now is     2223.1 secs

     total energy              =   -2519.46472634 Ry
     estimated scf accuracy    <       0.00000144 Ry

     iteration # 16     ecut=    80.00 Ry     beta= 0.30
     Davidson diagonalization with overlap
     ethr =  4.80E-10,  avg # of iterations =  2.0

     negative rho (up, down):  1.590E-02 0.000E+00

     total cpu time spent up to now is     2230.1 secs

     total energy              =   -2519.46472622 Ry
     estimated scf accuracy    <       0.00000088 Ry

     iteration # 17     ecut=    80.00 Ry     beta= 0.30
     Davidson diagonalization with overlap
     ethr =  2.93E-10,  avg # of iterations =  2.6

     negative rho (up, down):  1.576E-02 0.000E+00

     total cpu time spent up to now is     2237.0 secs

     total energy              =   -2519.46472607 Ry
     estimated scf accuracy    <       0.00000035 Ry

     iteration # 18     ecut=    80.00 Ry     beta= 0.30
     Davidson diagonalization with overlap
     ethr =  1.17E-10,  avg # of iterations =  2.0

     negative rho (up, down):  1.572E-02 0.000E+00

     total cpu time spent up to now is     2243.8 secs

     total energy              =   -2519.46472607 Ry
     estimated scf accuracy    <       0.00000020 Ry

     iteration # 19     ecut=    80.00 Ry     beta= 0.30
     Davidson diagonalization with overlap
     ethr =  6.70E-11,  avg # of iterations =  2.7

     negative rho (up, down):  1.565E-02 0.000E+00

     total cpu time spent up to now is     2250.9 secs

     total energy              =   -2519.46472608 Ry
     estimated scf accuracy    <       0.00000019 Ry

     iteration # 20     ecut=    80.00 Ry     beta= 0.30
     Davidson diagonalization with overlap
     ethr =  6.27E-11,  avg # of iterations =  2.3

     negative rho (up, down):  1.562E-02 0.000E+00

     total cpu time spent up to now is     2257.8 secs

     total energy              =   -2519.46472610 Ry
     estimated scf accuracy    <       0.00000010 Ry

     iteration # 21     ecut=    80.00 Ry     beta= 0.30
     Davidson diagonalization with overlap
     ethr =  3.44E-11,  avg # of iterations =  1.9

     negative rho (up, down):  1.558E-02 0.000E+00

     total cpu time spent up to now is     2264.4 secs

     total energy              =   -2519.46472615 Ry
     estimated scf accuracy    <       0.00000006 Ry

     iteration # 22     ecut=    80.00 Ry     beta= 0.30
     Davidson diagonalization with overlap
     ethr =  2.16E-11,  avg # of iterations =  3.3

     negative rho (up, down):  1.556E-02 0.000E+00

     total cpu time spent up to now is     2272.1 secs

     total energy              =   -2519.46472617 Ry
     estimated scf accuracy    <       0.00000011 Ry

     iteration # 23     ecut=    80.00 Ry     beta= 0.30
     Davidson diagonalization with overlap
     ethr =  2.16E-11,  avg # of iterations =  4.2

     negative rho (up, down):  1.556E-02 0.000E+00

     total cpu time spent up to now is     2278.9 secs

     End of self-consistent calculation

          k = 0.0000 0.0000 0.0000 ( 81491 PWs)   bands (ev):

   -58.0128 -57.9421 -57.4806 -57.4332 -57.3322 -57.2101 -56.9820 -56.9425
   -56.6152 -56.5671 -56.4026 -56.3621 -34.4925 -34.3233 -34.2410 -34.2235
   -34.1094 -34.1029 -34.0432 -33.8559 -33.7950 -33.6933 -33.6742 -33.6186
   -33.6174 -33.6079 -33.5863 -33.5554 -33.5490 -33.4216 -33.3852 -33.2582
   -33.1877 -33.1786 -33.1742 -33.1281 -33.1174 -32.9060 -32.8934 -32.8915
   -32.8726 -32.7902 -32.7783 -32.7493 -32.6800 -32.6437 -32.5385 -32.4381
   -23.5012 -18.6938 -18.4175 -18.0758 -17.8983 -17.7025 -17.6936 -17.5773
   -17.5124 -17.2656 -17.1857 -17.1578 -17.1198 -17.0877 -17.0238 -17.0094
   -16.8459 -16.7575 -16.7141 -16.6895 -16.4631 -16.1500 -16.0887 -15.9853
   -15.4702 -15.4246  -8.1142  -6.4878  -6.2890  -6.0805  -5.8647  -5.8116
    -5.5908  -5.2812  -5.1207  -5.0305  -5.0261  -4.9683  -4.8902  -4.7396
    -4.7281  -4.6611  -4.6355  -4.6182  -4.5669  -4.4711  -4.4163  -4.4139
    -4.3354  -4.3235  -4.1892  -4.1598  -4.1503  -3.9933  -3.9408  -3.7239
    -3.5397  -3.5166  -3.5148  -3.4547  -3.2139  -3.1729  -3.1255  -3.0522
    -3.0255  -2.9530  -2.9514  -2.8409  -2.7371  -2.6980  -2.6272  -2.5923
    -2.5746  -2.5733  -2.4772  -2.3575  -2.2667  -2.2518  -2.1443  -2.1418
    -2.0105  -1.8744  -1.8364  -1.8302  -1.8139  -1.6807  -1.5629  -1.5255
    -1.4481  -1.3396  -1.3083  -1.1940  -1.1807  -1.1316  -1.1101  -1.0376
    -0.8215  -0.5712  -0.5299  -0.4880  -0.4623  -0.4401  -0.3491   1.0538
     1.1999   1.3783   1.4699   1.6452   1.7788   1.9620   2.0035   2.0513
     2.1138   2.1801   2.2668   2.2905   2.5412   2.5880   2.6473   2.6839
     2.7136   2.7185   2.7239   2.8216   2.8944   2.9107   2.9567   2.9931
     3.0793   3.0892   3.1500   3.1540   3.3077

          k = 0.0000 0.2277 0.0000 ( 81407 PWs)   bands (ev):

   -58.0127 -57.9421 -57.4806 -57.4332 -57.3322 -57.2101 -56.9820 -56.9425
   -56.6152 -56.5671 -56.4026 -56.3621 -34.4936 -34.3233 -34.2410 -34.2214
   -34.1096 -34.1030 -34.0432 -33.8576 -33.7950 -33.6933 -33.6672 -33.6383
   -33.6185 -33.6079 -33.5828 -33.5554 -33.5261 -33.4215 -33.3853 -33.2676
   -33.1869 -33.1786 -33.1739 -33.1280 -33.1174 -32.9105 -32.8934 -32.8913
   -32.8710 -32.7902 -32.7815 -32.7476 -32.6800 -32.6437 -32.5385 -32.4381
   -23.5012 -18.6293 -18.3281 -17.9859 -17.8656 -17.8470 -17.7090 -17.5753
   -17.3999 -17.3630 -17.3625 -17.3100 -17.1646 -17.1188 -16.9395 -16.8429
   -16.8125 -16.8020 -16.7216 -16.7158 -16.4639 -16.1472 -16.0861 -15.9885
   -15.4682 -15.4242  -8.1134  -6.4835  -6.0936  -5.9767  -5.6164  -5.5796
    -5.5273  -5.4454  -5.3160  -5.2046  -5.0056  -4.9627  -4.8632  -4.7284
    -4.6892  -4.6699  -4.6294  -4.6165  -4.5193  -4.4342  -4.3579  -4.3141
    -4.2192  -4.1799  -4.1536  -4.0903  -3.9392  -3.9382  -3.7020  -3.6639
    -3.5900  -3.5886  -3.5410  -3.3861  -3.3165  -3.2553  -3.2196  -3.2118
    -3.1485  -3.0363  -3.0279  -2.9629  -2.8360  -2.8057  -2.6950  -2.6496
    -2.5786  -2.5540  -2.3767  -2.3624  -2.3316  -2.2051  -2.1123  -2.0652
    -1.9916  -1.9502  -1.9061  -1.8278  -1.7837  -1.7685  -1.6833  -1.6464
    -1.4958  -1.4716  -1.4124  -1.3130  -1.2484  -1.1805  -1.1077  -1.0818
    -1.0674  -0.6678  -0.5866  -0.5644  -0.5014  -0.4716  -0.4027   1.1319
     1.1647   1.4663   1.5301   1.7437   1.9417   1.9717   2.0047   2.0648
     2.0797   2.1499   2.2012   2.2275   2.3977   2.5486   2.6067   2.6704
     2.7268   2.7536   2.8792   2.9214   2.9350   2.9902   3.0494   3.0828
     3.1465   3.2568   3.3167   3.3243   3.3672

          k = 0.0000-0.4554 0.0000 ( 81286 PWs)   bands (ev):

   -58.0127 -57.9421 -57.4806 -57.4332 -57.3321 -57.2101 -56.9821 -56.9425
   -56.6152 -56.5671 -56.4026 -56.3621 -34.4946 -34.3233 -34.2410 -34.2193
   -34.1099 -34.1030 -34.0432 -33.8593 -33.7950 -33.6933 -33.6645 -33.6477
   -33.6185 -33.6080 -33.5793 -33.5554 -33.5099 -33.4213 -33.3853 -33.2774
   -33.1861 -33.1785 -33.1736 -33.1278 -33.1175 -32.9153 -32.8934 -32.8911
   -32.8693 -32.7902 -32.7847 -32.7458 -32.6801 -32.6437 -32.5385 -32.4382
   -23.5011 -18.5640 -18.1925 -17.9583 -17.8602 -17.7741 -17.7628 -17.5624
   -17.5399 -17.4794 -17.4365 -17.2910 -17.2366 -17.1448 -16.9625 -16.8560
   -16.8059 -16.7193 -16.7070 -16.7030 -16.4646 -16.1450 -16.0834 -15.9920
   -15.4663 -15.4237  -8.1126  -6.4826  -6.0838  -5.5930  -5.5825  -5.5649
    -5.5411  -5.3203  -5.1879  -5.1400  -5.1035  -4.8265  -4.7621  -4.7208
    -4.6489  -4.6182  -4.6099  -4.5780  -4.5637  -4.4347  -4.3753  -4.2866
    -4.1499  -4.0597  -4.0379  -3.9669  -3.8806  -3.8417  -3.6671  -3.6485
    -3.6402  -3.5983  -3.5744  -3.5509  -3.5413  -3.4493  -3.3907  -3.2103
    -3.1923  -3.0380  -2.9939  -2.9911  -2.9520  -2.8075  -2.7231  -2.6623
    -2.6147  -2.5684  -2.5353  -2.4158  -2.4101  -2.2211  -2.1843  -2.1231
    -2.0668  -2.0063  -1.9729  -1.9033  -1.8792  -1.7743  -1.7305  -1.5643
    -1.4888  -1.4389  -1.3623  -1.3506  -1.3380  -1.2201  -1.2157  -1.1892
    -1.0754  -0.7681  -0.6405  -0.5995  -0.5327  -0.4915  -0.4342   1.0574
     1.2002   1.4474   1.5105   1.6671   1.6700   1.8785   2.0497   2.0859
     2.2483   2.2494   2.3168   2.3420   2.4784   2.5164   2.5456   2.7099
     2.7697   2.8493   2.9418   2.9557   3.0378   3.0779   3.1242   3.1582
     3.2132   3.2958   3.3402   3.3531   3.4703

          k = 0.2500 0.0000 0.0000 ( 81478 PWs)   bands (ev):

   -58.0098 -57.9451 -57.4756 -57.4383 -57.3305 -57.2118 -56.9763 -56.9484
   -56.6099 -56.5724 -56.3967 -56.3680 -34.4297 -34.3209 -34.2407 -34.2096
   -34.1173 -34.1103 -34.0486 -33.7980 -33.7775 -33.7384 -33.6670 -33.6636
   -33.6243 -33.6010 -33.5758 -33.5563 -33.4878 -33.4493 -33.4329 -33.2463
   -33.1869 -33.1837 -33.1721 -33.1549 -33.0981 -32.9032 -32.8848 -32.8750
   -32.8278 -32.8027 -32.7740 -32.7535 -32.7488 -32.6286 -32.5542 -32.5070
   -23.5011 -18.5458 -18.2919 -17.9471 -17.8159 -17.7594 -17.6275 -17.6246
   -17.5770 -17.3110 -17.2620 -17.2054 -17.1912 -17.1143 -17.0572 -16.9057
   -16.8313 -16.7534 -16.7438 -16.6780 -16.4320 -16.1971 -16.1901 -15.9892
   -15.5129 -15.4901  -8.1149  -6.4644  -6.0899  -5.8989  -5.6808  -5.6377
    -5.3541  -5.2455  -5.1605  -5.1492  -4.9910  -4.9732  -4.9650  -4.8012
    -4.7630  -4.7499  -4.6952  -4.6616  -4.6229  -4.6012  -4.5699  -4.5036
    -4.4007  -4.3341  -4.3311  -4.1045  -3.8937  -3.8605  -3.8316  -3.7103
    -3.5606  -3.5021  -3.4557  -3.2688  -3.2123  -3.1276  -3.0366  -3.0173
    -2.9618  -2.9312  -2.8805  -2.8415  -2.6862  -2.6824  -2.6500  -2.5891
    -2.5428  -2.5409  -2.4709  -2.3785  -2.3732  -2.2345  -2.1600  -2.1236
    -2.0621  -2.0254  -1.9248  -1.8988  -1.8319  -1.7793  -1.7634  -1.5907
    -1.5643  -1.4752  -1.3499  -1.3482  -1.3049  -1.2100  -1.1208  -1.0605
    -1.0553  -0.7395  -0.7304  -0.5160  -0.4950  -0.3970  -0.3902   1.2580
     1.3325   1.4817   1.6326   1.8672   1.8899   1.9218   1.9691   2.0738
     2.0783   2.1291   2.2505   2.3016   2.3743   2.4577   2.5481   2.6478
     2.7593   2.8453   2.8473   2.8567   2.9336   2.9350   2.9931   3.0574
     3.1009   3.1024   3.2042   3.3107   3.3227

          k = 0.2500 0.2277 0.0000 ( 81485 PWs)   bands (ev):

   -58.0098 -57.9451 -57.4756 -57.4383 -57.3305 -57.2118 -56.9763 -56.9484
   -56.6099 -56.5724 -56.3967 -56.3680 -34.4306 -34.3209 -34.2408 -34.2079
   -34.1169 -34.1106 -34.0489 -33.7995 -33.7776 -33.7384 -33.6638 -33.6617
   -33.6335 -33.6011 -33.5730 -33.5563 -33.4755 -33.4498 -33.4316 -33.2543
   -33.1879 -33.1829 -33.1721 -33.1548 -33.0976 -32.9064 -32.8848 -32.8746
   -32.8276 -32.8027 -32.7764 -32.7525 -32.7488 -32.6286 -32.5542 -32.5070
   -23.5010 -18.4874 -18.2099 -17.8712 -17.8272 -17.7639 -17.7080 -17.6128
   -17.4458 -17.4057 -17.3620 -17.3227 -17.1964 -17.0738 -17.0497 -16.9507
   -16.8798 -16.7906 -16.6925 -16.6588 -16.4330 -16.1955 -16.1900 -15.9905
   -15.5113 -15.4905  -8.1143  -6.4628  -5.9109  -5.7845  -5.4291  -5.3578
    -5.3341  -5.2672  -5.1959  -5.1244  -5.0931  -4.9128  -4.8974  -4.8132
    -4.7716  -4.7588  -4.7051  -4.6301  -4.5530  -4.5205  -4.4782  -4.4129
    -4.3882  -4.3297  -4.1641  -4.0439  -3.9594  -3.8158  -3.7440  -3.7261
    -3.5353  -3.4791  -3.3850  -3.3162  -3.2630  -3.2333  -3.1885  -3.1423
    -3.0696  -2.9657  -2.9562  -2.8822  -2.8317  -2.8208  -2.7646  -2.6794
    -2.6315  -2.6029  -2.5364  -2.4953  -2.3799  -2.3491  -2.3073  -2.2195
    -2.1144  -2.0242  -1.9397  -1.8773  -1.8597  -1.8149  -1.7767  -1.6998
    -1.6020  -1.5125  -1.3615  -1.3450  -1.2792  -1.2408  -1.1687  -1.1182
    -1.0590  -0.7300  -0.7210  -0.5718  -0.5677  -0.4281  -0.3839   1.2414
     1.3815   1.5909   1.7199   1.8275   1.9481   2.0013   2.0307   2.0901
     2.1416   2.1757   2.2211   2.2758   2.3530   2.4467   2.6289   2.6787
     2.7298   2.7798   2.9162   2.9469   2.9941   3.0224   3.0406   3.1016
     3.2181   3.2652   3.3287   3.3669   3.4417

          k = 0.2500-0.4554 0.0000 ( 81408 PWs)   bands (ev):

   -58.0098 -57.9451 -57.4755 -57.4383 -57.3305 -57.2118 -56.9763 -56.9484
   -56.6099 -56.5724 -56.3967 -56.3680 -34.4316 -34.3209 -34.2407 -34.2062
   -34.1166 -34.1108 -34.0491 -33.8009 -33.7777 -33.7384 -33.6636 -33.6587
   -33.6393 -33.6012 -33.5701 -33.5563 -33.4646 -33.4503 -33.4303 -33.2622
   -33.1889 -33.1823 -33.1721 -33.1546 -33.0971 -32.9098 -32.8848 -32.8739
   -32.8274 -32.8027 -32.7789 -32.7514 -32.7488 -32.6286 -32.5542 -32.5070
   -23.5010 -18.4294 -18.0763 -17.8953 -17.7733 -17.7144 -17.7008 -17.6559
   -17.5201 -17.4199 -17.3883 -17.3519 -17.2434 -17.2051 -17.0205 -16.9914
   -16.9075 -16.7738 -16.6701 -16.6359 -16.4341 -16.1946 -16.1896 -15.9919
   -15.5099 -15.4909  -8.1138  -6.4626  -5.9054  -5.3758  -5.3396  -5.2698
    -5.2134  -5.1591  -5.1041  -5.0771  -4.9719  -4.9018  -4.8586  -4.8583
    -4.8290  -4.7731  -4.6386  -4.5762  -4.5645  -4.4867  -4.3944  -4.3094
    -4.2802  -4.0488  -4.0384  -3.9959  -3.9274  -3.8045  -3.7782  -3.7441
    -3.6723  -3.6279  -3.4179  -3.3999  -3.3626  -3.2478  -3.2413  -3.2218
    -3.1944  -3.0516  -3.0515  -3.0431  -3.0011  -2.8819  -2.8487  -2.8389
    -2.7676  -2.7359  -2.6765  -2.5432  -2.5391  -2.4886  -2.4091  -2.3340
    -2.2607  -2.1749  -1.9014  -1.8736  -1.8423  -1.7500  -1.6591  -1.6070
    -1.6005  -1.5356  -1.4106  -1.3772  -1.2403  -1.1494  -1.1158  -1.1065
    -1.0707  -0.7911  -0.7183  -0.6477  -0.6198  -0.4433  -0.3832   1.2606
     1.3914   1.5896   1.6460   1.7411   1.8575   1.9195   2.0991   2.1303
     2.1814   2.2524   2.2954   2.3713   2.4833   2.4964   2.6706   2.7768
     2.7946   2.7966   2.9238   2.9944   3.0250   3.1259   3.1264   3.2835
     3.3092   3.3274   3.3819   3.3927   3.5081

          k =-0.5000 0.0000 0.0000 ( 81532 PWs)   bands (ev):

   -58.0066 -57.9484 -57.4685 -57.4454 -57.3289 -57.2135 -56.9626 -56.9621
   -56.6024 -56.5799 -56.3825 -56.3823 -34.3186 -34.2958 -34.2486 -34.2414
   -34.1887 -34.1386 -33.9224 -33.8614 -33.7414 -33.7175 -33.6931 -33.6557
   -33.6351 -33.5889 -33.5708 -33.5634 -33.5482 -33.4461 -33.3392 -33.3355
   -33.2176 -33.2165 -33.1612 -33.1581 -32.9556 -32.9373 -32.8999 -32.8780
   -32.8347 -32.8203 -32.7638 -32.7636 -32.6700 -32.6699 -32.5917 -32.5914
   -23.5009 -18.2033 -18.1650 -18.0334 -17.8707 -17.6724 -17.6093 -17.5527
   -17.4583 -17.4457 -17.4452 -17.3597 -17.3182 -17.0160 -17.0065 -16.9071
   -16.9043 -16.7200 -16.7061 -16.5142 -16.5042 -16.2908 -16.2842 -15.9908
   -15.5631 -15.5566  -8.1156  -6.4471  -5.5935  -5.5874  -5.4888  -5.3929
    -5.2412  -5.2330  -5.2083  -5.1995  -5.1780  -5.1607  -5.1280  -5.1049
    -5.0371  -4.8951  -4.7959  -4.6469  -4.5244  -4.4777  -4.4472  -4.3876
    -4.3484  -4.2250  -4.1864  -4.1540  -4.1096  -3.7781  -3.7696  -3.5536
    -3.4502  -3.4395  -3.3724  -3.2725  -3.2520  -3.2257  -3.2084  -3.0018
    -2.9604  -2.9361  -2.8807  -2.8126  -2.8020  -2.6360  -2.5686  -2.5681
    -2.5449  -2.4023  -2.3971  -2.3813  -2.2754  -2.2498  -2.1910  -2.1259
    -2.0674  -2.0169  -2.0078  -1.9860  -1.9712  -1.9176  -1.8613  -1.8173
    -1.6238  -1.6003  -1.5234  -1.4656  -1.3901  -1.3719  -1.3220  -1.3132
    -0.8839  -0.8626  -0.5492  -0.5444  -0.4934  -0.4881  -0.4602   1.5118
     1.5722   1.6846   1.6947   1.8101   1.8429   1.9393   1.9980   2.0414
     2.0676   2.0706   2.1738   2.3901   2.4410   2.4555   2.4763   2.5762
     2.6909   2.8548   2.8601   2.8731   2.9040   3.0003   3.0223   3.0720
     3.0759   3.2380   3.2798   3.5508   3.5606

          k =-0.5000 0.2277 0.0000 ( 81508 PWs)   bands (ev):

   -58.0066 -57.9484 -57.4685 -57.4454 -57.3289 -57.2135 -56.9626 -56.9621
   -56.6024 -56.5799 -56.3825 -56.3823 -34.3186 -34.2964 -34.2492 -34.2414
   -34.1877 -34.1376 -33.9226 -33.8616 -33.7414 -33.7176 -33.6942 -33.6549
   -33.6345 -33.5889 -33.5719 -33.5613 -33.5486 -33.4435 -33.3356 -33.3320
   -33.2216 -33.2208 -33.1612 -33.1581 -32.9554 -32.9372 -32.9011 -32.8793
   -32.8347 -32.8202 -32.7644 -32.7643 -32.6699 -32.6698 -32.5917 -32.5914
   -23.5008 -18.1778 -18.1135 -17.9673 -17.8319 -17.6354 -17.5929 -17.5261
   -17.5191 -17.4972 -17.3989 -17.3221 -17.3141 -17.1092 -17.0964 -17.0027
   -17.0006 -16.6911 -16.6796 -16.5089 -16.4995 -16.2894 -16.2831 -15.9913
   -15.5629 -15.5564  -8.1152  -6.4467  -5.4917  -5.4360  -5.3621  -5.3207
    -5.2024  -5.1795  -5.0823  -5.0130  -5.0017  -4.9611  -4.9536  -4.9404
    -4.9389  -4.8200  -4.7284  -4.6090  -4.5268  -4.4663  -4.4547  -4.4005
    -4.3647  -4.3585  -4.2334  -3.9884  -3.9831  -3.9316  -3.7982  -3.6858
    -3.6264  -3.5311  -3.4870  -3.3552  -3.3261  -3.3087  -3.2693  -3.0928
    -3.0145  -2.9735  -2.9602  -2.8960  -2.8503  -2.7880  -2.7444  -2.6804
    -2.6701  -2.5786  -2.5573  -2.4427  -2.3644  -2.3512  -2.3435  -2.3109
    -2.2777  -2.2003  -2.1186  -2.0449  -1.9355  -1.8389  -1.7999  -1.7955
    -1.5043  -1.4776  -1.4684  -1.4013  -1.3049  -1.2919  -1.2638  -1.2514
    -0.9103  -0.8881  -0.6195  -0.6139  -0.4791  -0.4758  -0.4422   1.5615
     1.6014   1.7160   1.7400   1.9067   1.9701   1.9944   1.9984   2.0264
     2.0345   2.1746   2.2222   2.4462   2.4748   2.5595   2.5962   2.7061
     2.7260   2.7395   2.7688   2.8670   3.0457   3.0704   3.0875   3.1293
     3.2750   3.2827   3.3108   3.5173   3.5318

          k =-0.5000-0.4554 0.0000 ( 81484 PWs)   bands (ev):

   -58.0066 -57.9484 -57.4685 -57.4454 -57.3289 -57.2135 -56.9626 -56.9621
   -56.6024 -56.5799 -56.3825 -56.3823 -34.3186 -34.2970 -34.2499 -34.2414
   -34.1867 -34.1365 -33.9227 -33.8618 -33.7414 -33.7176 -33.6953 -33.6541
   -33.6340 -33.5889 -33.5727 -33.5595 -33.5491 -33.4410 -33.3316 -33.3282
   -33.2261 -33.2253 -33.1613 -33.1581 -32.9552 -32.9370 -32.9024 -32.8806
   -32.8346 -32.8202 -32.7651 -32.7649 -32.6698 -32.6697 -32.5917 -32.5915
   -23.5008 -18.1542 -18.0515 -17.8102 -17.7568 -17.7561 -17.6779 -17.5480
   -17.4835 -17.3495 -17.3372 -17.3301 -17.2618 -17.2054 -17.1998 -17.1541
   -17.1436 -16.6732 -16.6623 -16.5047 -16.4957 -16.2881 -16.2820 -15.9919
   -15.5627 -15.5562  -8.1150  -6.4466  -5.4938  -5.4178  -5.1968  -5.1644
    -5.1164  -5.0097  -5.0015  -4.8228  -4.8042  -4.7935  -4.6904  -4.6500
    -4.6044  -4.5807  -4.5774  -4.4980  -4.4927  -4.4798  -4.4630  -4.4547
    -4.2828  -4.2749  -4.2707  -4.2470  -4.2231  -3.9626  -3.9553  -3.9254
    -3.9020  -3.6574  -3.5395  -3.4823  -3.4723  -3.2361  -3.1677  -3.1482
    -3.0468  -3.0327  -3.0288  -3.0104  -2.9783  -2.9720  -2.9435  -2.8923
    -2.8419  -2.7531  -2.7526  -2.7360  -2.5845  -2.5438  -2.4587  -2.4579
    -2.3477  -2.2664  -2.2471  -1.9198  -1.8917  -1.8862  -1.6614  -1.6440
    -1.3992  -1.3977  -1.3748  -1.3522  -1.2928  -1.2068  -1.2024  -1.1538
    -0.9095  -0.8998  -0.6778  -0.6649  -0.4809  -0.4736  -0.4253   1.6685
     1.6825   1.7100   1.7326   1.8451   1.9475   1.9967   2.0726   2.1050
     2.1251   2.1565   2.1924   2.4540   2.4802   2.5162   2.5807   2.7969
     2.8470   2.8842   2.9499   2.9985   3.0867   3.1654   3.2221   3.2522
     3.2975   3.2992   3.4600   3.5415   3.5508

     the Fermi energy is    -0.3702 ev

!    total energy              =   -2519.46472617 Ry
     estimated scf accuracy    <       0.00000002 Ry
     smearing contrib. (-TS)   =       0.00322432 Ry
     internal energy E=F+TS    =   -2519.46795049 Ry

     The total energy is F=E-TS. E is the sum of the following terms:
     one-electron contribution =  -25944.93343290 Ry
     hartree contribution      =   13022.23608004 Ry
     xc contribution           =    -409.91080042 Ry
     ewald contribution        =   11060.60894705 Ry
     one-center paw contrib.   =    -247.46874427 Ry

     convergence has been achieved in  23 iterations

     negative rho (up, down):  1.556E-02 0.000E+00

     Forces acting on atoms (cartesian axes, Ry/au):

     atom    1 type  2   force =    -0.00008671    0.00000000    0.10474798
     atom    2 type  2   force =    -0.00010008    0.00000000   -0.09128276
     atom    3 type  2   force =     0.00010983    0.00000000    0.00196413
     atom    4 type  2   force =    -0.00160861    0.00000000   -0.00159375
     atom    5 type  2   force =     0.00005040    0.00000000   -0.00324115
     atom    6 type  2   force =    -0.00098071    0.00000000    0.00063797
     atom    7 type  3   force =     0.00019370    0.00000000    0.02904240
     atom    8 type  3   force =     0.00005660    0.00000000    0.05532728
     atom    9 type  3   force =    -0.00281490    0.06918501   -0.03594710
     atom   10 type  3   force =    -0.00281490   -0.06918501   -0.03594710
     atom   11 type  3   force =     0.00012469    0.00000000    0.00665248
     atom   12 type  3   force =     0.00086214    0.00000000   -0.06283902
     atom   13 type  3   force =     0.00031438   -0.00078526    0.00319211
     atom   14 type  3   force =     0.00031438    0.00078526    0.00319211
     atom   15 type  3   force =    -0.00074534    0.00000000    0.00141242
     atom   16 type  3   force =    -0.00039806    0.00000000    0.00140956
     atom   17 type  3   force =    -0.00480790   -0.00226232    0.00064270
     atom   18 type  3   force =    -0.00480790    0.00226232    0.00064270
     atom   19 type  2   force =     0.00007531    0.00000000    0.12284076
     atom   20 type  2   force =     0.00004175    0.00000000   -0.09131457
     atom   21 type  2   force =    -0.00011709    0.00000000    0.00168913
     atom   22 type  2   force =     0.00187902    0.00000000   -0.00156387
     atom   23 type  2   force =     0.00062047    0.00000000    0.00701183
     atom   24 type  2   force =     0.00042835    0.00000000    0.00114728
     atom   25 type  3   force =    -0.00005987    0.00000000    0.02815570
     atom   26 type  3   force =    -0.00001330    0.00000000    0.05551592
     atom   27 type  3   force =     0.00281228    0.06922477   -0.03590133
     atom   28 type  3   force =     0.00281228   -0.06922477   -0.03590133
     atom   29 type  3   force =    -0.00006186    0.00000000    0.00769891
     atom   30 type  3   force =    -0.00085933    0.00000000   -0.06329842
     atom   31 type  3   force =    -0.00039649   -0.00102974    0.00276632
     atom   32 type  3   force =    -0.00039649    0.00102974    0.00276632
     atom   33 type  3   force =     0.00037959    0.00000000    0.00221086
     atom   34 type  3   force =     0.00023816    0.00000000    0.00176062
     atom   35 type  3   force =     0.00423441   -0.00262814   -0.00014750
     atom   36 type  3   force =     0.00423441    0.00262814   -0.00014750
     atom   37 type  3   force =    -0.00236834    0.00000000    0.00819656
     atom   38 type  3   force =     0.00485502    0.00000000    0.00771345
     atom   39 type  1   force =    -0.00119929    0.00000000    0.00078792

     Total force =     0.022398     Total SCF correction =     0.000443
     Energy error            =      8.6E-04 Ry
     Gradient error          =      8.2E-03 Ry/Bohr

     number of scf cycles    =  11
     number of bfgs steps    =  10

     energy             old  =   -2519.4638631590 Ry
     energy             new  =   -2519.4647261664 Ry

     CASE: energy            _new < energy            _old

     new trust radius        =       0.0464820947 bohr
     new conv_thr            =       0.0000000410 Ry


ATOMIC_POSITIONS (angstrom)
Ti               0.0000000000        4.8723546300        9.7447092600    0   0   0
Ti               1.4793500000        1.6241182100        9.7447092600    0   0   0
Ti              -0.0020849887        1.6241182100       13.0948594733
Ti               1.4529875319        4.8723546300       12.9884572200
Ti              -0.0167694649        4.8723546300       16.3229174080
Ti               1.4831346681        1.6241182100       16.4393271598
O                0.0000000000        1.6241182100       11.0129506900    0   0   0
O                0.0000000000        1.6241182100        8.4764678300    0   0   0
O                1.4793500000        3.6041132000        9.7447092600    0   0   0
O                1.4793500000        6.1405960600        9.7447092600    0   0   0
O               -0.0049108407        4.8723546300       14.2661788497
O                0.0000000000        4.8723546300       11.7247042500    0   0   0
O                1.4804142406        0.3281734540       12.9812101686
O                1.4804142406        2.9200629660       12.9812101686
O                0.0065184692        1.6241182100       17.5272303393
O               -0.0144791574        1.6241182100       14.9634298425
O                1.5089641632        3.6342929077       16.3212334908
O                1.5089641632        6.1104163523       16.3212334908
Ti               2.9587000000        4.8723546300        9.7447092600    0   0   0
Ti               4.4380500000        1.6241182100        9.7447092600    0   0   0
Ti               2.9594810608        1.6241182100       13.0716886151
Ti               4.4698953154        4.8723546300       12.9957940411
Ti               2.9367024215        4.8723546300       16.0623139010
Ti               4.4290593951        1.6241182100       16.4524903023
O                2.9587000000        1.6241182100       11.0129506900    0   0   0
O                2.9587000000        1.6241182100        8.4764678300    0   0   0
O                4.4380500000        3.6041132000        9.7447092600    0   0   0
O                4.4380500000        6.1405960600        9.7447092600    0   0   0
O                2.9629867563        4.8723546300       14.2459356714
O                2.9587000000        4.8723546300       11.7247042500    0   0   0
O                4.4374807631        0.3291928343       12.9735358810
O                4.4374807631        2.9190435857       12.9735358810
O                2.9487155778        1.6241182100       17.5419649128
O                2.9738708724        1.6241182100       14.9559385617
O                4.3934131574        3.6437601391       16.3954420248
O                4.3934131574        6.1009491209       16.3954420248
O                0.0632133672        4.8723546300       18.3080157915
O                1.3408553569        4.8723546300       18.8354876808
H                1.1602420934        4.8723546300       19.7986875173



     Writing config-only to output data dir ./tmp_s0_OOH__2x1v_mir/s0_OOH__2x1v_mir.save/ :
     XML data file
     NEW-OLD atomic charge density approx. for the potential

     Check: negative core charge=   -0.000001

     negative rho (up, down):  1.561E-02 0.000E+00

     total cpu time spent up to now is     2282.1 secs

     per-process dynamical memory:   253.0 Mb

     Self-consistent Calculation

     iteration #  1     ecut=    80.00 Ry     beta= 0.30
     Davidson diagonalization with overlap
     ethr =  1.00E-06,  avg # of iterations = 14.9

     negative rho (up, down):  1.606E-02 0.000E+00

     total cpu time spent up to now is     2299.0 secs

     total energy              =   -2519.45535102 Ry
     estimated scf accuracy    <       0.38281628 Ry

     iteration #  2     ecut=    80.00 Ry     beta= 0.30
     Davidson diagonalization with overlap
     ethr =  1.27E-04,  avg # of iterations =  1.0

     negative rho (up, down):  1.584E-02 0.000E+00

     total cpu time spent up to now is     2305.1 secs

     total energy              =   -2519.45616991 Ry
     estimated scf accuracy    <       0.41905915 Ry

     iteration #  3     ecut=    80.00 Ry     beta= 0.30
     Davidson diagonalization with overlap
     ethr =  1.27E-04,  avg # of iterations =  1.0

     negative rho (up, down):  1.596E-02 0.000E+00

     total cpu time spent up to now is     2311.3 secs

     total energy              =   -2519.46831518 Ry
     estimated scf accuracy    <       0.29573126 Ry

     iteration #  4     ecut=    80.00 Ry     beta= 0.30
     Davidson diagonalization with overlap
     ethr =  9.82E-05,  avg # of iterations =  1.0

     negative rho (up, down):  1.661E-02 0.000E+00

     total cpu time spent up to now is     2317.4 secs

     total energy              =   -2519.46532879 Ry
     estimated scf accuracy    <       0.22670250 Ry

     iteration #  5     ecut=    80.00 Ry     beta= 0.30
     Davidson diagonalization with overlap
     ethr =  7.53E-05,  avg # of iterations =  1.0

     negative rho (up, down):  1.741E-02 0.000E+00

     total cpu time spent up to now is     2323.6 secs

     total energy              =   -2519.46585239 Ry
     estimated scf accuracy    <       0.02114432 Ry

     iteration #  6     ecut=    80.00 Ry     beta= 0.30
     Davidson diagonalization with overlap
     ethr =  7.02E-06,  avg # of iterations =  1.2

     negative rho (up, down):  1.807E-02 0.000E+00

     total cpu time spent up to now is     2330.1 secs

     total energy              =   -2519.46577916 Ry
     estimated scf accuracy    <       0.00950366 Ry

     iteration #  7     ecut=    80.00 Ry     beta= 0.30
     Davidson diagonalization with overlap
     c_bands:  1 eigenvalues not converged
     ethr =  3.16E-06,  avg # of iterations = 13.3

     negative rho (up, down):  1.823E-02 0.000E+00

     total cpu time spent up to now is     2338.8 secs

     total energy              =   -2519.46511086 Ry
     estimated scf accuracy    <       0.00829315 Ry

     iteration #  8     ecut=    80.00 Ry     beta= 0.30
     Davidson diagonalization with overlap
     ethr =  2.76E-06,  avg # of iterations =  2.0

     negative rho (up, down):  1.832E-02 0.000E+00

     total cpu time spent up to now is     2345.7 secs

     total energy              =   -2519.46584123 Ry
     estimated scf accuracy    <       0.11639676 Ry

     iteration #  9     ecut=    80.00 Ry     beta= 0.30
     Davidson diagonalization with overlap
     ethr =  2.76E-06,  avg # of iterations =  1.2

     negative rho (up, down):  1.834E-02 0.000E+00

     total cpu time spent up to now is     2352.1 secs

     total energy              =   -2519.46588014 Ry
     estimated scf accuracy    <       0.03685655 Ry

     iteration # 10     ecut=    80.00 Ry     beta= 0.30
     Davidson diagonalization with overlap
     ethr =  2.76E-06,  avg # of iterations =  1.3

     negative rho (up, down):  1.827E-02 0.000E+00

     total cpu time spent up to now is     2358.6 secs

     total energy              =   -2519.46540137 Ry
     estimated scf accuracy    <       0.02667493 Ry

     iteration # 11     ecut=    80.00 Ry     beta= 0.30
     Davidson diagonalization with overlap
     ethr =  2.76E-06,  avg # of iterations =  4.1

     negative rho (up, down):  1.797E-02 0.000E+00

     total cpu time spent up to now is     2365.8 secs

     total energy              =   -2519.46567909 Ry
     estimated scf accuracy    <       0.00263762 Ry

     iteration # 12     ecut=    80.00 Ry     beta= 0.30
     Davidson diagonalization with overlap
     ethr =  8.76E-07,  avg # of iterations =  2.3

     negative rho (up, down):  1.756E-02 0.000E+00

     total cpu time spent up to now is     2372.4 secs

     total energy              =   -2519.46568440 Ry
     estimated scf accuracy    <       0.00012513 Ry

     iteration # 13     ecut=    80.00 Ry     beta= 0.30
     Davidson diagonalization with overlap
     ethr =  4.16E-08,  avg # of iterations =  5.9

     negative rho (up, down):  1.723E-02 0.000E+00

     total cpu time spent up to now is     2380.2 secs

     total energy              =   -2519.46568542 Ry
     estimated scf accuracy    <       0.00023503 Ry

     iteration # 14     ecut=    80.00 Ry     beta= 0.30
     Davidson diagonalization with overlap
     ethr =  4.16E-08,  avg # of iterations =  1.1

     negative rho (up, down):  1.673E-02 0.000E+00

     total cpu time spent up to now is     2386.7 secs

     total energy              =   -2519.46568085 Ry
     estimated scf accuracy    <       0.00001572 Ry

     iteration # 15     ecut=    80.00 Ry     beta= 0.30
     Davidson diagonalization with overlap
     ethr =  5.22E-09,  avg # of iterations =  4.0

     negative rho (up, down):  1.650E-02 0.000E+00

     total cpu time spent up to now is     2394.2 secs

     total energy              =   -2519.46568046 Ry
     estimated scf accuracy    <       0.00000858 Ry

     iteration # 16     ecut=    80.00 Ry     beta= 0.30
     Davidson diagonalization with overlap
     ethr =  2.85E-09,  avg # of iterations =  1.3

     negative rho (up, down):  1.618E-02 0.000E+00

     total cpu time spent up to now is     2400.6 secs

     total energy              =   -2519.46567839 Ry
     estimated scf accuracy    <       0.00000417 Ry

     iteration # 17     ecut=    80.00 Ry     beta= 0.30
     Davidson diagonalization with overlap
     ethr =  1.38E-09,  avg # of iterations =  2.0

     negative rho (up, down):  1.599E-02 0.000E+00

     total cpu time spent up to now is     2407.4 secs

     total energy              =   -2519.46567787 Ry
     estimated scf accuracy    <       0.00000513 Ry

     iteration # 18     ecut=    80.00 Ry     beta= 0.30
     Davidson diagonalization with overlap
     ethr =  1.38E-09,  avg # of iterations =  1.0

     negative rho (up, down):  1.581E-02 0.000E+00

     total cpu time spent up to now is     2413.6 secs

     total energy              =   -2519.46567753 Ry
     estimated scf accuracy    <       0.00000093 Ry

     iteration # 19     ecut=    80.00 Ry     beta= 0.30
     Davidson diagonalization with overlap
     ethr =  3.08E-10,  avg # of iterations =  2.2

     negative rho (up, down):  1.570E-02 0.000E+00

     total cpu time spent up to now is     2420.6 secs

     total energy              =   -2519.46567749 Ry
     estimated scf accuracy    <       0.00000083 Ry

     iteration # 20     ecut=    80.00 Ry     beta= 0.30
     Davidson diagonalization with overlap
     ethr =  2.77E-10,  avg # of iterations =  1.0

     negative rho (up, down):  1.561E-02 0.000E+00

     total cpu time spent up to now is     2426.8 secs

     total energy              =   -2519.46567752 Ry
     estimated scf accuracy    <       0.00000026 Ry

     iteration # 21     ecut=    80.00 Ry     beta= 0.30
     Davidson diagonalization with overlap
     ethr =  8.80E-11,  avg # of iterations =  2.2

     negative rho (up, down):  1.557E-02 0.000E+00

     total cpu time spent up to now is     2433.7 secs

     total energy              =   -2519.46567757 Ry
     estimated scf accuracy    <       0.00000019 Ry

     iteration # 22     ecut=    80.00 Ry     beta= 0.30
     Davidson diagonalization with overlap
     ethr =  6.24E-11,  avg # of iterations =  1.3

     negative rho (up, down):  1.554E-02 0.000E+00

     total cpu time spent up to now is     2440.2 secs

     total energy              =   -2519.46567760 Ry
     estimated scf accuracy    <       0.00000024 Ry

     iteration # 23     ecut=    80.00 Ry     beta= 0.30
     Davidson diagonalization with overlap
     ethr =  6.24E-11,  avg # of iterations =  1.0

     negative rho (up, down):  1.553E-02 0.000E+00

     total cpu time spent up to now is     2446.3 secs

     total energy              =   -2519.46567761 Ry
     estimated scf accuracy    <       0.00000013 Ry

     iteration # 24     ecut=    80.00 Ry     beta= 0.30
     Davidson diagonalization with overlap
     ethr =  4.27E-11,  avg # of iterations =  1.0

     negative rho (up, down):  1.553E-02 0.000E+00

     total cpu time spent up to now is     2454.0 secs

     End of self-consistent calculation

          k = 0.0000 0.0000 0.0000 ( 81491 PWs)   bands (ev):

   -58.0018 -57.9327 -57.4890 -57.4400 -57.3632 -57.2150 -56.9989 -56.9595
   -56.6313 -56.5812 -56.4003 -56.3598 -34.4825 -34.3112 -34.2314 -34.2133
   -34.1091 -34.0933 -34.0333 -33.8750 -33.7978 -33.6965 -33.6840 -33.6258
   -33.6239 -33.6117 -33.6108 -33.5814 -33.5651 -33.4306 -33.4005 -33.2745
   -33.1963 -33.1909 -33.1902 -33.1397 -33.1337 -32.9236 -32.9054 -32.8901
   -32.8870 -32.8022 -32.7752 -32.7462 -32.6924 -32.6416 -32.5362 -32.4364
   -23.5188 -18.6763 -18.4076 -18.0792 -17.8937 -17.6937 -17.6816 -17.5602
   -17.5036 -17.2774 -17.1770 -17.1456 -17.1296 -17.0989 -17.0333 -16.9996
   -16.8379 -16.7704 -16.7002 -16.7002 -16.4566 -16.1514 -16.0887 -15.9796
   -15.4737 -15.4299  -8.1142  -6.4995  -6.2798  -6.0596  -5.8761  -5.8163
    -5.5667  -5.2762  -5.1076  -5.0180  -5.0169  -4.9584  -4.8836  -4.7293
    -4.7191  -4.6620  -4.6283  -4.5944  -4.5657  -4.4655  -4.4200  -4.4098
    -4.3341  -4.3292  -4.1806  -4.1565  -4.1442  -4.0036  -3.9354  -3.7120
    -3.5166  -3.5119  -3.5063  -3.4511  -3.2072  -3.1764  -3.1355  -3.0518
    -3.0354  -2.9461  -2.9446  -2.8335  -2.7291  -2.6902  -2.6258  -2.5986
    -2.5696  -2.5639  -2.4741  -2.3654  -2.2717  -2.2584  -2.1354  -2.1353
    -2.0166  -1.8862  -1.8457  -1.8233  -1.8196  -1.6793  -1.5702  -1.5138
    -1.4558  -1.3433  -1.3054  -1.1882  -1.1755  -1.1253  -1.1151  -1.0450
    -0.8318  -0.5756  -0.5320  -0.4889  -0.4609  -0.4401  -0.3522   1.0610
     1.2106   1.3717   1.4812   1.6317   1.7586   1.9558   1.9867   2.0604
     2.1178   2.1891   2.2403   2.2847   2.5439   2.5758   2.6342   2.6721
     2.7090   2.7099   2.7223   2.8131   2.8932   2.9001   2.9423   2.9963
     3.0673   3.0863   3.1310   3.1361   3.2824

          k = 0.0000 0.2277 0.0000 ( 81407 PWs)   bands (ev):

   -58.0018 -57.9327 -57.4890 -57.4400 -57.3632 -57.2150 -56.9989 -56.9595
   -56.6313 -56.5812 -56.4003 -56.3598 -34.4835 -34.3112 -34.2314 -34.2112
   -34.1094 -34.0933 -34.0333 -33.8767 -33.7978 -33.6965 -33.6774 -33.6476
   -33.6239 -33.6110 -33.6083 -33.5814 -33.5407 -33.4302 -33.4005 -33.2840
   -33.1956 -33.1906 -33.1902 -33.1396 -33.1338 -32.9279 -32.9054 -32.8899
   -32.8857 -32.8022 -32.7784 -32.7444 -32.6925 -32.6416 -32.5362 -32.4364
   -23.5187 -18.6090 -18.3182 -17.9877 -17.8567 -17.8434 -17.6995 -17.5585
   -17.4126 -17.3630 -17.3546 -17.3103 -17.1543 -17.1139 -16.9506 -16.8437
   -16.8228 -16.8046 -16.7252 -16.7021 -16.4573 -16.1488 -16.0862 -15.9827
   -15.4717 -15.4294  -8.1135  -6.4959  -6.0698  -5.9667  -5.6236  -5.5586
    -5.5329  -5.4360  -5.3077  -5.2052  -5.0103  -4.9497  -4.8543  -4.7163
    -4.6802  -4.6552  -4.6138  -4.5894  -4.5216  -4.4279  -4.3539  -4.3250
    -4.2111  -4.1829  -4.1478  -4.0814  -3.9492  -3.9347  -3.6964  -3.6595
    -3.5878  -3.5805  -3.5188  -3.3818  -3.3153  -3.2526  -3.2269  -3.2060
    -3.1423  -3.0422  -3.0302  -2.9624  -2.8373  -2.8093  -2.7008  -2.6396
    -2.5747  -2.5496  -2.3801  -2.3613  -2.3324  -2.1976  -2.1047  -2.0726
    -1.9980  -1.9523  -1.9148  -1.8297  -1.7893  -1.7650  -1.6750  -1.6452
    -1.4948  -1.4753  -1.4137  -1.3071  -1.2465  -1.1731  -1.1115  -1.0857
    -1.0727  -0.6728  -0.5874  -0.5652  -0.5000  -0.4734  -0.4068   1.1425
     1.1674   1.4773   1.5270   1.7482   1.9336   1.9583   1.9856   2.0517
     2.0810   2.1279   2.2066   2.2198   2.3907   2.5496   2.5890   2.6609
     2.7150   2.7524   2.8642   2.9189   2.9255   2.9930   3.0316   3.0834
     3.1249   3.2539   3.2971   3.3169   3.3512

          k = 0.0000-0.4554 0.0000 ( 81286 PWs)   bands (ev):

   -58.0018 -57.9327 -57.4890 -57.4400 -57.3632 -57.2150 -56.9990 -56.9595
   -56.6313 -56.5812 -56.4003 -56.3598 -34.4845 -34.3112 -34.2314 -34.2091
   -34.1096 -34.0934 -34.0333 -33.8783 -33.7978 -33.6965 -33.6760 -33.6561
   -33.6238 -33.6109 -33.6052 -33.5814 -33.5241 -33.4297 -33.4005 -33.2939
   -33.1949 -33.1902 -33.1901 -33.1394 -33.1339 -32.9325 -32.9054 -32.8896
   -32.8841 -32.8022 -32.7816 -32.7427 -32.6925 -32.6416 -32.5362 -32.4365
   -23.5186 -18.5401 -18.1833 -17.9494 -17.8575 -17.7739 -17.7521 -17.5462
   -17.5359 -17.4925 -17.4452 -17.2937 -17.2281 -17.1326 -16.9699 -16.8668
   -16.8003 -16.7146 -16.7102 -16.7014 -16.4581 -16.1467 -16.0836 -15.9860
   -15.4699 -15.4290  -8.1128  -6.4953  -6.0577  -5.5839  -5.5584  -5.5566
    -5.5324  -5.3329  -5.1887  -5.1394  -5.1069  -4.8103  -4.7503  -4.7116
    -4.6397  -4.6013  -4.6007  -4.5495  -4.5466  -4.4411  -4.3691  -4.3061
    -4.1428  -4.0505  -4.0444  -3.9564  -3.8902  -3.8351  -3.6586  -3.6408
    -3.6370  -3.5975  -3.5686  -3.5571  -3.5184  -3.4588  -3.3889  -3.2090
    -3.2040  -3.0447  -2.9978  -2.9946  -2.9493  -2.8152  -2.7245  -2.6572
    -2.6075  -2.5685  -2.5331  -2.4159  -2.3957  -2.2110  -2.1770  -2.1303
    -2.0757  -1.9938  -1.9758  -1.9136  -1.8807  -1.7733  -1.7218  -1.5565
    -1.4943  -1.4458  -1.3674  -1.3492  -1.3401  -1.2180  -1.2078  -1.1872
    -1.0801  -0.7712  -0.6419  -0.5995  -0.5312  -0.4934  -0.4396   1.0680
     1.2003   1.4579   1.5185   1.6580   1.6680   1.8568   2.0340   2.0951
     2.2211   2.2360   2.3245   2.3326   2.4674   2.5017   2.5471   2.6993
     2.7688   2.8313   2.9415   2.9454   3.0232   3.0792   3.1094   3.1381
     3.2004   3.2989   3.3258   3.3360   3.4552

          k = 0.2500 0.0000 0.0000 ( 81478 PWs)   bands (ev):

   -57.9988 -57.9358 -57.4843 -57.4448 -57.3619 -57.2164 -56.9932 -56.9653
   -56.6263 -56.5862 -56.3944 -56.3658 -34.4196 -34.3088 -34.2311 -34.1993
   -34.1078 -34.1005 -34.0491 -33.8174 -33.7814 -33.7410 -33.6770 -33.6683
   -33.6324 -33.6038 -33.6024 -33.5828 -33.5040 -33.4632 -33.4407 -33.2627
   -33.2035 -33.1999 -33.1841 -33.1660 -33.1078 -32.9211 -32.8968 -32.8891
   -32.8264 -32.8146 -32.7709 -32.7607 -32.7504 -32.6264 -32.5519 -32.5053
   -23.5186 -18.5290 -18.2823 -17.9496 -17.8120 -17.7452 -17.6187 -17.6146
   -17.5647 -17.3081 -17.2533 -17.2126 -17.2034 -17.1157 -17.0670 -16.8955
   -16.8441 -16.7637 -16.7359 -16.6652 -16.4258 -16.1973 -16.1897 -15.9832
   -15.5173 -15.4958  -8.1150  -6.4786  -6.0803  -5.8757  -5.6924  -5.6432
    -5.3311  -5.2441  -5.1437  -5.1364  -4.9805  -4.9635  -4.9497  -4.7895
    -4.7553  -4.7527  -4.6876  -4.6559  -4.6187  -4.6008  -4.5545  -4.5070
    -4.4053  -4.3408  -4.3216  -4.0966  -3.8859  -3.8610  -3.8358  -3.7039
    -3.5512  -3.4889  -3.4445  -3.2627  -3.2035  -3.1167  -3.0303  -3.0135
    -2.9685  -2.9331  -2.8739  -2.8374  -2.6822  -2.6769  -2.6453  -2.5958
    -2.5460  -2.5372  -2.4745  -2.3793  -2.3766  -2.2427  -2.1666  -2.1313
    -2.0626  -2.0283  -1.9134  -1.9015  -1.8326  -1.7713  -1.7682  -1.5986
    -1.5678  -1.4704  -1.3494  -1.3433  -1.3084  -1.2049  -1.1211  -1.0658
    -1.0538  -0.7433  -0.7348  -0.5174  -0.4958  -0.4001  -0.3933   1.2674
     1.3376   1.4862   1.6353   1.8535   1.8915   1.9087   1.9744   2.0678
     2.0880   2.1146   2.2388   2.2867   2.3614   2.4495   2.5416   2.6366
     2.7479   2.8288   2.8404   2.8483   2.9280   2.9284   2.9785   3.0405
     3.0905   3.0913   3.1923   3.3093   3.3172

          k = 0.2500 0.2277 0.0000 ( 81485 PWs)   bands (ev):

   -57.9988 -57.9358 -57.4843 -57.4448 -57.3619 -57.2164 -56.9932 -56.9653
   -56.6264 -56.5862 -56.3944 -56.3658 -34.4206 -34.3088 -34.2311 -34.1975
   -34.1074 -34.1007 -34.0493 -33.8189 -33.7814 -33.7411 -33.6722 -33.6682
   -33.6418 -33.6039 -33.5997 -33.5828 -33.4911 -33.4638 -33.4392 -33.2707
   -33.2045 -33.1990 -33.1841 -33.1659 -33.1073 -32.9241 -32.8968 -32.8889
   -32.8262 -32.8146 -32.7733 -32.7606 -32.7493 -32.6264 -32.5519 -32.5053
   -23.5185 -18.4681 -18.2005 -17.8690 -17.8200 -17.7598 -17.6917 -17.6075
   -17.4358 -17.3988 -17.3726 -17.3248 -17.1915 -17.0803 -17.0567 -16.9570
   -16.8878 -16.7878 -16.6886 -16.6482 -16.4269 -16.1955 -16.1898 -15.9845
   -15.5158 -15.4961  -8.1145  -6.4774  -5.8853  -5.7748  -5.4381  -5.3618
    -5.3136  -5.2558  -5.1969  -5.1080  -5.0841  -4.8970  -4.8871  -4.7998
    -4.7729  -4.7483  -4.7001  -4.6294  -4.5414  -4.5228  -4.4766  -4.4112
    -4.3859  -4.3237  -4.1623  -4.0363  -3.9537  -3.8134  -3.7456  -3.7280
    -3.5266  -3.4679  -3.3762  -3.3083  -3.2556  -3.2244  -3.1817  -3.1373
    -3.0680  -2.9605  -2.9521  -2.8793  -2.8364  -2.8148  -2.7621  -2.6852
    -2.6334  -2.6056  -2.5417  -2.5012  -2.3889  -2.3541  -2.3088  -2.2251
    -2.1056  -2.0206  -1.9449  -1.8805  -1.8577  -1.8146  -1.7745  -1.6993
    -1.6048  -1.5097  -1.3590  -1.3395  -1.2795  -1.2426  -1.1700  -1.1195
    -1.0586  -0.7334  -0.7252  -0.5722  -0.5680  -0.4319  -0.3871   1.2507
     1.3824   1.6011   1.7213   1.8331   1.9401   2.0015   2.0259   2.0888
     2.1243   2.1674   2.2054   2.2625   2.3545   2.4336   2.6158   2.6681
     2.7196   2.7688   2.9040   2.9328   2.9853   3.0099   3.0268   3.0966
     3.2042   3.2518   3.3268   3.3625   3.4322

          k = 0.2500-0.4554 0.0000 ( 81408 PWs)   bands (ev):

   -57.9988 -57.9358 -57.4843 -57.4448 -57.3619 -57.2164 -56.9932 -56.9653
   -56.6264 -56.5862 -56.3944 -56.3658 -34.4215 -34.3088 -34.2311 -34.1958
   -34.1071 -34.1009 -34.0495 -33.8204 -33.7814 -33.7411 -33.6696 -33.6683
   -33.6472 -33.6039 -33.5971 -33.5828 -33.4798 -33.4644 -33.4377 -33.2788
   -33.2056 -33.1984 -33.1841 -33.1658 -33.1068 -32.9273 -32.8969 -32.8884
   -32.8260 -32.8145 -32.7757 -32.7606 -32.7483 -32.6264 -32.5519 -32.5053
   -23.5185 -18.4071 -18.0675 -17.8864 -17.7600 -17.7027 -17.6961 -17.6527
   -17.5205 -17.4331 -17.3857 -17.3495 -17.2510 -17.1964 -17.0278 -17.0007
   -16.9113 -16.7684 -16.6661 -16.6281 -16.4279 -16.1943 -16.1898 -15.9859
   -15.5144 -15.4965  -8.1141  -6.4773  -5.8784  -5.3645  -5.3194  -5.2600
    -5.2034  -5.1606  -5.1017  -5.0703  -4.9711  -4.8878  -4.8565  -4.8505
    -4.8209  -4.7564  -4.6305  -4.5686  -4.5551  -4.4886  -4.4078  -4.3065
    -4.2883  -4.0413  -4.0341  -3.9873  -3.9177  -3.7956  -3.7753  -3.7482
    -3.6671  -3.6244  -3.4077  -3.3897  -3.3544  -3.2442  -3.2394  -3.2173
    -3.1888  -3.0520  -3.0519  -3.0405  -3.0134  -2.8882  -2.8571  -2.8357
    -2.7656  -2.7272  -2.6737  -2.5471  -2.5447  -2.4895  -2.4119  -2.3352
    -2.2507  -2.1689  -1.9057  -1.8741  -1.8485  -1.7452  -1.6639  -1.6076
    -1.5963  -1.5367  -1.4037  -1.3743  -1.2437  -1.1523  -1.1160  -1.1078
    -1.0698  -0.7928  -0.7200  -0.6481  -0.6211  -0.4475  -0.3865   1.2697
     1.3913   1.5986   1.6546   1.7325   1.8576   1.9030   2.0992   2.1340
     2.1755   2.2389   2.2872   2.3732   2.4669   2.4753   2.6570   2.7694
     2.7812   2.7919   2.9044   2.9908   3.0131   3.1078   3.1105   3.2788
     3.2948   3.3225   3.3717   3.3859   3.4969

          k =-0.5000 0.0000 0.0000 ( 81532 PWs)   bands (ev):

   -57.9955 -57.9392 -57.4779 -57.4512 -57.3605 -57.2178 -56.9795 -56.9789
   -56.6197 -56.5929 -56.3802 -56.3800 -34.3064 -34.2851 -34.2393 -34.2317
   -34.1780 -34.1295 -33.9240 -33.8633 -33.7462 -33.7227 -33.7156 -33.6665
   -33.6425 -33.5940 -33.5918 -33.5874 -33.5648 -33.4521 -33.3556 -33.3516
   -33.2341 -33.2329 -33.1728 -33.1702 -32.9674 -32.9461 -32.9183 -32.8916
   -32.8483 -32.8308 -32.7608 -32.7605 -32.6684 -32.6682 -32.5895 -32.5892
   -23.5184 -18.1907 -18.1477 -18.0248 -17.8578 -17.6661 -17.6179 -17.5511
   -17.4600 -17.4369 -17.4364 -17.3545 -17.3130 -17.0324 -17.0153 -16.9172
   -16.9142 -16.7101 -16.6940 -16.5077 -16.4965 -16.2906 -16.2822 -15.9847
   -15.5694 -15.5620  -8.1158  -6.4627  -5.5827  -5.5776  -5.4669  -5.3663
    -5.2534  -5.2342  -5.2152  -5.2074  -5.1841  -5.1449  -5.1163  -5.0957
    -5.0185  -4.8870  -4.7905  -4.6491  -4.5281  -4.4616  -4.4346  -4.3682
    -4.3418  -4.2102  -4.1797  -4.1467  -4.0977  -3.7722  -3.7611  -3.5614
    -3.4528  -3.4377  -3.3716  -3.2752  -3.2509  -3.2207  -3.2088  -2.9932
    -2.9503  -2.9279  -2.8762  -2.8125  -2.7987  -2.6458  -2.5692  -2.5669
    -2.5419  -2.4137  -2.3930  -2.3750  -2.2677  -2.2554  -2.1914  -2.1166
    -2.0703  -2.0195  -2.0089  -1.9895  -1.9680  -1.9207  -1.8618  -1.8217
    -1.6179  -1.5925  -1.5311  -1.4607  -1.3996  -1.3786  -1.3201  -1.3129
    -0.8861  -0.8666  -0.5480  -0.5439  -0.4959  -0.4897  -0.4647   1.5193
     1.5773   1.6877   1.7009   1.8199   1.8514   1.9415   1.9982   2.0335
     2.0500   2.0602   2.1615   2.3752   2.4265   2.4432   2.4611   2.5628
     2.6806   2.8375   2.8433   2.8531   2.8892   2.9890   3.0092   3.0628
     3.0688   3.2346   3.2798   3.5423   3.5447

          k =-0.5000 0.2277 0.0000 ( 81508 PWs)   bands (ev):

   -57.9955 -57.9392 -57.4779 -57.4512 -57.3605 -57.2178 -56.9796 -56.9789
   -56.6197 -56.5929 -56.3803 -56.3800 -34.3064 -34.2857 -34.2400 -34.2317
   -34.1770 -34.1284 -33.9242 -33.8635 -33.7462 -33.7234 -33.7161 -33.6657
   -33.6419 -33.5940 -33.5903 -33.5874 -33.5657 -33.4495 -33.3519 -33.3481
   -33.2382 -33.2373 -33.1728 -33.1702 -32.9672 -32.9460 -32.9195 -32.8929
   -32.8482 -32.8307 -32.7614 -32.7611 -32.6683 -32.6681 -32.5895 -32.5892
   -23.5183 -18.1646 -18.0938 -17.9584 -17.8185 -17.6282 -17.5851 -17.5306
   -17.5151 -17.4927 -17.4010 -17.3200 -17.3130 -17.1211 -17.1064 -17.0112
   -17.0090 -16.6830 -16.6696 -16.5026 -16.4921 -16.2892 -16.2812 -15.9852
   -15.5692 -15.5618  -8.1155  -6.4624  -5.4696  -5.4116  -5.3514  -5.3072
    -5.2045  -5.1632  -5.0711  -5.0031  -4.9941  -4.9657  -4.9585  -4.9473
    -4.9446  -4.8114  -4.7221  -4.6111  -4.5224  -4.4543  -4.4447  -4.3906
    -4.3568  -4.3456  -4.2221  -3.9813  -3.9743  -3.9267  -3.7865  -3.6938
    -3.6300  -3.5339  -3.4918  -3.3543  -3.3243  -3.2977  -3.2655  -3.0827
    -3.0031  -2.9677  -2.9598  -2.8932  -2.8415  -2.7888  -2.7449  -2.6741
    -2.6647  -2.5776  -2.5585  -2.4554  -2.3650  -2.3507  -2.3476  -2.3157
    -2.2783  -2.2025  -2.1202  -2.0527  -1.9366  -1.8405  -1.7959  -1.7912
    -1.5019  -1.4771  -1.4710  -1.4022  -1.3079  -1.2925  -1.2630  -1.2501
    -0.9118  -0.8927  -0.6196  -0.6139  -0.4811  -0.4780  -0.4458   1.5688
     1.6078   1.7188   1.7448   1.9090   1.9681   1.9943   2.0022   2.0202
     2.0423   2.1595   2.2071   2.4329   2.4590   2.5414   2.5808   2.6974
     2.7179   2.7291   2.7595   2.8412   3.0326   3.0608   3.0754   3.1105
     3.2673   3.2729   3.3041   3.5132   3.5265

          k =-0.5000-0.4554 0.0000 ( 81484 PWs)   bands (ev):

   -57.9955 -57.9392 -57.4779 -57.4512 -57.3605 -57.2177 -56.9796 -56.9790
   -56.6197 -56.5929 -56.3803 -56.3800 -34.3064 -34.2864 -34.2406 -34.2317
   -34.1759 -34.1273 -33.9243 -33.8637 -33.7462 -33.7241 -33.7166 -33.6650
   -33.6413 -33.5940 -33.5881 -33.5880 -33.5668 -33.4468 -33.3478 -33.3442
   -33.2428 -33.2418 -33.1728 -33.1702 -32.9671 -32.9458 -32.9208 -32.8942
   -32.8481 -32.8307 -32.7620 -32.7617 -32.6682 -32.6680 -32.5895 -32.5892
   -23.5183 -18.1405 -18.0269 -17.8001 -17.7481 -17.7474 -17.6679 -17.5354
   -17.4724 -17.3635 -17.3434 -17.3414 -17.2645 -17.2149 -17.2085 -17.1593
   -17.1474 -16.6655 -16.6531 -16.4986 -16.4884 -16.2879 -16.2803 -15.9859
   -15.5690 -15.5616  -8.1153  -6.4625  -5.4718  -5.3894  -5.1796  -5.1666
    -5.0948  -5.0006  -4.9921  -4.8125  -4.7942  -4.7858  -4.6806  -4.6561
    -4.6089  -4.5841  -4.5837  -4.4998  -4.4957  -4.4728  -4.4530  -4.4387
    -4.2752  -4.2663  -4.2622  -4.2393  -4.2163  -3.9686  -3.9613  -3.9316
    -3.9082  -3.6614  -3.5270  -3.4725  -3.4597  -3.2336  -3.1592  -3.1429
    -3.0394  -3.0297  -3.0207  -3.0115  -2.9716  -2.9637  -2.9383  -2.8852
    -2.8434  -2.7638  -2.7575  -2.7363  -2.5845  -2.5486  -2.4620  -2.4564
    -2.3477  -2.2641  -2.2475  -1.9282  -1.8975  -1.8922  -1.6617  -1.6398
    -1.4048  -1.3912  -1.3723  -1.3551  -1.2916  -1.2073  -1.2031  -1.1542
    -0.9118  -0.9008  -0.6781  -0.6661  -0.4829  -0.4760  -0.4284   1.6754
     1.6901   1.7136   1.7370   1.8494   1.9452   1.9890   2.0634   2.0897
     2.1180   2.1658   2.2000   2.4409   2.4664   2.4968   2.5662   2.7916
     2.8188   2.8804   2.9388   2.9870   3.0711   3.1506   3.2111   3.2348
     3.2835   3.2856   3.4471   3.5383   3.5480

     the Fermi energy is    -0.3730 ev

!    total energy              =   -2519.46567760 Ry
     estimated scf accuracy    <       0.00000003 Ry
     smearing contrib. (-TS)   =       0.00318862 Ry
     internal energy E=F+TS    =   -2519.46886621 Ry

     The total energy is F=E-TS. E is the sum of the following terms:
     one-electron contribution =  -25872.13470400 Ry
     hartree contribution      =   12985.80430098 Ry
     xc contribution           =    -409.86564656 Ry
     ewald contribution        =   11024.19680303 Ry
     one-center paw contrib.   =    -247.46961966 Ry

     convergence has been achieved in  24 iterations

     negative rho (up, down):  1.553E-02 0.000E+00

     Forces acting on atoms (cartesian axes, Ry/au):

     atom    1 type  2   force =    -0.00009312    0.00000000    0.10620779
     atom    2 type  2   force =    -0.00028234    0.00000000   -0.08950052
     atom    3 type  2   force =     0.00008407    0.00000000    0.00280847
     atom    4 type  2   force =    -0.00275732    0.00000000   -0.00307825
     atom    5 type  2   force =     0.00122058    0.00000000   -0.00339511
     atom    6 type  2   force =    -0.00164392    0.00000000    0.00210645
     atom    7 type  3   force =     0.00026410    0.00000000    0.02998354
     atom    8 type  3   force =     0.00005415    0.00000000    0.05465176
     atom    9 type  3   force =    -0.00271595    0.06892082   -0.03622442
     atom   10 type  3   force =    -0.00271595   -0.06892082   -0.03622442
     atom   11 type  3   force =     0.00008863    0.00000000    0.00727496
     atom   12 type  3   force =     0.00107092    0.00000000   -0.05863938
     atom   13 type  3   force =     0.00050403   -0.00034784    0.00348080
     atom   14 type  3   force =     0.00050403    0.00034784    0.00348080
     atom   15 type  3   force =    -0.00125430    0.00000000   -0.00223340
     atom   16 type  3   force =    -0.00016003    0.00000000   -0.00010028
     atom   17 type  3   force =    -0.00695399   -0.00065482    0.00167174
     atom   18 type  3   force =    -0.00695399    0.00065482    0.00167174
     atom   19 type  2   force =     0.00008105    0.00000000    0.12373428
     atom   20 type  2   force =     0.00023254    0.00000000   -0.08952735
     atom   21 type  2   force =    -0.00008395    0.00000000    0.00245186
     atom   22 type  2   force =     0.00294505    0.00000000   -0.00305311
     atom   23 type  2   force =    -0.00009699    0.00000000    0.00346006
     atom   24 type  2   force =     0.00105808    0.00000000    0.00221766
     atom   25 type  3   force =    -0.00015350    0.00000000    0.02940588
     atom   26 type  3   force =    -0.00001857    0.00000000    0.05482984
     atom   27 type  3   force =     0.00270756    0.06896290   -0.03617530
     atom   28 type  3   force =     0.00270756   -0.06896290   -0.03617530
     atom   29 type  3   force =     0.00017569    0.00000000    0.00505713
     atom   30 type  3   force =    -0.00116404    0.00000000   -0.05941299
     atom   31 type  3   force =    -0.00060787   -0.00061671    0.00328379
     atom   32 type  3   force =    -0.00060787    0.00061671    0.00328379
     atom   33 type  3   force =     0.00075174    0.00000000   -0.00262606
     atom   34 type  3   force =    -0.00005475    0.00000000    0.00222662
     atom   35 type  3   force =     0.00669014   -0.00164672   -0.00030648
     atom   36 type  3   force =     0.00669014    0.00164672   -0.00030648
     atom   37 type  3   force =    -0.00529620    0.00000000    0.00454006
     atom   38 type  3   force =     0.00514999    0.00000000    0.00737042
     atom   39 type  1   force =     0.00063461    0.00000000    0.00177940

     Total force =     0.023751     Total SCF correction =     0.000739
     Energy error            =      9.5E-04 Ry
     Gradient error          =      7.4E-03 Ry/Bohr

     number of scf cycles    =  12
     number of bfgs steps    =  11

     energy             old  =   -2519.4647261664 Ry
     energy             new  =   -2519.4656775963 Ry

     CASE: energy            _new < energy            _old

     new trust radius        =       0.0547029919 bohr
     new conv_thr            =       0.0000000369 Ry


ATOMIC_POSITIONS (angstrom)
Ti               0.0000000000        4.8723546300        9.7447092600    0   0   0
Ti               1.4793500000        1.6241182100        9.7447092600    0   0   0
Ti              -0.0023717581        1.6241182100       13.1063666521
Ti               1.4534396543        4.8723546300       12.9945409722
Ti              -0.0185951925        4.8723546300       16.3408346933
Ti               1.4824560386        1.6241182100       16.4548333329
O                0.0000000000        1.6241182100       11.0129506900    0   0   0
O                0.0000000000        1.6241182100        8.4764678300    0   0   0
O                1.4793500000        3.6041132000        9.7447092600    0   0   0
O                1.4793500000        6.1405960600        9.7447092600    0   0   0
O               -0.0058094982        4.8723546300       14.2771340896
O                0.0000000000        4.8723546300       11.7247042500    0   0   0
O                1.4802515548        0.3280236184       12.9893571972
O                1.4802515548        2.9202128016       12.9893571972
O                0.0068546997        1.6241182100       17.5452118185
O               -0.0173542878        1.6241182100       14.9758595331
O                1.5062382307        3.6319958676       16.3312766569
O                1.5062382307        6.1127133924       16.3312766569
Ti               2.9587000000        4.8723546300        9.7447092600    0   0   0
Ti               4.4380500000        1.6241182100        9.7447092600    0   0   0
Ti               2.9595838450        1.6241182100       13.0801375836
Ti               4.4708349697        4.8723546300       13.0027415671
Ti               2.9354407909        4.8723546300       16.0806768709
Ti               4.4273283790        1.6241182100       16.4709482791
O                2.9587000000        1.6241182100       11.0129506900    0   0   0
O                2.9587000000        1.6241182100        8.4764678300    0   0   0
O                4.4380500000        3.6041132000        9.7447092600    0   0   0
O                4.4380500000        6.1405960600        9.7447092600    0   0   0
O                2.9633717778        4.8723546300       14.2624246946
O                2.9587000000        4.8723546300       11.7247042500    0   0   0
O                4.4374688776        0.3289979378       12.9791930499
O                4.4374688776        2.9192384822       12.9791930499
O                2.9467650789        1.6241182100       17.5629862838
O                2.9763452337        1.6241182100       14.9667038464
O                4.3933741211        3.6421228322       16.4130206073
O                4.3933741211        6.1025864278       16.4130206073
O                0.0726010833        4.8723546300       18.3289764195
O                1.3494717806        4.8723546300       18.8631231551
H                1.1534926022        4.8723546300       19.8222839306



     Writing config-only to output data dir ./tmp_s0_OOH__2x1v_mir/s0_OOH__2x1v_mir.save/ :
     XML data file
     NEW-OLD atomic charge density approx. for the potential

     Check: negative core charge=   -0.000001

     negative rho (up, down):  1.569E-02 0.000E+00

     total cpu time spent up to now is     2457.3 secs

     per-process dynamical memory:   251.2 Mb

     Self-consistent Calculation

     iteration #  1     ecut=    80.00 Ry     beta= 0.30
     Davidson diagonalization with overlap
     ethr =  1.00E-06,  avg # of iterations = 15.1

     negative rho (up, down):  1.612E-02 0.000E+00

     total cpu time spent up to now is     2474.8 secs

     total energy              =   -2519.45796744 Ry
     estimated scf accuracy    <       0.37443437 Ry

     iteration #  2     ecut=    80.00 Ry     beta= 0.30
     Davidson diagonalization with overlap
     ethr =  1.24E-04,  avg # of iterations =  1.0

     negative rho (up, down):  1.591E-02 0.000E+00

     total cpu time spent up to now is     2481.2 secs

     total energy              =   -2519.45494354 Ry
     estimated scf accuracy    <       0.46295612 Ry

     iteration #  3     ecut=    80.00 Ry     beta= 0.30
     Davidson diagonalization with overlap
     ethr =  1.24E-04,  avg # of iterations =  1.0

     negative rho (up, down):  1.598E-02 0.000E+00

     total cpu time spent up to now is     2487.4 secs

     total energy              =   -2519.47094796 Ry
     estimated scf accuracy    <       0.36104378 Ry

     iteration #  4     ecut=    80.00 Ry     beta= 0.30
     Davidson diagonalization with overlap
     ethr =  1.20E-04,  avg # of iterations =  1.0

     negative rho (up, down):  1.661E-02 0.000E+00

     total cpu time spent up to now is     2493.8 secs

     total energy              =   -2519.46505509 Ry
     estimated scf accuracy    <       0.33915721 Ry

     iteration #  5     ecut=    80.00 Ry     beta= 0.30
     Davidson diagonalization with overlap
     ethr =  1.13E-04,  avg # of iterations =  1.0

     negative rho (up, down):  1.719E-02 0.000E+00

     total cpu time spent up to now is     2500.0 secs

     total energy              =   -2519.46704331 Ry
     estimated scf accuracy    <       0.00645801 Ry

     iteration #  6     ecut=    80.00 Ry     beta= 0.30
     Davidson diagonalization with overlap
     ethr =  2.15E-06,  avg # of iterations = 11.8

     negative rho (up, down):  1.839E-02 0.000E+00

     total cpu time spent up to now is     2508.1 secs

     total energy              =   -2519.46630760 Ry
     estimated scf accuracy    <       0.02132684 Ry

     iteration #  7     ecut=    80.00 Ry     beta= 0.30
     Davidson diagonalization with overlap
     c_bands:  2 eigenvalues not converged
     ethr =  2.15E-06,  avg # of iterations = 13.3

     negative rho (up, down):  1.855E-02 0.000E+00

     total cpu time spent up to now is     2516.8 secs

     total energy              =   -2519.46626730 Ry
     estimated scf accuracy    <       0.11171165 Ry

     iteration #  8     ecut=    80.00 Ry     beta= 0.30
     Davidson diagonalization with overlap
     ethr =  2.15E-06,  avg # of iterations =  3.3

     negative rho (up, down):  1.855E-02 0.000E+00

     total cpu time spent up to now is     2524.0 secs

     total energy              =   -2519.46606269 Ry
     estimated scf accuracy    <       0.00394635 Ry

     iteration #  9     ecut=    80.00 Ry     beta= 0.30
     Davidson diagonalization with overlap
     ethr =  1.31E-06,  avg # of iterations =  2.0

     negative rho (up, down):  1.856E-02 0.000E+00

     total cpu time spent up to now is     2530.9 secs

     total energy              =   -2519.46763784 Ry
     estimated scf accuracy    <       0.18885154 Ry

     iteration # 10     ecut=    80.00 Ry     beta= 0.30
     Davidson diagonalization with overlap
     ethr =  1.31E-06,  avg # of iterations =  1.0

     negative rho (up, down):  1.867E-02 0.000E+00

     total cpu time spent up to now is     2537.4 secs

     total energy              =   -2519.46490250 Ry
     estimated scf accuracy    <       0.14265664 Ry

     iteration # 11     ecut=    80.00 Ry     beta= 0.30
     Davidson diagonalization with overlap
     ethr =  1.31E-06,  avg # of iterations =  5.1

     negative rho (up, down):  1.846E-02 0.000E+00

     total cpu time spent up to now is     2546.4 secs

     total energy              =   -2519.46645663 Ry
     estimated scf accuracy    <       0.02176562 Ry

     iteration # 12     ecut=    80.00 Ry     beta= 0.30
     Davidson diagonalization with overlap
     ethr =  1.31E-06,  avg # of iterations =  1.0

     negative rho (up, down):  1.811E-02 0.000E+00

     total cpu time spent up to now is     2554.6 secs

     total energy              =   -2519.46657946 Ry
     estimated scf accuracy    <       0.00009591 Ry

     iteration # 13     ecut=    80.00 Ry     beta= 0.30
     Davidson diagonalization with overlap
     ethr =  3.19E-08,  avg # of iterations =  9.0

     negative rho (up, down):  1.765E-02 0.000E+00

     total cpu time spent up to now is     2563.2 secs

     total energy              =   -2519.46657400 Ry
     estimated scf accuracy    <       0.00113497 Ry

     iteration # 14     ecut=    80.00 Ry     beta= 0.30
     Davidson diagonalization with overlap
     ethr =  3.19E-08,  avg # of iterations =  4.1

     negative rho (up, down):  1.738E-02 0.000E+00

     total cpu time spent up to now is     2570.6 secs

     total energy              =   -2519.46658923 Ry
     estimated scf accuracy    <       0.00001356 Ry

     iteration # 15     ecut=    80.00 Ry     beta= 0.30
     Davidson diagonalization with overlap
     ethr =  4.51E-09,  avg # of iterations =  5.0

     negative rho (up, down):  1.706E-02 0.000E+00

     total cpu time spent up to now is     2578.2 secs

     total energy              =   -2519.46658413 Ry
     estimated scf accuracy    <       0.00002301 Ry

     iteration # 16     ecut=    80.00 Ry     beta= 0.30
     Davidson diagonalization with overlap
     ethr =  4.51E-09,  avg # of iterations =  2.0

     negative rho (up, down):  1.676E-02 0.000E+00

     total cpu time spent up to now is     2585.0 secs

     total energy              =   -2519.46657920 Ry
     estimated scf accuracy    <       0.00001310 Ry

     iteration # 17     ecut=    80.00 Ry     beta= 0.30
     Davidson diagonalization with overlap
     ethr =  4.35E-09,  avg # of iterations =  3.8

     negative rho (up, down):  1.651E-02 0.000E+00

     total cpu time spent up to now is     2592.2 secs

     total energy              =   -2519.46657805 Ry
     estimated scf accuracy    <       0.00000378 Ry

     iteration # 18     ecut=    80.00 Ry     beta= 0.30
     Davidson diagonalization with overlap
     ethr =  1.26E-09,  avg # of iterations =  3.8

     negative rho (up, down):  1.614E-02 0.000E+00

     total cpu time spent up to now is     2599.3 secs

     total energy              =   -2519.46657589 Ry
     estimated scf accuracy    <       0.00000347 Ry

     iteration # 19     ecut=    80.00 Ry     beta= 0.30
     Davidson diagonalization with overlap
     ethr =  1.15E-09,  avg # of iterations =  3.7

     negative rho (up, down):  1.596E-02 0.000E+00

     total cpu time spent up to now is     2606.4 secs

     total energy              =   -2519.46657562 Ry
     estimated scf accuracy    <       0.00000071 Ry

     iteration # 20     ecut=    80.00 Ry     beta= 0.30
     Davidson diagonalization with overlap
     ethr =  2.37E-10,  avg # of iterations =  2.0

     negative rho (up, down):  1.577E-02 0.000E+00

     total cpu time spent up to now is     2613.3 secs

     total energy              =   -2519.46657541 Ry
     estimated scf accuracy    <       0.00000138 Ry

     iteration # 21     ecut=    80.00 Ry     beta= 0.30
     Davidson diagonalization with overlap
     ethr =  2.37E-10,  avg # of iterations =  3.1

     negative rho (up, down):  1.573E-02 0.000E+00

     total cpu time spent up to now is     2620.3 secs

     total energy              =   -2519.46657544 Ry
     estimated scf accuracy    <       0.00000055 Ry

     iteration # 22     ecut=    80.00 Ry     beta= 0.30
     Davidson diagonalization with overlap
     ethr =  1.83E-10,  avg # of iterations =  1.3

     negative rho (up, down):  1.566E-02 0.000E+00

     total cpu time spent up to now is     2627.1 secs

     total energy              =   -2519.46657547 Ry
     estimated scf accuracy    <       0.00000106 Ry

     iteration # 23     ecut=    80.00 Ry     beta= 0.30
     Davidson diagonalization with overlap
     ethr =  1.83E-10,  avg # of iterations =  3.6

     negative rho (up, down):  1.563E-02 0.000E+00

     total cpu time spent up to now is     2634.6 secs

     total energy              =   -2519.46657550 Ry
     estimated scf accuracy    <       0.00000048 Ry

     iteration # 24     ecut=    80.00 Ry     beta= 0.30
     Davidson diagonalization with overlap
     ethr =  1.61E-10,  avg # of iterations =  2.9

     negative rho (up, down):  1.561E-02 0.000E+00

     total cpu time spent up to now is     2641.5 secs

     total energy              =   -2519.46657555 Ry
     estimated scf accuracy    <       0.00000005 Ry

     iteration # 25     ecut=    80.00 Ry     beta= 0.30
     Davidson diagonalization with overlap
     ethr =  1.63E-11,  avg # of iterations =  4.6

     negative rho (up, down):  1.560E-02 0.000E+00

     total cpu time spent up to now is     2648.9 secs

     End of self-consistent calculation

          k = 0.0000 0.0000 0.0000 ( 81491 PWs)   bands (ev):

   -57.9955 -57.9264 -57.5052 -57.4540 -57.3793 -57.2359 -57.0165 -56.9771
   -56.6445 -56.5952 -56.3949 -56.3544 -34.4759 -34.3049 -34.2255 -34.2068
   -34.1149 -34.0869 -34.0268 -33.8908 -33.8066 -33.7064 -33.7007 -33.6411
   -33.6362 -33.6274 -33.6271 -33.5940 -33.5818 -33.4495 -33.4186 -33.2916
   -33.2082 -33.2065 -33.2026 -33.1526 -33.1506 -32.9378 -32.9166 -32.9018
   -32.8854 -32.8141 -32.7694 -32.7403 -32.7048 -32.6362 -32.5307 -32.4314
   -23.4965 -18.6596 -18.3965 -18.0834 -17.8881 -17.6865 -17.6692 -17.5507
   -17.4965 -17.2888 -17.1699 -17.1406 -17.1379 -17.1095 -17.0454 -16.9919
   -16.8268 -16.7834 -16.7125 -16.6844 -16.4481 -16.1575 -16.0930 -15.9712
   -15.4731 -15.4312  -8.0928  -6.4949  -6.2720  -6.0376  -5.8870  -5.8212
    -5.5446  -5.2578  -5.0890  -5.0093  -5.0056  -4.9466  -4.8814  -4.7189
    -4.7121  -4.6682  -4.6165  -4.5813  -4.5493  -4.4608  -4.4259  -4.4013
    -4.3420  -4.3315  -4.1732  -4.1566  -4.1386  -4.0138  -3.9320  -3.6979
    -3.5128  -3.5025  -3.4993  -3.4478  -3.1959  -3.1836  -3.1468  -3.0533
    -3.0474  -2.9414  -2.9413  -2.8261  -2.7260  -2.6851  -2.6255  -2.6053
    -2.5696  -2.5542  -2.4669  -2.3707  -2.2789  -2.2682  -2.1309  -2.1288
    -2.0185  -1.9002  -1.8583  -1.8210  -1.8190  -1.6763  -1.5795  -1.5017
    -1.4657  -1.3526  -1.3031  -1.1819  -1.1717  -1.1222  -1.1168  -1.0523
    -0.8441  -0.5793  -0.5306  -0.4870  -0.4557  -0.4386  -0.3531   1.0621
     1.2160   1.3548   1.4870   1.6140   1.7382   1.9443   1.9675   2.0661
     2.1180   2.1950   2.2248   2.2765   2.5459   2.5639   2.6216   2.6593
     2.6945   2.7050   2.7280   2.8067   2.8767   2.9025   2.9188   3.0017
     3.0516   3.0903   3.1025   3.1178   3.2637

          k = 0.0000 0.2277 0.0000 ( 81407 PWs)   bands (ev):

   -57.9955 -57.9264 -57.5052 -57.4540 -57.3793 -57.2359 -57.0165 -56.9771
   -56.6445 -56.5952 -56.3949 -56.3544 -34.4769 -34.3049 -34.2255 -34.2047
   -34.1152 -34.0869 -34.0268 -33.8925 -33.8066 -33.7063 -33.6946 -33.6625
   -33.6361 -33.6272 -33.6241 -33.5940 -33.5573 -33.4491 -33.4187 -33.3011
   -33.2079 -33.2059 -33.2024 -33.1525 -33.1506 -32.9421 -32.9166 -32.9004
   -32.8852 -32.8141 -32.7726 -32.7386 -32.7048 -32.6362 -32.5307 -32.4314
   -23.4965 -18.5890 -18.3072 -17.9906 -17.8496 -17.8395 -17.6888 -17.5490
   -17.4253 -17.3678 -17.3479 -17.3095 -17.1493 -17.1106 -16.9613 -16.8481
   -16.8348 -16.8036 -16.7282 -16.6861 -16.4489 -16.1550 -16.0908 -15.9740
   -15.4712 -15.4307  -8.0921  -6.4916  -6.0444  -5.9570  -5.6310  -5.5396
    -5.5372  -5.4270  -5.2995  -5.1877  -5.0173  -4.9368  -4.8437  -4.7043
    -4.6732  -4.6418  -4.5993  -4.5610  -4.5220  -4.4261  -4.3560  -4.3290
    -4.2038  -4.1915  -4.1426  -4.0719  -3.9589  -3.9333  -3.6930  -3.6554
    -3.5860  -3.5738  -3.5070  -3.3768  -3.3155  -3.2579  -3.2305  -3.1951
    -3.1401  -3.0505  -3.0357  -2.9644  -2.8409  -2.8153  -2.7070  -2.6325
    -2.5693  -2.5472  -2.3825  -2.3652  -2.3298  -2.1924  -2.1013  -2.0777
    -2.0044  -1.9592  -1.9244  -1.8313  -1.7969  -1.7602  -1.6667  -1.6455
    -1.4969  -1.4791  -1.4161  -1.3010  -1.2451  -1.1693  -1.1177  -1.0865
    -1.0777  -0.6764  -0.5858  -0.5625  -0.4945  -0.4734  -0.4069   1.1472
     1.1593   1.4825   1.5174   1.7503   1.9240   1.9414   1.9673   2.0318
     2.0856   2.1158   2.2043   2.2112   2.3773   2.5485   2.5758   2.6482
     2.7009   2.7491   2.8512   2.9047   2.9267   2.9982   3.0102   3.0869
     3.1018   3.2477   3.2770   3.3183   3.3286

          k = 0.0000-0.4554 0.0000 ( 81286 PWs)   bands (ev):

   -57.9955 -57.9264 -57.5052 -57.4540 -57.3793 -57.2359 -57.0165 -56.9771
   -56.6445 -56.5952 -56.3949 -56.3543 -34.4780 -34.3049 -34.2255 -34.2026
   -34.1154 -34.0870 -34.0268 -33.8942 -33.8066 -33.7063 -33.6938 -33.6705
   -33.6361 -33.6272 -33.6208 -33.5940 -33.5406 -33.4486 -33.4187 -33.3110
   -33.2076 -33.2054 -33.2021 -33.1524 -33.1506 -32.9468 -32.9166 -32.8988
   -32.8849 -32.8141 -32.7758 -32.7369 -32.7048 -32.6362 -32.5307 -32.4315
   -23.4964 -18.5154 -18.1734 -17.9423 -17.8578 -17.7738 -17.7383 -17.5369
   -17.5331 -17.5057 -17.4558 -17.2993 -17.2213 -17.1240 -16.9800 -16.8769
   -16.7927 -16.7262 -16.7089 -16.6869 -16.4496 -16.1531 -16.0885 -15.9770
   -15.4694 -15.4303  -8.0914  -6.4913  -6.0288  -5.5764  -5.5492  -5.5360
    -5.5234  -5.3354  -5.1784  -5.1506  -5.0988  -4.7934  -4.7380  -4.7003
    -4.6327  -4.5937  -4.5871  -4.5362  -4.5126  -4.4530  -4.3714  -4.3131
    -4.1346  -4.0666  -4.0393  -3.9458  -3.8992  -3.8283  -3.6519  -3.6340
    -3.6326  -3.5998  -3.5684  -3.5651  -3.5060  -3.4657  -3.3942  -3.2265
    -3.1933  -3.0494  -3.0045  -2.9987  -2.9488  -2.8243  -2.7286  -2.6531
    -2.6027  -2.5680  -2.5321  -2.4154  -2.3866  -2.2037  -2.1736  -2.1321
    -2.0877  -1.9848  -1.9829  -1.9246  -1.8785  -1.7700  -1.7163  -1.5497
    -1.5005  -1.4547  -1.3736  -1.3495  -1.3414  -1.2156  -1.2032  -1.1864
    -1.0816  -0.7734  -0.6408  -0.5958  -0.5256  -0.4925  -0.4405   1.0721
     1.1878   1.4633   1.5243   1.6453   1.6608   1.8412   2.0164   2.1010
     2.1990   2.2197   2.3186   2.3283   2.4527   2.4891   2.5466   2.6852
     2.7668   2.8131   2.9283   2.9463   3.0030   3.0838   3.0983   3.1152
     3.1871   3.3045   3.3049   3.3271   3.4321

          k = 0.2500 0.0000 0.0000 ( 81478 PWs)   bands (ev):

   -57.9925 -57.9295 -57.5008 -57.4585 -57.3779 -57.2373 -57.0107 -56.9829
   -56.6395 -56.6002 -56.3890 -56.3603 -34.4131 -34.3024 -34.2249 -34.1928
   -34.1014 -34.0940 -34.0560 -33.8331 -33.7908 -33.7507 -33.6939 -33.6792
   -33.6474 -33.6204 -33.6180 -33.5953 -33.5207 -33.4813 -33.4597 -33.2798
   -33.2208 -33.2169 -33.1969 -33.1781 -33.1184 -32.9353 -32.9080 -32.9039
   -32.8267 -32.8213 -32.7726 -32.7651 -32.7445 -32.6210 -32.5464 -32.5003
   -23.4963 -18.5130 -18.2710 -17.9539 -17.8063 -17.7352 -17.6116 -17.6083
   -17.5542 -17.3087 -17.2462 -17.2203 -17.2150 -17.1181 -17.0782 -16.8869
   -16.8570 -16.7758 -16.7253 -16.6498 -16.4177 -16.2024 -16.1944 -15.9743
   -15.5178 -15.4976  -8.0937  -6.4754  -6.0723  -5.8520  -5.7033  -5.6493
    -5.3105  -5.2248  -5.1268  -5.1215  -4.9709  -4.9549  -4.9378  -4.7813
    -4.7550  -4.7469  -4.6809  -4.6518  -4.6149  -4.5979  -4.5384  -4.5114
    -4.4106  -4.3464  -4.3151  -4.0891  -3.8802  -3.8607  -3.8402  -3.7009
    -3.5434  -3.4782  -3.4362  -3.2582  -3.1977  -3.1098  -3.0255  -3.0088
    -2.9774  -2.9369  -2.8691  -2.8340  -2.6842  -2.6736  -2.6406  -2.6066
    -2.5492  -2.5307  -2.4786  -2.3860  -2.3767  -2.2509  -2.1744  -2.1400
    -2.0626  -2.0332  -1.9062  -1.9007  -1.8323  -1.7706  -1.7627  -1.6082
    -1.5744  -1.4674  -1.3521  -1.3386  -1.3134  -1.2006  -1.1224  -1.0765
    -1.0488  -0.7441  -0.7377  -0.5162  -0.4945  -0.4004  -0.3930   1.2717
     1.3354   1.4858   1.6292   1.8383   1.8899   1.8942   1.9776   2.0522
     2.0944   2.0997   2.2265   2.2757   2.3557   2.4388   2.5258   2.6266
     2.7333   2.8097   2.8323   2.8364   2.9187   2.9239   2.9616   3.0176
     3.0787   3.0832   3.1736   3.3117   3.3126

          k = 0.2500 0.2277 0.0000 ( 81485 PWs)   bands (ev):

   -57.9924 -57.9295 -57.5008 -57.4585 -57.3779 -57.2373 -57.0108 -56.9829
   -56.6395 -56.6002 -56.3890 -56.3603 -34.4140 -34.3024 -34.2249 -34.1911
   -34.1010 -34.0942 -34.0563 -33.8346 -33.7908 -33.7508 -33.6896 -33.6791
   -33.6564 -33.6205 -33.6153 -33.5954 -33.5079 -33.4819 -33.4583 -33.2879
   -33.2218 -33.2161 -33.1970 -33.1780 -33.1180 -32.9383 -32.9080 -32.9037
   -32.8267 -32.8211 -32.7725 -32.7675 -32.7435 -32.6210 -32.5464 -32.5003
   -23.4963 -18.4489 -18.1894 -17.8709 -17.8136 -17.7533 -17.6828 -17.6016
   -17.4285 -17.3950 -17.3820 -17.3299 -17.1883 -17.0876 -17.0641 -16.9647
   -16.8979 -16.7842 -16.6827 -16.6351 -16.4187 -16.2006 -16.1947 -15.9755
   -15.5163 -15.4979  -8.0932  -6.4744  -5.8587  -5.7659  -5.4458  -5.3677
    -5.2940  -5.2432  -5.1780  -5.0936  -5.0753  -4.8843  -4.8782  -4.7881
    -4.7776  -4.7376  -4.6951  -4.6277  -4.5331  -4.5220  -4.4757  -4.4065
    -4.3863  -4.3180  -4.1625  -4.0291  -3.9521  -3.8118  -3.7469  -3.7325
    -3.5171  -3.4624  -3.3699  -3.3000  -3.2514  -3.2199  -3.1762  -3.1318
    -3.0660  -2.9618  -2.9481  -2.8781  -2.8404  -2.8099  -2.7620  -2.6893
    -2.6388  -2.6100  -2.5494  -2.5086  -2.3991  -2.3591  -2.3135  -2.2313
    -2.1025  -2.0159  -1.9503  -1.8811  -1.8543  -1.8143  -1.7744  -1.6985
    -1.6095  -1.5108  -1.3581  -1.3336  -1.2811  -1.2439  -1.1723  -1.1232
    -1.0554  -0.7350  -0.7270  -0.5699  -0.5666  -0.4316  -0.3872   1.2549
     1.3732   1.6059   1.7169   1.8354   1.9286   1.9982   2.0205   2.0891
     2.1115   2.1532   2.1909   2.2459   2.3519   2.4161   2.6037   2.6532
     2.7075   2.7557   2.8908   2.9175   2.9717   2.9970   3.0138   3.0932
     3.1884   3.2307   3.3281   3.3570   3.4230

          k = 0.2500-0.4554 0.0000 ( 81408 PWs)   bands (ev):

   -57.9924 -57.9295 -57.5007 -57.4585 -57.3779 -57.2373 -57.0108 -56.9829
   -56.6395 -56.6002 -56.3890 -56.3603 -34.4149 -34.3024 -34.2249 -34.1893
   -34.1007 -34.0944 -34.0565 -33.8361 -33.7909 -33.7508 -33.6874 -33.6792
   -33.6614 -33.6205 -33.6126 -33.5954 -33.4965 -33.4824 -33.4568 -33.2960
   -33.2229 -33.2155 -33.1970 -33.1779 -33.1175 -32.9416 -32.9081 -32.9032
   -32.8267 -32.8209 -32.7725 -32.7699 -32.7425 -32.6210 -32.5464 -32.5003
   -23.4962 -18.3836 -18.0578 -17.8793 -17.7557 -17.6919 -17.6897 -17.6492
   -17.5222 -17.4463 -17.3887 -17.3464 -17.2605 -17.1896 -17.0376 -17.0095
   -16.9163 -16.7622 -16.6607 -16.6178 -16.4196 -16.1994 -16.1949 -15.9768
   -15.5150 -15.4982  -8.0928  -6.4745  -5.8497  -5.3557  -5.2993  -5.2493
    -5.1933  -5.1403  -5.0997  -5.0588  -4.9697  -4.8798  -4.8594  -4.8438
    -4.8138  -4.7405  -4.6221  -4.5633  -4.5442  -4.4940  -4.4144  -4.3099
    -4.2976  -4.0352  -4.0348  -3.9803  -3.9054  -3.7887  -3.7719  -3.7528
    -3.6621  -3.6239  -3.4026  -3.3833  -3.3471  -3.2429  -3.2412  -3.2173
    -3.1800  -3.0545  -3.0520  -3.0409  -3.0200  -2.8971  -2.8691  -2.8370
    -2.7640  -2.7215  -2.6744  -2.5544  -2.5483  -2.4907  -2.4155  -2.3384
    -2.2415  -2.1673  -1.9018  -1.8804  -1.8533  -1.7460  -1.6684  -1.6087
    -1.5971  -1.5366  -1.3962  -1.3704  -1.2488  -1.1558  -1.1165  -1.1102
    -1.0663  -0.7937  -0.7187  -0.6456  -0.6203  -0.4469  -0.3870   1.2735
     1.3805   1.6028   1.6603   1.7177   1.8543   1.8894   2.0976   2.1342
     2.1720   2.2234   2.2740   2.3716   2.4496   2.4524   2.6448   2.7588
     2.7646   2.7827   2.8869   2.9849   2.9958   3.0872   3.0966   3.2738
     3.2762   3.3157   3.3578   3.3817   3.4815

          k =-0.5000 0.0000 0.0000 ( 81532 PWs)   bands (ev):

   -57.9891 -57.9329 -57.4951 -57.4643 -57.3765 -57.2387 -56.9973 -56.9963
   -56.6327 -56.6071 -56.3749 -56.3745 -34.2999 -34.2785 -34.2328 -34.2255
   -34.1715 -34.1231 -33.9341 -33.8706 -33.7569 -33.7364 -33.7259 -33.6843
   -33.6566 -33.6104 -33.6072 -33.6027 -33.5809 -33.4713 -33.3729 -33.3683
   -33.2516 -33.2499 -33.1857 -33.1828 -32.9782 -32.9571 -32.9324 -32.9065
   -32.8595 -32.8426 -32.7550 -32.7546 -32.6635 -32.6633 -32.5840 -32.5836
   -23.4962 -18.1714 -18.1375 -18.0152 -17.8500 -17.6679 -17.6233 -17.5482
   -17.4661 -17.4297 -17.4293 -17.3519 -17.3062 -17.0441 -17.0281 -16.9290
   -16.9255 -16.6972 -16.6813 -16.4993 -16.4874 -16.2950 -16.2870 -15.9756
   -15.5719 -15.5636  -8.0946  -6.4602  -5.5742  -5.5697  -5.4401  -5.3452
    -5.2612  -5.2248  -5.2161  -5.2146  -5.1953  -5.1239  -5.1073  -5.0858
    -5.0049  -4.8769  -4.7868  -4.6530  -4.5330  -4.4447  -4.4208  -4.3524
    -4.3331  -4.1983  -4.1742  -4.1399  -4.0882  -3.7672  -3.7548  -3.5637
    -3.4554  -3.4434  -3.3742  -3.2792  -3.2543  -3.2183  -3.2114  -2.9858
    -2.9408  -2.9231  -2.8753  -2.8141  -2.7975  -2.6552  -2.5779  -2.5667
    -2.5390  -2.4207  -2.3911  -2.3689  -2.2622  -2.2555  -2.1955  -2.1094
    -2.0747  -2.0187  -2.0070  -1.9961  -1.9685  -1.9204  -1.8547  -1.8154
    -1.6192  -1.5927  -1.5432  -1.4619  -1.4104  -1.3867  -1.3201  -1.3136
    -0.8891  -0.8718  -0.5448  -0.5414  -0.4939  -0.4870  -0.4648   1.5226
     1.5797   1.6839   1.7026   1.8265   1.8578   1.9355   1.9928   2.0168
     2.0392   2.0472   2.1506   2.3579   2.4098   2.4281   2.4462   2.5437
     2.6635   2.8183   2.8273   2.8323   2.8707   2.9707   2.9908   3.0513
     3.0571   3.2324   3.2816   3.5274   3.5381

          k =-0.5000 0.2277 0.0000 ( 81508 PWs)   bands (ev):

   -57.9891 -57.9329 -57.4951 -57.4642 -57.3765 -57.2387 -56.9973 -56.9963
   -56.6327 -56.6071 -56.3749 -56.3745 -34.2999 -34.2792 -34.2335 -34.2255
   -34.1705 -34.1220 -33.9342 -33.8708 -33.7569 -33.7373 -33.7261 -33.6836
   -33.6560 -33.6104 -33.6059 -33.6027 -33.5817 -33.4687 -33.3692 -33.3648
   -33.2557 -33.2542 -33.1857 -33.1828 -32.9780 -32.9570 -32.9337 -32.9078
   -32.8594 -32.8425 -32.7556 -32.7552 -32.6634 -32.6632 -32.5840 -32.5836
   -23.4961 -18.1431 -18.0828 -17.9497 -17.8098 -17.6274 -17.5806 -17.5334
   -17.5099 -17.4892 -17.4066 -17.3196 -17.3108 -17.1325 -17.1163 -17.0210
   -17.0189 -16.6721 -16.6589 -16.4945 -16.4831 -16.2937 -16.2862 -15.9762
   -15.5717 -15.5634  -8.0943  -6.4601  -5.4423  -5.3932  -5.3431  -5.2958
    -5.1855  -5.1435  -5.0632  -4.9987  -4.9866  -4.9695  -4.9631  -4.9561
    -4.9485  -4.8004  -4.7173  -4.6137  -4.5214  -4.4427  -4.4326  -4.3809
    -4.3507  -4.3336  -4.2122  -3.9759  -3.9680  -3.9214  -3.7791  -3.6968
    -3.6372  -3.5416  -3.4971  -3.3534  -3.3245  -3.2919  -3.2647  -3.0742
    -2.9925  -2.9703  -2.9565  -2.8960  -2.8349  -2.7903  -2.7462  -2.6687
    -2.6606  -2.5769  -2.5611  -2.4640  -2.3678  -2.3559  -2.3502  -2.3229
    -2.2833  -2.2024  -2.1255  -2.0543  -1.9359  -1.8360  -1.7928  -1.7867
    -1.5037  -1.4859  -1.4696  -1.4112  -1.3105  -1.2922  -1.2634  -1.2497
    -0.9132  -0.8974  -0.6177  -0.6118  -0.4789  -0.4761  -0.4451   1.5722
     1.6115   1.7146   1.7457   1.9032   1.9570   1.9848   2.0014   2.0177
     2.0482   2.1481   2.1955   2.4167   2.4436   2.5219   2.5648   2.6822
     2.7007   2.7146   2.7451   2.8214   3.0134   3.0474   3.0580   3.0930
     3.2555   3.2622   3.2991   3.5068   3.5209

          k =-0.5000-0.4554 0.0000 ( 81484 PWs)   bands (ev):

   -57.9891 -57.9329 -57.4951 -57.4642 -57.3765 -57.2387 -56.9973 -56.9963
   -56.6327 -56.6071 -56.3749 -56.3745 -34.2999 -34.2798 -34.2341 -34.2255
   -34.1694 -34.1210 -33.9344 -33.8710 -33.7570 -33.7383 -33.7262 -33.6828
   -33.6554 -33.6104 -33.6038 -33.6034 -33.5826 -33.4661 -33.3651 -33.3610
   -33.2603 -33.2588 -33.1857 -33.1828 -32.9778 -32.9568 -32.9350 -32.9091
   -32.8594 -32.8425 -32.7563 -32.7558 -32.6633 -32.6631 -32.5840 -32.5836
   -23.4961 -18.1169 -18.0141 -17.7915 -17.7408 -17.7400 -17.6597 -17.5287
   -17.4648 -17.3690 -17.3528 -17.3514 -17.2718 -17.2244 -17.2178 -17.1665
   -17.1523 -16.6553 -16.6432 -16.4906 -16.4796 -16.2924 -16.2854 -15.9768
   -15.5715 -15.5632  -8.0941  -6.4604  -5.4445  -5.3673  -5.1594  -5.1462
    -5.0795  -4.9926  -4.9842  -4.8036  -4.7797  -4.7778  -4.6735  -4.6534
    -4.6166  -4.5925  -4.5889  -4.5068  -4.5025  -4.4642  -4.4422  -4.4226
    -4.2680  -4.2581  -4.2548  -4.2342  -4.2089  -3.9768  -3.9669  -3.9373
    -3.9185  -3.6688  -3.5243  -3.4634  -3.4503  -3.2287  -3.1552  -3.1395
    -3.0344  -3.0307  -3.0177  -3.0125  -2.9648  -2.9573  -2.9319  -2.8816
    -2.8483  -2.7693  -2.7610  -2.7368  -2.5860  -2.5596  -2.4649  -2.4586
    -2.3520  -2.2644  -2.2476  -1.9332  -1.9028  -1.8890  -1.6624  -1.6404
    -1.4130  -1.3856  -1.3693  -1.3643  -1.2909  -1.2088  -1.2066  -1.1543
    -0.9134  -0.9007  -0.6766  -0.6650  -0.4807  -0.4742  -0.4274   1.6776
     1.6946   1.7132   1.7386   1.8433   1.9371   1.9704   2.0540   2.0797
     2.1057   2.1717   2.2053   2.4254   2.4522   2.4799   2.5542   2.7831
     2.7977   2.8645   2.9217   2.9705   3.0492   3.1346   3.1996   3.2175
     3.2591   3.2716   3.4360   3.5393   3.5474

     the Fermi energy is    -0.3722 ev

!    total energy              =   -2519.46657555 Ry
     estimated scf accuracy    <       0.00000002 Ry
     smearing contrib. (-TS)   =       0.00310317 Ry
     internal energy E=F+TS    =   -2519.46967872 Ry

     The total energy is F=E-TS. E is the sum of the following terms:
     one-electron contribution =  -25793.60576979 Ry
     hartree contribution      =   12946.49128264 Ry
     xc contribution           =    -409.81623996 Ry
     ewald contribution        =   10984.93186287 Ry
     one-center paw contrib.   =    -247.47081449 Ry

     convergence has been achieved in  25 iterations

     negative rho (up, down):  1.560E-02 0.000E+00

     Forces acting on atoms (cartesian axes, Ry/au):

     atom    1 type  2   force =    -0.00010066    0.00000000    0.10670197
     atom    2 type  2   force =    -0.00047004    0.00000000   -0.08758027
     atom    3 type  2   force =     0.00001523    0.00000000    0.00327585
     atom    4 type  2   force =    -0.00239171    0.00000000   -0.00266944
     atom    5 type  2   force =     0.00207970    0.00000000   -0.00254613
     atom    6 type  2   force =    -0.00168146    0.00000000    0.00240399
     atom    7 type  3   force =     0.00033548    0.00000000    0.03114084
     atom    8 type  3   force =     0.00005020    0.00000000    0.05398374
     atom    9 type  3   force =    -0.00270925    0.06891810   -0.03639664
     atom   10 type  3   force =    -0.00270925   -0.06891810   -0.03639664
     atom   11 type  3   force =     0.00001325    0.00000000    0.00459960
     atom   12 type  3   force =     0.00131734    0.00000000   -0.05348722
     atom   13 type  3   force =     0.00052949    0.00004035    0.00332041
     atom   14 type  3   force =     0.00052949   -0.00004035    0.00332041
     atom   15 type  3   force =    -0.00124724    0.00000000   -0.00411073
     atom   16 type  3   force =     0.00025925    0.00000000   -0.00122504
     atom   17 type  3   force =    -0.00612376    0.00128140    0.00266846
     atom   18 type  3   force =    -0.00612376   -0.00128140    0.00266846
     atom   19 type  2   force =     0.00009190    0.00000000    0.12426572
     atom   20 type  2   force =     0.00043071    0.00000000   -0.08759816
     atom   21 type  2   force =    -0.00000677    0.00000000    0.00322734
     atom   22 type  2   force =     0.00255365    0.00000000   -0.00254397
     atom   23 type  2   force =    -0.00034020    0.00000000   -0.00065666
     atom   24 type  2   force =     0.00106930    0.00000000    0.00177478
     atom   25 type  3   force =    -0.00025730    0.00000000    0.03100364
     atom   26 type  3   force =    -0.00002228    0.00000000    0.05416134
     atom   27 type  3   force =     0.00269496    0.06896503   -0.03634365
     atom   28 type  3   force =     0.00269496   -0.06896503   -0.03634365
     atom   29 type  3   force =     0.00029167    0.00000000    0.00156521
     atom   30 type  3   force =    -0.00150694    0.00000000   -0.05446481
     atom   31 type  3   force =    -0.00064422   -0.00010717    0.00339078
     atom   32 type  3   force =    -0.00064422    0.00010717    0.00339078
     atom   33 type  3   force =     0.00063046    0.00000000   -0.00596917
     atom   34 type  3   force =    -0.00053133    0.00000000    0.00233771
     atom   35 type  3   force =     0.00628522    0.00017528   -0.00029123
     atom   36 type  3   force =     0.00628522   -0.00017528   -0.00029123
     atom   37 type  3   force =    -0.00551222    0.00000000    0.00119419
     atom   38 type  3   force =     0.00227191    0.00000000    0.00479737
     atom   39 type  1   force =     0.00259322    0.00000000    0.00372204

     Total force =     0.021343     Total SCF correction =     0.000303
     Energy error            =      9.0E-04 Ry
     Gradient error          =      6.3E-03 Ry/Bohr

     number of scf cycles    =  13
     number of bfgs steps    =  12

     energy             old  =   -2519.4656775963 Ry
     energy             new  =   -2519.4665755535 Ry

     CASE: energy            _new < energy            _old

     new trust radius        =       0.0426386500 bohr
     new conv_thr            =       0.0000000314 Ry


ATOMIC_POSITIONS (angstrom)
Ti               0.0000000000        4.8723546300        9.7447092600    0   0   0
Ti               1.4793500000        1.6241182100        9.7447092600    0   0   0
Ti              -0.0025720046        1.6241182100       13.1167105861
Ti               1.4529418679        4.8723546300       12.9975799951
Ti              -0.0184438225        4.8723546300       16.3505706457
Ti               1.4810108793        1.6241182100       16.4662436460
O                0.0000000000        1.6241182100       11.0129506900    0   0   0
O                0.0000000000        1.6241182100        8.4764678300    0   0   0
O                1.4793500000        3.6041132000        9.7447092600    0   0   0
O                1.4793500000        6.1405960600        9.7447092600    0   0   0
O               -0.0063784599        4.8723546300       14.2874646828
O                0.0000000000        4.8723546300       11.7247042500    0   0   0
O                1.4804770535        0.3276435392       12.9977168404
O                1.4804770535        2.9205928808       12.9977168404
O                0.0063315889        1.6241182100       17.5556726860
O               -0.0190721821        1.6241182100       14.9835852969
O                1.5002574488        3.6309845934       16.3398519168
O                1.5002574488        6.1137246666       16.3398519168
Ti               2.9587000000        4.8723546300        9.7447092600    0   0   0
Ti               4.4380500000        1.6241182100        9.7447092600    0   0   0
Ti               2.9596660051        1.6241182100       13.0885939748
Ti               4.4724512860        4.8723546300       13.0064846995
Ti               2.9346937151        4.8723546300       16.0941785765
Ti               4.4266100678        1.6241182100       16.4837627280
O                2.9587000000        1.6241182100       11.0129506900    0   0   0
O                2.9587000000        1.6241182100        8.4764678300    0   0   0
O                4.4380500000        3.6041132000        9.7447092600    0   0   0
O                4.4380500000        6.1405960600        9.7447092600    0   0   0
O                2.9637704793        4.8723546300       14.2761387205
O                2.9587000000        4.8723546300       11.7247042500    0   0   0
O                4.4370302306        0.3284893424       12.9858514694
O                4.4370302306        2.9197470776       12.9858514694
O                2.9457010789        1.6241182100       17.5740771521
O                2.9775608626        1.6241182100       14.9755669343
O                4.3975489972        3.6409863244       16.4243472368
O                4.3975489972        6.1037229356       16.4243472368
O                0.0768283278        4.8723546300       18.3462868199
O                1.3551948246        4.8723546300       18.8849486876
H                1.1507343771        4.8723546300       19.8416780819



     Writing config-only to output data dir ./tmp_s0_OOH__2x1v_mir/s0_OOH__2x1v_mir.save/ :
     XML data file
     NEW-OLD atomic charge density approx. for the potential

     Check: negative core charge=   -0.000001

     negative rho (up, down):  1.569E-02 0.000E+00

     total cpu time spent up to now is     2652.4 secs

     per-process dynamical memory:   251.0 Mb

     Self-consistent Calculation

     iteration #  1     ecut=    80.00 Ry     beta= 0.30
     Davidson diagonalization with overlap
     ethr =  1.00E-06,  avg # of iterations = 13.8

     negative rho (up, down):  1.616E-02 0.000E+00

     total cpu time spent up to now is     2669.3 secs

     total energy              =   -2519.45026572 Ry
     estimated scf accuracy    <       0.42747186 Ry

     iteration #  2     ecut=    80.00 Ry     beta= 0.30
     Davidson diagonalization with overlap
     ethr =  1.42E-04,  avg # of iterations =  1.0

     negative rho (up, down):  1.597E-02 0.000E+00

     total cpu time spent up to now is     2675.5 secs

     total energy              =   -2519.46673431 Ry
     estimated scf accuracy    <       0.28157793 Ry

     iteration #  3     ecut=    80.00 Ry     beta= 0.30
     Davidson diagonalization with overlap
     ethr =  9.35E-05,  avg # of iterations =  1.0

     negative rho (up, down):  1.612E-02 0.000E+00

     total cpu time spent up to now is     2681.8 secs

     total energy              =   -2519.46734301 Ry
     estimated scf accuracy    <       0.00725446 Ry

     iteration #  4     ecut=    80.00 Ry     beta= 0.30
     Davidson diagonalization with overlap
     ethr =  2.41E-06,  avg # of iterations =  2.0

     negative rho (up, down):  1.737E-02 0.000E+00

     total cpu time spent up to now is     2688.8 secs

     total energy              =   -2519.46533371 Ry
     estimated scf accuracy    <       0.05672512 Ry

     iteration #  5     ecut=    80.00 Ry     beta= 0.30
     Davidson diagonalization with overlap
     ethr =  2.41E-06,  avg # of iterations =  4.0

     negative rho (up, down):  1.687E-02 0.000E+00

     total cpu time spent up to now is     2695.9 secs

     total energy              =   -2519.46183819 Ry
     estimated scf accuracy    <       0.27467491 Ry

     iteration #  6     ecut=    80.00 Ry     beta= 0.30
     Davidson diagonalization with overlap
     ethr =  2.41E-06,  avg # of iterations =  2.4

     negative rho (up, down):  1.739E-02 0.000E+00

     total cpu time spent up to now is     2702.8 secs

     total energy              =   -2519.46889286 Ry
     estimated scf accuracy    <       0.20996607 Ry

     iteration #  7     ecut=    80.00 Ry     beta= 0.30
     Davidson diagonalization with overlap
     ethr =  2.41E-06,  avg # of iterations =  2.1

     negative rho (up, down):  1.765E-02 0.000E+00

     total cpu time spent up to now is     2709.3 secs

     total energy              =   -2519.46679001 Ry
     estimated scf accuracy    <       0.21669811 Ry

     iteration #  8     ecut=    80.00 Ry     beta= 0.30
     Davidson diagonalization with overlap
     ethr =  2.41E-06,  avg # of iterations =  1.6

     negative rho (up, down):  1.750E-02 0.000E+00

     total cpu time spent up to now is     2716.0 secs

     total energy              =   -2519.46683142 Ry
     estimated scf accuracy    <       0.02692563 Ry

     iteration #  9     ecut=    80.00 Ry     beta= 0.30
     Davidson diagonalization with overlap
     ethr =  2.41E-06,  avg # of iterations =  4.2

     negative rho (up, down):  1.732E-02 0.000E+00

     total cpu time spent up to now is     2723.2 secs

     total energy              =   -2519.46716354 Ry
     estimated scf accuracy    <       0.00918285 Ry

     iteration # 10     ecut=    80.00 Ry     beta= 0.30
     Davidson diagonalization with overlap
     ethr =  2.41E-06,  avg # of iterations =  1.0

     negative rho (up, down):  1.718E-02 0.000E+00

     total cpu time spent up to now is     2729.4 secs

     total energy              =   -2519.46721255 Ry
     estimated scf accuracy    <       0.00009608 Ry

     iteration # 11     ecut=    80.00 Ry     beta= 0.30
     Davidson diagonalization with overlap
     ethr =  3.19E-08,  avg # of iterations =  5.1

     negative rho (up, down):  1.700E-02 0.000E+00

     total cpu time spent up to now is     2736.7 secs

     total energy              =   -2519.46721614 Ry
     estimated scf accuracy    <       0.00002186 Ry

     iteration # 12     ecut=    80.00 Ry     beta= 0.30
     Davidson diagonalization with overlap
     ethr =  7.26E-09,  avg # of iterations =  4.8

     negative rho (up, down):  1.686E-02 0.000E+00

     total cpu time spent up to now is     2744.2 secs

     total energy              =   -2519.46721652 Ry
     estimated scf accuracy    <       0.00001441 Ry

     iteration # 13     ecut=    80.00 Ry     beta= 0.30
     Davidson diagonalization with overlap
     ethr =  4.79E-09,  avg # of iterations =  1.0

     negative rho (up, down):  1.668E-02 0.000E+00

     total cpu time spent up to now is     2750.5 secs

     total energy              =   -2519.46721487 Ry
     estimated scf accuracy    <       0.00000626 Ry

     iteration # 14     ecut=    80.00 Ry     beta= 0.30
     Davidson diagonalization with overlap
     ethr =  2.08E-09,  avg # of iterations =  2.1

     negative rho (up, down):  1.653E-02 0.000E+00

     total cpu time spent up to now is     2757.3 secs

     total energy              =   -2519.46721385 Ry
     estimated scf accuracy    <       0.00002480 Ry

     iteration # 15     ecut=    80.00 Ry     beta= 0.30
     Davidson diagonalization with overlap
     ethr =  2.08E-09,  avg # of iterations =  1.0

     negative rho (up, down):  1.630E-02 0.000E+00

     total cpu time spent up to now is     2763.6 secs

     total energy              =   -2519.46721258 Ry
     estimated scf accuracy    <       0.00000440 Ry

     iteration # 16     ecut=    80.00 Ry     beta= 0.30
     Davidson diagonalization with overlap
     ethr =  1.46E-09,  avg # of iterations =  1.1

     negative rho (up, down):  1.593E-02 0.000E+00

     total cpu time spent up to now is     2770.1 secs

     total energy              =   -2519.46721152 Ry
     estimated scf accuracy    <       0.00000207 Ry

     iteration # 17     ecut=    80.00 Ry     beta= 0.30
     Davidson diagonalization with overlap
     ethr =  6.88E-10,  avg # of iterations =  2.0

     negative rho (up, down):  1.579E-02 0.000E+00

     total cpu time spent up to now is     2777.2 secs

     total energy              =   -2519.46721148 Ry
     estimated scf accuracy    <       0.00000062 Ry

     iteration # 18     ecut=    80.00 Ry     beta= 0.30
     Davidson diagonalization with overlap
     ethr =  2.07E-10,  avg # of iterations =  2.0

     negative rho (up, down):  1.569E-02 0.000E+00

     total cpu time spent up to now is     2784.3 secs

     total energy              =   -2519.46721149 Ry
     estimated scf accuracy    <       0.00000026 Ry

     iteration # 19     ecut=    80.00 Ry     beta= 0.30
     Davidson diagonalization with overlap
     ethr =  8.76E-11,  avg # of iterations =  4.9

     negative rho (up, down):  1.565E-02 0.000E+00

     total cpu time spent up to now is     2791.9 secs

     total energy              =   -2519.46721155 Ry
     estimated scf accuracy    <       0.00000007 Ry

     iteration # 20     ecut=    80.00 Ry     beta= 0.30
     Davidson diagonalization with overlap
     ethr =  2.42E-11,  avg # of iterations =  4.0

     negative rho (up, down):  1.564E-02 0.000E+00

     total cpu time spent up to now is     2799.7 secs

     total energy              =   -2519.46721157 Ry
     estimated scf accuracy    <       0.00000018 Ry

     iteration # 21     ecut=    80.00 Ry     beta= 0.30
     Davidson diagonalization with overlap
     ethr =  2.42E-11,  avg # of iterations =  1.4

     negative rho (up, down):  1.564E-02 0.000E+00

     total cpu time spent up to now is     2806.6 secs

     End of self-consistent calculation

          k = 0.0000 0.0000 0.0000 ( 81491 PWs)   bands (ev):

   -57.9933 -57.9231 -57.5219 -57.4692 -57.3737 -57.2629 -57.0280 -56.9886
   -56.6528 -56.6057 -56.3865 -56.3459 -34.4727 -34.3038 -34.2230 -34.2039
   -34.1239 -34.0835 -34.0236 -33.8969 -33.8176 -33.7185 -33.7170 -33.6565
   -33.6516 -33.6482 -33.6273 -33.5927 -33.5869 -33.4695 -33.4315 -33.3030
   -33.2195 -33.2165 -33.2116 -33.1631 -33.1611 -32.9457 -32.9256 -32.9128
   -32.8775 -32.8239 -32.7610 -32.7320 -32.7150 -32.6277 -32.5220 -32.4232
   -23.4479 -18.6491 -18.3881 -18.0868 -17.8842 -17.6813 -17.6608 -17.5516
   -17.4912 -17.2954 -17.1646 -17.1483 -17.1361 -17.1153 -17.0545 -16.9935
   -16.8147 -16.7909 -16.7213 -16.6741 -16.4408 -16.1687 -16.1029 -15.9638
   -15.4675 -15.4272  -8.0631  -6.4741  -6.2661  -6.0234  -5.8940  -5.8242
    -5.5327  -5.2357  -5.0724  -5.0036  -4.9983  -4.9363  -4.8836  -4.7100
    -4.7074  -4.6726  -4.6082  -4.5836  -4.5269  -4.4583  -4.4279  -4.3941
    -4.3462  -4.3402  -4.1713  -4.1602  -4.1365  -4.0202  -3.9324  -3.6883
    -3.5159  -3.5099  -3.4940  -3.4459  -3.1897  -3.1821  -3.1544  -3.0559
    -3.0549  -2.9409  -2.9406  -2.8201  -2.7295  -2.6824  -2.6266  -2.6102
    -2.5725  -2.5492  -2.4577  -2.3721  -2.2841  -2.2784  -2.1305  -2.1248
    -2.0173  -1.9098  -1.8705  -1.8180  -1.8171  -1.6727  -1.5870  -1.4966
    -1.4764  -1.3634  -1.3054  -1.1785  -1.1686  -1.1274  -1.1135  -1.0565
    -0.8545  -0.5806  -0.5252  -0.4816  -0.4471  -0.4348  -0.3507   1.0587
     1.2167   1.3370   1.4878   1.6001   1.7275   1.9327   1.9542   2.0689
     2.1164   2.1982   2.2271   2.2693   2.5456   2.5589   2.6123   2.6512
     2.6863   2.7012   2.7355   2.8010   2.8671   2.8988   2.9032   3.0091
     3.0414   3.0800   3.0983   3.1046   3.2576

          k = 0.0000 0.2277 0.0000 ( 81407 PWs)   bands (ev):

   -57.9933 -57.9231 -57.5219 -57.4692 -57.3737 -57.2629 -57.0280 -56.9886
   -56.6528 -56.6057 -56.3865 -56.3459 -34.4737 -34.3038 -34.2230 -34.2018
   -34.1241 -34.0836 -34.0235 -33.8986 -33.8176 -33.7185 -33.7112 -33.6767
   -33.6517 -33.6482 -33.6237 -33.5869 -33.5693 -33.4695 -33.4315 -33.3124
   -33.2192 -33.2160 -33.2114 -33.1631 -33.1610 -32.9502 -32.9256 -32.9113
   -32.8772 -32.8239 -32.7642 -32.7303 -32.7150 -32.6277 -32.5220 -32.4232
   -23.4478 -18.5764 -18.2984 -17.9937 -17.8443 -17.8369 -17.6810 -17.5496
   -17.4328 -17.3729 -17.3427 -17.3075 -17.1511 -17.1108 -16.9679 -16.8534
   -16.8435 -16.7991 -16.7290 -16.6757 -16.4415 -16.1664 -16.1010 -15.9662
   -15.4656 -15.4267  -8.0624  -6.4707  -6.0275  -5.9491  -5.6351  -5.5445
    -5.5256  -5.4206  -5.2936  -5.1633  -5.0231  -4.9293  -4.8348  -4.6949
    -4.6683  -4.6355  -4.5913  -4.5496  -4.5130  -4.4263  -4.3624  -4.3280
    -4.2066  -4.1960  -4.1406  -4.0649  -3.9647  -3.9342  -3.6917  -3.6529
    -3.5858  -3.5688  -3.5150  -3.3733  -3.3158  -3.2650  -3.2310  -3.1816
    -3.1409  -3.0581  -3.0416  -2.9668  -2.8436  -2.8218  -2.7101  -2.6303
    -2.5645  -2.5463  -2.3832  -2.3705  -2.3265  -2.1899  -2.1032  -2.0799
    -2.0078  -1.9692  -1.9315  -1.8304  -1.8033  -1.7558  -1.6636  -1.6470
    -1.5029  -1.4816  -1.4220  -1.2971  -1.2447  -1.1742  -1.1261  -1.0830
    -1.0803  -0.6777  -0.5811  -0.5557  -0.4855  -0.4703  -0.4023   1.1448
     1.1481   1.4827   1.5080   1.7510   1.9175   1.9290   1.9578   2.0207
     2.0882   2.1177   2.1935   2.2089   2.3628   2.5459   2.5727   2.6380
     2.6906   2.7464   2.8432   2.8976   2.9266   2.9934   3.0057   3.0830
     3.0976   3.2390   3.2705   3.3094   3.3214

          k = 0.0000-0.4554 0.0000 ( 81286 PWs)   bands (ev):

   -57.9933 -57.9231 -57.5219 -57.4692 -57.3737 -57.2629 -57.0280 -56.9886
   -56.6528 -56.6057 -56.3865 -56.3459 -34.4748 -34.3038 -34.2230 -34.1997
   -34.1243 -34.0837 -34.0235 -33.9003 -33.8176 -33.7185 -33.7102 -33.6846
   -33.6517 -33.6482 -33.6201 -33.5869 -33.5529 -33.4693 -33.4315 -33.3222
   -33.2188 -33.2154 -33.2112 -33.1632 -33.1609 -32.9550 -32.9256 -32.9095
   -32.8770 -32.8239 -32.7674 -32.7285 -32.7151 -32.6277 -32.5220 -32.4232
   -23.4478 -18.4997 -18.1653 -17.9371 -17.8600 -17.7732 -17.7279 -17.5373
   -17.5311 -17.5133 -17.4639 -17.3065 -17.2164 -17.1209 -16.9883 -16.8831
   -16.7862 -16.7347 -16.7079 -16.6765 -16.4423 -16.1646 -16.0990 -15.9688
   -15.4639 -15.4262  -8.0618  -6.4704  -6.0089  -5.5706  -5.5431  -5.5237
    -5.5178  -5.3288  -5.1697  -5.1681  -5.0791  -4.7829  -4.7297  -4.6905
    -4.6280  -4.5886  -4.5824  -4.5309  -4.4887  -4.4647  -4.3799  -4.3055
    -4.1269  -4.0918  -4.0335  -3.9394  -3.9044  -3.8238  -3.6470  -3.6288
    -3.6279  -3.6035  -3.5792  -3.5638  -3.5144  -3.4688  -3.4033  -3.2360
    -3.1798  -3.0496  -3.0127  -3.0012  -2.9488  -2.8316  -2.7336  -2.6522
    -2.6017  -2.5652  -2.5318  -2.4136  -2.3853  -2.2019  -2.1729  -2.1304
    -2.0975  -1.9974  -1.9811  -1.9318  -1.8721  -1.7663  -1.7165  -1.5469
    -1.5047  -1.4648  -1.3799  -1.3530  -1.3413  -1.2134  -1.2063  -1.1895
    -1.0783  -0.7749  -0.6362  -0.5883  -0.5164  -0.4878  -0.4353   1.0710
     1.1702   1.4642   1.5281   1.6339   1.6536   1.8370   2.0049   2.1039
     2.1927   2.2076   2.3066   2.3290   2.4401   2.4840   2.5443   2.6736
     2.7660   2.8038   2.9214   2.9462   2.9844   3.0898   3.0920   3.1011
     3.1783   3.2960   3.3124   3.3170   3.4124

          k = 0.2500 0.0000 0.0000 ( 81478 PWs)   bands (ev):

   -57.9904 -57.9262 -57.5177 -57.4735 -57.3720 -57.2647 -57.0223 -56.9943
   -56.6475 -56.6111 -56.3805 -56.3519 -34.4099 -34.3013 -34.2220 -34.1900
   -34.0980 -34.0907 -34.0662 -33.8382 -33.8020 -33.7631 -33.7104 -33.6913
   -33.6626 -33.6438 -33.6164 -33.5880 -33.5317 -33.4951 -33.4812 -33.2912
   -33.2321 -33.2282 -33.2062 -33.1872 -33.1287 -32.9429 -32.9172 -32.9153
   -32.8364 -32.8134 -32.7827 -32.7567 -32.7362 -32.6124 -32.5377 -32.4921
   -23.4477 -18.5032 -18.2620 -17.9579 -17.8019 -17.7315 -17.6069 -17.6063
   -17.5483 -17.3107 -17.2409 -17.2260 -17.2217 -17.1206 -17.0861 -16.8865
   -16.8644 -16.7845 -16.7144 -16.6389 -16.4109 -16.2131 -16.2058 -15.9663
   -15.5130 -15.4940  -8.0641  -6.4546  -6.0664  -5.8374  -5.7102  -5.6535
    -5.2999  -5.1990  -5.1161  -5.1094  -4.9636  -4.9483  -4.9336  -4.7799
    -4.7539  -4.7404  -4.6766  -4.6483  -4.6126  -4.5944  -4.5291  -4.5165
    -4.4155  -4.3491  -4.3144  -4.0856  -3.8794  -3.8610  -3.8427  -3.7024
    -3.5397  -3.4770  -3.4340  -3.2571  -3.1968  -3.1072  -3.0219  -3.0042
    -2.9840  -2.9403  -2.8653  -2.8320  -2.6883  -2.6718  -2.6383  -2.6138
    -2.5517  -2.5248  -2.4817  -2.3916  -2.3794  -2.2586  -2.1805  -2.1457
    -2.0619  -2.0381  -1.9046  -1.8956  -1.8356  -1.7674  -1.7575  -1.6175
    -1.5809  -1.4695  -1.3575  -1.3389  -1.3199  -1.1978  -1.1244  -1.0892
    -1.0407  -0.7407  -0.7383  -0.5118  -0.4900  -0.3970  -0.3883   1.2719
     1.3286   1.4833   1.6204   1.8280   1.8855   1.8875   1.9791   2.0347
     2.0911   2.0977   2.2182   2.2784   2.3555   2.4303   2.5074   2.6202
     2.7228   2.7962   2.8266   2.8266   2.9096   2.9252   2.9499   2.9988
     3.0696   3.0819   3.1569   3.3123   3.3206

          k = 0.2500 0.2277 0.0000 ( 81485 PWs)   bands (ev):

   -57.9904 -57.9261 -57.5177 -57.4734 -57.3720 -57.2647 -57.0223 -56.9943
   -56.6475 -56.6111 -56.3806 -56.3519 -34.4108 -34.3013 -34.2220 -34.1883
   -34.0976 -34.0909 -34.0664 -33.8398 -33.8020 -33.7631 -33.7063 -33.6913
   -33.6711 -33.6438 -33.6135 -33.5880 -33.5192 -33.4957 -33.4800 -33.2991
   -33.2331 -33.2274 -33.2062 -33.1871 -33.1283 -32.9461 -32.9172 -32.9148
   -32.8364 -32.8132 -32.7827 -32.7591 -32.7351 -32.6124 -32.5377 -32.4921
   -23.4477 -18.4371 -18.1803 -17.8744 -17.8089 -17.7475 -17.6832 -17.5971
   -17.4244 -17.3963 -17.3832 -17.3351 -17.1875 -17.0922 -17.0710 -16.9703
   -16.9057 -16.7828 -16.6759 -16.6257 -16.4118 -16.2114 -16.2062 -15.9674
   -15.5116 -15.4942  -8.0636  -6.4536  -5.8417  -5.7590  -5.4501  -5.3726
    -5.2836  -5.2339  -5.1503  -5.0848  -5.0692  -4.8793  -4.8724  -4.7850
    -4.7779  -4.7300  -4.6913  -4.6251  -4.5319  -4.5186  -4.4759  -4.4029
    -4.3901  -4.3133  -4.1649  -4.0256  -3.9546  -3.8111  -3.7483  -3.7369
    -3.5091  -3.4679  -3.3692  -3.2951  -3.2514  -3.2204  -3.1728  -3.1257
    -3.0632  -2.9648  -2.9471  -2.8782  -2.8411  -2.8066  -2.7634  -2.6894
    -2.6442  -2.6138  -2.5559  -2.5149  -2.4062  -2.3634  -2.3190  -2.2360
    -2.1043  -2.0133  -1.9539  -1.8796  -1.8518  -1.8156  -1.7758  -1.6985
    -1.6157  -1.5180  -1.3594  -1.3298  -1.2849  -1.2447  -1.1760  -1.1296
    -1.0494  -0.7348  -0.7246  -0.5655  -0.5616  -0.4265  -0.3832   1.2549
     1.3598   1.6062   1.7116   1.8354   1.9194   1.9961   2.0193   2.0900
     2.1079   2.1396   2.1835   2.2330   2.3471   2.4022   2.5968   2.6411
     2.6994   2.7474   2.8819   2.9070   2.9603   2.9888   3.0056   3.0934
     3.1762   3.2120   3.3335   3.3574   3.4193

          k = 0.2500-0.4554 0.0000 ( 81408 PWs)   bands (ev):

   -57.9903 -57.9261 -57.5177 -57.4734 -57.3719 -57.2647 -57.0223 -56.9944
   -56.6475 -56.6111 -56.3806 -56.3519 -34.4117 -34.3013 -34.2220 -34.1865
   -34.0973 -34.0911 -34.0666 -33.8413 -33.8021 -33.7632 -33.7043 -33.6913
   -33.6757 -33.6439 -33.6105 -33.5880 -33.5082 -33.4962 -33.4788 -33.3071
   -33.2341 -33.2268 -33.2063 -33.1870 -33.1278 -32.9495 -32.9172 -32.9142
   -32.8364 -32.8130 -32.7827 -32.7616 -32.7341 -32.6124 -32.5377 -32.4921
   -23.4476 -18.3688 -18.0495 -17.8740 -17.7584 -17.6880 -17.6813 -17.6477
   -17.5237 -17.4541 -17.3940 -17.3434 -17.2682 -17.1866 -17.0455 -17.0152
   -16.9200 -16.7593 -16.6548 -16.6102 -16.4126 -16.2105 -16.2065 -15.9686
   -15.5104 -15.4945  -8.0632  -6.4539  -5.8308  -5.3496  -5.2874  -5.2423
    -5.1855  -5.1104  -5.0939  -5.0532  -4.9671  -4.8859  -4.8614  -4.8387
    -4.8080  -4.7305  -4.6157  -4.5620  -4.5366  -4.5005  -4.4131  -4.3191
    -4.3041  -4.0397  -4.0332  -3.9748  -3.8937  -3.7864  -3.7692  -3.7564
    -3.6593  -3.6272  -3.4058  -3.3844  -3.3410  -3.2451  -3.2450  -3.2205
    -3.1692  -3.0568  -3.0489  -3.0427  -3.0199  -2.9050  -2.8783  -2.8397
    -2.7651  -2.7201  -2.6766  -2.5574  -2.5519  -2.4921  -2.4196  -2.3429
    -2.2374  -2.1696  -1.8901  -1.8901  -1.8577  -1.7529  -1.6725  -1.6096
    -1.6062  -1.5361  -1.3912  -1.3653  -1.2553  -1.1607  -1.1180  -1.1153
    -1.0599  -0.7942  -0.7138  -0.6398  -0.6163  -0.4408  -0.3834   1.2732
     1.3656   1.6031   1.6638   1.7031   1.8519   1.8827   2.0978   2.1332
     2.1720   2.2125   2.2619   2.3684   2.4379   2.4386   2.6399   2.7480
     2.7529   2.7761   2.8772   2.9803   2.9810   3.0729   3.0892   3.2611
     3.2711   3.3045   3.3551   3.3831   3.4709

          k =-0.5000 0.0000 0.0000 ( 81532 PWs)   bands (ev):

   -57.9871 -57.9295 -57.5124 -57.4787 -57.3701 -57.2666 -57.0094 -57.0073
   -56.6398 -56.6188 -56.3665 -56.3660 -34.2989 -34.2759 -34.2290 -34.2225
   -34.1690 -34.1194 -33.9476 -33.8801 -33.7687 -33.7421 -33.7300 -33.7014
   -33.6712 -33.6320 -33.6161 -33.6032 -33.5818 -33.4952 -33.3846 -33.3789
   -33.2636 -33.2605 -33.1954 -33.1914 -32.9872 -32.9687 -32.9396 -32.9183
   -32.8674 -32.8535 -32.7467 -32.7462 -32.6554 -32.6551 -32.5755 -32.5750
   -23.4475 -18.1552 -18.1353 -18.0069 -17.8481 -17.6756 -17.6226 -17.5452
   -17.4745 -17.4245 -17.4241 -17.3519 -17.3013 -17.0462 -17.0400 -16.9376
   -16.9335 -16.6875 -16.6742 -16.4926 -16.4803 -16.3057 -16.2990 -15.9675
   -15.5688 -15.5600  -8.0651  -6.4394  -5.5684  -5.5642  -5.4204  -5.3369
    -5.2611  -5.2324  -5.2221  -5.2072  -5.1862  -5.1089  -5.1018  -5.0776
    -4.9996  -4.8693  -4.7850  -4.6581  -4.5360  -4.4333  -4.4115  -4.3478
    -4.3253  -4.1940  -4.1723  -4.1364  -4.0842  -3.7631  -3.7510  -3.5602
    -3.4557  -3.4549  -3.3787  -3.2823  -3.2576  -3.2216  -3.2155  -2.9804
    -2.9366  -2.9239  -2.8792  -2.8188  -2.7982  -2.6596  -2.5888  -2.5674
    -2.5371  -2.4224  -2.3911  -2.3639  -2.2666  -2.2446  -2.1997  -2.1055
    -2.0780  -2.0143  -2.0023  -2.0017  -1.9674  -1.9191  -1.8482  -1.8007
    -1.6286  -1.6023  -1.5571  -1.4732  -1.4181  -1.3939  -1.3206  -1.3145
    -0.8930  -0.8788  -0.5392  -0.5361  -0.4870  -0.4798  -0.4595   1.5228
     1.5806   1.6764   1.7017   1.8301   1.8619   1.9287   1.9845   1.9983
     2.0377   2.0392   2.1454   2.3457   2.3973   2.4165   2.4375   2.5282
     2.6478   2.8054   2.8166   2.8208   2.8578   2.9478   2.9802   3.0411
     3.0487   3.2346   3.2860   3.5243   3.5379

          k =-0.5000 0.2277 0.0000 ( 81508 PWs)   bands (ev):

   -57.9871 -57.9295 -57.5124 -57.4787 -57.3701 -57.2666 -57.0094 -57.0073
   -56.6398 -56.6188 -56.3665 -56.3660 -34.2989 -34.2765 -34.2297 -34.2224
   -34.1680 -34.1183 -33.9477 -33.8803 -33.7687 -33.7425 -33.7308 -33.7007
   -33.6706 -33.6320 -33.6175 -33.6011 -33.5820 -33.4927 -33.3809 -33.3755
   -33.2677 -33.2648 -33.1954 -33.1914 -32.9871 -32.9686 -32.9408 -32.9196
   -32.8673 -32.8535 -32.7473 -32.7468 -32.6553 -32.6550 -32.5755 -32.5750
   -23.4475 -18.1246 -18.0814 -17.9426 -17.8067 -17.6326 -17.5773 -17.5302
   -17.5069 -17.4868 -17.4139 -17.3206 -17.3084 -17.1387 -17.1229 -17.0284
   -17.0260 -16.6639 -16.6529 -16.4878 -16.4759 -16.3046 -16.2984 -15.9680
   -15.5686 -15.5598  -8.0648  -6.4395  -5.4220  -5.3852  -5.3378  -5.2896
    -5.1570  -5.1295  -5.0582  -5.0006  -4.9814  -4.9693  -4.9667  -4.9633
    -4.9489  -4.7915  -4.7146  -4.6167  -4.5233  -4.4339  -4.4225  -4.3758
    -4.3472  -4.3323  -4.2081  -3.9730  -3.9647  -3.9172  -3.7771  -3.6942
    -3.6456  -3.5511  -3.5008  -3.3519  -3.3264  -3.2920  -3.2670  -3.0694
    -2.9874  -2.9765  -2.9575  -2.9051  -2.8316  -2.7912  -2.7482  -2.6641
    -2.6574  -2.5759  -2.5627  -2.4650  -2.3726  -2.3588  -2.3530  -2.3284
    -2.2908  -2.2008  -2.1318  -2.0501  -1.9334  -1.8271  -1.7917  -1.7831
    -1.5119  -1.4970  -1.4731  -1.4271  -1.3121  -1.2922  -1.2646  -1.2495
    -0.9153  -0.9022  -0.6130  -0.6070  -0.4720  -0.4694  -0.4395   1.5729
     1.6134   1.7063   1.7446   1.8961   1.9420   1.9738   1.9961   2.0190
     2.0523   2.1453   2.1928   2.4045   2.4344   2.5089   2.5543   2.6660
     2.6835   2.7020   2.7340   2.8156   2.9937   3.0355   3.0455   3.0838
     3.2454   3.2573   3.2983   3.5062   3.5201

          k =-0.5000-0.4554 0.0000 ( 81484 PWs)   bands (ev):

   -57.9871 -57.9295 -57.5124 -57.4787 -57.3701 -57.2666 -57.0094 -57.0073
   -56.6398 -56.6189 -56.3665 -56.3660 -34.2989 -34.2771 -34.2303 -34.2224
   -34.1669 -34.1173 -33.9479 -33.8805 -33.7688 -33.7429 -33.7316 -33.6999
   -33.6700 -33.6320 -33.6185 -33.5993 -33.5822 -33.4901 -33.3769 -33.3717
   -33.2721 -33.2694 -33.1954 -33.1914 -32.9869 -32.9684 -32.9421 -32.9209
   -32.8672 -32.8534 -32.7479 -32.7474 -32.6552 -32.6549 -32.5755 -32.5750
   -23.4474 -18.0962 -18.0145 -17.7854 -17.7352 -17.7343 -17.6549 -17.5300
   -17.4606 -17.3651 -17.3623 -17.3547 -17.2819 -17.2304 -17.2231 -17.1724
   -17.1564 -16.6476 -16.6377 -16.4839 -16.4723 -16.3035 -16.2978 -15.9686
   -15.5684 -15.5596  -8.0647  -6.4398  -5.4241  -5.3587  -5.1454  -5.1151
    -5.0739  -4.9865  -4.9783  -4.7973  -4.7708  -4.7682  -4.6700  -4.6438
    -4.6244  -4.6025  -4.5905  -4.5176  -4.5103  -4.4568  -4.4339  -4.4117
    -4.2626  -4.2568  -4.2488  -4.2337  -4.2037  -3.9846  -3.9702  -3.9409
    -3.9287  -3.6762  -3.5300  -3.4573  -3.4461  -3.2228  -3.1554  -3.1393
    -3.0364  -3.0360  -3.0208  -3.0121  -2.9598  -2.9545  -2.9259  -2.8807
    -2.8541  -2.7686  -2.7612  -2.7373  -2.5891  -2.5715  -2.4658  -2.4641
    -2.3586  -2.2669  -2.2475  -1.9323  -1.9048  -1.8767  -1.6637  -1.6459
    -1.4226  -1.3846  -1.3780  -1.3701  -1.2921  -1.2121  -1.2106  -1.1555
    -0.9145  -0.9005  -0.6725  -0.6608  -0.4736  -0.4676  -0.4217   1.6767
     1.6969   1.7097   1.7388   1.8340   1.9273   1.9493   2.0467   2.0785
     2.0948   2.1744   2.2088   2.4141   2.4431   2.4735   2.5498   2.7770
     2.7925   2.8444   2.9053   2.9556   3.0298   3.1241   3.1938   3.2066
     3.2377   3.2615   3.4317   3.5439   3.5510

     the Fermi energy is    -0.3670 ev

!    total energy              =   -2519.46721157 Ry
     estimated scf accuracy    <       0.00000002 Ry
     smearing contrib. (-TS)   =       0.00298882 Ry
     internal energy E=F+TS    =   -2519.47020039 Ry

     The total energy is F=E-TS. E is the sum of the following terms:
     one-electron contribution =  -25739.10051302 Ry
     hartree contribution      =   12919.21715175 Ry
     xc contribution           =    -409.78405007 Ry
     ewald contribution        =   10957.66893702 Ry
     one-center paw contrib.   =    -247.47172608 Ry

     convergence has been achieved in  21 iterations

     negative rho (up, down):  1.564E-02 0.000E+00

     Forces acting on atoms (cartesian axes, Ry/au):

     atom    1 type  2   force =    -0.00010874    0.00000000    0.10613787
     atom    2 type  2   force =    -0.00058396    0.00000000   -0.08607884
     atom    3 type  2   force =    -0.00000594    0.00000000    0.00267355
     atom    4 type  2   force =    -0.00098474    0.00000000   -0.00121550
     atom    5 type  2   force =     0.00209598    0.00000000   -0.00128155
     atom    6 type  2   force =    -0.00107286    0.00000000    0.00124302
     atom    7 type  3   force =     0.00037786    0.00000000    0.03208137
     atom    8 type  3   force =     0.00004418    0.00000000    0.05342510
     atom    9 type  3   force =    -0.00279183    0.06914895   -0.03642555
     atom   10 type  3   force =    -0.00279183   -0.06914895   -0.03642555
     atom   11 type  3   force =    -0.00002355    0.00000000    0.00042224
     atom   12 type  3   force =     0.00150033    0.00000000   -0.04924683
     atom   13 type  3   force =     0.00039649    0.00016854    0.00277221
     atom   14 type  3   force =     0.00039649   -0.00016854    0.00277221
     atom   15 type  3   force =    -0.00083939    0.00000000   -0.00346143
     atom   16 type  3   force =     0.00063130    0.00000000   -0.00118253
     atom   17 type  3   force =    -0.00271583    0.00209388    0.00309244
     atom   18 type  3   force =    -0.00271583   -0.00209388    0.00309244
     atom   19 type  2   force =     0.00010501    0.00000000    0.12428962
     atom   20 type  2   force =     0.00055227    0.00000000   -0.08609045
     atom   21 type  2   force =     0.00002421    0.00000000    0.00334281
     atom   22 type  2   force =     0.00119346    0.00000000   -0.00092704
     atom   23 type  2   force =     0.00023299    0.00000000   -0.00315441
     atom   24 type  2   force =     0.00045150    0.00000000    0.00002185
     atom   25 type  3   force =    -0.00033282    0.00000000    0.03237253
     atom   26 type  3   force =    -0.00002311    0.00000000    0.05361857
     atom   27 type  3   force =     0.00277164    0.06920191   -0.03636950
     atom   28 type  3   force =     0.00277164   -0.06920191   -0.03636950
     atom   29 type  3   force =     0.00018679    0.00000000   -0.00121181
     atom   30 type  3   force =    -0.00175164    0.00000000   -0.05032956
     atom   31 type  3   force =    -0.00051099    0.00021141    0.00304717
     atom   32 type  3   force =    -0.00051099   -0.00021141    0.00304717
     atom   33 type  3   force =     0.00020746    0.00000000   -0.00604918
     atom   34 type  3   force =    -0.00093485    0.00000000    0.00199294
     atom   35 type  3   force =     0.00320396    0.00137798   -0.00019291
     atom   36 type  3   force =     0.00320396   -0.00137798   -0.00019291
     atom   37 type  3   force =    -0.00326506    0.00000000    0.00033505
     atom   38 type  3   force =    -0.00172814    0.00000000    0.00155558
     atom   39 type  1   force =     0.00334459    0.00000000    0.00486931

     Total force =     0.015896     Total SCF correction =     0.000280
     Energy error            =      6.4E-04 Ry
     Gradient error          =      6.0E-03 Ry/Bohr

     number of scf cycles    =  14
     number of bfgs steps    =  13

     energy             old  =   -2519.4665755535 Ry
     energy             new  =   -2519.4672115684 Ry

     CASE: energy            _new < energy            _old

     new trust radius        =       0.0247501839 bohr
     new conv_thr            =       0.0000000302 Ry


ATOMIC_POSITIONS (angstrom)
Ti               0.0000000000        4.8723546300        9.7447092600    0   0   0
Ti               1.4793500000        1.6241182100        9.7447092600    0   0   0
Ti              -0.0026572841        1.6241182100       13.1240345456
Ti               1.4521915070        4.8723546300       12.9981489111
Ti              -0.0167625216        4.8723546300       16.3532485322
Ti               1.4794564067        1.6241182100       16.4719778381
O                0.0000000000        1.6241182100       11.0129506900    0   0   0
O                0.0000000000        1.6241182100        8.4764678300    0   0   0
O                1.4793500000        3.6041132000        9.7447092600    0   0   0
O                1.4793500000        6.1405960600        9.7447092600    0   0   0
O               -0.0066206020        4.8723546300       14.2935291931
O                0.0000000000        4.8723546300       11.7247042500    0   0   0
O                1.4809266486        0.3273006037       13.0045919775
O                1.4809266486        2.9209358163       13.0045919775
O                0.0053775693        1.6241182100       17.5587300331
O               -0.0193940758        1.6241182100       14.9866022794
O                1.4946438271        3.6315460842       16.3463072589
O                1.4946438271        6.1131631758       16.3463072589
Ti               2.9587000000        4.8723546300        9.7447092600    0   0   0
Ti               4.4380500000        1.6241182100        9.7447092600    0   0   0
Ti               2.9597109764        1.6241182100       13.0956807688
Ti               4.4739637151        4.8723546300       13.0076325302
Ti               2.9348856944        4.8723546300       16.0999513648
Ti               4.4265229382        1.6241182100       16.4891647139
O                2.9587000000        1.6241182100       11.0129506900    0   0   0
O                2.9587000000        1.6241182100        8.4764678300    0   0   0
O                4.4380500000        3.6041132000        9.7447092600    0   0   0
O                4.4380500000        6.1405960600        9.7447092600    0   0   0
O                2.9640485795        4.8723546300       14.2835879739
O                2.9587000000        4.8723546300       11.7247042500    0   0   0
O                4.4363691493        0.3280848095       12.9920577666
O                4.4363691493        2.9201516105       12.9920577666
O                2.9453263975        1.6241182100       17.5754271231
O                2.9773613192        1.6241182100       14.9815286691
O                4.4026030643        3.6409917400       16.4291574687
O                4.4026030643        6.1037175200       16.4291574687
O                0.0767103471        4.8723546300       18.3569346650
O                1.3562229019        4.8723546300       18.8977866163
H                1.1520226287        4.8723546300       19.8547118047



     Writing config-only to output data dir ./tmp_s0_OOH__2x1v_mir/s0_OOH__2x1v_mir.save/ :
     XML data file
     NEW-OLD atomic charge density approx. for the potential

     Check: negative core charge=   -0.000001

     negative rho (up, down):  1.563E-02 0.000E+00

     total cpu time spent up to now is     2810.7 secs

     per-process dynamical memory:   250.1 Mb

     Self-consistent Calculation

     iteration #  1     ecut=    80.00 Ry     beta= 0.30
     Davidson diagonalization with overlap
     ethr =  1.00E-06,  avg # of iterations =  5.8

     negative rho (up, down):  1.593E-02 0.000E+00

     total cpu time spent up to now is     2823.8 secs

     total energy              =   -2519.45453270 Ry
     estimated scf accuracy    <       0.25729546 Ry

     iteration #  2     ecut=    80.00 Ry     beta= 0.30
     Davidson diagonalization with overlap
     ethr =  8.55E-05,  avg # of iterations =  1.0

     negative rho (up, down):  1.578E-02 0.000E+00

     total cpu time spent up to now is     2829.9 secs

     total energy              =   -2519.46913907 Ry
     estimated scf accuracy    <       0.27503857 Ry

     iteration #  3     ecut=    80.00 Ry     beta= 0.30
     Davidson diagonalization with overlap
     ethr =  8.55E-05,  avg # of iterations =  1.0

     negative rho (up, down):  1.573E-02 0.000E+00

     total cpu time spent up to now is     2836.1 secs

     total energy              =   -2519.46553894 Ry
     estimated scf accuracy    <       0.08515516 Ry

     iteration #  4     ecut=    80.00 Ry     beta= 0.30
     Davidson diagonalization with overlap
     ethr =  2.83E-05,  avg # of iterations =  1.0

     negative rho (up, down):  1.606E-02 0.000E+00

     total cpu time spent up to now is     2842.2 secs

     total energy              =   -2519.46678953 Ry
     estimated scf accuracy    <       0.11805269 Ry

     iteration #  5     ecut=    80.00 Ry     beta= 0.30
     Davidson diagonalization with overlap
     ethr =  2.83E-05,  avg # of iterations =  1.0

     negative rho (up, down):  1.605E-02 0.000E+00

     total cpu time spent up to now is     2848.8 secs

     total energy              =   -2519.46759946 Ry
     estimated scf accuracy    <       0.00028996 Ry

     iteration #  6     ecut=    80.00 Ry     beta= 0.30
     Davidson diagonalization with overlap
     ethr =  9.63E-08,  avg # of iterations =  5.0

     negative rho (up, down):  1.610E-02 0.000E+00

     total cpu time spent up to now is     2856.6 secs

     total energy              =   -2519.46754304 Ry
     estimated scf accuracy    <       0.00783310 Ry

     iteration #  7     ecut=    80.00 Ry     beta= 0.30
     Davidson diagonalization with overlap
     ethr =  9.63E-08,  avg # of iterations =  4.0

     negative rho (up, down):  1.617E-02 0.000E+00

     total cpu time spent up to now is     2863.7 secs

     total energy              =   -2519.46759753 Ry
     estimated scf accuracy    <       0.00014941 Ry

     iteration #  8     ecut=    80.00 Ry     beta= 0.30
     Davidson diagonalization with overlap
     ethr =  4.96E-08,  avg # of iterations =  2.0

     negative rho (up, down):  1.613E-02 0.000E+00

     total cpu time spent up to now is     2870.6 secs

     total energy              =   -2519.46753525 Ry
     estimated scf accuracy    <       0.00087981 Ry

     iteration #  9     ecut=    80.00 Ry     beta= 0.30
     Davidson diagonalization with overlap
     ethr =  4.96E-08,  avg # of iterations =  4.8

     negative rho (up, down):  1.612E-02 0.000E+00

     total cpu time spent up to now is     2877.9 secs

     total energy              =   -2519.46763834 Ry
     estimated scf accuracy    <       0.01257246 Ry

     iteration # 10     ecut=    80.00 Ry     beta= 0.30
     Davidson diagonalization with overlap
     ethr =  4.96E-08,  avg # of iterations =  1.0

     negative rho (up, down):  1.610E-02 0.000E+00

     total cpu time spent up to now is     2884.1 secs

     total energy              =   -2519.46753737 Ry
     estimated scf accuracy    <       0.00825172 Ry

     iteration # 11     ecut=    80.00 Ry     beta= 0.30
     Davidson diagonalization with overlap
     ethr =  4.96E-08,  avg # of iterations =  2.0

     negative rho (up, down):  1.604E-02 0.000E+00

     total cpu time spent up to now is     2890.9 secs

     total energy              =   -2519.46758724 Ry
     estimated scf accuracy    <       0.00001339 Ry

     iteration # 12     ecut=    80.00 Ry     beta= 0.30
     Davidson diagonalization with overlap
     ethr =  4.45E-09,  avg # of iterations =  4.7

     negative rho (up, down):  1.598E-02 0.000E+00

     total cpu time spent up to now is     2898.2 secs

     total energy              =   -2519.46758759 Ry
     estimated scf accuracy    <       0.00000340 Ry

     iteration # 13     ecut=    80.00 Ry     beta= 0.30
     Davidson diagonalization with overlap
     ethr =  1.13E-09,  avg # of iterations =  3.3

     negative rho (up, down):  1.593E-02 0.000E+00

     total cpu time spent up to now is     2905.2 secs

     total energy              =   -2519.46758755 Ry
     estimated scf accuracy    <       0.00000119 Ry

     iteration # 14     ecut=    80.00 Ry     beta= 0.30
     Davidson diagonalization with overlap
     ethr =  3.96E-10,  avg # of iterations =  4.8

     negative rho (up, down):  1.588E-02 0.000E+00

     total cpu time spent up to now is     2912.6 secs

     total energy              =   -2519.46758762 Ry
     estimated scf accuracy    <       0.00000044 Ry

     iteration # 15     ecut=    80.00 Ry     beta= 0.30
     Davidson diagonalization with overlap
     ethr =  1.47E-10,  avg # of iterations =  2.2

     negative rho (up, down):  1.580E-02 0.000E+00

     total cpu time spent up to now is     2919.7 secs

     total energy              =   -2519.46758758 Ry
     estimated scf accuracy    <       0.00000035 Ry

     iteration # 16     ecut=    80.00 Ry     beta= 0.30
     Davidson diagonalization with overlap
     ethr =  1.16E-10,  avg # of iterations =  3.3

     negative rho (up, down):  1.573E-02 0.000E+00

     total cpu time spent up to now is     2926.8 secs

     total energy              =   -2519.46758761 Ry
     estimated scf accuracy    <       0.00000024 Ry

     iteration # 17     ecut=    80.00 Ry     beta= 0.30
     Davidson diagonalization with overlap
     ethr =  7.83E-11,  avg # of iterations =  1.8

     negative rho (up, down):  1.567E-02 0.000E+00

     total cpu time spent up to now is     2933.6 secs

     total energy              =   -2519.46758765 Ry
     estimated scf accuracy    <       0.00000009 Ry

     iteration # 18     ecut=    80.00 Ry     beta= 0.30
     Davidson diagonalization with overlap
     ethr =  3.08E-11,  avg # of iterations =  3.1

     negative rho (up, down):  1.564E-02 0.000E+00

     total cpu time spent up to now is     2940.7 secs

     total energy              =   -2519.46758768 Ry
     estimated scf accuracy    <       0.00000007 Ry

     iteration # 19     ecut=    80.00 Ry     beta= 0.30
     Davidson diagonalization with overlap
     ethr =  2.24E-11,  avg # of iterations =  1.4

     negative rho (up, down):  1.561E-02 0.000E+00

     total cpu time spent up to now is     2947.0 secs

     End of self-consistent calculation

          k = 0.0000 0.0000 0.0000 ( 81491 PWs)   bands (ev):

   -57.9911 -57.9195 -57.5317 -57.4783 -57.3578 -57.2808 -57.0315 -56.9920
   -56.6562 -56.6107 -56.3761 -56.3356 -34.4693 -34.3029 -34.2202 -34.2009
   -34.1298 -34.0800 -34.0201 -33.8950 -33.8247 -33.7265 -33.7260 -33.6690
   -33.6653 -33.6569 -33.6189 -33.5958 -33.5690 -33.4800 -33.4345 -33.3065
   -33.2236 -33.2227 -33.2154 -33.1669 -33.1651 -32.9478 -32.9312 -32.9175
   -32.8674 -32.8298 -32.7510 -32.7220 -32.7209 -32.6172 -32.5115 -32.4129
   -23.4104 -18.6435 -18.3825 -18.0880 -17.8819 -17.6759 -17.6561 -17.5563
   -17.4858 -17.2964 -17.1591 -17.1504 -17.1352 -17.1164 -17.0574 -17.0023
   -16.8021 -16.7913 -16.7239 -16.6711 -16.4341 -16.1802 -16.1136 -15.9583
   -15.4585 -15.4194  -8.0441  -6.4508  -6.2601  -6.0168  -5.8958  -5.8245
    -5.5289  -5.2219  -5.0623  -4.9978  -4.9953  -4.9289  -4.8860  -4.7024
    -4.7015  -4.6724  -4.6053  -4.5855  -4.5154  -4.4562  -4.4258  -4.3892
    -4.3476  -4.3470  -4.1735  -4.1642  -4.1364  -4.0213  -3.9337  -3.6843
    -3.5301  -3.5164  -3.4884  -3.4441  -3.1908  -3.1677  -3.1560  -3.0573
    -3.0546  -2.9426  -2.9383  -2.8141  -2.7348  -2.6794  -2.6282  -2.6126
    -2.5745  -2.5475  -2.4485  -2.3700  -2.2846  -2.2846  -2.1315  -2.1207
    -2.0149  -1.9118  -1.8786  -1.8170  -1.8097  -1.6688  -1.5896  -1.4989
    -1.4842  -1.3702  -1.3102  -1.1777  -1.1629  -1.1380  -1.1064  -1.0569
    -0.8591  -0.5786  -0.5168  -0.4735  -0.4367  -0.4285  -0.3456   1.0569
     1.2175   1.3274   1.4889   1.5944   1.7277   1.9263   1.9502   2.0721
     2.1168   2.2019   2.2404   2.2665   2.5453   2.5599   2.6077   2.6500
     2.6860   2.7012   2.7446   2.7962   2.8653   2.8912   2.9054   3.0182
     3.0387   3.0696   3.0993   3.1089   3.2616

          k = 0.0000 0.2277 0.0000 ( 81407 PWs)   bands (ev):

   -57.9911 -57.9195 -57.5316 -57.4783 -57.3578 -57.2808 -57.0315 -56.9920
   -56.6562 -56.6107 -56.3762 -56.3356 -34.4704 -34.3029 -34.2202 -34.1988
   -34.1301 -34.0800 -34.0201 -33.8967 -33.8247 -33.7264 -33.7203 -33.6843
   -33.6691 -33.6568 -33.6149 -33.5736 -33.5690 -33.4803 -33.4345 -33.3158
   -33.2229 -33.2224 -33.2153 -33.1669 -33.1651 -32.9525 -32.9312 -32.9157
   -32.8671 -32.8298 -32.7542 -32.7210 -32.7202 -32.6172 -32.5115 -32.4130
   -23.4104 -18.5705 -18.2923 -17.9951 -17.8389 -17.8347 -17.6764 -17.5539
   -17.4337 -17.3739 -17.3371 -17.3037 -17.1555 -17.1121 -16.9691 -16.8548
   -16.8462 -16.7935 -16.7261 -16.6726 -16.4348 -16.1780 -16.1118 -15.9604
   -15.4566 -15.4189  -8.0434  -6.4470  -6.0194  -5.9427  -5.6357  -5.5457
    -5.5219  -5.4155  -5.2890  -5.1475  -5.0251  -4.9264  -4.8289  -4.6868
    -4.6633  -4.6342  -4.5889  -4.5471  -4.5045  -4.4258  -4.3684  -4.3238
    -4.2150  -4.1939  -4.1397  -4.0600  -3.9656  -3.9349  -3.6898  -3.6506
    -3.5861  -3.5636  -3.5340  -3.3710  -3.3143  -3.2671  -3.2304  -3.1674
    -3.1407  -3.0620  -3.0448  -2.9665  -2.8423  -2.8257  -2.7091  -2.6302
    -2.5604  -2.5444  -2.3822  -2.3717  -2.3235  -2.1871  -2.1063  -2.0792
    -2.0066  -1.9772  -1.9340  -1.8264  -1.8060  -1.7522  -1.6651  -1.6474
    -1.5090  -1.4814  -1.4287  -1.2947  -1.2437  -1.1851  -1.1329  -1.0795
    -1.0761  -0.6765  -0.5739  -0.5463  -0.4747  -0.4642  -0.3943   1.1366
     1.1475   1.4834   1.5044   1.7535   1.9159   1.9248   1.9579   2.0203
     2.0916   2.1274   2.1874   2.2092   2.3549   2.5444   2.5772   2.6344
     2.6879   2.7470   2.8408   2.8974   2.9284   2.9862   3.0148   3.0781
     3.1074   3.2328   3.2738   3.3032   3.3264

          k = 0.0000-0.4554 0.0000 ( 81286 PWs)   bands (ev):

   -57.9911 -57.9195 -57.5316 -57.4783 -57.3578 -57.2808 -57.0316 -56.9920
   -56.6562 -56.6107 -56.3762 -56.3356 -34.4714 -34.3029 -34.2202 -34.1968
   -34.1303 -34.0801 -34.0200 -33.8984 -33.8247 -33.7264 -33.7189 -33.6924
   -33.6691 -33.6568 -33.6110 -33.5690 -33.5576 -33.4805 -33.4345 -33.3254
   -33.2222 -33.2221 -33.2152 -33.1669 -33.1651 -32.9575 -32.9312 -32.9137
   -32.8669 -32.8298 -32.7574 -32.7210 -32.7185 -32.6172 -32.5115 -32.4130
   -23.4103 -18.4930 -18.1591 -17.9316 -17.8615 -17.7707 -17.7222 -17.5412
   -17.5279 -17.5139 -17.4663 -17.3119 -17.2111 -17.1201 -16.9913 -16.8842
   -16.7818 -16.7373 -16.7043 -16.6731 -16.4356 -16.1764 -16.1101 -15.9627
   -15.4549 -15.4185  -8.0428  -6.4467  -5.9999  -5.5648  -5.5365  -5.5197
    -5.5148  -5.3200  -5.1859  -5.1625  -5.0621  -4.7782  -4.7249  -4.6831
    -4.6231  -4.5845  -4.5830  -4.5329  -4.4793  -4.4692  -4.3873  -4.2930
    -4.1199  -4.1069  -4.0304  -3.9364  -3.9047  -3.8207  -3.6418  -3.6246
    -3.6216  -3.6055  -3.5849  -3.5623  -3.5345  -3.4689  -3.4096  -3.2349
    -3.1656  -3.0461  -3.0184  -3.0003  -2.9470  -2.8346  -2.7361  -2.6518
    -2.6020  -2.5604  -2.5300  -2.4098  -2.3874  -2.2027  -2.1712  -2.1278
    -2.1015  -2.0076  -1.9864  -1.9331  -1.8637  -1.7631  -1.7182  -1.5467
    -1.5047  -1.4722  -1.3842  -1.3574  -1.3394  -1.2219  -1.2032  -1.1942
    -1.0713  -0.7757  -0.6288  -0.5787  -0.5053  -0.4802  -0.4258   1.0702
     1.1590   1.4655   1.5327   1.6278   1.6514   1.8412   2.0021   2.1072
     2.1982   2.2029   2.3022   2.3307   2.4342   2.4859   2.5430   2.6699
     2.7684   2.8042   2.9210   2.9480   2.9741   3.0895   3.0900   3.1063
     3.1748   3.2955   3.3102   3.3220   3.4041

          k = 0.2500 0.0000 0.0000 ( 81478 PWs)   bands (ev):

   -57.9882 -57.9225 -57.5275 -57.4825 -57.3552 -57.2835 -57.0258 -56.9978
   -56.6507 -56.6163 -56.3702 -56.3416 -34.4066 -34.3004 -34.2189 -34.1871
   -34.0943 -34.0872 -34.0730 -33.8356 -33.8090 -33.7713 -33.7196 -33.6987
   -33.6714 -33.6613 -33.6061 -33.5703 -33.5349 -33.4990 -33.4936 -33.2947
   -33.2354 -33.2316 -33.2101 -33.1913 -33.1358 -32.9448 -32.9228 -32.9202
   -32.8422 -32.8032 -32.7889 -32.7467 -32.7262 -32.6020 -32.5272 -32.4819
   -23.4102 -18.4980 -18.2560 -17.9596 -17.7991 -17.7302 -17.6067 -17.6009
   -17.5446 -17.3105 -17.2354 -17.2275 -17.2226 -17.1211 -17.0883 -16.8932
   -16.8647 -16.7871 -16.7029 -16.6346 -16.4053 -16.2249 -16.2173 -15.9605
   -15.5046 -15.4865  -8.0451  -6.4308  -6.0606  -5.8312  -5.7116  -5.6544
    -5.2965  -5.1824  -5.1113  -5.1012  -4.9571  -4.9419  -4.9337  -4.7795
    -4.7505  -4.7357  -4.6731  -4.6438  -4.6104  -4.5912  -4.5269  -4.5208
    -4.4181  -4.3492  -4.3162  -4.0843  -3.8817  -3.8606  -3.8421  -3.7050
    -3.5381  -3.4852  -3.4323  -3.2567  -3.1977  -3.1049  -3.0175  -2.9992
    -2.9855  -2.9408  -2.8605  -2.8292  -2.6898  -2.6692  -2.6367  -2.6130
    -2.5523  -2.5207  -2.4824  -2.3943  -2.3827  -2.2640  -2.1825  -2.1461
    -2.0602  -2.0402  -1.9041  -1.8879  -1.8424  -1.7586  -1.7554  -1.6237
    -1.5834  -1.4747  -1.3637  -1.3415  -1.3253  -1.1951  -1.1249  -1.0977
    -1.0308  -0.7364  -0.7338  -0.5049  -0.4825  -0.3907  -0.3805   1.2728
     1.3243   1.4834   1.6157   1.8248   1.8845   1.8878   1.9818   2.0239
     2.0900   2.1013   2.2157   2.2874   2.3628   2.4274   2.4954   2.6184
     2.7203   2.7920   2.8231   2.8257   2.9063   2.9312   2.9459   2.9901
     3.0677   3.0852   3.1494   3.3165   3.3310

          k = 0.2500 0.2277 0.0000 ( 81485 PWs)   bands (ev):

   -57.9882 -57.9225 -57.5275 -57.4825 -57.3552 -57.2835 -57.0258 -56.9978
   -56.6507 -56.6163 -56.3702 -56.3416 -34.4075 -34.3004 -34.2189 -34.1854
   -34.0939 -34.0874 -34.0733 -33.8371 -33.8091 -33.7713 -33.7156 -33.6987
   -33.6793 -33.6614 -33.6029 -33.5703 -33.5229 -33.4995 -33.4927 -33.3025
   -33.2363 -33.2308 -33.2101 -33.1912 -33.1354 -32.9481 -32.9228 -32.9195
   -32.8422 -32.8030 -32.7889 -32.7492 -32.7251 -32.6020 -32.5272 -32.4819
   -23.4102 -18.4316 -18.1737 -17.8766 -17.8040 -17.7432 -17.6862 -17.5936
   -17.4207 -17.3956 -17.3795 -17.3367 -17.1868 -17.0934 -17.0745 -16.9714
   -16.9079 -16.7838 -16.6675 -16.6220 -16.4060 -16.2236 -16.2176 -15.9615
   -15.5032 -15.4868  -8.0446  -6.4297  -5.8341  -5.7530  -5.4507  -5.3739
    -5.2799  -5.2285  -5.1313  -5.0804  -5.0648  -4.8791  -4.8673  -4.7870
    -4.7724  -4.7248  -4.6874  -4.6212  -4.5342  -4.5141  -4.4776  -4.4007
    -4.3939  -4.3084  -4.1671  -4.0247  -3.9571  -3.8101  -3.7496  -3.7376
    -3.5023  -3.4795  -3.3712  -3.2930  -3.2522  -3.2215  -3.1693  -3.1184
    -3.0588  -2.9653  -2.9467  -2.8774  -2.8380  -2.8029  -2.7632  -2.6861
    -2.6458  -2.6142  -2.5579  -2.5177  -2.4080  -2.3653  -2.3215  -2.2375
    -2.1058  -2.0130  -1.9547  -1.8802  -1.8482  -1.8163  -1.7756  -1.6984
    -1.6204  -1.5269  -1.3607  -1.3277  -1.2887  -1.2441  -1.1791  -1.1350
    -1.0411  -0.7333  -0.7183  -0.5595  -0.5533  -0.4180  -0.3758   1.2555
     1.3513   1.6068   1.7102   1.8369   1.9160   1.9980   2.0224   2.0928
     2.1097   2.1330   2.1838   2.2280   2.3447   2.3971   2.5944   2.6389
     2.6978   2.7471   2.8797   2.9037   2.9565   2.9871   3.0041   3.0976
     3.1710   3.2040   3.3403   3.3560   3.4192

          k = 0.2500-0.4554 0.0000 ( 81408 PWs)   bands (ev):

   -57.9882 -57.9225 -57.5275 -57.4825 -57.3552 -57.2835 -57.0258 -56.9978
   -56.6507 -56.6163 -56.3703 -56.3416 -34.4084 -34.3004 -34.2189 -34.1837
   -34.0936 -34.0876 -34.0735 -33.8387 -33.8091 -33.7714 -33.7135 -33.6987
   -33.6839 -33.6615 -33.5996 -33.5703 -33.5121 -33.5000 -33.4918 -33.3104
   -33.2374 -33.2302 -33.2101 -33.1911 -33.1349 -32.9517 -32.9229 -32.9187
   -32.8422 -32.8028 -32.7888 -32.7516 -32.7241 -32.6020 -32.5272 -32.4819
   -23.4101 -18.3627 -18.0431 -17.8684 -17.7621 -17.6832 -17.6780 -17.6461
   -17.5231 -17.4549 -17.3965 -17.3392 -17.2713 -17.1849 -17.0482 -17.0167
   -16.9204 -16.7600 -16.6471 -16.6074 -16.4066 -16.2231 -16.2176 -15.9626
   -15.5021 -15.4870  -8.0442  -6.4299  -5.8228  -5.3438  -5.2826  -5.2387
    -5.1791  -5.0901  -5.0884  -5.0518  -4.9632  -4.8946  -4.8630  -4.8333
    -4.8020  -4.7256  -4.6111  -4.5630  -4.5329  -4.5045  -4.4069  -4.3276
    -4.3056  -4.0442  -4.0334  -3.9691  -3.8837  -3.7858  -3.7672  -3.7578
    -3.6577  -3.6310  -3.4169  -3.3845  -3.3346  -3.2477  -3.2475  -3.2214
    -3.1575  -3.0565  -3.0426  -3.0421  -3.0159  -2.9084  -2.8801  -2.8399
    -2.7670  -2.7196  -2.6767  -2.5555  -2.5531  -2.4927  -2.4224  -2.3460
    -2.2375  -2.1717  -1.8995  -1.8760  -1.8601  -1.7609  -1.6748  -1.6176
    -1.6086  -1.5342  -1.3885  -1.3586  -1.2605  -1.1651  -1.1211  -1.1196
    -1.0511  -0.7943  -0.7060  -0.6316  -0.6095  -0.4311  -0.3765   1.2734
     1.3562   1.6042   1.6681   1.6950   1.8530   1.8827   2.1007   2.1347
     2.1755   2.2079   2.2563   2.3675   2.4346   2.4365   2.6421   2.7417
     2.7488   2.7768   2.8755   2.9737   2.9798   3.0680   3.0894   3.2538
     3.2722   3.2970   3.3620   3.3883   3.4676

          k =-0.5000 0.0000 0.0000 ( 81532 PWs)   bands (ev):

   -57.9850 -57.9257 -57.5225 -57.4876 -57.3523 -57.2864 -57.0134 -57.0102
   -56.6420 -56.6250 -56.3562 -56.3557 -34.2980 -34.2731 -34.2249 -34.2191
   -34.1665 -34.1154 -33.9569 -33.8864 -33.7760 -33.7481 -33.7219 -33.7109
   -33.6797 -33.6462 -33.6283 -33.5891 -33.5656 -33.5114 -33.3885 -33.3816
   -33.2677 -33.2632 -33.1999 -33.1944 -32.9934 -32.9769 -32.9408 -32.9238
   -32.8715 -32.8605 -32.7367 -32.7362 -32.6452 -32.6448 -32.5650 -32.5645
   -23.4101 -18.1461 -18.1352 -18.0001 -17.8476 -17.6829 -17.6168 -17.5416
   -17.4801 -17.4191 -17.4186 -17.3517 -17.2984 -17.0496 -17.0377 -16.9404
   -16.9357 -16.6848 -16.6719 -16.4877 -16.4741 -16.3175 -16.3111 -15.9616
   -15.5614 -15.5527  -8.0461  -6.4154  -5.5630  -5.5587  -5.4112  -5.3362
    -5.2562  -5.2347  -5.2228  -5.2139  -5.1670  -5.1028  -5.0971  -5.0704
    -4.9983  -4.8649  -4.7831  -4.6626  -4.5353  -4.4280  -4.4078  -4.3507
    -4.3196  -4.1950  -4.1726  -4.1343  -4.0827  -3.7587  -3.7472  -3.5545
    -3.4657  -3.4528  -3.3814  -3.2823  -3.2575  -3.2262  -3.2170  -2.9751
    -2.9375  -2.9259  -2.8847  -2.8242  -2.7976  -2.6580  -2.5950  -2.5672
    -2.5346  -2.4206  -2.3898  -2.3588  -2.2668  -2.2379  -2.2005  -2.1010
    -2.0779  -2.0075  -2.0030  -1.9959  -1.9634  -1.9176  -1.8455  -1.7843
    -1.6407  -1.6129  -1.5677  -1.4889  -1.4212  -1.3974  -1.3189  -1.3134
    -0.8961  -0.8851  -0.5317  -0.5284  -0.4770  -0.4697  -0.4505   1.5242
     1.5831   1.6717   1.7025   1.8339   1.8664   1.9263   1.9791   1.9864
     2.0342   2.0452   2.1449   2.3418   2.3919   2.4120   2.4366   2.5244
     2.6405   2.8023   2.8122   2.8199   2.8549   2.9340   2.9774   3.0364
     3.0488   3.2415   3.2929   3.5322   3.5426

          k =-0.5000 0.2277 0.0000 ( 81508 PWs)   bands (ev):

   -57.9850 -57.9257 -57.5225 -57.4876 -57.3523 -57.2864 -57.0134 -57.0102
   -56.6420 -56.6250 -56.3562 -56.3557 -34.2980 -34.2738 -34.2256 -34.2191
   -34.1654 -34.1143 -33.9570 -33.8866 -33.7760 -33.7482 -33.7230 -33.7101
   -33.6791 -33.6462 -33.6296 -33.5870 -33.5656 -33.5089 -33.3849 -33.3782
   -33.2717 -33.2674 -33.1999 -33.1943 -32.9932 -32.9768 -32.9420 -32.9251
   -32.8714 -32.8604 -32.7373 -32.7368 -32.6451 -32.6447 -32.5650 -32.5645
   -23.4100 -18.1145 -18.0829 -17.9364 -17.8051 -17.6379 -17.5725 -17.5242
   -17.5032 -17.4834 -17.4183 -17.3203 -17.3059 -17.1415 -17.1217 -17.0305
   -17.0278 -16.6618 -16.6509 -16.4829 -16.4695 -16.3165 -16.3106 -15.9620
   -15.5612 -15.5525  -8.0458  -6.4154  -5.4122  -5.3830  -5.3328  -5.2860
    -5.1374  -5.1228  -5.0541  -5.0023  -4.9767  -4.9699  -4.9662  -4.9648
    -4.9459  -4.7860  -4.7120  -4.6190  -4.5242  -4.4272  -4.4155  -4.3751
    -4.3479  -4.3363  -4.2078  -3.9708  -3.9616  -3.9135  -3.7767  -3.6887
    -3.6510  -3.5573  -3.5010  -3.3487  -3.3272  -3.2933  -3.2685  -3.0662
    -2.9875  -2.9807  -2.9611  -2.9150  -2.8292  -2.7897  -2.7492  -2.6587
    -2.6529  -2.5730  -2.5610  -2.4605  -2.3762  -2.3571  -2.3527  -2.3284
    -2.2960  -2.1985  -2.1359  -2.0438  -1.9290  -1.8184  -1.7901  -1.7794
    -1.5213  -1.5064  -1.4796  -1.4416  -1.3119  -1.2925  -1.2641  -1.2475
    -0.9176  -0.9055  -0.6058  -0.5998  -0.4622  -0.4596  -0.4306   1.5745
     1.6164   1.7009   1.7456   1.8932   1.9319   1.9676   1.9935   2.0219
     2.0568   2.1484   2.1963   2.3998   2.4329   2.5055   2.5517   2.6565
     2.6741   2.6966   2.7314   2.8206   2.9821   3.0306   3.0414   3.0844
     3.2434   3.2595   3.3020   3.5110   3.5243

          k =-0.5000-0.4554 0.0000 ( 81484 PWs)   bands (ev):

   -57.9850 -57.9257 -57.5225 -57.4876 -57.3523 -57.2864 -57.0134 -57.0103
   -56.6420 -56.6250 -56.3562 -56.3557 -34.2980 -34.2744 -34.2262 -34.2191
   -34.1644 -34.1133 -33.9571 -33.8868 -33.7760 -33.7483 -33.7240 -33.7093
   -33.6785 -33.6463 -33.6308 -33.5850 -33.5657 -33.5065 -33.3810 -33.3744
   -33.2760 -33.2720 -33.1999 -33.1943 -32.9931 -32.9766 -32.9432 -32.9264
   -32.8714 -32.8604 -32.7379 -32.7374 -32.6450 -32.6446 -32.5650 -32.5645
   -23.4100 -18.0851 -18.0192 -17.7802 -17.7293 -17.7285 -17.6513 -17.5333
   -17.4567 -17.3677 -17.3567 -17.3515 -17.2898 -17.2319 -17.2221 -17.1742
   -17.1578 -16.6459 -16.6358 -16.4791 -16.4656 -16.3156 -16.3100 -15.9625
   -15.5610 -15.5523  -8.0456  -6.4157  -5.4143  -5.3584  -5.1393  -5.0935
    -5.0728  -4.9805  -4.9724  -4.7915  -4.7639  -4.7625  -4.6673  -4.6335
    -4.6305  -4.6091  -4.5871  -4.5326  -4.5092  -4.4508  -4.4276  -4.4055
    -4.2604  -4.2580  -4.2426  -4.2360  -4.2004  -3.9888  -3.9703  -3.9414
    -3.9338  -3.6797  -3.5355  -3.4526  -3.4441  -3.2168  -3.1559  -3.1399
    -3.0429  -3.0406  -3.0242  -3.0121  -2.9553  -2.9518  -2.9205  -2.8792
    -2.8570  -2.7637  -2.7575  -2.7364  -2.5921  -2.5781  -2.4694  -2.4636
    -2.3632  -2.2685  -2.2465  -1.9266  -1.9026  -1.8612  -1.6644  -1.6516
    -1.4304  -1.3893  -1.3863  -1.3742  -1.2925  -1.2155  -1.2109  -1.1572
    -0.9146  -0.9003  -0.6660  -0.6538  -0.4637  -0.4578  -0.4130   1.6770
     1.7002   1.7077   1.7407   1.8292   1.9221   1.9357   2.0426   2.0834
     2.0900   2.1775   2.2131   2.4104   2.4410   2.4760   2.5523   2.7774
     2.7987   2.8313   2.8949   2.9471   3.0200   3.1224   3.1958   3.2041
     3.2287   3.2592   3.4348   3.5511   3.5582

     the Fermi energy is    -0.3586 ev

!    total energy              =   -2519.46758771 Ry
     estimated scf accuracy    <       0.00000002 Ry
     smearing contrib. (-TS)   =       0.00287813 Ry
     internal energy E=F+TS    =   -2519.47046584 Ry

     The total energy is F=E-TS. E is the sum of the following terms:
     one-electron contribution =  -25713.93043086 Ry
     hartree contribution      =   12906.63102363 Ry
     xc contribution           =    -409.77357259 Ry
     ewald contribution        =   10945.07455104 Ry
     one-center paw contrib.   =    -247.47203706 Ry

     convergence has been achieved in  19 iterations

     negative rho (up, down):  1.561E-02 0.000E+00

     Forces acting on atoms (cartesian axes, Ry/au):

     atom    1 type  2   force =    -0.00011775    0.00000000    0.10520814
     atom    2 type  2   force =    -0.00058985    0.00000000   -0.08505725
     atom    3 type  2   force =     0.00002592    0.00000000    0.00114431
     atom    4 type  2   force =     0.00037224    0.00000000   -0.00004305
     atom    5 type  2   force =     0.00152792    0.00000000   -0.00017197
     atom    6 type  2   force =    -0.00041139    0.00000000   -0.00038613
     atom    7 type  3   force =     0.00039143    0.00000000    0.03272174
     atom    8 type  3   force =     0.00003824    0.00000000    0.05307385
     atom    9 type  3   force =    -0.00289649    0.06944005   -0.03637253
     atom   10 type  3   force =    -0.00289649   -0.06944005   -0.03637253
     atom   11 type  3   force =     0.00004410    0.00000000   -0.00263733
     atom   12 type  3   force =     0.00158003    0.00000000   -0.04677764
     atom   13 type  3   force =     0.00020542    0.00013817    0.00208404
     atom   14 type  3   force =     0.00020542   -0.00013817    0.00208404
     atom   15 type  3   force =    -0.00044334    0.00000000   -0.00160452
     atom   16 type  3   force =     0.00079684    0.00000000   -0.00024620
     atom   17 type  3   force =     0.00094120    0.00154464    0.00283179
     atom   18 type  3   force =     0.00094120   -0.00154464    0.00283179
     atom   19 type  2   force =     0.00011940    0.00000000    0.12405447
     atom   20 type  2   force =     0.00056246    0.00000000   -0.08506814
     atom   21 type  2   force =     0.00000184    0.00000000    0.00259062
     atom   22 type  2   force =    -0.00010102    0.00000000    0.00036124
     atom   23 type  2   force =     0.00111706    0.00000000   -0.00341424
     atom   24 type  2   force =    -0.00019487    0.00000000   -0.00173314
     atom   25 type  3   force =    -0.00037359    0.00000000    0.03328624
     atom   26 type  3   force =    -0.00002080    0.00000000    0.05328146
     atom   27 type  3   force =     0.00287219    0.06949888   -0.03631465
     atom   28 type  3   force =     0.00287219   -0.06949888   -0.03631465
     atom   29 type  3   force =    -0.00003820    0.00000000   -0.00264010
     atom   30 type  3   force =    -0.00185766    0.00000000   -0.04789067
     atom   31 type  3   force =    -0.00031403    0.00031278    0.00247658
     atom   32 type  3   force =    -0.00031403   -0.00031278    0.00247658
     atom   33 type  3   force =    -0.00010460    0.00000000   -0.00373883
     atom   34 type  3   force =    -0.00109786    0.00000000    0.00134732
     atom   35 type  3   force =    -0.00027535    0.00132026   -0.00017851
     atom   36 type  3   force =    -0.00027535   -0.00132026   -0.00017851
     atom   37 type  3   force =    -0.00124525    0.00000000    0.00122892
     atom   38 type  3   force =    -0.00384526    0.00000000   -0.00040050
     atom   39 type  1   force =     0.00279808    0.00000000    0.00445796

     Total force =     0.012442     Total SCF correction =     0.000453
     Energy error            =      3.8E-04 Ry
     Gradient error          =      4.5E-03 Ry/Bohr

     number of scf cycles    =  15
     number of bfgs steps    =  14

     energy             old  =   -2519.4672115684 Ry
     energy             new  =   -2519.4675877082 Ry

     CASE: energy            _new < energy            _old

     new trust radius        =       0.0179885415 bohr
     new conv_thr            =       0.0000000223 Ry


ATOMIC_POSITIONS (angstrom)
Ti               0.0000000000        4.8723546300        9.7447092600    0   0   0
Ti               1.4793500000        1.6241182100        9.7447092600    0   0   0
Ti              -0.0026529176        1.6241182100       13.1285034009
Ti               1.4518353007        4.8723546300       12.9978188790
Ti              -0.0145817736        4.8723546300       16.3534798386
Ti               1.4781872156        1.6241182100       16.4739617314
O                0.0000000000        1.6241182100       11.0129506900    0   0   0
O                0.0000000000        1.6241182100        8.4764678300    0   0   0
O                1.4793500000        3.6041132000        9.7447092600    0   0   0
O                1.4793500000        6.1405960600        9.7447092600    0   0   0
O               -0.0066571378        4.8723546300       14.2952235003
O                0.0000000000        4.8723546300       11.7247042500    0   0   0
O                1.4813764702        0.3271685756       13.0099184824
O                1.4813764702        2.9210678444       13.0099184824
O                0.0044000532        1.6241182100       17.5584770897
O               -0.0188616337        1.6241182100       14.9877092498
O                1.4918012409        3.6328279552       16.3515684438
O                1.4918012409        6.1118813048       16.3515684438
Ti               2.9587000000        4.8723546300        9.7447092600    0   0   0
Ti               4.4380500000        1.6241182100        9.7447092600    0   0   0
Ti               2.9597146889        1.6241182100       13.1012545638
Ti               4.4749048425        4.8723546300       13.0078871536
Ti               2.9360135195        4.8723546300       16.1004731952
Ti               4.4264844830        1.6241182100       16.4898597347
O                2.9587000000        1.6241182100       11.0129506900    0   0   0
O                2.9587000000        1.6241182100        8.4764678300    0   0   0
O                4.4380500000        3.6041132000        9.7447092600    0   0   0
O                4.4380500000        6.1405960600        9.7447092600    0   0   0
O                2.9641422425        4.8723546300       14.2857107688
O                2.9587000000        4.8723546300       11.7247042500    0   0   0
O                4.4357190093        0.3280236253       12.9973986542
O                4.4357190093        2.9202127947       12.9973986542
O                2.9451958167        1.6241182100       17.5725814530
O                2.9763159550        1.6241182100       14.9855713057
O                4.4057339215        3.6417176083       16.4307321841
O                4.4057339215        6.1029916517       16.4307321841
O                0.0745790883        4.8723546300       18.3630311318
O                1.3541182935        4.8723546300       18.9047468327
H                1.1552467211        4.8723546300       19.8636683102



     Writing config-only to output data dir ./tmp_s0_OOH__2x1v_mir/s0_OOH__2x1v_mir.save/ :
     XML data file
     NEW-OLD atomic charge density approx. for the potential

     Check: negative core charge=   -0.000001

     negative rho (up, down):  1.553E-02 0.000E+00

     total cpu time spent up to now is     2950.5 secs

     per-process dynamical memory:   249.1 Mb

     Self-consistent Calculation

     iteration #  1     ecut=    80.00 Ry     beta= 0.30
     Davidson diagonalization with overlap
     ethr =  1.00E-06,  avg # of iterations =  5.0

     negative rho (up, down):  1.555E-02 0.000E+00

     total cpu time spent up to now is     2961.6 secs

     total energy              =   -2519.46624212 Ry
     estimated scf accuracy    <       0.03303111 Ry

     iteration #  2     ecut=    80.00 Ry     beta= 0.30
     Davidson diagonalization with overlap
     ethr =  1.10E-05,  avg # of iterations =  1.0

     negative rho (up, down):  1.552E-02 0.000E+00

     total cpu time spent up to now is     2968.6 secs

     total energy              =   -2519.46475701 Ry
     estimated scf accuracy    <       0.35158038 Ry

     iteration #  3     ecut=    80.00 Ry     beta= 0.30
     Davidson diagonalization with overlap
     ethr =  1.10E-05,  avg # of iterations =  1.0

     negative rho (up, down):  1.552E-02 0.000E+00

     total cpu time spent up to now is     2974.9 secs

     total energy              =   -2519.46786399 Ry
     estimated scf accuracy    <       0.00551760 Ry

     iteration #  4     ecut=    80.00 Ry     beta= 0.30
     Davidson diagonalization with overlap
     ethr =  1.83E-06,  avg # of iterations =  1.0

     negative rho (up, down):  1.553E-02 0.000E+00

     total cpu time spent up to now is     2981.3 secs

     total energy              =   -2519.46778853 Ry
     estimated scf accuracy    <       0.00803832 Ry

     iteration #  5     ecut=    80.00 Ry     beta= 0.30
     Davidson diagonalization with overlap
     ethr =  1.83E-06,  avg # of iterations =  1.0

     negative rho (up, down):  1.554E-02 0.000E+00

     total cpu time spent up to now is     2987.5 secs

     total energy              =   -2519.46782186 Ry
     estimated scf accuracy    <       0.00059945 Ry

     iteration #  6     ecut=    80.00 Ry     beta= 0.30
     Davidson diagonalization with overlap
     ethr =  1.99E-07,  avg # of iterations =  1.0

     negative rho (up, down):  1.556E-02 0.000E+00

     total cpu time spent up to now is     2993.7 secs

     total energy              =   -2519.46782141 Ry
     estimated scf accuracy    <       0.00022584 Ry

     iteration #  7     ecut=    80.00 Ry     beta= 0.30
     Davidson diagonalization with overlap
     ethr =  7.50E-08,  avg # of iterations =  1.0

     negative rho (up, down):  1.556E-02 0.000E+00

     total cpu time spent up to now is     2999.9 secs

     total energy              =   -2519.46782200 Ry
     estimated scf accuracy    <       0.00011704 Ry

     iteration #  8     ecut=    80.00 Ry     beta= 0.30
     Davidson diagonalization with overlap
     ethr =  3.89E-08,  avg # of iterations =  1.0

     negative rho (up, down):  1.556E-02 0.000E+00

     total cpu time spent up to now is     3006.1 secs

     total energy              =   -2519.46782058 Ry
     estimated scf accuracy    <       0.00005332 Ry

     iteration #  9     ecut=    80.00 Ry     beta= 0.30
     Davidson diagonalization with overlap
     ethr =  1.77E-08,  avg # of iterations =  1.1

     negative rho (up, down):  1.556E-02 0.000E+00

     total cpu time spent up to now is     3012.5 secs

     total energy              =   -2519.46782117 Ry
     estimated scf accuracy    <       0.00000859 Ry

     iteration # 10     ecut=    80.00 Ry     beta= 0.30
     Davidson diagonalization with overlap
     ethr =  2.85E-09,  avg # of iterations =  2.0

     negative rho (up, down):  1.554E-02 0.000E+00

     total cpu time spent up to now is     3019.5 secs

     total energy              =   -2519.46782144 Ry
     estimated scf accuracy    <       0.00000125 Ry

     iteration # 11     ecut=    80.00 Ry     beta= 0.30
     Davidson diagonalization with overlap
     ethr =  4.16E-10,  avg # of iterations =  5.0

     negative rho (up, down):  1.554E-02 0.000E+00

     total cpu time spent up to now is     3027.3 secs

     total energy              =   -2519.46782152 Ry
     estimated scf accuracy    <       0.00000294 Ry

     iteration # 12     ecut=    80.00 Ry     beta= 0.30
     Davidson diagonalization with overlap
     ethr =  4.16E-10,  avg # of iterations =  2.0

     negative rho (up, down):  1.553E-02 0.000E+00

     total cpu time spent up to now is     3034.1 secs

     total energy              =   -2519.46782157 Ry
     estimated scf accuracy    <       0.00000054 Ry

     iteration # 13     ecut=    80.00 Ry     beta= 0.30
     Davidson diagonalization with overlap
     ethr =  1.80E-10,  avg # of iterations =  2.7

     negative rho (up, down):  1.553E-02 0.000E+00

     total cpu time spent up to now is     3041.0 secs

     total energy              =   -2519.46782158 Ry
     estimated scf accuracy    <       0.00000005 Ry

     iteration # 14     ecut=    80.00 Ry     beta= 0.30
     Davidson diagonalization with overlap
     ethr =  1.79E-11,  avg # of iterations =  4.2

     negative rho (up, down):  1.553E-02 0.000E+00

     total cpu time spent up to now is     3048.5 secs

     total energy              =   -2519.46782159 Ry
     estimated scf accuracy    <       0.00000003 Ry

     iteration # 15     ecut=    80.00 Ry     beta= 0.30
     Davidson diagonalization with overlap
     ethr =  1.03E-11,  avg # of iterations =  2.1

     negative rho (up, down):  1.553E-02 0.000E+00

     total cpu time spent up to now is     3054.9 secs

     End of self-consistent calculation

          k = 0.0000 0.0000 0.0000 ( 81491 PWs)   bands (ev):

   -57.9887 -57.9164 -57.5360 -57.4826 -57.3486 -57.2876 -57.0330 -56.9935
   -56.6573 -56.6120 -56.3683 -56.3277 -34.4662 -34.3014 -34.2177 -34.1981
   -34.1331 -34.0768 -34.0169 -33.8929 -33.8286 -33.7307 -33.7299 -33.6777
   -33.6693 -33.6606 -33.6141 -33.5971 -33.5576 -33.4832 -33.4341 -33.3079
   -33.2283 -33.2240 -33.2180 -33.1691 -33.1669 -32.9478 -32.9342 -32.9181
   -32.8597 -32.8326 -32.7434 -32.7236 -32.7143 -32.6093 -32.5035 -32.4051
   -23.3935 -18.6419 -18.3804 -18.0892 -17.8824 -17.6715 -17.6553 -17.5612
   -17.4814 -17.2958 -17.1547 -17.1513 -17.1349 -17.1167 -17.0582 -17.0136
   -16.7926 -16.7899 -16.7246 -16.6745 -16.4294 -16.1890 -16.1216 -15.9557
   -15.4513 -15.4132  -8.0385  -6.4337  -6.2555  -6.0161  -5.8957  -5.8255
    -5.5297  -5.2174  -5.0590  -4.9956  -4.9931  -4.9259  -4.8885  -4.6983
    -4.6951  -4.6713  -4.6068  -4.5873  -4.5140  -4.4555  -4.4240  -4.3880
    -4.3520  -4.3479  -4.1787  -4.1681  -4.1378  -4.0224  -3.9364  -3.6852
    -3.5495  -3.5163  -3.4838  -3.4434  -3.1901  -3.1572  -3.1557  -3.0556
    -3.0541  -2.9457  -2.9355  -2.8096  -2.7395  -2.6771  -2.6317  -2.6153
    -2.5760  -2.5480  -2.4432  -2.3685  -2.2874  -2.2834  -2.1333  -2.1175
    -2.0148  -1.9108  -1.8834  -1.8163  -1.8042  -1.6672  -1.5905  -1.5066
    -1.4882  -1.3741  -1.3149  -1.1779  -1.1586  -1.1500  -1.1008  -1.0574
    -0.8596  -0.5771  -0.5104  -0.4671  -0.4289  -0.4235  -0.3421   1.0575
     1.2188   1.3247   1.4907   1.5926   1.7308   1.9233   1.9501   2.0752
     2.1177   2.2053   2.2508   2.2652   2.5440   2.5613   2.6057   2.6494
     2.6869   2.7025   2.7516   2.7918   2.8650   2.8905   2.9079   3.0251
     3.0378   3.0661   3.0977   3.1169   3.2675

          k = 0.0000 0.2277 0.0000 ( 81407 PWs)   bands (ev):

   -57.9887 -57.9164 -57.5359 -57.4826 -57.3486 -57.2876 -57.0330 -56.9935
   -56.6573 -56.6120 -56.3683 -56.3277 -34.4673 -34.3014 -34.2177 -34.1960
   -34.1334 -34.0769 -34.0169 -33.8946 -33.8286 -33.7307 -33.7242 -33.6879
   -33.6778 -33.6606 -33.6100 -33.5754 -33.5576 -33.4837 -33.4340 -33.3171
   -33.2276 -33.2237 -33.2179 -33.1690 -33.1670 -32.9526 -32.9342 -32.9162
   -32.8594 -32.8326 -32.7466 -32.7237 -32.7126 -32.6093 -32.5035 -32.4052
   -23.3934 -18.5695 -18.2895 -17.9967 -17.8348 -17.8344 -17.6755 -17.5586
   -17.4325 -17.3741 -17.3327 -17.3002 -17.1611 -17.1143 -16.9692 -16.8552
   -16.8472 -16.7907 -16.7226 -16.6758 -16.4302 -16.1867 -16.1199 -15.9577
   -15.4495 -15.4128  -8.0378  -6.4294  -6.0178  -5.9388  -5.6360  -5.5469
    -5.5229  -5.4129  -5.2868  -5.1421  -5.0261  -4.9269  -4.8273  -4.6813
    -4.6592  -4.6359  -4.5907  -4.5464  -4.5045  -4.4258  -4.3722  -4.3217
    -4.2207  -4.1939  -4.1399  -4.0581  -3.9665  -3.9360  -3.6881  -3.6497
    -3.5887  -3.5595  -3.5516  -3.3713  -3.3129  -3.2668  -3.2307  -3.1568
    -3.1402  -3.0640  -3.0464  -2.9655  -2.8400  -2.8280  -2.7079  -2.6319
    -2.5586  -2.5428  -2.3818  -2.3712  -2.3223  -2.1849  -2.1093  -2.0793
    -2.0047  -1.9826  -1.9349  -1.8230  -1.8077  -1.7518  -1.6696  -1.6480
    -1.5132  -1.4808  -1.4338  -1.2947  -1.2436  -1.1975  -1.1369  -1.0788
    -1.0707  -0.6765  -0.5682  -0.5389  -0.4667  -0.4594  -0.3882   1.1340
     1.1484   1.4850   1.5045   1.7558   1.9151   1.9241   1.9600   2.0234
     2.0948   2.1333   2.1846   2.2100   2.3532   2.5428   2.5799   2.6332
     2.6872   2.7488   2.8403   2.8975   2.9305   2.9841   3.0218   3.0767
     3.1155   3.2290   3.2786   3.3030   3.3309

          k = 0.0000-0.4554 0.0000 ( 81286 PWs)   bands (ev):

   -57.9887 -57.9164 -57.5359 -57.4826 -57.3486 -57.2876 -57.0330 -56.9935
   -56.6574 -56.6120 -56.3683 -56.3277 -34.4683 -34.3014 -34.2178 -34.1940
   -34.1336 -34.0770 -34.0169 -33.8964 -33.8286 -33.7307 -33.7226 -33.6960
   -33.6778 -33.6605 -33.6059 -33.5596 -33.5576 -33.4841 -33.4340 -33.3267
   -33.2269 -33.2234 -33.2179 -33.1689 -33.1670 -32.9576 -32.9342 -32.9142
   -32.8592 -32.8326 -32.7498 -32.7237 -32.7109 -32.6093 -32.5035 -32.4052
   -23.3934 -18.4929 -18.1558 -17.9272 -17.8632 -17.7694 -17.7213 -17.5457
   -17.5253 -17.5124 -17.4673 -17.3165 -17.2069 -17.1206 -16.9923 -16.8845
   -16.7811 -16.7383 -16.7006 -16.6759 -16.4310 -16.1852 -16.1182 -15.9598
   -15.4478 -15.4123  -8.0372  -6.4290  -5.9990  -5.5600  -5.5314  -5.5205
    -5.5155  -5.3166  -5.1949  -5.1614  -5.0553  -4.7776  -4.7242  -4.6793
    -4.6191  -4.5861  -4.5822  -4.5394  -4.4805  -4.4701  -4.3917  -4.2864
    -4.1155  -4.1100  -4.0299  -3.9366  -3.9054  -3.8199  -3.6377  -3.6225
    -3.6165  -3.6070  -3.5877  -3.5618  -3.5537  -3.4699  -3.4122  -3.2303
    -3.1549  -3.0435  -3.0214  -2.9991  -2.9453  -2.8366  -2.7375  -2.6518
    -2.6038  -2.5569  -2.5284  -2.4070  -2.3913  -2.2046  -2.1698  -2.1273
    -2.1031  -2.0136  -1.9946  -1.9328  -1.8577  -1.7626  -1.7194  -1.5481
    -1.5042  -1.4762  -1.3874  -1.3620  -1.3386  -1.2350  -1.1991  -1.1987
    -1.0657  -0.7785  -0.6228  -0.5715  -0.4971  -0.4743  -0.4179   1.0707
     1.1554   1.4675   1.5365   1.6238   1.6521   1.8452   2.0022   2.1103
     2.2009   2.2046   2.3024   2.3328   2.4318   2.4872   2.5414   2.6687
     2.7715   2.8059   2.9204   2.9503   2.9703   3.0884   3.0895   3.1141
     3.1721   3.2945   3.3100   3.3294   3.4019

          k = 0.2500 0.0000 0.0000 ( 81478 PWs)   bands (ev):

   -57.9858 -57.9193 -57.5319 -57.4868 -57.3452 -57.2911 -57.0273 -56.9993
   -56.6517 -56.6177 -56.3624 -56.3337 -34.4035 -34.2989 -34.2161 -34.1843
   -34.0911 -34.0840 -34.0769 -33.8336 -33.8125 -33.7756 -33.7235 -33.7024
   -33.6753 -33.6695 -33.6003 -33.5592 -33.5362 -33.4987 -33.4978 -33.2961
   -33.2367 -33.2330 -33.2129 -33.1941 -33.1399 -32.9446 -32.9259 -32.9209
   -32.8450 -32.7955 -32.7918 -32.7391 -32.7186 -32.5940 -32.5192 -32.4741
   -23.3933 -18.4966 -18.2539 -17.9608 -17.7990 -17.7309 -17.6071 -17.5965
   -17.5431 -17.3103 -17.2310 -17.2281 -17.2219 -17.1216 -17.0893 -16.9030
   -16.8632 -16.7879 -16.6941 -16.6368 -16.4019 -16.2346 -16.2249 -15.9578
   -15.4978 -15.4807  -8.0395  -6.4130  -6.0561  -5.8312  -5.7115  -5.6555
    -5.2969  -5.1768  -5.1113  -5.0982  -4.9525  -4.9382  -4.9348  -4.7800
    -4.7490  -4.7339  -4.6714  -4.6403  -4.6101  -4.5903  -4.5301  -4.5252
    -4.4203  -4.3497  -4.3194  -4.0848  -3.8858  -3.8613  -3.8416  -3.7083
    -3.5384  -3.4962  -3.4311  -3.2566  -3.1990  -3.1030  -3.0140  -2.9957
    -2.9851  -2.9406  -2.8569  -2.8273  -2.6902  -2.6673  -2.6354  -2.6093
    -2.5532  -2.5196  -2.4832  -2.3966  -2.3872  -2.2680  -2.1832  -2.1451
    -2.0594  -2.0418  -1.9040  -1.8825  -1.8487  -1.7564  -1.7517  -1.6273
    -1.5844  -1.4814  -1.3700  -1.3450  -1.3300  -1.1938  -1.1251  -1.1015
    -1.0234  -0.7355  -0.7284  -0.4995  -0.4764  -0.3860  -0.3745   1.2742
     1.3236   1.4849   1.6148   1.8239   1.8852   1.8891   1.9845   2.0190
     2.0903   2.1045   2.2146   2.2928   2.3696   2.4274   2.4892   2.6177
     2.7209   2.7915   2.8226   2.8269   2.9063   2.9359   2.9452   2.9878
     3.0687   3.0876   3.1480   3.3205   3.3393

          k = 0.2500 0.2277 0.0000 ( 81485 PWs)   bands (ev):

   -57.9858 -57.9193 -57.5318 -57.4868 -57.3452 -57.2911 -57.0273 -56.9993
   -56.6517 -56.6177 -56.3624 -56.3337 -34.4044 -34.2989 -34.2161 -34.1826
   -34.0908 -34.0842 -34.0771 -33.8351 -33.8127 -33.7756 -33.7195 -33.7024
   -33.6831 -33.6696 -33.5969 -33.5592 -33.5244 -33.4993 -33.4971 -33.3038
   -33.2376 -33.2322 -33.2129 -33.1939 -33.1395 -32.9480 -32.9259 -32.9202
   -32.8450 -32.7953 -32.7918 -32.7415 -32.7175 -32.5940 -32.5192 -32.4741
   -23.3933 -18.4310 -18.1710 -17.8784 -17.8001 -17.7424 -17.6892 -17.5927
   -17.4179 -17.3939 -17.3761 -17.3372 -17.1869 -17.0953 -17.0765 -16.9719
   -16.9086 -16.7872 -16.6605 -16.6244 -16.4025 -16.2336 -16.2250 -15.9587
   -15.4965 -15.4809  -8.0390  -6.4117  -5.8334  -5.7489  -5.4510  -5.3752
    -5.2802  -5.2269  -5.1243  -5.0799  -5.0627  -4.8816  -4.8637  -4.7885
    -4.7691  -4.7221  -4.6853  -4.6189  -4.5387  -4.5119  -4.4819  -4.4023
    -4.3967  -4.3049  -4.1696  -4.0260  -3.9590  -3.8101  -3.7514  -3.7378
    -3.4984  -3.4911  -3.3745  -3.2937  -3.2529  -3.2223  -3.1666  -3.1127
    -3.0554  -2.9650  -2.9467  -2.8770  -2.8348  -2.8000  -2.7625  -2.6841
    -2.6458  -2.6133  -2.5580  -2.5200  -2.4084  -2.3666  -2.3228  -2.2381
    -2.1069  -2.0153  -1.9551  -1.8842  -1.8456  -1.8166  -1.7752  -1.6997
    -1.6235  -1.5339  -1.3619  -1.3284  -1.2924  -1.2446  -1.1820  -1.1386
    -1.0350  -0.7333  -0.7131  -0.5549  -0.5467  -0.4115  -0.3701   1.2567
     1.3487   1.6084   1.7112   1.8385   1.9150   2.0005   2.0244   2.0953
     2.1097   2.1311   2.1848   2.2269   2.3439   2.3974   2.5932   2.6400
     2.6981   2.7491   2.8790   2.9030   2.9558   2.9883   3.0046   3.1022
     3.1700   3.2025   3.3436   3.3598   3.4203

          k = 0.2500-0.4554 0.0000 ( 81408 PWs)   bands (ev):

   -57.9858 -57.9193 -57.5318 -57.4868 -57.3452 -57.2911 -57.0273 -56.9993
   -56.6517 -56.6177 -56.3624 -56.3337 -34.4053 -34.2989 -34.2161 -34.1809
   -34.0904 -34.0845 -34.0773 -33.8366 -33.8128 -33.7757 -33.7173 -33.7025
   -33.6876 -33.6697 -33.5934 -33.5592 -33.5138 -33.4997 -33.4964 -33.3117
   -33.2386 -33.2316 -33.2130 -33.1938 -33.1390 -32.9516 -32.9259 -32.9193
   -32.8450 -32.7951 -32.7918 -32.7439 -32.7165 -32.5940 -32.5192 -32.4741
   -23.3932 -18.3630 -18.0400 -17.8640 -17.7648 -17.6798 -17.6792 -17.6456
   -17.5226 -17.4535 -17.3980 -17.3358 -17.2730 -17.1847 -17.0492 -17.0175
   -16.9207 -16.7637 -16.6407 -16.6100 -16.4029 -16.2333 -16.2248 -15.9597
   -15.4953 -15.4811  -8.0386  -6.4118  -5.8225  -5.3394  -5.2823  -5.2393
    -5.1749  -5.0874  -5.0830  -5.0529  -4.9615  -4.8998  -4.8661  -4.8292
    -4.7973  -4.7249  -4.6096  -4.5659  -4.5333  -4.5075  -4.4019  -4.3340
    -4.3064  -4.0472  -4.0352  -3.9643  -3.8778  -3.7867  -3.7670  -3.7595
    -3.6580  -3.6347  -3.4293  -3.3833  -3.3295  -3.2494  -3.2494  -3.2213
    -3.1486  -3.0561  -3.0419  -3.0372  -3.0130  -2.9094  -2.8779  -2.8394
    -2.7695  -2.7197  -2.6763  -2.5540  -2.5531  -2.4942  -2.4242  -2.3485
    -2.2411  -2.1740  -1.9079  -1.8657  -1.8619  -1.7673  -1.6763  -1.6265
    -1.6076  -1.5332  -1.3886  -1.3537  -1.2644  -1.1691  -1.1271  -1.1225
    -1.0444  -0.7962  -0.6999  -0.6252  -0.6038  -0.4236  -0.3710   1.2742
     1.3532   1.6061   1.6719   1.6911   1.8549   1.8837   2.1022   2.1367
     2.1782   2.2058   2.2538   2.3677   2.4368   2.4380   2.6444   2.7389
     2.7465   2.7798   2.8749   2.9712   2.9806   3.0668   3.0913   3.2524
     3.2739   3.2947   3.3689   3.3930   3.4679

          k =-0.5000 0.0000 0.0000 ( 81532 PWs)   bands (ev):

   -57.9827 -57.9225 -57.5268 -57.4919 -57.3413 -57.2950 -57.0148 -57.0118
   -56.6428 -56.6266 -56.3483 -56.3478 -34.2965 -34.2704 -34.2214 -34.2162
   -34.1639 -34.1121 -33.9617 -33.8899 -33.7796 -33.7519 -33.7173 -33.7148
   -33.6836 -33.6513 -33.6334 -33.5806 -33.5546 -33.5183 -33.3899 -33.3828
   -33.2692 -33.2644 -33.2034 -33.1960 -32.9972 -32.9810 -32.9404 -32.9248
   -32.8739 -32.8638 -32.7291 -32.7286 -32.6374 -32.6370 -32.5570 -32.5566
   -23.3931 -18.1448 -18.1352 -17.9968 -17.8474 -17.6876 -17.6125 -17.5401
   -17.4836 -17.4147 -17.4141 -17.3519 -17.2985 -17.0531 -17.0319 -16.9415
   -16.9365 -16.6888 -16.6743 -16.4852 -16.4700 -16.3264 -16.3191 -15.9588
   -15.5553 -15.5469  -8.0404  -6.3972  -5.5589  -5.5544  -5.4108  -5.3383
    -5.2534  -5.2354  -5.2222  -5.2167  -5.1603  -5.1041  -5.0937  -5.0659
    -4.9984  -4.8650  -4.7822  -4.6674  -4.5336  -4.4279  -4.4089  -4.3562
    -4.3174  -4.1986  -4.1750  -4.1342  -4.0832  -3.7557  -3.7442  -3.5519
    -3.4734  -3.4500  -3.3829  -3.2819  -3.2564  -3.2292  -3.2169  -2.9712
    -2.9422  -2.9290  -2.8896  -2.8294  -2.7965  -2.6551  -2.5974  -2.5676
    -2.5331  -2.4200  -2.3880  -2.3553  -2.2659  -2.2368  -2.2000  -2.0967
    -2.0775  -2.0028  -2.0026  -1.9918  -1.9618  -1.9173  -1.8477  -1.7734
    -1.6508  -1.6200  -1.5734  -1.5013  -1.4241  -1.4001  -1.3176  -1.3119
    -0.8996  -0.8907  -0.5259  -0.5223  -0.4691  -0.4621  -0.4432   1.5262
     1.5856   1.6703   1.7040   1.8374   1.8701   1.9265   1.9772   1.9809
     2.0318   2.0482   2.1435   2.3401   2.3900   2.4109   2.4381   2.5260
     2.6391   2.8028   2.8107   2.8210   2.8561   2.9303   2.9770   3.0365
     3.0511   3.2484   3.2982   3.5419   3.5473

          k =-0.5000 0.2277 0.0000 ( 81508 PWs)   bands (ev):

   -57.9827 -57.9225 -57.5268 -57.4919 -57.3413 -57.2950 -57.0148 -57.0118
   -56.6428 -56.6266 -56.3483 -56.3478 -34.2965 -34.2710 -34.2221 -34.2162
   -34.1628 -34.1110 -33.9619 -33.8901 -33.7796 -33.7520 -33.7183 -33.7140
   -33.6830 -33.6514 -33.6346 -33.5784 -33.5546 -33.5159 -33.3864 -33.3793
   -33.2731 -33.2686 -33.2034 -33.1960 -32.9970 -32.9808 -32.9416 -32.9261
   -32.8738 -32.8637 -32.7297 -32.7292 -32.6373 -32.6369 -32.5570 -32.5566
   -23.3931 -18.1136 -18.0842 -17.9326 -17.8039 -17.6416 -17.5690 -17.5203
   -17.4999 -17.4810 -17.4211 -17.3203 -17.3054 -17.1435 -17.1188 -17.0313
   -17.0284 -16.6659 -16.6531 -16.4804 -16.4651 -16.3255 -16.3186 -15.9592
   -15.5551 -15.5467  -8.0402  -6.3972  -5.4116  -5.3834  -5.3289  -5.2837
    -5.1302  -5.1228  -5.0523  -5.0036  -4.9749  -4.9727  -4.9658  -4.9619
    -4.9434  -4.7852  -4.7107  -4.6225  -4.5241  -4.4240  -4.4127  -4.3778
    -4.3545  -4.3392  -4.2104  -3.9699  -3.9591  -3.9115  -3.7770  -3.6858
    -3.6542  -3.5612  -3.5013  -3.3462  -3.3276  -3.2945  -3.2692  -3.0643
    -2.9900  -2.9843  -2.9655  -2.9225  -2.8281  -2.7882  -2.7509  -2.6543
    -2.6490  -2.5707  -2.5587  -2.4577  -2.3798  -2.3559  -2.3499  -2.3259
    -2.2998  -2.1983  -2.1386  -2.0404  -1.9263  -1.8143  -1.7887  -1.7778
    -1.5283  -1.5127  -1.4865  -1.4504  -1.3131  -1.2953  -1.2633  -1.2456
    -0.9214  -0.9086  -0.6001  -0.5943  -0.4546  -0.4520  -0.4237   1.5765
     1.6191   1.6993   1.7472   1.8927   1.9272   1.9653   1.9916   2.0247
     2.0606   2.1500   2.1980   2.3987   2.4337   2.5064   2.5518   2.6523
     2.6705   2.6946   2.7328   2.8238   2.9789   3.0295   3.0410   3.0878
     3.2457   3.2639   3.3058   3.5158   3.5286

          k =-0.5000-0.4554 0.0000 ( 81484 PWs)   bands (ev):

   -57.9827 -57.9224 -57.5268 -57.4919 -57.3413 -57.2950 -57.0149 -57.0118
   -56.6428 -56.6266 -56.3483 -56.3478 -34.2965 -34.2716 -34.2227 -34.2162
   -34.1618 -34.1099 -33.9620 -33.8903 -33.7796 -33.7521 -33.7194 -33.7133
   -33.6824 -33.6515 -33.6358 -33.5764 -33.5547 -33.5136 -33.3826 -33.3756
   -33.2774 -33.2732 -33.2034 -33.1960 -32.9969 -32.9807 -32.9428 -32.9274
   -32.8737 -32.8637 -32.7303 -32.7298 -32.6372 -32.6368 -32.5570 -32.5566
   -23.3930 -18.0845 -18.0228 -17.7767 -17.7246 -17.7238 -17.6491 -17.5362
   -17.4542 -17.3705 -17.3516 -17.3483 -17.2956 -17.2323 -17.2202 -17.1749
   -17.1590 -16.6500 -16.6381 -16.4765 -16.4609 -16.3248 -16.3180 -15.9596
   -15.5549 -15.5465  -8.0400  -6.3975  -5.4137  -5.3608  -5.1401  -5.0856
    -5.0733  -4.9759  -4.9678  -4.7874  -4.7634  -4.7590  -4.6662  -4.6346
    -4.6289  -4.6139  -4.5839  -4.5431  -4.5080  -4.4478  -4.4247  -4.4034
    -4.2658  -4.2560  -4.2404  -4.2377  -4.1995  -3.9918  -3.9700  -3.9422
    -3.9357  -3.6807  -3.5376  -3.4496  -3.4437  -3.2134  -3.1562  -3.1411
    -3.0494  -3.0450  -3.0281  -3.0134  -2.9518  -2.9491  -2.9174  -2.8780
    -2.8584  -2.7609  -2.7534  -2.7360  -2.5963  -2.5803  -2.4749  -2.4617
    -2.3658  -2.2698  -2.2463  -1.9214  -1.8999  -1.8499  -1.6655  -1.6562
    -1.4356  -1.3961  -1.3895  -1.3795  -1.2931  -1.2169  -1.2124  -1.1608
    -0.9160  -0.9023  -0.6608  -0.6483  -0.4560  -0.4502  -0.4064   1.6781
     1.7033   1.7076   1.7425   1.8284   1.9203   1.9295   2.0392   2.0863
     2.0884   2.1804   2.2168   2.4101   2.4411   2.4796   2.5549   2.7802
     2.8024   2.8265   2.8879   2.9427   3.0173   3.1235   3.1990   3.2051
     3.2279   3.2607   3.4395   3.5567   3.5643

     the Fermi energy is    -0.3521 ev

!    total energy              =   -2519.46782157 Ry
     estimated scf accuracy    <       0.00000002 Ry
     smearing contrib. (-TS)   =       0.00279313 Ry
     internal energy E=F+TS    =   -2519.47061470 Ry

     The total energy is F=E-TS. E is the sum of the following terms:
     one-electron contribution =  -25705.32856147 Ry
     hartree contribution      =   12902.35033999 Ry
     xc contribution           =    -409.77473604 Ry
     ewald contribution        =   10940.75432302 Ry
     one-center paw contrib.   =    -247.47198021 Ry

     convergence has been achieved in  15 iterations

     negative rho (up, down):  1.553E-02 0.000E+00

     Forces acting on atoms (cartesian axes, Ry/au):

     atom    1 type  2   force =    -0.00012704    0.00000000    0.10447906
     atom    2 type  2   force =    -0.00050301    0.00000000   -0.08441146
     atom    3 type  2   force =     0.00007021    0.00000000   -0.00045725
     atom    4 type  2   force =     0.00101800    0.00000000    0.00034082
     atom    5 type  2   force =     0.00101779    0.00000000    0.00070145
     atom    6 type  2   force =    -0.00009130    0.00000000   -0.00129708
     atom    7 type  3   force =     0.00038833    0.00000000    0.03325611
     atom    8 type  3   force =     0.00003330    0.00000000    0.05285258
     atom    9 type  3   force =    -0.00296683    0.06965082   -0.03632241
     atom   10 type  3   force =    -0.00296683   -0.06965082   -0.03632241
     atom   11 type  3   force =     0.00018473    0.00000000   -0.00340905
     atom   12 type  3   force =     0.00157270    0.00000000   -0.04575913
     atom   13 type  3   force =     0.00002178    0.00008527    0.00142301
     atom   14 type  3   force =     0.00002178   -0.00008527    0.00142301
     atom   15 type  3   force =    -0.00029636    0.00000000   -0.00009519
     atom   16 type  3   force =     0.00076879    0.00000000    0.00064213
     atom   17 type  3   force =     0.00303396    0.00059093    0.00217166
     atom   18 type  3   force =     0.00303396   -0.00059093    0.00217166
     atom   19 type  2   force =     0.00013258    0.00000000    0.12376464
     atom   20 type  2   force =     0.00047715    0.00000000   -0.08442435
     atom   21 type  2   force =    -0.00004088    0.00000000    0.00141960
     atom   22 type  2   force =    -0.00070349    0.00000000    0.00076972
     atom   23 type  2   force =     0.00165512    0.00000000   -0.00231258
     atom   24 type  2   force =    -0.00047760    0.00000000   -0.00237416
     atom   25 type  3   force =    -0.00039256    0.00000000    0.03385885
     atom   26 type  3   force =    -0.00001725    0.00000000    0.05307928
     atom   27 type  3   force =     0.00293910    0.06971422   -0.03626366
     atom   28 type  3   force =     0.00293910   -0.06971422   -0.03626366
     atom   29 type  3   force =    -0.00023107    0.00000000   -0.00288878
     atom   30 type  3   force =    -0.00186461    0.00000000   -0.04688659
     atom   31 type  3   force =    -0.00012223    0.00027383    0.00187632
     atom   32 type  3   force =    -0.00012223   -0.00027383    0.00187632
     atom   33 type  3   force =    -0.00011379    0.00000000   -0.00107183
     atom   34 type  3   force =    -0.00103591    0.00000000    0.00052305
     atom   35 type  3   force =    -0.00229866    0.00063502   -0.00031072
     atom   36 type  3   force =    -0.00229866   -0.00063502   -0.00031072
     atom   37 type  3   force =    -0.00024161    0.00000000    0.00250931
     atom   38 type  3   force =    -0.00401945    0.00000000   -0.00067358
     atom   39 type  1   force =     0.00162300    0.00000000    0.00271605

     Total force =     0.011387     Total SCF correction =     0.000386
     Energy error            =      2.3E-04 Ry
     Gradient error          =      4.0E-03 Ry/Bohr

     number of scf cycles    =  16
     number of bfgs steps    =  15

     energy             old  =   -2519.4675877082 Ry
     energy             new  =   -2519.4678215713 Ry

     CASE: energy            _new < energy            _old

     new trust radius        =       0.0201311294 bohr
     new conv_thr            =       0.0000000201 Ry


ATOMIC_POSITIONS (angstrom)
Ti               0.0000000000        4.8723546300        9.7447092600    0   0   0
Ti               1.4793500000        1.6241182100        9.7447092600    0   0   0
Ti              -0.0025951388        1.6241182100       13.1323058552
Ti               1.4519635389        4.8723546300       12.9975528427
Ti              -0.0119054797        4.8723546300       16.3553639815
Ti               1.4768723975        1.6241182100       16.4754410813
O                0.0000000000        1.6241182100       11.0129506900    0   0   0
O                0.0000000000        1.6241182100        8.4764678300    0   0   0
O                1.4793500000        3.6041132000        9.7447092600    0   0   0
O                1.4793500000        6.1405960600        9.7447092600    0   0   0
O               -0.0065788858        4.8723546300       14.2947780636
O                0.0000000000        4.8723546300       11.7247042500    0   0   0
O                1.4817901541        0.3272524562       13.0157398399
O                1.4817901541        2.9209839638       13.0157398399
O                0.0032585639        1.6241182100       17.5584016263
O               -0.0179167827        1.6241182100       14.9896249352
O                1.4914578252        3.6344279178       16.3582407642
O                1.4914578252        6.1102813422       16.3582407642
Ti               2.9587000000        4.8723546300        9.7447092600    0   0   0
Ti               4.4380500000        1.6241182100        9.7447092600    0   0   0
Ti               2.9596796445        1.6241182100       13.1072886557
Ti               4.4755606616        4.8723546300       13.0084852358
Ti               2.9381294386        4.8723546300       16.0991917746
Ti               4.4261661114        1.6241182100       16.4895607418
O                2.9587000000        1.6241182100       11.0129506900    0   0   0
O                2.9587000000        1.6241182100        8.4764678300    0   0   0
O                4.4380500000        3.6041132000        9.7447092600    0   0   0
O                4.4380500000        6.1405960600        9.7447092600    0   0   0
O                2.9640788290        4.8723546300       14.2853055922
O                2.9587000000        4.8723546300       11.7247042500    0   0   0
O                4.4350512509        0.3283058909       13.0035341072
O                4.4350512509        2.9199305291       13.0035341072
O                2.9450204435        1.6241182100       17.5697152608
O                2.9747198242        1.6241182100       14.9899345329
O                4.4068417953        3.6428074642       16.4326310842
O                4.4068417953        6.1019017958       16.4326310842
O                0.0718884198        4.8723546300       18.3697677937
O                1.3503141792        4.8723546300       18.9119685394
H                1.1591119539        4.8723546300       19.8735952935



     Writing config-only to output data dir ./tmp_s0_OOH__2x1v_mir/s0_OOH__2x1v_mir.save/ :
     XML data file
     NEW-OLD atomic charge density approx. for the potential

     Check: negative core charge=   -0.000001

     negative rho (up, down):  1.541E-02 0.000E+00

     total cpu time spent up to now is     3058.2 secs

     per-process dynamical memory:   249.4 Mb

     Self-consistent Calculation

     iteration #  1     ecut=    80.00 Ry     beta= 0.30
     Davidson diagonalization with overlap
     ethr =  1.00E-06,  avg # of iterations =  5.0

     negative rho (up, down):  1.543E-02 0.000E+00

     total cpu time spent up to now is     3069.5 secs

     total energy              =   -2519.46687373 Ry
     estimated scf accuracy    <       0.02298125 Ry

     iteration #  2     ecut=    80.00 Ry     beta= 0.30
     Davidson diagonalization with overlap
     ethr =  7.63E-06,  avg # of iterations =  1.0

     negative rho (up, down):  1.540E-02 0.000E+00

     total cpu time spent up to now is     3075.8 secs

     total energy              =   -2519.46549155 Ry
     estimated scf accuracy    <       0.30193281 Ry

     iteration #  3     ecut=    80.00 Ry     beta= 0.30
     Davidson diagonalization with overlap
     ethr =  7.63E-06,  avg # of iterations =  1.0

     negative rho (up, down):  1.539E-02 0.000E+00

     total cpu time spent up to now is     3082.1 secs

     total energy              =   -2519.46806305 Ry
     estimated scf accuracy    <       0.00427683 Ry

     iteration #  4     ecut=    80.00 Ry     beta= 0.30
     Davidson diagonalization with overlap
     ethr =  1.42E-06,  avg # of iterations =  1.0

     negative rho (up, down):  1.538E-02 0.000E+00

     total cpu time spent up to now is     3088.4 secs

     total energy              =   -2519.46800448 Ry
     estimated scf accuracy    <       0.00629713 Ry

     iteration #  5     ecut=    80.00 Ry     beta= 0.30
     Davidson diagonalization with overlap
     ethr =  1.42E-06,  avg # of iterations =  1.0

     negative rho (up, down):  1.538E-02 0.000E+00

     total cpu time spent up to now is     3094.7 secs

     total energy              =   -2519.46802974 Ry
     estimated scf accuracy    <       0.00048636 Ry

     iteration #  6     ecut=    80.00 Ry     beta= 0.30
     Davidson diagonalization with overlap
     ethr =  1.62E-07,  avg # of iterations =  1.0

     negative rho (up, down):  1.539E-02 0.000E+00

     total cpu time spent up to now is     3100.9 secs

     total energy              =   -2519.46803011 Ry
     estimated scf accuracy    <       0.00014341 Ry

     iteration #  7     ecut=    80.00 Ry     beta= 0.30
     Davidson diagonalization with overlap
     ethr =  4.76E-08,  avg # of iterations =  1.0

     negative rho (up, down):  1.540E-02 0.000E+00

     total cpu time spent up to now is     3107.1 secs

     total energy              =   -2519.46803024 Ry
     estimated scf accuracy    <       0.00014559 Ry

     iteration #  8     ecut=    80.00 Ry     beta= 0.30
     Davidson diagonalization with overlap
     ethr =  4.76E-08,  avg # of iterations =  1.0

     negative rho (up, down):  1.541E-02 0.000E+00

     total cpu time spent up to now is     3113.4 secs

     total energy              =   -2519.46802832 Ry
     estimated scf accuracy    <       0.00008055 Ry

     iteration #  9     ecut=    80.00 Ry     beta= 0.30
     Davidson diagonalization with overlap
     ethr =  2.68E-08,  avg # of iterations =  1.0

     negative rho (up, down):  1.541E-02 0.000E+00

     total cpu time spent up to now is     3119.6 secs

     total energy              =   -2519.46802915 Ry
     estimated scf accuracy    <       0.00000561 Ry

     iteration # 10     ecut=    80.00 Ry     beta= 0.30
     Davidson diagonalization with overlap
     ethr =  1.86E-09,  avg # of iterations =  2.7

     negative rho (up, down):  1.540E-02 0.000E+00

     total cpu time spent up to now is     3126.5 secs

     total energy              =   -2519.46802938 Ry
     estimated scf accuracy    <       0.00000101 Ry

     iteration # 11     ecut=    80.00 Ry     beta= 0.30
     Davidson diagonalization with overlap
     ethr =  3.37E-10,  avg # of iterations =  5.0

     negative rho (up, down):  1.540E-02 0.000E+00

     total cpu time spent up to now is     3134.7 secs

     total energy              =   -2519.46802940 Ry
     estimated scf accuracy    <       0.00000347 Ry

     iteration # 12     ecut=    80.00 Ry     beta= 0.30
     Davidson diagonalization with overlap
     ethr =  3.37E-10,  avg # of iterations =  2.4

     negative rho (up, down):  1.540E-02 0.000E+00

     total cpu time spent up to now is     3142.3 secs

     total energy              =   -2519.46802945 Ry
     estimated scf accuracy    <       0.00000056 Ry

     iteration # 13     ecut=    80.00 Ry     beta= 0.30
     Davidson diagonalization with overlap
     ethr =  1.85E-10,  avg # of iterations =  3.7

     negative rho (up, down):  1.540E-02 0.000E+00

     total cpu time spent up to now is     3149.5 secs

     total energy              =   -2519.46802946 Ry
     estimated scf accuracy    <       0.00000007 Ry

     iteration # 14     ecut=    80.00 Ry     beta= 0.30
     Davidson diagonalization with overlap
     ethr =  2.42E-11,  avg # of iterations =  4.7

     negative rho (up, down):  1.540E-02 0.000E+00

     total cpu time spent up to now is     3156.8 secs

     total energy              =   -2519.46802947 Ry
     estimated scf accuracy    <       0.00000005 Ry

     iteration # 15     ecut=    80.00 Ry     beta= 0.30
     Davidson diagonalization with overlap
     ethr =  1.59E-11,  avg # of iterations =  2.7

     negative rho (up, down):  1.540E-02 0.000E+00

     total cpu time spent up to now is     3163.8 secs

     total energy              =   -2519.46802947 Ry
     estimated scf accuracy    <       0.00000002 Ry

     iteration # 16     ecut=    80.00 Ry     beta= 0.30
     Davidson diagonalization with overlap
     ethr =  7.55E-12,  avg # of iterations =  2.0

     negative rho (up, down):  1.541E-02 0.000E+00

     total cpu time spent up to now is     3170.2 secs

     End of self-consistent calculation

          k = 0.0000 0.0000 0.0000 ( 81491 PWs)   bands (ev):

   -57.9845 -57.9119 -57.5362 -57.4831 -57.3484 -57.2881 -57.0343 -56.9949
   -56.6569 -56.6110 -56.3610 -56.3205 -34.4617 -34.2977 -34.2137 -34.1937
   -34.1333 -34.0724 -34.0123 -33.8931 -33.8291 -33.7315 -33.7300 -33.6787
   -33.6697 -33.6607 -33.6147 -33.5983 -33.5560 -33.4837 -33.4339 -33.3090
   -33.2312 -33.2252 -33.2203 -33.1708 -33.1681 -32.9465 -32.9352 -32.9164
   -32.8526 -32.8332 -32.7363 -32.7239 -32.7072 -32.6020 -32.4961 -32.3979
   -23.3931 -18.6402 -18.3788 -18.0900 -17.8828 -17.6663 -17.6539 -17.5634
   -17.4761 -17.2946 -17.1518 -17.1493 -17.1326 -17.1166 -17.0577 -17.0240
   -16.7883 -16.7832 -16.7240 -16.6794 -16.4240 -16.1941 -16.1262 -15.9541
   -15.4449 -15.4080  -8.0415  -6.4204  -6.2502  -6.0163  -5.8947  -5.8262
    -5.5297  -5.2166  -5.0582  -4.9952  -4.9877  -4.9238  -4.8891  -4.6932
    -4.6880  -4.6696  -4.6083  -4.5882  -4.5150  -4.4543  -4.4219  -4.3879
    -4.3517  -4.3492  -4.1840  -4.1710  -4.1384  -4.0240  -3.9382  -3.6863
    -3.5652  -3.5131  -3.4785  -3.4420  -3.1880  -3.1537  -3.1473  -3.0526
    -3.0521  -2.9484  -2.9306  -2.8042  -2.7418  -2.6740  -2.6358  -2.6184
    -2.5760  -2.5465  -2.4388  -2.3668  -2.2872  -2.2809  -2.1334  -2.1132
    -2.0159  -1.9082  -1.8857  -1.8134  -1.8000  -1.6666  -1.5897  -1.5156
    -1.4886  -1.3752  -1.3176  -1.1767  -1.1607  -1.1541  -1.0960  -1.0583
    -0.8566  -0.5754  -0.5046  -0.4611  -0.4220  -0.4187  -0.3391   1.0614
     1.2220   1.3268   1.4949   1.5930   1.7339   1.9229   1.9513   2.0796
     2.1197   2.2101   2.2557   2.2659   2.5439   2.5617   2.6051   2.6463
     2.6869   2.7052   2.7583   2.7881   2.8637   2.8932   2.9117   3.0318
     3.0369   3.0652   3.0978   3.1243   3.2731

          k = 0.0000 0.2277 0.0000 ( 81407 PWs)   bands (ev):

   -57.9844 -57.9119 -57.5362 -57.4831 -57.3484 -57.2881 -57.0343 -56.9949
   -56.6569 -56.6110 -56.3610 -56.3205 -34.4627 -34.2977 -34.2138 -34.1916
   -34.1336 -34.0724 -34.0123 -33.8948 -33.8291 -33.7315 -33.7243 -33.6884
   -33.6788 -33.6606 -33.6106 -33.5764 -33.5560 -33.4842 -33.4339 -33.3182
   -33.2305 -33.2248 -33.2201 -33.1707 -33.1682 -32.9513 -32.9352 -32.9146
   -32.8523 -32.8332 -32.7394 -32.7239 -32.7054 -32.6020 -32.4961 -32.3980
   -23.3931 -18.5688 -18.2872 -17.9978 -17.8346 -17.8292 -17.6742 -17.5607
   -17.4306 -17.3733 -17.3276 -17.2958 -17.1659 -17.1141 -16.9696 -16.8542
   -16.8469 -16.7887 -16.7176 -16.6808 -16.4248 -16.1918 -16.1246 -15.9561
   -15.4431 -15.4075  -8.0408  -6.4157  -6.0171  -5.9344  -5.6361  -5.5478
    -5.5231  -5.4102  -5.2843  -5.1423  -5.0265  -4.9268  -4.8266  -4.6755
    -4.6541  -4.6365  -4.5923  -4.5448  -4.5068  -4.4238  -4.3717  -4.3219
    -4.2239  -4.1938  -4.1390  -4.0561  -3.9680  -3.9361  -3.6845  -3.6481
    -3.5918  -3.5653  -3.5538  -3.3720  -3.3108  -3.2644  -3.2304  -3.1469
    -3.1376  -3.0638  -3.0465  -2.9635  -2.8366  -2.8285  -2.7062  -2.6328
    -2.5560  -2.5399  -2.3805  -2.3696  -2.3201  -2.1813  -2.1099  -2.0804
    -2.0020  -1.9853  -1.9344  -1.8192  -1.8077  -1.7530  -1.6738  -1.6474
    -1.5143  -1.4794  -1.4364  -1.2944  -1.2429  -1.2086  -1.1380  -1.0780
    -1.0659  -0.6769  -0.5629  -0.5322  -0.4595  -0.4547  -0.3829   1.1369
     1.1515   1.4890   1.5079   1.7591   1.9148   1.9252   1.9616   2.0275
     2.0992   2.1334   2.1845   2.2123   2.3559   2.5428   2.5788   2.6320
     2.6861   2.7519   2.8404   2.8961   2.9337   2.9840   3.0285   3.0759
     3.1231   3.2278   3.2842   3.3041   3.3360

          k = 0.0000-0.4554 0.0000 ( 81286 PWs)   bands (ev):

   -57.9844 -57.9119 -57.5361 -57.4831 -57.3483 -57.2881 -57.0343 -56.9949
   -56.6569 -56.6110 -56.3610 -56.3205 -34.4637 -34.2977 -34.2138 -34.1896
   -34.1338 -34.0725 -34.0123 -33.8965 -33.8291 -33.7314 -33.7227 -33.6966
   -33.6788 -33.6606 -33.6065 -33.5606 -33.5560 -33.4846 -33.4339 -33.3278
   -33.2298 -33.2245 -33.2200 -33.1705 -33.1682 -32.9562 -32.9352 -32.9126
   -32.8521 -32.8332 -32.7426 -32.7240 -32.7037 -32.6020 -32.4961 -32.3980
   -23.3930 -18.4935 -18.1527 -17.9219 -17.8641 -17.7680 -17.7202 -17.5477
   -17.5221 -17.5101 -17.4672 -17.3203 -17.2018 -17.1187 -16.9915 -16.8854
   -16.7813 -16.7382 -16.6958 -16.6798 -16.4257 -16.1901 -16.1229 -15.9581
   -15.4415 -15.4071  -8.0402  -6.4151  -5.9994  -5.5545  -5.5256  -5.5206
    -5.5168  -5.3179  -5.1976  -5.1621  -5.0553  -4.7765  -4.7238  -4.6756
    -4.6141  -4.5874  -4.5792  -4.5462  -4.4813  -4.4701  -4.3916  -4.2848
    -4.1111  -4.1053  -4.0286  -3.9366  -3.9069  -3.8185  -3.6327  -3.6201
    -3.6109  -3.6075  -3.5876  -3.5706  -3.5582  -3.4724  -3.4104  -3.2251
    -3.1448  -3.0414  -3.0216  -2.9966  -2.9429  -2.8382  -2.7373  -2.6499
    -2.6054  -2.5525  -2.5257  -2.4039  -2.3943  -2.2049  -2.1674  -2.1277
    -2.1028  -2.0156  -2.0020  -1.9319  -1.8525  -1.7627  -1.7182  -1.5484
    -1.5025  -1.4766  -1.3893  -1.3653  -1.3375  -1.2466  -1.2031  -1.1942
    -1.0609  -0.7822  -0.6172  -0.5652  -0.4897  -0.4687  -0.4108   1.0737
     1.1579   1.4717   1.5413   1.6207   1.6554   1.8470   2.0026   2.1148
     2.1999   2.2092   2.3052   2.3366   2.4319   2.4864   2.5414   2.6660
     2.7757   2.8060   2.9180   2.9536   2.9705   3.0881   3.0896   3.1218
     3.1691   3.2931   3.3148   3.3364   3.4012

          k = 0.2500 0.0000 0.0000 ( 81478 PWs)   bands (ev):

   -57.9816 -57.9148 -57.5320 -57.4873 -57.3449 -57.2916 -57.0285 -57.0007
   -56.6513 -56.6167 -56.3551 -56.3264 -34.3989 -34.2951 -34.2118 -34.1800
   -34.0866 -34.0795 -34.0774 -33.8338 -33.8130 -33.7763 -33.7236 -33.7026
   -33.6757 -33.6705 -33.6009 -33.5575 -33.5373 -33.4986 -33.4983 -33.2972
   -33.2378 -33.2341 -33.2158 -33.1960 -33.1417 -32.9434 -32.9269 -32.9192
   -32.8457 -32.7924 -32.7884 -32.7320 -32.7114 -32.5867 -32.5118 -32.4669
   -23.3930 -18.4950 -18.2524 -17.9614 -17.7987 -17.7303 -17.6058 -17.5912
   -17.5403 -17.3091 -17.2281 -17.2257 -17.2207 -17.1205 -17.0895 -16.9125
   -16.8616 -16.7876 -16.6849 -16.6410 -16.3977 -16.2403 -16.2290 -15.9561
   -15.4917 -15.4757  -8.0424  -6.3991  -6.0509  -5.8318  -5.7108  -5.6559
    -5.2960  -5.1767  -5.1112  -5.0966  -4.9470  -4.9380  -4.9298  -4.7796
    -4.7469  -4.7324  -4.6695  -4.6363  -4.6094  -4.5891  -4.5336  -4.5295
    -4.4220  -4.3506  -4.3210  -4.0846  -3.8887  -3.8615  -3.8407  -3.7103
    -3.5375  -3.5054  -3.4289  -3.2547  -3.1979  -3.0991  -3.0097  -2.9916
    -2.9833  -2.9392  -2.8527  -2.8244  -2.6893  -2.6649  -2.6334  -2.6029
    -2.5539  -2.5186  -2.4837  -2.3983  -2.3918  -2.2706  -2.1827  -2.1432
    -2.0577  -2.0423  -1.9017  -1.8781  -1.8525  -1.7564  -1.7471  -1.6285
    -1.5836  -1.4876  -1.3749  -1.3472  -1.3335  -1.1921  -1.1240  -1.1007
    -1.0166  -0.7346  -0.7236  -0.4944  -0.4707  -0.3818  -0.3691   1.2777
     1.3267   1.4886   1.6175   1.8239   1.8858   1.8921   1.9884   2.0185
     2.0897   2.1093   2.2139   2.2959   2.3723   2.4292   2.4865   2.6176
     2.7223   2.7921   2.8236   2.8301   2.9087   2.9388   2.9464   2.9890
     3.0707   3.0880   3.1504   3.3245   3.3469

          k = 0.2500 0.2277 0.0000 ( 81485 PWs)   bands (ev):

   -57.9816 -57.9148 -57.5320 -57.4873 -57.3449 -57.2916 -57.0285 -57.0007
   -56.6513 -56.6167 -56.3551 -56.3264 -34.3998 -34.2951 -34.2118 -34.1783
   -34.0863 -34.0797 -34.0776 -33.8353 -33.8131 -33.7764 -33.7196 -33.7026
   -33.6836 -33.6705 -33.5975 -33.5576 -33.5255 -33.4991 -33.4975 -33.3049
   -33.2388 -33.2333 -33.2158 -33.1959 -33.1413 -32.9468 -32.9269 -32.9185
   -32.8457 -32.7923 -32.7882 -32.7344 -32.7103 -32.5867 -32.5118 -32.4669
   -23.3929 -18.4305 -18.1687 -17.8791 -17.7953 -17.7421 -17.6897 -17.5911
   -17.4140 -17.3917 -17.3719 -17.3363 -17.1853 -17.0976 -17.0778 -16.9717
   -16.9079 -16.7906 -16.6528 -16.6284 -16.3982 -16.2393 -16.2290 -15.9570
   -15.4904 -15.4760  -8.0419  -6.3976  -5.8335  -5.7441  -5.4513  -5.3760
    -5.2798  -5.2252  -5.1243  -5.0790  -5.0603  -4.8827  -4.8591  -4.7892
    -4.7651  -4.7186  -4.6825  -4.6157  -4.5428  -4.5106  -4.4860  -4.4050
    -4.3983  -4.3008  -4.1711  -4.0269  -3.9584  -3.8094  -3.7523  -3.7373
    -3.5012  -3.4933  -3.3767  -3.2940  -3.2514  -3.2206  -3.1624  -3.1065
    -3.0517  -2.9633  -2.9448  -2.8760  -2.8311  -2.7964  -2.7600  -2.6832
    -2.6440  -2.6108  -2.5558  -2.5222  -2.4085  -2.3665  -2.3229  -2.2376
    -2.1062  -2.0173  -1.9544  -1.8883  -1.8433  -1.8156  -1.7741  -1.7010
    -1.6243  -1.5382  -1.3614  -1.3295  -1.2945  -1.2451  -1.1840  -1.1396
    -1.0292  -0.7336  -0.7083  -0.5505  -0.5407  -0.4058  -0.3648   1.2600
     1.3510   1.6123   1.7146   1.8415   1.9158   2.0038   2.0250   2.0983
     2.1080   2.1313   2.1845   2.2284   2.3454   2.4009   2.5933   2.6394
     2.6991   2.7517   2.8780   2.9035   2.9558   2.9908   3.0055   3.1078
     3.1720   3.2043   3.3458   3.3655   3.4218

          k = 0.2500-0.4554 0.0000 ( 81408 PWs)   bands (ev):

   -57.9816 -57.9148 -57.5320 -57.4873 -57.3449 -57.2916 -57.0286 -57.0007
   -56.6513 -56.6167 -56.3551 -56.3264 -34.4007 -34.2951 -34.2118 -34.1766
   -34.0859 -34.0799 -34.0778 -33.8368 -33.8132 -33.7764 -33.7174 -33.7026
   -33.6882 -33.6706 -33.5941 -33.5576 -33.5149 -33.4995 -33.4969 -33.3128
   -33.2398 -33.2326 -33.2158 -33.1957 -33.1408 -32.9503 -32.9269 -32.9177
   -32.8457 -32.7923 -32.7880 -32.7367 -32.7093 -32.5867 -32.5118 -32.4669
   -23.3929 -18.3638 -18.0372 -17.8587 -17.7649 -17.6804 -17.6761 -17.6445
   -17.5215 -17.4514 -17.3981 -17.3313 -17.2739 -17.1827 -17.0487 -17.0186
   -16.9204 -16.7678 -16.6337 -16.6138 -16.3985 -16.2390 -16.2288 -15.9579
   -15.4893 -15.4762  -8.0415  -6.3977  -5.8233  -5.3342  -5.2818  -5.2405
    -5.1703  -5.0889  -5.0839  -5.0530  -4.9607  -4.9013  -4.8677  -4.8243
    -4.7919  -4.7236  -4.6080  -4.5679  -4.5339  -4.5086  -4.3978  -4.3380
    -4.3067  -4.0474  -4.0357  -3.9588  -3.8727  -3.7869  -3.7660  -3.7613
    -3.6578  -3.6367  -3.4391  -3.3805  -3.3238  -3.2492  -3.2479  -3.2192
    -3.1399  -3.0554  -3.0397  -3.0338  -3.0110  -2.9082  -2.8729  -2.8370
    -2.7707  -2.7182  -2.6748  -2.5544  -2.5500  -2.4951  -2.4238  -2.3496
    -2.2448  -2.1753  -1.9143  -1.8631  -1.8578  -1.7709  -1.6763  -1.6320
    -1.6059  -1.5318  -1.3888  -1.3486  -1.2665  -1.1721  -1.1319  -1.1251
    -1.0380  -0.7988  -0.6943  -0.6195  -0.5985  -0.4170  -0.3657   1.2768
     1.3555   1.6102   1.6768   1.6899   1.8582   1.8839   2.1024   2.1402
     2.1803   2.2050   2.2519   2.3698   2.4420   2.4421   2.6450   2.7378
     2.7436   2.7837   2.8724   2.9714   2.9820   3.0666   3.0924   3.2547
     3.2760   3.2962   3.3757   3.3976   3.4699

          k =-0.5000 0.0000 0.0000 ( 81532 PWs)   bands (ev):

   -57.9785 -57.9179 -57.5269 -57.4924 -57.3410 -57.2956 -57.0151 -57.0141
   -56.6427 -56.6253 -56.3410 -56.3406 -34.2926 -34.2659 -34.2167 -34.2119
   -34.1596 -34.1075 -33.9624 -33.8905 -33.7798 -33.7526 -33.7179 -33.7148
   -33.6841 -33.6518 -33.6331 -33.5813 -33.5530 -33.5187 -33.3905 -33.3844
   -33.2694 -33.2664 -33.2071 -33.1971 -32.9988 -32.9820 -32.9393 -32.9231
   -32.8749 -32.8643 -32.7219 -32.7214 -32.6302 -32.6299 -32.5496 -32.5492
   -23.3928 -18.1461 -18.1325 -17.9937 -17.8451 -17.6886 -17.6102 -17.5388
   -17.4851 -17.4094 -17.4088 -17.3509 -17.2975 -17.0543 -17.0279 -16.9416
   -16.9364 -16.6942 -16.6784 -16.4808 -16.4656 -16.3312 -16.3231 -15.9571
   -15.5499 -15.5420  -8.0433  -6.3833  -5.5539  -5.5492  -5.4127  -5.3381
    -5.2518  -5.2352  -5.2209  -5.2173  -5.1611  -5.1065  -5.0889  -5.0615
    -4.9961  -4.8663  -4.7807  -4.6721  -4.5306  -4.4280  -4.4108  -4.3597
    -4.3153  -4.2004  -4.1772  -4.1334  -4.0825  -3.7524  -3.7398  -3.5514
    -3.4777  -3.4469  -3.3825  -3.2803  -3.2539  -3.2283  -3.2149  -2.9665
    -2.9469  -2.9323  -2.8918  -2.8329  -2.7933  -2.6515  -2.5970  -2.5672
    -2.5309  -2.4208  -2.3845  -2.3514  -2.2642  -2.2374  -2.1974  -2.0900
    -2.0760  -2.0009  -1.9988  -1.9886  -1.9622  -1.9161  -1.8524  -1.7661
    -1.6559  -1.6231  -1.5744  -1.5093  -1.4268  -1.4028  -1.3158  -1.3090
    -0.9023  -0.8943  -0.5207  -0.5164  -0.4619  -0.4555  -0.4366   1.5302
     1.5896   1.6725   1.7074   1.8421   1.8748   1.9293   1.9786   1.9801
     2.0282   2.0471   2.1404   2.3383   2.3906   2.4120   2.4408   2.5284
     2.6413   2.8042   2.8079   2.8228   2.8592   2.9337   2.9773   3.0399
     3.0539   3.2562   3.3032   3.5516   3.5520

          k =-0.5000 0.2277 0.0000 ( 81508 PWs)   bands (ev):

   -57.9785 -57.9179 -57.5269 -57.4924 -57.3409 -57.2956 -57.0151 -57.0141
   -56.6427 -56.6254 -56.3410 -56.3406 -34.2926 -34.2665 -34.2174 -34.2119
   -34.1585 -34.1064 -33.9626 -33.8907 -33.7798 -33.7527 -33.7189 -33.7140
   -33.6835 -33.6519 -33.6344 -33.5791 -33.5530 -33.5164 -33.3869 -33.3810
   -33.2733 -33.2707 -33.2071 -33.1971 -32.9986 -32.9819 -32.9404 -32.9243
   -32.8748 -32.8642 -32.7225 -32.7220 -32.6301 -32.6298 -32.5496 -32.5492
   -23.3927 -18.1161 -18.0821 -17.9286 -17.8009 -17.6423 -17.5653 -17.5183
   -17.4955 -17.4778 -17.4220 -17.3193 -17.3041 -17.1444 -17.1164 -17.0310
   -17.0280 -16.6712 -16.6573 -16.4760 -16.4605 -16.3304 -16.3224 -15.9575
   -15.5497 -15.5418  -8.0430  -6.3831  -5.4135  -5.3822  -5.3240  -5.2799
    -5.1307  -5.1235  -5.0500  -5.0034  -4.9768  -4.9714  -4.9643  -4.9574
    -4.9403  -4.7858  -4.7087  -4.6266  -4.5219  -4.4208  -4.4101  -4.3803
    -4.3620  -4.3396  -4.2117  -3.9684  -3.9553  -3.9090  -3.7751  -3.6844
    -3.6555  -3.5631  -3.5015  -3.3431  -3.3261  -3.2928  -3.2678  -3.0610
    -2.9908  -2.9879  -2.9685  -2.9262  -2.8256  -2.7857  -2.7521  -2.6491
    -2.6441  -2.5675  -2.5548  -2.4573  -2.3827  -2.3537  -2.3443  -2.3209
    -2.3017  -2.1990  -2.1393  -2.0387  -1.9238  -1.8121  -1.7867  -1.7767
    -1.5321  -1.5155  -1.4915  -1.4547  -1.3147  -1.2988  -1.2613  -1.2428
    -0.9251  -0.9106  -0.5947  -0.5892  -0.4477  -0.4452  -0.4176   1.5800
     1.6231   1.7014   1.7505   1.8945   1.9265   1.9665   1.9896   2.0289
     2.0653   2.1491   2.1964   2.3999   2.4354   2.5097   2.5524   2.6505
     2.6709   2.6942   2.7362   2.8206   2.9820   3.0306   3.0427   3.0914
     3.2504   3.2702   3.3099   3.5206   3.5328

          k =-0.5000-0.4554 0.0000 ( 81484 PWs)   bands (ev):

   -57.9785 -57.9179 -57.5269 -57.4924 -57.3409 -57.2956 -57.0151 -57.0141
   -56.6427 -56.6254 -56.3410 -56.3406 -34.2926 -34.2671 -34.2180 -34.2119
   -34.1575 -34.1053 -33.9627 -33.8909 -33.7798 -33.7528 -33.7200 -33.7133
   -33.6829 -33.6520 -33.6356 -33.5771 -33.5531 -33.5141 -33.3830 -33.3773
   -33.2777 -33.2751 -33.2071 -33.1970 -32.9985 -32.9817 -32.9417 -32.9256
   -32.8748 -32.8642 -32.7231 -32.7227 -32.6300 -32.6297 -32.5496 -32.5492
   -23.3927 -18.0879 -18.0221 -17.7725 -17.7191 -17.7183 -17.6457 -17.5359
   -17.4505 -17.3715 -17.3500 -17.3459 -17.2994 -17.2319 -17.2181 -17.1744
   -17.1587 -16.6553 -16.6423 -16.4720 -16.4563 -16.3297 -16.3218 -15.9579
   -15.5495 -15.5416  -8.0429  -6.3833  -5.4157  -5.3611  -5.1417  -5.0865
    -5.0712  -4.9705  -4.9625  -4.7827  -4.7667  -4.7539  -4.6636  -4.6363
    -4.6281  -4.6168  -4.5814  -4.5492  -4.5068  -4.4445  -4.4217  -4.4009
    -4.2698  -4.2545  -4.2443  -4.2321  -4.1981  -3.9936  -3.9690  -3.9429
    -3.9359  -3.6794  -3.5342  -3.4456  -3.4421  -3.2101  -3.1547  -3.1413
    -3.0553  -3.0480  -3.0304  -3.0138  -2.9468  -2.9446  -2.9140  -2.8752
    -2.8571  -2.7614  -2.7475  -2.7342  -2.6010  -2.5788  -2.4799  -2.4591
    -2.3663  -2.2693  -2.2453  -1.9165  -1.8968  -1.8412  -1.6657  -1.6585
    -1.4379  -1.3997  -1.3922  -1.3833  -1.2929  -1.2165  -1.2140  -1.1646
    -0.9174  -0.9047  -0.6560  -0.6432  -0.4493  -0.4431  -0.4006   1.6809
     1.7079   1.7103   1.7452   1.8311   1.9215   1.9287   2.0358   2.0857
     2.0889   2.1849   2.2216   2.4119   2.4422   2.4829   2.5556   2.7844
     2.7985   2.8278   2.8821   2.9411   3.0191   3.1251   3.2014   3.2080
     3.2324   3.2640   3.4445   3.5619   3.5700

     the Fermi energy is    -0.3462 ev

!    total energy              =   -2519.46802943 Ry
     estimated scf accuracy    <       0.00000001 Ry
     smearing contrib. (-TS)   =       0.00271740 Ry
     internal energy E=F+TS    =   -2519.47074683 Ry

     The total energy is F=E-TS. E is the sum of the following terms:
     one-electron contribution =  -25696.60730848 Ry
     hartree contribution      =   12898.00586911 Ry
     xc contribution           =    -409.77726981 Ry
     ewald contribution        =   10936.37976981 Ry
     one-center paw contrib.   =    -247.47180746 Ry

     convergence has been achieved in  16 iterations

     negative rho (up, down):  1.541E-02 0.000E+00

     Forces acting on atoms (cartesian axes, Ry/au):

     atom    1 type  2   force =    -0.00014086    0.00000000    0.10407928
     atom    2 type  2   force =    -0.00032089    0.00000000   -0.08374263
     atom    3 type  2   force =     0.00010297    0.00000000   -0.00181310
     atom    4 type  2   force =     0.00105564    0.00000000    0.00022703
     atom    5 type  2   force =     0.00069887    0.00000000    0.00143702
     atom    6 type  2   force =     0.00005899    0.00000000   -0.00150291
     atom    7 type  3   force =     0.00037916    0.00000000    0.03398042
     atom    8 type  3   force =     0.00002807    0.00000000    0.05260567
     atom    9 type  3   force =    -0.00301022    0.06978575   -0.03629079
     atom   10 type  3   force =    -0.00301022   -0.06978575   -0.03629079
     atom   11 type  3   force =     0.00036518    0.00000000   -0.00237324
     atom   12 type  3   force =     0.00151104    0.00000000   -0.04527560
     atom   13 type  3   force =    -0.00017826    0.00008150    0.00064320
     atom   14 type  3   force =    -0.00017826   -0.00008150    0.00064320
     atom   15 type  3   force =    -0.00031112    0.00000000    0.00086203
     atom   16 type  3   force =     0.00064023    0.00000000    0.00113528
     atom   17 type  3   force =     0.00359432   -0.00026780    0.00123982
     atom   18 type  3   force =     0.00359432    0.00026780    0.00123982
     atom   19 type  2   force =     0.00015084    0.00000000    0.12359279
     atom   20 type  2   force =     0.00029642    0.00000000   -0.08375952
     atom   21 type  2   force =    -0.00008329    0.00000000    0.00005789
     atom   22 type  2   force =    -0.00070688    0.00000000    0.00061744
     atom   23 type  2   force =     0.00180882    0.00000000   -0.00082886
     atom   24 type  2   force =    -0.00056316    0.00000000   -0.00209399
     atom   25 type  3   force =    -0.00040768    0.00000000    0.03439549
     atom   26 type  3   force =    -0.00001234    0.00000000    0.05285693
     atom   27 type  3   force =     0.00297899    0.06985466   -0.03623122
     atom   28 type  3   force =     0.00297899   -0.06985466   -0.03623122
     atom   29 type  3   force =    -0.00036080    0.00000000   -0.00228059
     atom   30 type  3   force =    -0.00182073    0.00000000   -0.04647251
     atom   31 type  3   force =     0.00009137    0.00018308    0.00115123
     atom   32 type  3   force =     0.00009137   -0.00018308    0.00115123
     atom   33 type  3   force =     0.00008957    0.00000000    0.00126645
     atom   34 type  3   force =    -0.00083171    0.00000000   -0.00044171
     atom   35 type  3   force =    -0.00283792   -0.00015956   -0.00061684
     atom   36 type  3   force =    -0.00283792    0.00015956   -0.00061684
     atom   37 type  3   force =    -0.00023777    0.00000000    0.00327892
     atom   38 type  3   force =    -0.00274848    0.00000000   -0.00013357
     atom   39 type  1   force =     0.00008335    0.00000000    0.00053476

     Total force =     0.010161     Total SCF correction =     0.000370
     Energy error            =      2.1E-04 Ry
     Gradient error          =      3.6E-03 Ry/Bohr

     number of scf cycles    =  17
     number of bfgs steps    =  16

     energy             old  =   -2519.4678215713 Ry
     energy             new  =   -2519.4680294341 Ry

     CASE: energy            _new < energy            _old

     new trust radius        =       0.0184499816 bohr
     new conv_thr            =       0.0000000180 Ry


ATOMIC_POSITIONS (angstrom)
Ti               0.0000000000        4.8723546300        9.7447092600    0   0   0
Ti               1.4793500000        1.6241182100        9.7447092600    0   0   0
Ti              -0.0024992396        1.6241182100       13.1347010130
Ti               1.4525647697        4.8723546300       12.9976155164
Ti              -0.0093200983        4.8723546300       16.3598968598
Ti               1.4757880551        1.6241182100       16.4770318792
O                0.0000000000        1.6241182100       11.0129506900    0   0   0
O                0.0000000000        1.6241182100        8.4764678300    0   0   0
O                1.4793500000        3.6041132000        9.7447092600    0   0   0
O                1.4793500000        6.1405960600        9.7447092600    0   0   0
O               -0.0063313261        4.8723546300       14.2934235705
O                0.0000000000        4.8723546300       11.7247042500    0   0   0
O                1.4819636250        0.3275450995       13.0209560882
O                1.4819636250        2.9206913205       13.0209560882
O                0.0021299799        1.6241182100       17.5596469997
O               -0.0169008152        1.6241182100       14.9926514672
O                1.4936887187        3.6357101612       16.3651968489
O                1.4936887187        6.1089990988       16.3651968489
Ti               2.9587000000        4.8723546300        9.7447092600    0   0   0
Ti               4.4380500000        1.6241182100        9.7447092600    0   0   0
Ti               2.9596006663        1.6241182100       13.1124687833
Ti               4.4759008937        4.8723546300       13.0095700122
Ti               2.9408149439        4.8723546300       16.0976353928
Ti               4.4254862785        1.6241182100       16.4895634347
O                2.9587000000        1.6241182100       11.0129506900    0   0   0
O                2.9587000000        1.6241182100        8.4764678300    0   0   0
O                4.4380500000        3.6041132000        9.7447092600    0   0   0
O                4.4380500000        6.1405960600        9.7447092600    0   0   0
O                2.9638330484        4.8723546300       14.2834221970
O                2.9587000000        4.8723546300       11.7247042500    0   0   0
O                4.4346118834        0.3288294762       13.0092558086
O                4.4346118834        2.9194069438       13.0092558086
O                2.9448769660        1.6241182100       17.5692722087
O                2.9730514776        1.6241182100       14.9937400477
O                4.4056380113        3.6437392870       16.4351688317
O                4.4056380113        6.1009699730       16.4351688317
O                0.0695263276        4.8723546300       18.3774133547
O                1.3465596189        4.8723546300       18.9193867021
H                1.1616845190        4.8723546300       19.8830135803



     Writing config-only to output data dir ./tmp_s0_OOH__2x1v_mir/s0_OOH__2x1v_mir.save/ :
     XML data file
     NEW-OLD atomic charge density approx. for the potential

     Check: negative core charge=   -0.000001

     negative rho (up, down):  1.538E-02 0.000E+00

     total cpu time spent up to now is     3173.5 secs

     per-process dynamical memory:   249.4 Mb

     Self-consistent Calculation

     iteration #  1     ecut=    80.00 Ry     beta= 0.30
     Davidson diagonalization with overlap
     ethr =  1.00E-06,  avg # of iterations =  5.0

     negative rho (up, down):  1.540E-02 0.000E+00

     total cpu time spent up to now is     3184.2 secs

     total energy              =   -2519.46617059 Ry
     estimated scf accuracy    <       0.04088290 Ry

     iteration #  2     ecut=    80.00 Ry     beta= 0.30
     Davidson diagonalization with overlap
     ethr =  1.36E-05,  avg # of iterations =  1.0

     negative rho (up, down):  1.537E-02 0.000E+00

     total cpu time spent up to now is     3190.4 secs

     total energy              =   -2519.46473917 Ry
     estimated scf accuracy    <       0.41510387 Ry

     iteration #  3     ecut=    80.00 Ry     beta= 0.30
     Davidson diagonalization with overlap
     ethr =  1.36E-05,  avg # of iterations =  1.0

     negative rho (up, down):  1.538E-02 0.000E+00

     total cpu time spent up to now is     3196.6 secs

     total energy              =   -2519.46821453 Ry
     estimated scf accuracy    <       0.00345649 Ry

     iteration #  4     ecut=    80.00 Ry     beta= 0.30
     Davidson diagonalization with overlap
     ethr =  1.15E-06,  avg # of iterations =  1.1

     negative rho (up, down):  1.541E-02 0.000E+00

     total cpu time spent up to now is     3203.0 secs

     total energy              =   -2519.46815472 Ry
     estimated scf accuracy    <       0.00720571 Ry

     iteration #  5     ecut=    80.00 Ry     beta= 0.30
     Davidson diagonalization with overlap
     ethr =  1.15E-06,  avg # of iterations =  1.0

     negative rho (up, down):  1.543E-02 0.000E+00

     total cpu time spent up to now is     3209.3 secs

     total energy              =   -2519.46818255 Ry
     estimated scf accuracy    <       0.00067923 Ry

     iteration #  6     ecut=    80.00 Ry     beta= 0.30
     Davidson diagonalization with overlap
     ethr =  2.26E-07,  avg # of iterations =  1.0

     negative rho (up, down):  1.545E-02 0.000E+00

     total cpu time spent up to now is     3215.5 secs

     total energy              =   -2519.46818328 Ry
     estimated scf accuracy    <       0.00018314 Ry

     iteration #  7     ecut=    80.00 Ry     beta= 0.30
     Davidson diagonalization with overlap
     ethr =  6.08E-08,  avg # of iterations =  1.0

     negative rho (up, down):  1.546E-02 0.000E+00

     total cpu time spent up to now is     3221.7 secs

     total energy              =   -2519.46818312 Ry
     estimated scf accuracy    <       0.00011805 Ry

     iteration #  8     ecut=    80.00 Ry     beta= 0.30
     Davidson diagonalization with overlap
     ethr =  3.92E-08,  avg # of iterations =  1.0

     negative rho (up, down):  1.546E-02 0.000E+00

     total cpu time spent up to now is     3227.9 secs

     total energy              =   -2519.46818229 Ry
     estimated scf accuracy    <       0.00004022 Ry

     iteration #  9     ecut=    80.00 Ry     beta= 0.30
     Davidson diagonalization with overlap
     ethr =  1.34E-08,  avg # of iterations =  1.0

     negative rho (up, down):  1.545E-02 0.000E+00

     total cpu time spent up to now is     3234.2 secs

     total energy              =   -2519.46818267 Ry
     estimated scf accuracy    <       0.00001202 Ry

     iteration # 10     ecut=    80.00 Ry     beta= 0.30
     Davidson diagonalization with overlap
     ethr =  3.99E-09,  avg # of iterations =  2.0

     negative rho (up, down):  1.543E-02 0.000E+00

     total cpu time spent up to now is     3241.3 secs

     total energy              =   -2519.46818293 Ry
     estimated scf accuracy    <       0.00000064 Ry

     iteration # 11     ecut=    80.00 Ry     beta= 0.30
     Davidson diagonalization with overlap
     ethr =  2.12E-10,  avg # of iterations =  5.1

     negative rho (up, down):  1.543E-02 0.000E+00

     total cpu time spent up to now is     3250.3 secs

     total energy              =   -2519.46818307 Ry
     estimated scf accuracy    <       0.00000116 Ry

     iteration # 12     ecut=    80.00 Ry     beta= 0.30
     Davidson diagonalization with overlap
     ethr =  2.12E-10,  avg # of iterations =  1.8

     negative rho (up, down):  1.542E-02 0.000E+00

     total cpu time spent up to now is     3257.2 secs

     total energy              =   -2519.46818306 Ry
     estimated scf accuracy    <       0.00000106 Ry

     iteration # 13     ecut=    80.00 Ry     beta= 0.30
     Davidson diagonalization with overlap
     ethr =  2.12E-10,  avg # of iterations =  2.7

     negative rho (up, down):  1.541E-02 0.000E+00

     total cpu time spent up to now is     3264.4 secs

     total energy              =   -2519.46818309 Ry
     estimated scf accuracy    <       0.00000013 Ry

     iteration # 14     ecut=    80.00 Ry     beta= 0.30
     Davidson diagonalization with overlap
     ethr =  4.16E-11,  avg # of iterations =  2.0

     negative rho (up, down):  1.540E-02 0.000E+00

     total cpu time spent up to now is     3271.3 secs

     total energy              =   -2519.46818310 Ry
     estimated scf accuracy    <       0.00000003 Ry

     iteration # 15     ecut=    80.00 Ry     beta= 0.30
     Davidson diagonalization with overlap
     ethr =  9.37E-12,  avg # of iterations =  3.1

     negative rho (up, down):  1.537E-02 0.000E+00

     total cpu time spent up to now is     3278.2 secs

     End of self-consistent calculation

          k = 0.0000 0.0000 0.0000 ( 81491 PWs)   bands (ev):

   -57.9803 -57.9080 -57.5335 -57.4809 -57.3585 -57.2835 -57.0361 -56.9966
   -56.6552 -56.6087 -56.3570 -56.3165 -34.4576 -34.2935 -34.2100 -34.1897
   -34.1311 -34.0685 -34.0083 -33.8965 -33.8267 -33.7296 -33.7278 -33.6726
   -33.6676 -33.6580 -33.6218 -33.6001 -33.5655 -33.4825 -33.4354 -33.3106
   -33.2316 -33.2268 -33.2218 -33.1718 -33.1696 -32.9447 -32.9340 -32.9138
   -32.8487 -32.8317 -32.7322 -32.7220 -32.7031 -32.5979 -32.4920 -32.3941
   -23.4054 -18.6386 -18.3777 -18.0905 -17.8828 -17.6622 -17.6514 -17.5621
   -17.4721 -17.2936 -17.1525 -17.1453 -17.1285 -17.1163 -17.0570 -17.0289
   -16.7879 -16.7772 -16.7236 -16.6825 -16.4198 -16.1936 -16.1259 -15.9537
   -15.4417 -15.4058  -8.0486  -6.4139  -6.2462  -6.0163  -5.8935  -5.8267
    -5.5277  -5.2178  -5.0587  -4.9936  -4.9835  -4.9223  -4.8879  -4.6892
    -4.6824  -4.6684  -4.6078  -4.5883  -4.5157  -4.4529  -4.4204  -4.3885
    -4.3506  -4.3471  -4.1868  -4.1717  -4.1380  -4.0268  -3.9386  -3.6858
    -3.5710  -3.5080  -3.4744  -3.4405  -3.1856  -3.1514  -3.1413  -3.0510
    -3.0486  -2.9497  -2.9258  -2.8000  -2.7410  -2.6713  -2.6388  -2.6214
    -2.5747  -2.5423  -2.4367  -2.3653  -2.2847  -2.2783  -2.1319  -2.1095
    -2.0177  -1.9059  -1.8852  -1.8091  -1.7991  -1.6676  -1.5883  -1.5215
    -1.4856  -1.3739  -1.3174  -1.1746  -1.1657  -1.1511  -1.0939  -1.0600
    -0.8515  -0.5743  -0.5016  -0.4577  -0.4182  -0.4160  -0.3383   1.0664
     1.2255   1.3316   1.4995   1.5943   1.7348   1.9243   1.9520   2.0835
     2.1214   2.2143   2.2521   2.2674   2.5448   2.5597   2.6056   2.6404
     2.6850   2.7077   2.7623   2.7865   2.8601   2.8974   2.9150   3.0353
     3.0356   3.0646   3.0991   3.1283   3.2756

          k = 0.0000 0.2277 0.0000 ( 81407 PWs)   bands (ev):

   -57.9803 -57.9080 -57.5335 -57.4809 -57.3585 -57.2835 -57.0362 -56.9966
   -56.6552 -56.6087 -56.3570 -56.3165 -34.4586 -34.2935 -34.2100 -34.1876
   -34.1314 -34.0686 -34.0083 -33.8982 -33.8267 -33.7296 -33.7220 -33.6871
   -33.6726 -33.6580 -33.6179 -33.5775 -33.5655 -33.4829 -33.4354 -33.3199
   -33.2310 -33.2265 -33.2215 -33.1716 -33.1696 -32.9494 -32.9340 -32.9121
   -32.8485 -32.8317 -32.7354 -32.7220 -32.7014 -32.5980 -32.4920 -32.3941
   -23.4054 -18.5679 -18.2856 -17.9983 -17.8344 -17.8252 -17.6719 -17.5594
   -17.4291 -17.3727 -17.3237 -17.2924 -17.1678 -17.1105 -16.9710 -16.8531
   -16.8467 -16.7880 -16.7137 -16.6841 -16.4207 -16.1911 -16.1243 -15.9556
   -15.4399 -15.4053  -8.0479  -6.4089  -6.0165  -5.9310  -5.6361  -5.5490
    -5.5213  -5.4081  -5.2824  -5.1453  -5.0260  -4.9253  -4.8262  -4.6710
    -4.6501  -4.6350  -4.5922  -4.5428  -4.5087  -4.4198  -4.3673  -4.3245
    -4.2243  -4.1934  -4.1373  -4.0540  -3.9709  -3.9353  -3.6804  -3.6463
    -3.5930  -3.5695  -3.5499  -3.3730  -3.3088  -3.2609  -3.2297  -3.1407
    -3.1344  -3.0622  -3.0456  -2.9616  -2.8344  -2.8270  -2.7049  -2.6325
    -2.5532  -2.5368  -2.3788  -2.3681  -2.3178  -2.1777  -2.1082  -2.0823
    -1.9997  -1.9849  -1.9336  -1.8168  -1.8067  -1.7550  -1.6752  -1.6464
    -1.5120  -1.4777  -1.4358  -1.2935  -1.2420  -1.2138  -1.1359  -1.0780
    -1.0638  -0.6778  -0.5601  -0.5284  -0.4556  -0.4522  -0.3805   1.1427
     1.1552   1.4935   1.5122   1.7619   1.9146   1.9265   1.9606   2.0298
     2.1030   2.1268   2.1862   2.2146   2.3615   2.5444   2.5730   2.6295
     2.6841   2.7546   2.8401   2.8927   2.9365   2.9839   3.0325   3.0742
     3.1275   3.2294   3.2888   3.3040   3.3394

          k = 0.0000-0.4554 0.0000 ( 81286 PWs)   bands (ev):

   -57.9803 -57.9080 -57.5335 -57.4809 -57.3585 -57.2835 -57.0362 -56.9966
   -56.6552 -56.6087 -56.3570 -56.3165 -34.4596 -34.2935 -34.2100 -34.1856
   -34.1316 -34.0686 -34.0082 -33.8999 -33.8267 -33.7296 -33.7206 -33.6952
   -33.6727 -33.6579 -33.6141 -33.5655 -33.5614 -33.4831 -33.4354 -33.3296
   -33.2305 -33.2262 -33.2213 -33.1715 -33.1696 -32.9542 -32.9340 -32.9102
   -32.8482 -32.8317 -32.7385 -32.7221 -32.6997 -32.5980 -32.4920 -32.3941
   -23.4053 -18.4935 -18.1506 -17.9179 -17.8641 -17.7673 -17.7181 -17.5466
   -17.5198 -17.5083 -17.4672 -17.3218 -17.1978 -17.1140 -16.9899 -16.8872
   -16.7817 -16.7381 -16.6925 -16.6820 -16.4216 -16.1894 -16.1227 -15.9577
   -15.4383 -15.4049  -8.0473  -6.4082  -5.9994  -5.5503  -5.5214  -5.5187
    -5.5180  -5.3233  -5.1935  -5.1643  -5.0597  -4.7744  -4.7230  -4.6721
    -4.6102  -4.5859  -4.5767  -4.5498  -4.4799  -4.4687  -4.3876  -4.2876
    -4.1077  -4.0968  -4.0261  -3.9363  -3.9099  -3.8166  -3.6290  -3.6181
    -3.6069  -3.6068  -3.5853  -3.5757  -3.5561  -3.4759  -3.4054  -3.2220
    -3.1385  -3.0400  -3.0197  -2.9943  -2.9410  -2.8398  -2.7361  -2.6463
    -2.6061  -2.5484  -2.5231  -2.4018  -2.3960  -2.2030  -2.1647  -2.1284
    -2.1018  -2.0135  -2.0053  -1.9314  -1.8502  -1.7629  -1.7153  -1.5470
    -1.5007  -1.4736  -1.3894  -1.3663  -1.3365  -1.2517  -1.2049  -1.1920
    -1.0588  -0.7856  -0.6143  -0.5619  -0.4857  -0.4656  -0.4070   1.0776
     1.1641   1.4762   1.5449   1.6183   1.6593   1.8448   2.0016   2.1188
     2.1990   2.2097   2.3088   2.3403   2.4336   2.4823   2.5429   2.6610
     2.7793   2.8026   2.9130   2.9564   2.9728   3.0873   3.0896   3.1263
     3.1661   3.2946   3.3194   3.3404   3.4009

          k = 0.2500 0.0000 0.0000 ( 81478 PWs)   bands (ev):

   -57.9774 -57.9109 -57.5293 -57.4851 -57.3559 -57.2862 -57.0304 -57.0024
   -56.6497 -56.6142 -56.3511 -56.3224 -34.3948 -34.2908 -34.2079 -34.1759
   -34.0828 -34.0756 -34.0750 -33.8373 -33.8110 -33.7742 -33.7213 -33.7000
   -33.6737 -33.6647 -33.6091 -33.5669 -33.5391 -33.4998 -33.4960 -33.2987
   -33.2395 -33.2356 -33.2185 -33.1971 -33.1408 -32.9417 -32.9257 -32.9166
   -32.8442 -32.7906 -32.7845 -32.7279 -32.7073 -32.5827 -32.5077 -32.4630
   -23.4053 -18.4934 -18.2515 -17.9615 -17.7981 -17.7284 -17.6036 -17.5872
   -17.5368 -17.3075 -17.2277 -17.2217 -17.2198 -17.1178 -17.0901 -16.9172
   -16.8611 -16.7873 -16.6786 -16.6440 -16.3943 -16.2396 -16.2287 -15.9557
   -15.4886 -15.4738  -8.0494  -6.3925  -6.0469  -5.8319  -5.7100  -5.6562
    -5.2938  -5.1796  -5.1101  -5.0960  -4.9424  -4.9362  -4.9249  -4.7788
    -4.7445  -4.7316  -4.6679  -4.6332  -4.6087  -4.5876  -4.5345  -4.5323
    -4.4227  -4.3517  -4.3205  -4.0837  -3.8886  -3.8613  -3.8402  -3.7101
    -3.5349  -3.5080  -3.4262  -3.2515  -3.1946  -3.0948  -3.0064  -2.9881
    -2.9814  -2.9377  -2.8499  -2.8216  -2.6878  -2.6630  -2.6320  -2.5964
    -2.5543  -2.5176  -2.4840  -2.3988  -2.3947  -2.2712  -2.1822  -2.1416
    -2.0557  -2.0421  -1.8985  -1.8758  -1.8528  -1.7543  -1.7471  -1.6275
    -1.5821  -1.4908  -1.3766  -1.3472  -1.3350  -1.1904  -1.1227  -1.0958
    -1.0129  -0.7343  -0.7215  -0.4915  -0.4675  -0.3800  -0.3665   1.2815
     1.3316   1.4924   1.6216   1.8239   1.8853   1.8952   1.9919   2.0213
     2.0866   2.1134   2.2128   2.2952   2.3682   2.4317   2.4871   2.6175
     2.7226   2.7925   2.8245   2.8336   2.9119   2.9377   2.9480   2.9913
     3.0720   3.0858   3.1546   3.3266   3.3506

          k = 0.2500 0.2277 0.0000 ( 81485 PWs)   bands (ev):

   -57.9774 -57.9109 -57.5293 -57.4851 -57.3558 -57.2862 -57.0304 -57.0024
   -56.6497 -56.6142 -56.3511 -56.3224 -34.3957 -34.2908 -34.2079 -34.1742
   -34.0824 -34.0758 -34.0752 -33.8388 -33.8111 -33.7743 -33.7171 -33.7000
   -33.6819 -33.6647 -33.6060 -33.5669 -33.5269 -33.5003 -33.4951 -33.3066
   -33.2405 -33.2348 -33.2185 -33.1970 -33.1404 -32.9449 -32.9257 -32.9159
   -32.8442 -32.7906 -32.7843 -32.7303 -32.7063 -32.5827 -32.5078 -32.4630
   -23.4052 -18.4296 -18.1674 -17.8787 -17.7916 -17.7419 -17.6877 -17.5890
   -17.4104 -17.3901 -17.3685 -17.3350 -17.1820 -17.0991 -17.0787 -16.9715
   -16.9071 -16.7926 -16.6474 -16.6315 -16.3948 -16.2383 -16.2288 -15.9566
   -15.4873 -15.4741  -8.0490  -6.3908  -5.8332  -5.7404  -5.4516  -5.3769
    -5.2780  -5.2236  -5.1286  -5.0772  -5.0585  -4.8810  -4.8552  -4.7889
    -4.7614  -4.7149  -4.6797  -4.6124  -4.5444  -4.5108  -4.4878  -4.4061
    -4.3999  -4.2976  -4.1712  -4.0267  -3.9554  -3.8082  -3.7521  -3.7367
    -3.5038  -3.4900  -3.3769  -3.2932  -3.2484  -3.2172  -3.1581  -3.1018
    -3.0490  -2.9611  -2.9418  -2.8749  -2.8284  -2.7934  -2.7573  -2.6840
    -2.6419  -2.6075  -2.5525  -2.5240  -2.4084  -2.3650  -2.3224  -2.2368
    -2.1046  -2.0177  -1.9528  -1.8900  -1.8418  -1.8145  -1.7734  -1.7018
    -1.6227  -1.5384  -1.3592  -1.3298  -1.2945  -1.2454  -1.1845  -1.1380
    -1.0261  -0.7343  -0.7061  -0.5480  -0.5375  -0.4032  -0.3621   1.2636
     1.3562   1.6166   1.7184   1.8443   1.9167   2.0056   2.0238   2.1001
     2.1055   2.1312   2.1818   2.2313   2.3483   2.4053   2.5943   2.6356
     2.6993   2.7526   2.8754   2.9038   2.9546   2.9928   3.0057   3.1120
     3.1754   3.2076   3.3470   3.3686   3.4222

          k = 0.2500-0.4554 0.0000 ( 81408 PWs)   bands (ev):

   -57.9774 -57.9109 -57.5293 -57.4851 -57.3558 -57.2862 -57.0305 -57.0024
   -56.6497 -56.6142 -56.3511 -56.3224 -34.3966 -34.2908 -34.2080 -34.1725
   -34.0821 -34.0761 -34.0754 -33.8403 -33.8111 -33.7743 -33.7150 -33.7000
   -33.6865 -33.6648 -33.6028 -33.5669 -33.5161 -33.5007 -33.4943 -33.3145
   -33.2415 -33.2342 -33.2185 -33.1968 -33.1399 -32.9484 -32.9257 -32.9151
   -32.8442 -32.7905 -32.7841 -32.7327 -32.7052 -32.5827 -32.5078 -32.4630
   -23.4052 -18.3640 -18.0353 -17.8547 -17.7627 -17.6799 -17.6735 -17.6427
   -17.5208 -17.4497 -17.3974 -17.3277 -17.2743 -17.1788 -17.0477 -17.0200
   -16.9202 -16.7701 -16.6290 -16.6164 -16.3950 -16.2378 -16.2287 -15.9575
   -15.4862 -15.4743  -8.0486  -6.3908  -5.8233  -5.3302  -5.2806  -5.2417
    -5.1667  -5.0921  -5.0894  -5.0514  -4.9613  -4.8989  -4.8664  -4.8206
    -4.7880  -4.7204  -4.6061  -4.5680  -4.5336  -4.5077  -4.3954  -4.3389
    -4.3076  -4.0453  -4.0339  -3.9545  -3.8695  -3.7865  -3.7646  -3.7627
    -3.6568  -3.6362  -3.4418  -3.3778  -3.3196  -3.2471  -3.2441  -3.2164
    -3.1341  -3.0550  -3.0372  -3.0336  -3.0104  -2.9058  -2.8674  -2.8336
    -2.7702  -2.7158  -2.6733  -2.5545  -2.5471  -2.4950  -2.4209  -2.3492
    -2.2467  -2.1758  -1.9159  -1.8642  -1.8548  -1.7708  -1.6748  -1.6322
    -1.6040  -1.5304  -1.3886  -1.3454  -1.2660  -1.1728  -1.1340  -1.1264
    -1.0344  -0.8012  -0.6914  -0.6165  -0.5956  -0.4139  -0.3630   1.2798
     1.3607   1.6147   1.6807   1.6905   1.8604   1.8829   2.1005   2.1435
     2.1808   2.2050   2.2494   2.3727   2.4466   2.4472   2.6427   2.7380
     2.7395   2.7863   2.8667   2.9731   2.9827   3.0661   3.0909   3.2590
     3.2773   3.3000   3.3795   3.4002   3.4720

          k =-0.5000 0.0000 0.0000 ( 81532 PWs)   bands (ev):

   -57.9743 -57.9141 -57.5241 -57.4904 -57.3529 -57.2892 -57.0180 -57.0149
   -56.6414 -56.6226 -56.3370 -56.3366 -34.2884 -34.2617 -34.2128 -34.2080
   -34.1555 -34.1037 -33.9598 -33.8887 -33.7773 -33.7505 -33.7245 -33.7123
   -33.6822 -33.6485 -33.6287 -33.5924 -33.5623 -33.5135 -33.3913 -33.3868
   -33.2699 -33.2692 -33.2105 -33.1978 -32.9974 -32.9802 -32.9377 -32.9203
   -32.8740 -32.8625 -32.7178 -32.7174 -32.6263 -32.6260 -32.5456 -32.5452
   -23.4051 -18.1486 -18.1282 -17.9915 -17.8416 -17.6859 -17.6114 -17.5378
   -17.4847 -17.4054 -17.4048 -17.3494 -17.2937 -17.0534 -17.0275 -16.9417
   -16.9366 -16.6967 -16.6821 -16.4759 -16.4630 -16.3304 -16.3219 -15.9567
   -15.5474 -15.5401  -8.0503  -6.3766  -5.5499  -5.5450  -5.4146  -5.3357
    -5.2508  -5.2349  -5.2199  -5.2174  -5.1661  -5.1069  -5.0844  -5.0585
    -4.9918  -4.8683  -4.7789  -4.6753  -4.5272  -4.4261  -4.4117  -4.3593
    -4.3132  -4.1983  -4.1781  -4.1317  -4.0810  -3.7499  -3.7358  -3.5527
    -3.4776  -3.4448  -3.3805  -3.2784  -3.2512  -3.2239  -3.2122  -2.9631
    -2.9494  -2.9348  -2.8903  -2.8332  -2.7898  -2.6489  -2.5952  -2.5659
    -2.5291  -2.4229  -2.3807  -2.3488  -2.2627  -2.2388  -2.1937  -2.0835
    -2.0745  -1.9989  -1.9969  -1.9875  -1.9643  -1.9146  -1.8575  -1.7648
    -1.6532  -1.6215  -1.5709  -1.5105  -1.4287  -1.4055  -1.3146  -1.3066
    -0.9031  -0.8947  -0.5180  -0.5129  -0.4580  -0.4523  -0.4331   1.5342
     1.5933   1.6765   1.7108   1.8462   1.8786   1.9326   1.9817   1.9829
     2.0230   2.0419   2.1362   2.3357   2.3925   2.4139   2.4427   2.5288
     2.6453   2.8013   2.8045   2.8247   2.8618   2.9417   2.9780   3.0442
     3.0555   3.2618   3.3057   3.5545   3.5569

          k =-0.5000 0.2277 0.0000 ( 81508 PWs)   bands (ev):

   -57.9743 -57.9141 -57.5241 -57.4904 -57.3529 -57.2892 -57.0180 -57.0149
   -56.6414 -56.6226 -56.3370 -56.3366 -34.2884 -34.2623 -34.2135 -34.2080
   -34.1544 -34.1026 -33.9599 -33.8889 -33.7773 -33.7507 -33.7255 -33.7115
   -33.6816 -33.6486 -33.6300 -33.5903 -33.5624 -33.5112 -33.3876 -33.3835
   -33.2743 -33.2731 -33.2105 -33.1978 -32.9973 -32.9801 -32.9388 -32.9215
   -32.8740 -32.8624 -32.7184 -32.7180 -32.6262 -32.6259 -32.5456 -32.5452
   -23.4051 -18.1196 -18.0778 -17.9256 -17.7971 -17.6395 -17.5632 -17.5187
   -17.4921 -17.4751 -17.4212 -17.3181 -17.3011 -17.1442 -17.1159 -17.0307
   -17.0279 -16.6737 -16.6609 -16.4710 -16.4580 -16.3296 -16.3212 -15.9570
   -15.5472 -15.5399  -8.0501  -6.3763  -5.4156  -5.3795  -5.3198  -5.2760
    -5.1358  -5.1230  -5.0475  -5.0026  -4.9777  -4.9701  -4.9630  -4.9535
    -4.9379  -4.7872  -4.7066  -4.6301  -4.5181  -4.4180  -4.4077  -4.3808
    -4.3652  -4.3385  -4.2100  -3.9668  -3.9518  -3.9069  -3.7715  -3.6843
    -3.6553  -3.5629  -3.5024  -3.3405  -3.3237  -3.2888  -3.2647  -3.0574
    -2.9915  -2.9885  -2.9686  -2.9249  -2.8229  -2.7828  -2.7523  -2.6450
    -2.6402  -2.5648  -2.5508  -2.4600  -2.3848  -2.3509  -2.3386  -2.3158
    -2.3015  -2.2004  -2.1379  -2.0392  -1.9223  -1.8107  -1.7862  -1.7770
    -1.5315  -1.5139  -1.4927  -1.4536  -1.3168  -1.3014  -1.2595  -1.2405
    -0.9274  -0.9107  -0.5916  -0.5865  -0.4441  -0.4416  -0.4145   1.5834
     1.6265   1.7056   1.7537   1.8969   1.9287   1.9694   1.9874   2.0326
     2.0691   2.1454   2.1915   2.4020   2.4365   2.5133   2.5524   2.6497
     2.6744   2.6942   2.7390   2.8099   2.9892   3.0322   3.0447   3.0924
     3.2547   3.2756   3.3122   3.5230   3.5346

          k =-0.5000-0.4554 0.0000 ( 81484 PWs)   bands (ev):

   -57.9743 -57.9141 -57.5241 -57.4904 -57.3529 -57.2892 -57.0180 -57.0149
   -56.6414 -56.6226 -56.3370 -56.3366 -34.2884 -34.2629 -34.2141 -34.2080
   -34.1534 -34.1016 -33.9601 -33.8891 -33.7773 -33.7508 -33.7265 -33.7108
   -33.6810 -33.6486 -33.6311 -33.5883 -33.5625 -33.5089 -33.3835 -33.3799
   -33.2790 -33.2772 -33.2105 -33.1978 -32.9972 -32.9800 -32.9400 -32.9228
   -32.8739 -32.8624 -32.7190 -32.7186 -32.6261 -32.6258 -32.5456 -32.5452
   -23.4050 -18.0923 -18.0177 -17.7690 -17.7149 -17.7142 -17.6420 -17.5321
   -17.4470 -17.3711 -17.3525 -17.3453 -17.3002 -17.2313 -17.2175 -17.1737
   -17.1567 -16.6579 -16.6460 -16.4670 -16.4538 -16.3288 -16.3205 -15.9575
   -15.5470 -15.5397  -8.0499  -6.3764  -5.4179  -5.3588  -5.1415  -5.0925
    -5.0669  -4.9664  -4.9584  -4.7790  -4.7707  -4.7502  -4.6604  -4.6352
    -4.6307  -4.6178  -4.5801  -4.5495  -4.5067  -4.4414  -4.4192  -4.3983
    -4.2704  -4.2535  -4.2456  -4.2280  -4.1963  -3.9943  -3.9676  -3.9438
    -3.9349  -3.6766  -3.5266  -3.4419  -3.4400  -3.2076  -3.1521  -3.1405
    -3.0585  -3.0487  -3.0300  -3.0124  -2.9421  -2.9401  -2.9110  -2.8716
    -2.8538  -2.7656  -2.7419  -2.7310  -2.6052  -2.5747  -2.4833  -2.4568
    -2.3647  -2.2674  -2.2439  -1.9139  -1.8948  -1.8378  -1.6653  -1.6580
    -1.4362  -1.3998  -1.3931  -1.3839  -1.2924  -1.2157  -1.2148  -1.1670
    -0.9183  -0.9068  -0.6535  -0.6405  -0.4458  -0.4393  -0.3979   1.6839
     1.7119   1.7141   1.7472   1.8352   1.9240   1.9322   2.0328   2.0813
     2.0899   2.1889   2.2255   2.4143   2.4429   2.4844   2.5534   2.7860
     2.7876   2.8332   2.8780   2.9415   3.0238   3.1255   3.2009   3.2107
     3.2393   3.2668   3.4475   3.5644   3.5730

     the Fermi energy is    -0.3433 ev

!    total energy              =   -2519.46818313 Ry
     estimated scf accuracy    <          9.6E-09 Ry
     smearing contrib. (-TS)   =       0.00267052 Ry
     internal energy E=F+TS    =   -2519.47085366 Ry

     The total energy is F=E-TS. E is the sum of the following terms:
     one-electron contribution =  -25684.65893793 Ry
     hartree contribution      =   12892.03951062 Ry
     xc contribution           =    -409.77664102 Ry
     ewald contribution        =   10930.39691307 Ry
     one-center paw contrib.   =    -247.47169840 Ry

     convergence has been achieved in  15 iterations

     negative rho (up, down):  1.537E-02 0.000E+00

     Forces acting on atoms (cartesian axes, Ry/au):

     atom    1 type  2   force =    -0.00015683    0.00000000    0.10406177
     atom    2 type  2   force =    -0.00008753    0.00000000   -0.08323972
     atom    3 type  2   force =     0.00010063    0.00000000   -0.00213938
     atom    4 type  2   force =     0.00049973    0.00000000   -0.00003765
     atom    5 type  2   force =     0.00070458    0.00000000    0.00185367
     atom    6 type  2   force =    -0.00000953    0.00000000   -0.00090972
     atom    7 type  3   force =     0.00036487    0.00000000    0.03477617
     atom    8 type  3   force =     0.00002387    0.00000000    0.05239995
     atom    9 type  3   force =    -0.00301955    0.06980975   -0.03630009
     atom   10 type  3   force =    -0.00301955   -0.06980975   -0.03630009
     atom   11 type  3   force =     0.00048262    0.00000000   -0.00028596
     atom   12 type  3   force =     0.00141347    0.00000000   -0.04518107
     atom   13 type  3   force =    -0.00031662    0.00010590   -0.00010146
     atom   14 type  3   force =    -0.00031662   -0.00010590   -0.00010146
     atom   15 type  3   force =    -0.00036747    0.00000000    0.00091840
     atom   16 type  3   force =     0.00049334    0.00000000    0.00087954
     atom   17 type  3   force =     0.00243713   -0.00057518    0.00042988
     atom   18 type  3   force =     0.00243713    0.00057518    0.00042988
     atom   19 type  2   force =     0.00017138    0.00000000    0.12355267
     atom   20 type  2   force =     0.00006413    0.00000000   -0.08326011
     atom   21 type  2   force =    -0.00010104    0.00000000   -0.00090966
     atom   22 type  2   force =    -0.00012816    0.00000000    0.00028894
     atom   23 type  2   force =     0.00147296    0.00000000    0.00020867
     atom   24 type  2   force =    -0.00040131    0.00000000   -0.00107603
     atom   25 type  3   force =    -0.00041584    0.00000000    0.03480251
     atom   26 type  3   force =    -0.00000803    0.00000000    0.05267791
     atom   27 type  3   force =     0.00298461    0.06988407   -0.03624041
     atom   28 type  3   force =     0.00298461   -0.06988407   -0.03624041
     atom   29 type  3   force =    -0.00035018    0.00000000   -0.00111162
     atom   30 type  3   force =    -0.00173718    0.00000000   -0.04651189
     atom   31 type  3   force =     0.00024821    0.00006350    0.00044670
     atom   32 type  3   force =     0.00024821   -0.00006350    0.00044670
     atom   33 type  3   force =     0.00032215    0.00000000    0.00220203
     atom   34 type  3   force =    -0.00057890    0.00000000   -0.00106490
     atom   35 type  3   force =    -0.00171046   -0.00060363   -0.00093630
     atom   36 type  3   force =    -0.00171046    0.00060363   -0.00093630
     atom   37 type  3   force =    -0.00101658    0.00000000    0.00280505
     atom   38 type  3   force =    -0.00087576    0.00000000    0.00057088
     atom   39 type  1   force =    -0.00112604    0.00000000   -0.00086709

     Total force =     0.007628     Total SCF correction =     0.000139
     Energy error            =      1.5E-04 Ry
     Gradient error          =      2.8E-03 Ry/Bohr

     number of scf cycles    =  18
     number of bfgs steps    =  17

     energy             old  =   -2519.4680294341 Ry
     energy             new  =   -2519.4681831310 Ry

     CASE: energy            _new < energy            _old

     new trust radius        =       0.0129217465 bohr
     new conv_thr            =       0.0000000140 Ry


ATOMIC_POSITIONS (angstrom)
Ti               0.0000000000        4.8723546300        9.7447092600    0   0   0
Ti               1.4793500000        1.6241182100        9.7447092600    0   0   0
Ti              -0.0024081653        1.6241182100       13.1353699395
Ti               1.4531466899        4.8723546300       12.9979663451
Ti              -0.0074673499        4.8723546300       16.3655263296
Ti               1.4751585291        1.6241182100       16.4787116354
O                0.0000000000        1.6241182100       11.0129506900    0   0   0
O                0.0000000000        1.6241182100        8.4764678300    0   0   0
O                1.4793500000        3.6041132000        9.7447092600    0   0   0
O                1.4793500000        6.1405960600        9.7447092600    0   0   0
O               -0.0059460835        4.8723546300       14.2929373915
O                0.0000000000        4.8723546300       11.7247042500    0   0   0
O                1.4818114137        0.3278766883       13.0239553944
O                1.4818114137        2.9203597317       13.0239553944
O                0.0013069944        1.6241182100       17.5618359008
O               -0.0161785509        1.6241182100       14.9955723360
O                1.4966040658        3.6362183558       16.3701301147
O                1.4966040658        6.1084909042       16.3701301147
Ti               2.9587000000        4.8723546300        9.7447092600    0   0   0
Ti               4.4380500000        1.6241182100        9.7447092600    0   0   0
Ti               2.9595030380        1.6241182100       13.1151985624
Ti               4.4761741606        4.8723546300       13.0107779826
Ti               2.9430592044        4.8723546300       16.0970534922
Ti               4.4247421749        1.6241182100       16.4904427889
O                2.9587000000        1.6241182100       11.0129506900    0   0   0
O                2.9587000000        1.6241182100        8.4764678300    0   0   0
O                4.4380500000        3.6041132000        9.7447092600    0   0   0
O                4.4380500000        6.1405960600        9.7447092600    0   0   0
O                2.9635174134        4.8723546300       14.2818482415
O                2.9587000000        4.8723546300       11.7247042500    0   0   0
O                4.4345671746        0.3292674671       13.0127921274
O                4.4345671746        2.9189689529       13.0127921274
O                2.9448875558        1.6241182100       17.5715447162
O                2.9719071384        1.6241182100       14.9957572897
O                4.4036520250        3.6440570616       16.4373904965
O                4.4036520250        6.1006521984       16.4373904965
O                0.0680073461        4.8723546300       18.3840803996
O                1.3446635564        4.8723546300       18.9251964613
H                1.1617273746        4.8723546300       19.8892029844



     Writing config-only to output data dir ./tmp_s0_OOH__2x1v_mir/s0_OOH__2x1v_mir.save/ :
     XML data file
     NEW-OLD atomic charge density approx. for the potential

     Check: negative core charge=   -0.000001

     negative rho (up, down):  1.536E-02 0.000E+00

     total cpu time spent up to now is     3281.7 secs

     per-process dynamical memory:   252.0 Mb

     Self-consistent Calculation

     iteration #  1     ecut=    80.00 Ry     beta= 0.30
     Davidson diagonalization with overlap
     ethr =  1.00E-06,  avg # of iterations =  5.0

     negative rho (up, down):  1.546E-02 0.000E+00

     total cpu time spent up to now is     3292.0 secs

     total energy              =   -2519.46549809 Ry
     estimated scf accuracy    <       0.04843158 Ry

     iteration #  2     ecut=    80.00 Ry     beta= 0.30
     Davidson diagonalization with overlap
     ethr =  1.61E-05,  avg # of iterations =  1.0

     negative rho (up, down):  1.538E-02 0.000E+00

     total cpu time spent up to now is     3298.1 secs

     total energy              =   -2519.46418266 Ry
     estimated scf accuracy    <       0.50689283 Ry

     iteration #  3     ecut=    80.00 Ry     beta= 0.30
     Davidson diagonalization with overlap
     ethr =  1.61E-05,  avg # of iterations =  1.0

     negative rho (up, down):  1.540E-02 0.000E+00

     total cpu time spent up to now is     3304.3 secs

     total energy              =   -2519.46826867 Ry
     estimated scf accuracy    <       0.00104397 Ry

     iteration #  4     ecut=    80.00 Ry     beta= 0.30
     Davidson diagonalization with overlap
     ethr =  3.47E-07,  avg # of iterations =  2.0

     negative rho (up, down):  1.546E-02 0.000E+00

     total cpu time spent up to now is     3311.2 secs

     total energy              =   -2519.46824036 Ry
     estimated scf accuracy    <       0.00446525 Ry

     iteration #  5     ecut=    80.00 Ry     beta= 0.30
     Davidson diagonalization with overlap
     ethr =  3.47E-07,  avg # of iterations =  1.0

     negative rho (up, down):  1.549E-02 0.000E+00

     total cpu time spent up to now is     3317.3 secs

     total energy              =   -2519.46826487 Ry
     estimated scf accuracy    <       0.00012002 Ry

     iteration #  6     ecut=    80.00 Ry     beta= 0.30
     Davidson diagonalization with overlap
     ethr =  3.99E-08,  avg # of iterations =  2.0

     negative rho (up, down):  1.553E-02 0.000E+00

     total cpu time spent up to now is     3324.2 secs

     total energy              =   -2519.46826243 Ry
     estimated scf accuracy    <       0.00037880 Ry

     iteration #  7     ecut=    80.00 Ry     beta= 0.30
     Davidson diagonalization with overlap
     ethr =  3.99E-08,  avg # of iterations =  1.0

     negative rho (up, down):  1.554E-02 0.000E+00

     total cpu time spent up to now is     3330.4 secs

     total energy              =   -2519.46826290 Ry
     estimated scf accuracy    <       0.00002596 Ry

     iteration #  8     ecut=    80.00 Ry     beta= 0.30
     Davidson diagonalization with overlap
     ethr =  8.62E-09,  avg # of iterations =  2.0

     negative rho (up, down):  1.554E-02 0.000E+00

     total cpu time spent up to now is     3337.1 secs

     total energy              =   -2519.46826287 Ry
     estimated scf accuracy    <       0.00000451 Ry

     iteration #  9     ecut=    80.00 Ry     beta= 0.30
     Davidson diagonalization with overlap
     ethr =  1.50E-09,  avg # of iterations =  4.1

     negative rho (up, down):  1.554E-02 0.000E+00

     total cpu time spent up to now is     3344.6 secs

     total energy              =   -2519.46826325 Ry
     estimated scf accuracy    <       0.00000796 Ry

     iteration # 10     ecut=    80.00 Ry     beta= 0.30
     Davidson diagonalization with overlap
     ethr =  1.50E-09,  avg # of iterations =  1.4

     negative rho (up, down):  1.550E-02 0.000E+00

     total cpu time spent up to now is     3351.3 secs

     total energy              =   -2519.46826310 Ry
     estimated scf accuracy    <       0.00000890 Ry

     iteration # 11     ecut=    80.00 Ry     beta= 0.30
     Davidson diagonalization with overlap
     ethr =  1.50E-09,  avg # of iterations =  2.2

     negative rho (up, down):  1.549E-02 0.000E+00

     total cpu time spent up to now is     3358.8 secs

     total energy              =   -2519.46826319 Ry
     estimated scf accuracy    <       0.00000141 Ry

     iteration # 12     ecut=    80.00 Ry     beta= 0.30
     Davidson diagonalization with overlap
     ethr =  4.70E-10,  avg # of iterations =  2.0

     negative rho (up, down):  1.546E-02 0.000E+00

     total cpu time spent up to now is     3365.6 secs

     total energy              =   -2519.46826324 Ry
     estimated scf accuracy    <       0.00000007 Ry

     iteration # 13     ecut=    80.00 Ry     beta= 0.30
     Davidson diagonalization with overlap
     ethr =  2.25E-11,  avg # of iterations =  5.0

     negative rho (up, down):  1.545E-02 0.000E+00

     total cpu time spent up to now is     3374.6 secs

     total energy              =   -2519.46826327 Ry
     estimated scf accuracy    <       0.00000004 Ry

     iteration # 14     ecut=    80.00 Ry     beta= 0.30
     Davidson diagonalization with overlap
     ethr =  1.41E-11,  avg # of iterations =  2.0

     negative rho (up, down):  1.542E-02 0.000E+00

     total cpu time spent up to now is     3381.6 secs

     total energy              =   -2519.46826329 Ry
     estimated scf accuracy    <       0.00000003 Ry

     iteration # 15     ecut=    80.00 Ry     beta= 0.30
     Davidson diagonalization with overlap
     ethr =  1.09E-11,  avg # of iterations =  2.7

     negative rho (up, down):  1.541E-02 0.000E+00

     total cpu time spent up to now is     3388.6 secs

     total energy              =   -2519.46826330 Ry
     estimated scf accuracy    <       0.00000002 Ry

     iteration # 16     ecut=    80.00 Ry     beta= 0.30
     Davidson diagonalization with overlap
     ethr =  7.11E-12,  avg # of iterations =  1.0

     negative rho (up, down):  1.535E-02 0.000E+00

     total cpu time spent up to now is     3394.4 secs

     End of self-consistent calculation

          k = 0.0000 0.0000 0.0000 ( 81491 PWs)   bands (ev):

   -57.9788 -57.9067 -57.5309 -57.4788 -57.3727 -57.2777 -57.0384 -56.9985
   -56.6540 -56.6075 -56.3574 -56.3168 -34.4562 -34.2917 -34.2085 -34.1884
   -34.1289 -34.0673 -34.0070 -33.9015 -33.8241 -33.7276 -33.7257 -33.6657
   -33.6655 -33.6552 -33.6317 -33.6022 -33.5786 -33.4809 -33.4379 -33.3125
   -33.2311 -33.2288 -33.2224 -33.1725 -33.1711 -32.9438 -32.9326 -32.9129
   -32.8492 -32.8301 -32.7324 -32.7202 -32.7033 -32.5983 -32.4923 -32.3945
   -23.4150 -18.6376 -18.3777 -18.0908 -17.8826 -17.6614 -17.6480 -17.5597
   -17.4712 -17.2936 -17.1538 -17.1445 -17.1257 -17.1148 -17.0569 -17.0276
   -16.7889 -16.7764 -16.7238 -16.6819 -16.4189 -16.1899 -16.1228 -15.9542
   -15.4427 -15.4073  -8.0517  -6.4126  -6.2454  -6.0158  -5.8929  -5.8271
    -5.5250  -5.2177  -5.0587  -4.9915  -4.9826  -4.9208  -4.8862  -4.6883
    -4.6806  -4.6685  -4.6054  -4.5882  -4.5142  -4.4522  -4.4202  -4.3896
    -4.3520  -4.3421  -4.1864  -4.1705  -4.1376  -4.0299  -3.9383  -3.6839
    -3.5672  -3.5040  -3.4735  -3.4399  -3.1845  -3.1503  -3.1407  -3.0502
    -3.0469  -2.9499  -2.9237  -2.7989  -2.7392  -2.6708  -2.6397  -2.6234
    -2.5734  -2.5372  -2.4372  -2.3643  -2.2827  -2.2775  -2.1302  -2.1083
    -2.0188  -1.9055  -1.8835  -1.8055  -1.8016  -1.6698  -1.5875  -1.5219
    -1.4824  -1.3722  -1.3159  -1.1727  -1.1645  -1.1509  -1.0954  -1.0622
    -0.8475  -0.5744  -0.5025  -0.4583  -0.4188  -0.4166  -0.3400   1.0690
     1.2269   1.3348   1.5017   1.5949   1.7328   1.9256   1.9510   2.0847
     2.1215   2.2156   2.2430   2.2685   2.5462   2.5560   2.6057   2.6346
     2.6821   2.7080   2.7623   2.7867   2.8557   2.9002   2.9158   3.0332
     3.0353   3.0623   3.1003   3.1278   3.2738

          k = 0.0000 0.2277 0.0000 ( 81407 PWs)   bands (ev):

   -57.9788 -57.9067 -57.5309 -57.4788 -57.3727 -57.2777 -57.0384 -56.9985
   -56.6540 -56.6075 -56.3574 -56.3168 -34.4573 -34.2917 -34.2085 -34.1864
   -34.1291 -34.0674 -34.0070 -33.9032 -33.8241 -33.7276 -33.7199 -33.6860
   -33.6655 -33.6552 -33.6280 -33.5787 -33.5786 -33.4810 -33.4379 -33.3219
   -33.2307 -33.2285 -33.2220 -33.1724 -33.1711 -32.9484 -32.9326 -32.9111
   -32.8490 -32.8302 -32.7356 -32.7202 -32.7016 -32.5983 -32.4923 -32.3946
   -23.4150 -18.5670 -18.2855 -17.9985 -17.8341 -17.8244 -17.6689 -17.5570
   -17.4291 -17.3731 -17.3230 -17.2918 -17.1665 -17.1054 -16.9728 -16.8527
   -16.8470 -16.7882 -16.7130 -16.6838 -16.4198 -16.1874 -16.1212 -15.9562
   -15.4409 -15.4069  -8.0511  -6.4076  -6.0155  -5.9301  -5.6363  -5.5502
    -5.5187  -5.4074  -5.2822  -5.1464  -5.0250  -4.9234  -4.8257  -4.6696
    -4.6492  -4.6325  -4.5903  -4.5416  -4.5078  -4.4162  -4.3628  -4.3278
    -4.2229  -4.1931  -4.1361  -4.0525  -3.9741  -3.9346  -3.6779  -3.6452
    -3.5913  -3.5669  -3.5490  -3.3737  -3.3079  -3.2586  -3.2291  -3.1399
    -3.1325  -3.0607  -3.0449  -2.9612  -2.8340  -2.8260  -2.7046  -2.6319
    -2.5513  -2.5355  -2.3778  -2.3676  -2.3164  -2.1761  -2.1062  -2.0840
    -1.9990  -1.9827  -1.9335  -1.8173  -1.8058  -1.7563  -1.6739  -1.6455
    -1.5088  -1.4771  -1.4340  -1.2925  -1.2420  -1.2123  -1.1328  -1.0791
    -1.0651  -0.6790  -0.5608  -0.5289  -0.4561  -0.4527  -0.3819   1.1467
     1.1570   1.4955   1.5144   1.7624   1.9137   1.9266   1.9571   2.0290
     2.1037   2.1181   2.1878   2.2152   2.3657   2.5465   2.5657   2.6263
     2.6821   2.7550   2.8387   2.8887   2.9369   2.9825   3.0323   3.0715
     3.1273   3.2318   3.2899   3.3023   3.3397

          k = 0.0000-0.4554 0.0000 ( 81286 PWs)   bands (ev):

   -57.9788 -57.9067 -57.5309 -57.4788 -57.3726 -57.2777 -57.0384 -56.9985
   -56.6540 -56.6075 -56.3574 -56.3168 -34.4583 -34.2917 -34.2085 -34.1843
   -34.1294 -34.0674 -34.0069 -33.9049 -33.8241 -33.7276 -33.7188 -33.6940
   -33.6656 -33.6551 -33.6244 -33.5786 -33.5624 -33.4810 -33.4379 -33.3317
   -33.2303 -33.2281 -33.2217 -33.1724 -33.1711 -32.9532 -32.9326 -32.9092
   -32.8487 -32.8302 -32.7387 -32.7203 -32.6999 -32.5983 -32.4923 -32.3946
   -23.4149 -18.4927 -18.1503 -17.9171 -17.8639 -17.7675 -17.7148 -17.5443
   -17.5196 -17.5081 -17.4677 -17.3214 -17.1970 -17.1086 -16.9887 -16.8893
   -16.7816 -16.7385 -16.6906 -16.6829 -16.4207 -16.1855 -16.1196 -15.9582
   -15.4393 -15.4064  -8.0505  -6.4069  -5.9982  -5.5494  -5.5206  -5.5185
    -5.5161  -5.3288  -5.1874  -5.1660  -5.0624  -4.7724  -4.7219  -4.6700
    -4.6092  -4.5831  -4.5761  -4.5491  -4.4775  -4.4656  -4.3834  -4.2922
    -4.1065  -4.0903  -4.0236  -3.9362  -3.9132  -3.8152  -3.6281  -3.6173
    -3.6062  -3.6059  -3.5833  -3.5714  -3.5553  -3.4787  -3.4010  -3.2225
    -3.1378  -3.0401  -3.0177  -2.9933  -2.9408  -2.8415  -2.7350  -2.6435
    -2.6063  -2.5464  -2.5222  -2.4015  -2.3963  -2.2007  -2.1634  -2.1284
    -2.1013  -2.0101  -2.0041  -1.9320  -1.8518  -1.7627  -1.7129  -1.5451
    -1.4996  -1.4703  -1.3886  -1.3655  -1.3359  -1.2495  -1.2046  -1.1930
    -1.0602  -0.7876  -0.6151  -0.5628  -0.4862  -0.4661  -0.4079   1.0797
     1.1686   1.4781   1.5457   1.6167   1.6609   1.8399   1.9988   2.1199
     2.1980   2.2063   2.3105   2.3417   2.4352   2.4774   2.5449   2.6559
     2.7802   2.7975   2.9078   2.9568   2.9743   3.0855   3.0886   3.1262
     3.1639   3.2975   3.3201   3.3402   3.4004

          k = 0.2500 0.0000 0.0000 ( 81478 PWs)   bands (ev):

   -57.9759 -57.9097 -57.5267 -57.4831 -57.3706 -57.2799 -57.0327 -57.0042
   -56.6485 -56.6130 -56.3515 -56.3228 -34.3935 -34.2891 -34.2065 -34.1746
   -34.0816 -34.0741 -34.0728 -33.8427 -33.8086 -33.7720 -33.7191 -33.6972
   -33.6719 -33.6579 -33.6203 -33.5798 -33.5411 -33.5017 -33.4931 -33.3007
   -33.2414 -33.2374 -33.2202 -33.1979 -33.1391 -32.9407 -32.9242 -32.9156
   -32.8427 -32.7888 -32.7850 -32.7281 -32.7075 -32.5830 -32.5081 -32.4635
   -23.4148 -18.4924 -18.2517 -17.9616 -17.7975 -17.7267 -17.6019 -17.5864
   -17.5340 -17.3063 -17.2274 -17.2208 -17.2199 -17.1150 -17.0912 -16.9160
   -16.8621 -16.7877 -16.6773 -16.6440 -16.3936 -16.2351 -16.2260 -15.9562
   -15.4897 -15.4755  -8.0526  -6.3914  -6.0461  -5.8310  -5.7099  -5.6564
    -5.2914  -5.1810  -5.1086  -5.0955  -4.9403  -4.9334  -4.9232  -4.7784
    -4.7423  -4.7314  -4.6673  -4.6323  -4.6085  -4.5862  -4.5333  -4.5326
    -4.4226  -4.3523  -4.3186  -4.0830  -3.8864  -3.8610  -3.8406  -3.7089
    -3.5321  -3.5048  -3.4243  -3.2493  -3.1915  -3.0924  -3.0056  -2.9868
    -2.9808  -2.9375  -2.8496  -2.8206  -2.6869  -2.6625  -2.6318  -2.5933
    -2.5547  -2.5174  -2.4842  -2.3983  -2.3953  -2.2703  -2.1826  -2.1415
    -2.0545  -2.0417  -1.8962  -1.8762  -1.8512  -1.7511  -1.7507  -1.6262
    -1.5812  -1.4904  -1.3751  -1.3464  -1.3349  -1.1896  -1.1226  -1.0901
    -1.0133  -0.7347  -0.7228  -0.4919  -0.4681  -0.3813  -0.3676   1.2832
     1.3344   1.4939   1.6239   1.8231   1.8836   1.8963   1.9930   2.0242
     2.0821   2.1148   2.2113   2.2899   2.3623   2.4328   2.4890   2.6169
     2.7211   2.7920   2.8239   2.8352   2.9137   2.9337   2.9485   2.9918
     3.0717   3.0825   3.1574   3.3259   3.3497

          k = 0.2500 0.2277 0.0000 ( 81485 PWs)   bands (ev):

   -57.9759 -57.9097 -57.5267 -57.4831 -57.3706 -57.2799 -57.0327 -57.0042
   -56.6485 -56.6130 -56.3515 -56.3228 -34.3944 -34.2891 -34.2065 -34.1729
   -34.0813 -34.0744 -34.0730 -33.8443 -33.8087 -33.7721 -33.7150 -33.6973
   -33.6804 -33.6580 -33.6173 -33.5798 -33.5287 -33.5022 -33.4921 -33.3086
   -33.2424 -33.2366 -33.2202 -33.1977 -33.1386 -32.9440 -32.9242 -32.9150
   -32.8427 -32.7888 -32.7848 -32.7305 -32.7065 -32.5830 -32.5081 -32.4635
   -23.4148 -18.4287 -18.1674 -17.8784 -17.7907 -17.7414 -17.6854 -17.5868
   -17.4090 -17.3900 -17.3677 -17.3346 -17.1785 -17.0994 -17.0792 -16.9719
   -16.9070 -16.7924 -16.6459 -16.6320 -16.3940 -16.2333 -16.2265 -15.9571
   -15.4884 -15.4758  -8.0522  -6.3897  -5.8319  -5.7395  -5.4521  -5.3778
    -5.2761  -5.2228  -5.1308  -5.0754  -5.0582  -4.8779  -4.8536  -4.7881
    -4.7594  -4.7126  -4.6779  -4.6100  -4.5435  -4.5120  -4.4874  -4.4055
    -4.4005  -4.2969  -4.1703  -4.0262  -3.9524  -3.8072  -3.7516  -3.7366
    -3.5009  -3.4887  -3.3760  -3.2919  -3.2462  -3.2144  -3.1558  -3.1001
    -3.0486  -2.9595  -2.9401  -2.8746  -2.8279  -2.7925  -2.7562  -2.6861
    -2.6410  -2.6056  -2.5501  -2.5250  -2.4084  -2.3634  -2.3226  -2.2366
    -2.1036  -2.0167  -1.9516  -1.8892  -1.8419  -1.8145  -1.7738  -1.7020
    -1.6206  -1.5362  -1.3571  -1.3288  -1.2934  -1.2457  -1.1842  -1.1357
    -1.0266  -0.7351  -0.7072  -0.5486  -0.5383  -0.4045  -0.3630   1.2652
     1.3597   1.6186   1.7199   1.8451   1.9165   2.0042   2.0220   2.0986
     2.1038   2.1300   2.1779   2.2335   2.3503   2.4073   2.5943   2.6309
     2.6982   2.7512   2.8720   2.9028   2.9519   2.9928   3.0046   3.1130
     3.1775   3.2097   3.3467   3.3681   3.4212

          k = 0.2500-0.4554 0.0000 ( 81408 PWs)   bands (ev):

   -57.9759 -57.9097 -57.5266 -57.4831 -57.3706 -57.2799 -57.0327 -57.0042
   -56.6485 -56.6130 -56.3515 -56.3228 -34.3953 -34.2891 -34.2065 -34.1712
   -34.0809 -34.0746 -34.0732 -33.8458 -33.8087 -33.7721 -33.7128 -33.6973
   -33.6851 -33.6580 -33.6143 -33.5798 -33.5176 -33.5026 -33.4910 -33.3166
   -33.2434 -33.2360 -33.2202 -33.1976 -33.1382 -32.9474 -32.9242 -32.9142
   -32.8426 -32.7888 -32.7846 -32.7329 -32.7054 -32.5830 -32.5081 -32.4635
   -23.4147 -18.3633 -18.0353 -17.8538 -17.7607 -17.6781 -17.6731 -17.6408
   -17.5212 -17.4495 -17.3970 -17.3268 -17.2742 -17.1746 -17.0472 -17.0211
   -16.9204 -16.7698 -16.6274 -16.6171 -16.3943 -16.2325 -16.2267 -15.9581
   -15.4873 -15.4760  -8.0518  -6.3896  -5.8219  -5.3292  -5.2793  -5.2421
    -5.1660  -5.0951  -5.0924  -5.0495  -4.9624  -4.8952  -4.8634  -4.8198
    -4.7873  -4.7162  -4.6041  -4.5669  -4.5325  -4.5061  -4.3957  -4.3373
    -4.3091  -4.0431  -4.0311  -3.9535  -3.8688  -3.7858  -3.7639  -3.7634
    -3.6557  -3.6339  -3.4385  -3.3770  -3.3188  -3.2449  -3.2407  -3.2145
    -3.1332  -3.0554  -3.0366  -3.0362  -3.0109  -2.9041  -2.8646  -2.8314
    -2.7689  -2.7143  -2.6733  -2.5545  -2.5458  -2.4941  -2.4177  -2.3484
    -2.2462  -2.1762  -1.9132  -1.8657  -1.8572  -1.7687  -1.6735  -1.6294
    -1.6034  -1.5296  -1.3882  -1.3453  -1.2642  -1.1718  -1.1336  -1.1263
    -1.0347  -0.8027  -0.6922  -0.6175  -0.5963  -0.4151  -0.3637   1.2810
     1.3644   1.6165   1.6817   1.6911   1.8598   1.8810   2.0970   2.1445
     2.1800   2.2044   2.2467   2.3743   2.4488   2.4493   2.6388   2.7352
     2.7377   2.7865   2.8604   2.9741   2.9818   3.0650   3.0876   3.2620
     3.2768   3.3030   3.3790   3.3997   3.4729

          k =-0.5000 0.0000 0.0000 ( 81532 PWs)   bands (ev):

   -57.9728 -57.9129 -57.5214 -57.4884 -57.3684 -57.2821 -57.0215 -57.0154
   -56.6402 -56.6214 -56.3373 -56.3370 -34.2866 -34.2602 -34.2116 -34.2066
   -34.1541 -34.1026 -33.9570 -33.8867 -33.7747 -33.7491 -33.7331 -33.7100
   -33.6806 -33.6441 -33.6246 -33.6061 -33.5748 -33.5080 -33.3934 -33.3886
   -33.2733 -33.2697 -33.2124 -33.1988 -32.9951 -32.9784 -32.9367 -32.9193
   -32.8727 -32.8610 -32.7180 -32.7176 -32.6268 -32.6265 -32.5459 -32.5456
   -23.4147 -18.1502 -18.1254 -17.9913 -17.8392 -17.6826 -17.6146 -17.5372
   -17.4839 -17.4046 -17.4039 -17.3483 -17.2884 -17.0524 -17.0296 -16.9423
   -16.9375 -16.6953 -16.6826 -16.4734 -16.4635 -16.3261 -16.3186 -15.9572
   -15.5487 -15.5418  -8.0535  -6.3756  -5.5489  -5.5440  -5.4149  -5.3331
    -5.2511  -5.2352  -5.2200  -5.2177  -5.1686  -5.1045  -5.0823  -5.0579
    -4.9878  -4.8701  -4.7778  -4.6764  -4.5251  -4.4228  -4.4110  -4.3562
    -4.3117  -4.1937  -4.1775  -4.1301  -4.0799  -3.7496  -3.7342  -3.5549
    -3.4747  -3.4448  -3.3787  -3.2772  -3.2500  -3.2196  -3.2109  -2.9626
    -2.9500  -2.9348  -2.8878  -2.8312  -2.7883  -2.6489  -2.5942  -2.5644
    -2.5286  -2.4254  -2.3790  -2.3486  -2.2624  -2.2399  -2.1912  -2.0803
    -2.0739  -1.9989  -1.9976  -1.9887  -1.9663  -1.9135  -1.8600  -1.7688
    -1.6461  -1.6180  -1.5665  -1.5075  -1.4291  -1.4077  -1.3146  -1.3062
    -0.9023  -0.8926  -0.5189  -0.5132  -0.4585  -0.4534  -0.4340   1.5356
     1.5947   1.6787   1.7120   1.8474   1.8796   1.9338   1.9833   1.9861
     2.0179   2.0358   2.1325   2.3335   2.3936   2.4148   2.4425   2.5269
     2.6479   2.7933   2.8030   2.8247   2.8620   2.9482   2.9788   3.0458
     3.0552   3.2628   3.3050   3.5538   3.5559

          k =-0.5000 0.2277 0.0000 ( 81508 PWs)   bands (ev):

   -57.9728 -57.9129 -57.5214 -57.4884 -57.3684 -57.2821 -57.0215 -57.0154
   -56.6402 -56.6214 -56.3373 -56.3370 -34.2866 -34.2609 -34.2123 -34.2066
   -34.1531 -34.1015 -33.9571 -33.8869 -33.7747 -33.7494 -33.7340 -33.7092
   -33.6800 -33.6441 -33.6259 -33.6040 -33.5749 -33.5056 -33.3896 -33.3852
   -33.2777 -33.2736 -33.2124 -33.1988 -32.9950 -32.9783 -32.9379 -32.9206
   -32.8726 -32.8609 -32.7186 -32.7182 -32.6267 -32.6264 -32.5459 -32.5456
   -23.4146 -18.1216 -18.0746 -17.9250 -17.7949 -17.6359 -17.5634 -17.5204
   -17.4913 -17.4741 -17.4202 -17.3174 -17.2974 -17.1439 -17.1170 -17.0309
   -17.0285 -16.6725 -16.6615 -16.4685 -16.4586 -16.3252 -16.3179 -15.9576
   -15.5485 -15.5416  -8.0533  -6.3753  -5.4161  -5.3774  -5.3185  -5.2744
    -5.1387  -5.1206  -5.0460  -5.0020  -4.9775  -4.9698  -4.9629  -4.9521
    -4.9370  -4.7887  -4.7055  -4.6316  -4.5150  -4.4161  -4.4057  -4.3798
    -4.3641  -4.3366  -4.2061  -3.9660  -3.9504  -3.9062  -3.7683  -3.6853
    -3.6545  -3.5621  -3.5037  -3.3396  -3.3221  -3.2855  -3.2622  -3.0558
    -2.9927  -2.9865  -2.9664  -2.9212  -2.8214  -2.7811  -2.7519  -2.6440
    -2.6392  -2.5638  -2.5489  -2.4640  -2.3861  -2.3493  -2.3355  -2.3136
    -2.3003  -2.2016  -2.1361  -2.0410  -1.9223  -1.8106  -1.7877  -1.7784
    -1.5285  -1.5108  -1.4905  -1.4499  -1.3185  -1.3024  -1.2592  -1.2401
    -0.9281  -0.9093  -0.5922  -0.5874  -0.4449  -0.4423  -0.4154   1.5845
     1.6276   1.7079   1.7549   1.8977   1.9306   1.9716   1.9851   2.0336
     2.0699   2.1408   2.1859   2.4031   2.4361   2.5147   2.5515   2.6492
     2.6772   2.6936   2.7392   2.7980   2.9949   3.0325   3.0454   3.0904
     3.2561   3.2773   3.3120   3.5220   3.5335

          k =-0.5000-0.4554 0.0000 ( 81484 PWs)   bands (ev):

   -57.9728 -57.9129 -57.5214 -57.4884 -57.3684 -57.2821 -57.0216 -57.0154
   -56.6402 -56.6214 -56.3373 -56.3370 -34.2866 -34.2615 -34.2129 -34.2066
   -34.1521 -34.1005 -33.9572 -33.8871 -33.7747 -33.7497 -33.7348 -33.7085
   -33.6794 -33.6441 -33.6270 -33.6022 -33.5750 -33.5033 -33.3855 -33.3816
   -33.2824 -33.2778 -33.2124 -33.1988 -32.9948 -32.9781 -32.9391 -32.9218
   -32.8726 -32.8609 -32.7192 -32.7188 -32.6266 -32.6263 -32.5459 -32.5456
   -23.4146 -18.0946 -18.0136 -17.7678 -17.7141 -17.7134 -17.6397 -17.5276
   -17.4453 -17.3704 -17.3565 -17.3462 -17.2991 -17.2314 -17.2186 -17.1737
   -17.1541 -16.6568 -16.6466 -16.4645 -16.4545 -16.3243 -16.3172 -15.9581
   -15.5483 -15.5415  -8.0531  -6.3753  -5.4184  -5.3562  -5.1389  -5.0959
    -5.0629  -4.9655  -4.9575  -4.7781  -4.7727  -4.7492  -4.6583  -4.6346
    -4.6332  -4.6173  -4.5799  -4.5464  -4.5080  -4.4395  -4.4177  -4.3964
    -4.2683  -4.2526  -4.2442  -4.2273  -4.1952  -3.9944  -3.9666  -3.9448
    -3.9340  -3.6744  -3.5200  -3.4403  -3.4388  -3.2068  -3.1505  -3.1396
    -3.0588  -3.0481  -3.0282  -3.0102  -2.9403  -2.9382  -2.9097  -2.8689
    -2.8512  -2.7707  -2.7388  -2.7278  -2.6076  -2.5712  -2.4846  -2.4558
    -2.3628  -2.2660  -2.2430  -1.9145  -1.8952  -1.8399  -1.6657  -1.6560
    -1.4331  -1.3981  -1.3926  -1.3820  -1.2922  -1.2170  -1.2136  -1.1673
    -0.9184  -0.9081  -0.6543  -0.6414  -0.4468  -0.4398  -0.3990   1.6849
     1.7132   1.7159   1.7474   1.8374   1.9255   1.9362   2.0307   2.0760
     2.0902   2.1900   2.2265   2.4154   2.4422   2.4835   2.5495   2.7724
     2.7878   2.8380   2.8763   2.9419   3.0278   3.1238   3.1978   3.2115
     3.2438   3.2669   3.4477   3.5635   3.5723

     the Fermi energy is    -0.3442 ev

!    total energy              =   -2519.46826336 Ry
     estimated scf accuracy    <       0.00000001 Ry
     smearing contrib. (-TS)   =       0.00266064 Ry
     internal energy E=F+TS    =   -2519.47092400 Ry

     The total energy is F=E-TS. E is the sum of the following terms:
     one-electron contribution =  -25672.01573836 Ry
     hartree contribution      =   12885.70939992 Ry
     xc contribution           =    -409.77165185 Ry
     ewald contribution        =   10924.07886693 Ry
     one-center paw contrib.   =    -247.47180064 Ry

     convergence has been achieved in  16 iterations

     negative rho (up, down):  1.535E-02 0.000E+00

     Forces acting on atoms (cartesian axes, Ry/au):

     atom    1 type  2   force =    -0.00017141    0.00000000    0.10428798
     atom    2 type  2   force =     0.00009074    0.00000000   -0.08298002
     atom    3 type  2   force =     0.00006615    0.00000000   -0.00147463
     atom    4 type  2   force =    -0.00010410    0.00000000   -0.00010738
     atom    5 type  2   force =     0.00083573    0.00000000    0.00186062
     atom    6 type  2   force =    -0.00012032    0.00000000   -0.00009395
     atom    7 type  3   force =     0.00034682    0.00000000    0.03534297
     atom    8 type  3   force =     0.00002139    0.00000000    0.05229684
     atom    9 type  3   force =    -0.00301879    0.06975502   -0.03632768
     atom   10 type  3   force =    -0.00301879   -0.06975502   -0.03632768
     atom   11 type  3   force =     0.00046932    0.00000000    0.00112690
     atom   12 type  3   force =     0.00132340    0.00000000   -0.04518871
     atom   13 type  3   force =    -0.00032143    0.00010222   -0.00058703
     atom   14 type  3   force =    -0.00032143   -0.00010222   -0.00058703
     atom   15 type  3   force =    -0.00032833    0.00000000    0.00037940
     atom   16 type  3   force =     0.00041750    0.00000000    0.00021140
     atom   17 type  3   force =     0.00073673   -0.00035195    0.00008436
     atom   18 type  3   force =     0.00073673    0.00035195    0.00008436
     atom   19 type  2   force =     0.00018928    0.00000000    0.12369400
     atom   20 type  2   force =    -0.00011375    0.00000000   -0.08300036
     atom   21 type  2   force =    -0.00008595    0.00000000   -0.00114218
     atom   22 type  2   force =     0.00048972    0.00000000    0.00018774
     atom   23 type  2   force =     0.00096918    0.00000000    0.00033666
     atom   24 type  2   force =    -0.00019626    0.00000000   -0.00013088
     atom   25 type  3   force =    -0.00041258    0.00000000    0.03501211
     atom   26 type  3   force =    -0.00000622    0.00000000    0.05259563
     atom   27 type  3   force =     0.00298046    0.06983374   -0.03626797
     atom   28 type  3   force =     0.00298046   -0.06983374   -0.03626797
     atom   29 type  3   force =    -0.00022674    0.00000000   -0.00012764
     atom   30 type  3   force =    -0.00164512    0.00000000   -0.04667634
     atom   31 type  3   force =     0.00027216   -0.00003826   -0.00003197
     atom   32 type  3   force =     0.00027216    0.00003826   -0.00003197
     atom   33 type  3   force =     0.00037492    0.00000000    0.00156588
     atom   34 type  3   force =    -0.00040028    0.00000000   -0.00103266
     atom   35 type  3   force =    -0.00006458   -0.00053900   -0.00107177
     atom   36 type  3   force =    -0.00006458    0.00053900   -0.00107177
     atom   37 type  3   force =    -0.00154571    0.00000000    0.00149724
     atom   38 type  3   force =     0.00002797    0.00000000    0.00082018
     atom   39 type  1   force =    -0.00143446    0.00000000   -0.00085664

     Total force =     0.005322     Total SCF correction =     0.000234
     Energy error            =      8.0E-05 Ry
     Gradient error          =      1.9E-03 Ry/Bohr

     bfgs converged in  19 scf cycles and  18 bfgs steps
     (criteria: energy <  1.0E-04 Ry, force <  2.0E-03 Ry/Bohr)

     End of BFGS Geometry Optimization

     Final energy             =   -2519.4682633642 Ry

     File ./tmp_s0_OOH__2x1v_mir/s0_OOH__2x1v_mir.bfgs deleted, as requested
Begin final coordinates

ATOMIC_POSITIONS (angstrom)
Ti               0.0000000000        4.8723546300        9.7447092600    0   0   0
Ti               1.4793500000        1.6241182100        9.7447092600    0   0   0
Ti              -0.0024081653        1.6241182100       13.1353699395
Ti               1.4531466899        4.8723546300       12.9979663451
Ti              -0.0074673499        4.8723546300       16.3655263296
Ti               1.4751585291        1.6241182100       16.4787116354
O                0.0000000000        1.6241182100       11.0129506900    0   0   0
O                0.0000000000        1.6241182100        8.4764678300    0   0   0
O                1.4793500000        3.6041132000        9.7447092600    0   0   0
O                1.4793500000        6.1405960600        9.7447092600    0   0   0
O               -0.0059460835        4.8723546300       14.2929373915
O                0.0000000000        4.8723546300       11.7247042500    0   0   0
O                1.4818114137        0.3278766883       13.0239553944
O                1.4818114137        2.9203597317       13.0239553944
O                0.0013069944        1.6241182100       17.5618359008
O               -0.0161785509        1.6241182100       14.9955723360
O                1.4966040658        3.6362183558       16.3701301147
O                1.4966040658        6.1084909042       16.3701301147
Ti               2.9587000000        4.8723546300        9.7447092600    0   0   0
Ti               4.4380500000        1.6241182100        9.7447092600    0   0   0
Ti               2.9595030380        1.6241182100       13.1151985624
Ti               4.4761741606        4.8723546300       13.0107779826
Ti               2.9430592044        4.8723546300       16.0970534922
Ti               4.4247421749        1.6241182100       16.4904427889
O                2.9587000000        1.6241182100       11.0129506900    0   0   0
O                2.9587000000        1.6241182100        8.4764678300    0   0   0
O                4.4380500000        3.6041132000        9.7447092600    0   0   0
O                4.4380500000        6.1405960600        9.7447092600    0   0   0
O                2.9635174134        4.8723546300       14.2818482415
O                2.9587000000        4.8723546300       11.7247042500    0   0   0
O                4.4345671746        0.3292674671       13.0127921274
O                4.4345671746        2.9189689529       13.0127921274
O                2.9448875558        1.6241182100       17.5715447162
O                2.9719071384        1.6241182100       14.9957572897
O                4.4036520250        3.6440570616       16.4373904965
O                4.4036520250        6.1006521984       16.4373904965
O                0.0680073461        4.8723546300       18.3840803996
O                1.3446635564        4.8723546300       18.9251964613
H                1.1617273746        4.8723546300       19.8892029844
End final coordinates



     Writing all to output data dir ./tmp_s0_OOH__2x1v_mir/s0_OOH__2x1v_mir.save/ :
     XML data file, charge density, pseudopotentials, collected wavefunctions

     init_run     :      7.59s CPU      7.97s WALL (       1 calls)
     electrons    :   3223.61s CPU   3316.55s WALL (      19 calls)
     update_pot   :      9.66s CPU      9.78s WALL (      18 calls)
     forces       :     43.95s CPU     44.94s WALL (      19 calls)

     Called by init_run:
     wfcinit      :      3.60s CPU      3.72s WALL (       1 calls)
     potinit      :      1.66s CPU      1.71s WALL (       1 calls)
     hinit0       :      1.01s CPU      1.13s WALL (       1 calls)

     Called by electrons:
     c_bands      :   2330.90s CPU   2384.99s WALL (     409 calls)
     sum_band     :    455.65s CPU    477.72s WALL (     409 calls)
     v_of_rho     :    133.50s CPU    135.28s WALL (     428 calls)
     newd         :     58.15s CPU     70.22s WALL (     428 calls)
     PAW_pot      :     43.11s CPU     43.38s WALL (     446 calls)
     mix_rho      :    177.38s CPU    179.05s WALL (     409 calls)

     Called by c_bands:
     init_us_2    :     46.54s CPU     47.46s WALL (    1712 calls)
     cegterg      :   2004.71s CPU   2055.53s WALL (     818 calls)

     Called by *egterg:
     cdiaghg      :     69.08s CPU     69.77s WALL (    3123 calls)
     h_psi        :   1160.38s CPU   1186.47s WALL (    3161 calls)
     s_psi        :    157.08s CPU    158.47s WALL (    3161 calls)
     g_psi        :      6.61s CPU      6.66s WALL (    2341 calls)

     Called by h_psi:
     h_psi:calbec :    188.36s CPU    190.52s WALL (    3161 calls)
     vloc_psi     :    811.10s CPU    821.34s WALL (    3161 calls)
                                        0.00s GPU  (    3161 calls)
     add_vuspsi   :    156.40s CPU    158.10s WALL (    3161 calls)

     General routines
     calbec       :    288.48s CPU    291.40s WALL (    4167 calls)
     fft          :    112.23s CPU    113.53s WALL (    5753 calls)
     ffts         :     91.98s CPU     92.70s WALL (   48807 calls)
     fftw         :    951.29s CPU    962.88s WALL (  797136 calls)
     interpolate  :     11.17s CPU     11.30s WALL (     428 calls)

     Parallel routines

     PWSCF        :  55m 1.52s CPU  56m37.38s WALL


   This run was terminated on:  10:28:52  24Aug2026            

=------------------------------------------------------------------------------=
   JOB DONE.
=------------------------------------------------------------------------------=
Note: The following floating-point exceptions are signalling: IEEE_DENORMAL
Note: The following floating-point exceptions are signalling: IEEE_UNDERFLOW_FLAG IEEE_DENORMAL
Note: The following floating-point exceptions are signalling: IEEE_UNDERFLOW_FLAG IEEE_DENORMAL
Note: The following floating-point exceptions are signalling: IEEE_UNDERFLOW_FLAG IEEE_DENORMAL
Note: The following floating-point exceptions are signalling: IEEE_DENORMAL
Note: The following floating-point exceptions are signalling: IEEE_UNDERFLOW_FLAG IEEE_DENORMAL
Note: The following floating-point exceptions are signalling: IEEE_UNDERFLOW_FLAG IEEE_DENORMAL
Note: The following floating-point exceptions are signalling: IEEE_UNDERFLOW_FLAG IEEE_DENORMAL
