74
Lattice="5.9455 0.0 3.640568772165294e-16 2.0264516267117194e-15 12.601349947525463 7.716101439086363e-16 0.0 0.0 25.20269989505093" Properties=species:S:1:pos:R:3:move_mask:L:1 arm=equiatomic state=OH energy_eV=-428.2173211248455 force_converged=T pbc="T T T"
Cr       0.00000000       1.57516874       9.45101246  F
Cr       0.00000000       7.87584372       9.45101246  F
Cr       2.97275000       1.57516874       9.45101246  F
Ni       2.97275000       7.87584372       9.45101246  F
Ni       1.48637500       4.72550623       9.45101246  F
Co       1.48637500      11.02618120       9.45101246  F
Co       4.45912500       4.72550623       9.45101246  F
Cr       4.45912500      11.02618120       9.45101246  F
Ni       0.02899401       4.72385195      12.63592021  T
Cr       0.05009419      11.05365336      12.66306293  T
Fe       3.00808106       4.77931783      12.64003499  T
Co       2.99713193      11.02462455      12.70206291  T
Co       1.46807664       1.62809420      12.67388423  T
Ni       1.51321914       7.85118654      12.64536109  T
Fe       4.47639119       1.63289113      12.61534076  T
Ni       4.44400331       7.87812957      12.65801473  T
Cr       0.00836389       1.74314027      15.95630722  T
Ni       0.02884674       7.90931547      15.82607566  T
Co       2.97082422       1.68029727      15.65790544  T
Fe       3.00225044       7.92538684      15.79251439  T
Fe       1.49521740       4.88448332      15.84905317  T
Fe       1.49151766      11.02210049      15.94064282  T
Co       4.48592297       4.83816890      15.90012513  T
Fe       4.48657293      11.00951437      15.94483036  T
O        0.00000000       4.72550623      10.67964408  F
O        0.00000000      11.02618120      10.67964408  F
O        2.97275000       4.72550623      10.67964408  F
O        2.97275000      11.02618120      10.67964408  F
O        0.00000000       4.72550623       8.22238084  F
O        0.00000000      11.02618120       8.22238084  F
O        2.97275000       4.72550623       8.22238084  F
O        2.97275000      11.02618120       8.22238084  F
O        1.48637500       0.34653712       9.45101246  F
O        1.48637500       6.64721210       9.45101246  F
O        4.45912500       0.34653712       9.45101246  F
O        4.45912500       6.64721210       9.45101246  F
O        1.48637500       2.80380036       9.45101246  F
O        1.48637500       9.10447534       9.45101246  F
O        4.45912500       2.80380036       9.45101246  F
O        4.45912500       9.10447534       9.45101246  F
O        0.00672331       1.61152575      13.96215681  T
O        0.02634770       7.92175729      13.82285316  T
O        3.00895189       1.63772489      13.89029523  T
O        2.97711347       7.82875377      13.86911391  T
O        0.00000000       1.57516874      11.37271833  F
O        0.00000000       7.87584372      11.37271833  F
O        2.97275000       1.57516874      11.37271833  F
O        2.97275000       7.87584372      11.37271833  F
O        1.53690659       3.43808266      12.68414119  T
O        1.43351669       9.88705103      12.62381732  T
O        4.45152563       3.54006911      12.66013921  T
O        4.44931009       9.87459845      12.64699738  T
O        1.54237739       5.90465402      12.61955283  T
O        1.48675889      12.31762213      12.64856026  T
O        4.45536302       5.96277611      12.58089001  T
O        4.53197431      12.24299683      12.65123733  T
O       -0.04550566       4.70282416      16.98383275  T
O        0.02383282      11.32787050      17.09895755  T
O        3.06563584       4.78139877      16.95412482  T
O        2.98094655      11.10602901      17.04889630  T
O        0.03644496       4.83925709      14.63690731  T
O        0.02355477      11.04785898      14.64588478  T
O        2.98550030       4.88240473      14.57128849  T
O        2.99187038      10.98622119      14.51274328  T
O        1.59955559       0.51363009      15.79371668  T
O        1.49649292       6.74557082      16.14039433  T
O        4.37962081       0.54775256      15.83047878  T
O        4.51193829       6.68503599      16.08307724  T
O        1.58130914       2.86365323      15.93535711  T
O        1.48297750       9.10443520      16.09137230  T
O        4.42145861       2.89969556      15.88830410  T
O        4.50469525       9.06849984      16.11619324  T
O        0.05148486       1.36802717      17.72500369  T
H        0.02294283       0.36826288      17.76561683  T
