75
Lattice="5.9455 0.0 3.640568772165294e-16 2.0264516267117194e-15 12.601349947525463 7.716101439086363e-16 0.0 0.0 25.20269989505093" Properties=species:S:1:pos:R:3:move_mask:L:1 arm=equiatomic state=OOH energy_eV=-432.4724969265869 force_converged=T pbc="T T T"
Cr       0.00000000       1.57516874       9.45101246  F
Cr       0.00000000       7.87584372       9.45101246  F
Cr       2.97275000       1.57516874       9.45101246  F
Ni       2.97275000       7.87584372       9.45101246  F
Ni       1.48637500       4.72550623       9.45101246  F
Co       1.48637500      11.02618120       9.45101246  F
Co       4.45912500       4.72550623       9.45101246  F
Cr       4.45912500      11.02618120       9.45101246  F
Ni       0.03001883       4.70172577      12.64189140  T
Cr       0.04023623      11.03483072      12.67185759  T
Fe       3.00535305       4.75208772      12.64792087  T
Co       2.98849761      11.00835550      12.71863959  T
Co       1.49579293       1.60312563      12.66899382  T
Ni       1.50732170       7.83339591      12.64014089  T
Fe       4.46464942       1.60994710      12.61092631  T
Ni       4.43736611       7.85597494      12.65173376  T
Cr       0.00679050       1.62275241      15.85831620  T
Ni       0.01512367       7.85822376      15.80911210  T
Co       2.97999883       1.62712988      15.69323655  T
Fe       2.99480657       7.87533540      15.77732285  T
Fe       1.47976430       4.83078638      15.86516694  T
Fe       1.47901079      10.97685951      15.95075805  T
Co       4.46210662       4.77618627      15.91009860  T
Fe       4.46908470      10.96381382      15.97140305  T
O        0.00000000       4.72550623      10.67964408  F
O        0.00000000      11.02618120      10.67964408  F
O        2.97275000       4.72550623      10.67964408  F
O        2.97275000      11.02618120      10.67964408  F
O        0.00000000       4.72550623       8.22238084  F
O        0.00000000      11.02618120       8.22238084  F
O        2.97275000       4.72550623       8.22238084  F
O        2.97275000      11.02618120       8.22238084  F
O        1.48637500       0.34653712       9.45101246  F
O        1.48637500       6.64721210       9.45101246  F
O        4.45912500       0.34653712       9.45101246  F
O        4.45912500       6.64721210       9.45101246  F
O        1.48637500       2.80380036       9.45101246  F
O        1.48637500       9.10447534       9.45101246  F
O        4.45912500       2.80380036       9.45101246  F
O        4.45912500       9.10447534       9.45101246  F
O        0.00086841       1.58257904      13.94175761  T
O        0.01574982       7.88964019      13.81480537  T
O        3.00825876       1.57154706      13.88765693  T
O        2.96806018       7.79673669      13.85715924  T
O        0.00000000       1.57516874      11.37271833  F
O        0.00000000       7.87584372      11.37271833  F
O        2.97275000       1.57516874      11.37271833  F
O        2.97275000       7.87584372      11.37271833  F
O        1.54527208       3.42159941      12.69726502  T
O        1.41799723       9.87505564      12.63397870  T
O        4.44802068       3.52134062      12.66117302  T
O        4.44065286       9.85725985      12.66101657  T
O        1.54330483       5.88272347      12.64714556  T
O        1.48995675      12.29626765      12.65303056  T
O        4.44864928       5.93522378      12.59725854  T
O        4.53787816      12.21978993      12.65042610  T
O       -0.04927138       4.64906459      17.00058812  T
O        0.03219899      11.17489946      17.09786867  T
O        3.04688053       4.74632466      16.97729264  T
O        2.95765664      11.02384675      17.07347444  T
O        0.02548205       4.78074429      14.65327586  T
O        0.01363965      11.02449410      14.65576713  T
O        2.98226854       4.83765133      14.59441066  T
O        2.97531071      10.96363971      14.53614021  T
O        1.58606620       0.43784523      15.88755038  T
O        1.49260744       6.70316191      16.12674396  T
O        4.38046273       0.47054899      15.95326931  T
O        4.49618644       6.62785055      16.06448630  T
O        1.58901102       2.78897417      15.93432492  T
O        1.47805297       9.06331783      16.05210015  T
O        4.38791424       2.83358510      15.90809749  T
O        4.48696807       9.01932500      16.08764580  T
O       -0.03590620       1.67093964      17.83268043  T
O        1.23130538       1.60998006      18.35552860  T
H        1.05260155       1.51467206      19.32746496  T
