72
Lattice="5.9455 0.0 3.640568772165294e-16 2.0264516267117194e-15 12.601349947525463 7.716101439086363e-16 0.0 0.0 25.20269989505093" Properties=species:S:1:pos:R:3:move_mask:L:1 arm=equiatomic state=slab energy_eV=-418.9420343689268 force_converged=T pbc="T T T"
Cr       0.00000000       1.57516874       9.45101246  F
Cr       0.00000000       7.87584372       9.45101246  F
Cr       2.97275000       1.57516874       9.45101246  F
Ni       2.97275000       7.87584372       9.45101246  F
Ni       1.48637500       4.72550623       9.45101246  F
Co       1.48637500      11.02618120       9.45101246  F
Co       4.45912500       4.72550623       9.45101246  F
Cr       4.45912500      11.02618120       9.45101246  F
Ni       0.02920972       4.70601124      12.64111939  T
Cr       0.03901506      11.03313904      12.67424002  T
Fe       3.00935656       4.75040792      12.64785812  T
Co       2.99721611      11.00836351      12.71455056  T
Co       1.54383209       1.59713424      12.61843877  T
Ni       1.50513229       7.83077775      12.64509931  T
Fe       4.43730489       1.60916751      12.60303788  T
Ni       4.43294780       7.85863672      12.65595033  T
Cr       0.01854809       1.60712983      15.71053508  T
Ni       0.00376855       7.84110809      15.80760829  T
Co       2.95937331       1.64019181      15.74838165  T
Fe       2.98252365       7.85522009      15.77675186  T
Fe       1.46063179       4.81107045      15.87520876  T
Fe       1.48105339      10.96232126      15.95925777  T
Co       4.46050125       4.75369697      15.91567137  T
Fe       4.47353203      10.95601701      15.96268604  T
O        0.00000000       4.72550623      10.67964408  F
O        0.00000000      11.02618120      10.67964408  F
O        2.97275000       4.72550623      10.67964408  F
O        2.97275000      11.02618120      10.67964408  F
O        0.00000000       4.72550623       8.22238084  F
O        0.00000000      11.02618120       8.22238084  F
O        2.97275000       4.72550623       8.22238084  F
O        2.97275000      11.02618120       8.22238084  F
O        1.48637500       0.34653712       9.45101246  F
O        1.48637500       6.64721210       9.45101246  F
O        4.45912500       0.34653712       9.45101246  F
O        4.45912500       6.64721210       9.45101246  F
O        1.48637500       2.80380036       9.45101246  F
O        1.48637500       9.10447534       9.45101246  F
O        4.45912500       2.80380036       9.45101246  F
O        4.45912500       9.10447534       9.45101246  F
O        0.00108697       1.59031861      13.98518620  T
O        0.01017896       7.87619441      13.82190682  T
O        3.00576923       1.57295666      13.94739843  T
O        2.96053631       7.79931273      13.85838623  T
O        0.00000000       1.57516874      11.37271833  F
O        0.00000000       7.87584372      11.37271833  F
O        2.97275000       1.57516874      11.37271833  F
O        2.97275000       7.87584372      11.37271833  F
O        1.54736669       3.40259761      12.67403963  T
O        1.41165241       9.87248679      12.63710697  T
O        4.45498287       3.51601993      12.66644051  T
O        4.44658677       9.85109625      12.65506497  T
O        1.54657940       5.87763327      12.64978305  T
O        1.49823118      12.31187240      12.64091809  T
O        4.43900580       5.94194158      12.60616951  T
O        4.55287682      12.23223778      12.64922266  T
O       -0.08748866       4.73138398      17.01438214  T
O        0.01508501      11.02919643      17.11411573  T
O        3.03245412       4.70447920      16.97152235  T
O        2.96992339      11.07128943      17.05492308  T
O        0.02779396       4.73511769      14.64374390  T
O        0.01522816      11.04988304      14.65290368  T
O        2.96943083       4.77655776      14.60109358  T
O        2.98610118      11.00142822      14.54187677  T
O        1.46391122       0.45583415      16.03873951  T
O        1.48935730       6.68362412      16.12362224  T
O        4.52852435       0.52137526      16.08698986  T
O        4.46301447       6.61764383      16.06858232  T
O        1.43991919       2.78051521      16.10115455  T
O        1.49120402       9.04055441      16.05898159  T
O        4.46473619       2.84063791      15.99094369  T
O        4.46495211       8.99892827      16.08478978  T
