73
Lattice="5.9455 0.0 3.640568772165294e-16 2.0264516267117194e-15 12.601349947525463 7.716101439086363e-16 0.0 0.0 25.20269989505093" Properties=species:S:1:pos:R:3:move_mask:L:1 arm=equiatomic state=O energy_eV=-422.9750220334761 force_converged=T pbc="T T T"
Cr       0.00000000       1.57516874       9.45101246  F
Cr       0.00000000       7.87584372       9.45101246  F
Cr       2.97275000       1.57516874       9.45101246  F
Ni       2.97275000       7.87584372       9.45101246  F
Ni       1.48637500       4.72550623       9.45101246  F
Co       1.48637500      11.02618120       9.45101246  F
Co       4.45912500       4.72550623       9.45101246  F
Cr       4.45912500      11.02618120       9.45101246  F
Ni       0.01942508       4.69790399      12.64976916  T
Cr       0.06580991      11.03124330      12.66893429  T
Fe       2.99260552       4.74279828      12.65770359  T
Co       3.00272952      11.02279402      12.72965425  T
Co       1.43257122       1.60525651      12.66475204  T
Ni       1.50616945       7.83208126      12.65237853  T
Fe       4.45584534       1.60273927      12.58636212  T
Ni       4.43310246       7.85412629      12.66157040  T
Cr       0.00930609       1.62312247      16.50945763  T
Ni       0.00722874       7.84850457      15.82723204  T
Co       2.96075304       1.62838905      15.68846567  T
Fe       2.98280703       7.86709499      15.79642092  T
Fe       1.46188586       4.79721706      15.86682768  T
Fe       1.46991764      10.98786037      15.96435341  T
Co       4.48158059       4.74737128      15.92443883  T
Fe       4.47924254      10.97965175      15.95155165  T
O        0.00000000       4.72550623      10.67964408  F
O        0.00000000      11.02618120      10.67964408  F
O        2.97275000       4.72550623      10.67964408  F
O        2.97275000      11.02618120      10.67964408  F
O        0.00000000       4.72550623       8.22238084  F
O        0.00000000      11.02618120       8.22238084  F
O        2.97275000       4.72550623       8.22238084  F
O        2.97275000      11.02618120       8.22238084  F
O        1.48637500       0.34653712       9.45101246  F
O        1.48637500       6.64721210       9.45101246  F
O        4.45912500       0.34653712       9.45101246  F
O        4.45912500       6.64721210       9.45101246  F
O        1.48637500       2.80380036       9.45101246  F
O        1.48637500       9.10447534       9.45101246  F
O        4.45912500       2.80380036       9.45101246  F
O        4.45912500       9.10447534       9.45101246  F
O        0.05391620       1.58006718      13.75199645  T
O        0.00960588       7.89054469      13.83161787  T
O        2.98364848       1.57888324      13.94664446  T
O        2.96656805       7.79256073      13.87355463  T
O        0.00000000       1.57516874      11.37271833  F
O        0.00000000       7.87584372      11.37271833  F
O        2.97275000       1.57516874      11.37271833  F
O        2.97275000       7.87584372      11.37271833  F
O        1.53237587       3.44373108      12.66801459  T
O        1.43417688       9.86345408      12.64793532  T
O        4.43227560       3.50444558      12.66341087  T
O        4.43451064       9.86799883      12.66236340  T
O        1.54070768       5.89111712      12.65785120  T
O        1.49639991      12.28225745      12.63185714  T
O        4.43966664       5.92564021      12.61508921  T
O        4.50500890      12.22938390      12.64962556  T
O       -0.06838803       4.66925158      17.02980792  T
O        0.00199009      11.12857557      17.11128310  T
O        3.05865491       4.69535377      16.96328343  T
O        2.97503926      11.09096384      17.05409093  T
O       -0.00234448       4.78949088      14.65903171  T
O        0.01230214      11.02187427      14.65068598  T
O        2.97374766       4.76000357      14.60919729  T
O        2.98121815      11.02395838      14.56208722  T
O        1.45118400       0.49900515      16.02517122  T
O        1.49031056       6.67936932      16.14299616  T
O        4.51128661       0.53918039      16.00819078  T
O        4.47368870       6.62846463      16.09238007  T
O        1.47329838       2.77483026      16.04220559  T
O        1.48187558       9.05389868      16.08267694  T
O        4.48810232       2.79515523      15.99913041  T
O        4.47386977       9.01948230      16.09984759  T
O        0.00757062       1.63609151      18.09886552  T
