75
Lattice="5.855999434240528 0.0 3.585765481475687e-16 2.0120443058924784e-15 12.511759014755889 7.66124281456192e-16 0.0 0.0 25.023518029511784" Properties=species:S:1:pos:R:3:move_mask:L:1 arm=leader state=OOH energy_eV=-456.8478789461918 force_converged=T pbc="T T T"
Mn       0.00000000       4.69190963       9.38381926  F
Ni       0.00000000      10.94778914       9.38381926  F
Mn       2.92799972       4.69190963       9.38381926  F
Cr       2.92799972      10.94778914       9.38381926  F
Cr       1.46399986       1.56396988       9.38381926  F
Ni       1.46399986       7.81984938       9.38381926  F
Mn       4.39199958       1.56396988       9.38381926  F
Ni       4.39199958       7.81984938       9.38381926  F
Mn       0.01399605       1.58752130      12.60118711  T
Ni       0.03111648       7.83593848      12.53338362  T
Mn       2.92975109       1.60083659      12.58143792  T
Cr       2.89700248       7.89155802      12.71441481  T
Ni       1.48983312       4.73261273      12.55512576  T
Mn       1.43473073      10.96240785      12.55596302  T
Cr       4.30438882       4.77340717      12.52589972  T
Mn       4.42213420      10.96461709      12.56038298  T
Cr       0.01434151       4.76268453      15.61519868  T
Ni      -0.06167785      10.96093172      15.76828916  T
Ni       2.95873853       4.81204548      15.84412370  T
Mn       2.93785868      10.94718463      15.74344822  T
Cr       1.57527390       1.49551191      15.85474200  T
Cr       1.28834301       7.94042358      16.53610682  T
Ni       4.41304906       1.58860768      15.82098402  T
Cu       4.37238024       7.86601198      15.98145413  T
O        0.00000000       1.56396988      10.60371577  F
O        0.00000000       7.81984938      10.60371577  F
O        2.92799972       1.56396988      10.60371577  F
O        2.92799972       7.81984938      10.60371577  F
O        0.00000000       1.56396988       8.16392276  F
O        0.00000000       7.81984938       8.16392276  F
O        2.92799972       1.56396988       8.16392276  F
O        2.92799972       7.81984938       8.16392276  F
O        1.46399986       3.47201313       9.38381926  F
O        1.46399986       9.72789263       9.38381926  F
O        4.39199958       3.47201313       9.38381926  F
O        4.39199958       9.72789263       9.38381926  F
O        1.46399986       5.91180613       9.38381926  F
O        1.46399986      12.16768564       9.38381926  F
O        4.39199958       5.91180613       9.38381926  F
O        4.39199958      12.16768564       9.38381926  F
O       -0.03541586       4.77139058      13.94712471  T
O       -0.00333404      10.88262037      13.80305926  T
O        2.99190759       4.75344544      13.80483375  T
O        2.93281041      10.93335460      13.84928622  T
O        0.00000000       4.69190963      11.29186251  F
O        0.00000000      10.94778914      11.29186251  F
O        2.92799972       4.69190963      11.29186251  F
O        2.92799972      10.94778914      11.29186251  F
O        1.47324618       0.35796924      12.58931328  T
O        1.53849780       6.63113623      12.51942314  T
O        4.39587807       0.37042719      12.65587424  T
O        4.38760120       6.55347640      12.60074407  T
O        1.46796535       2.80972672      12.57787254  T
O        1.53667329       9.06594271      12.50517497  T
O        4.41053544       2.85406240      12.62525434  T
O        4.32041621       9.03262505      12.52304432  T
O        0.01163239       1.52390249      17.15155149  T
O        0.38679145       7.93015551      17.85123465  T
O        2.72229902       1.78448950      17.03823782  T
O        2.87737249       7.70533645      17.06752304  T
O        0.12364217       1.67510582      14.59597322  T
O        0.15340911       7.84668045      15.10516096  T
O        2.83414419       1.67202870      14.57345551  T
O        2.90294866       7.79898464      14.36496348  T
O        1.29272364       3.62509599      16.04877269  T
O        1.47132153       9.67663552      16.15699764  T
O        4.56870213       3.67505634      16.10787361  T
O        4.31363246       9.72121689      16.13324480  T
O        1.26592653       5.98190025      16.13511275  T
O        1.50526465      12.23875356      15.94789597  T
O        4.52082437       5.99877603      16.13123126  T
O        4.26324742      12.16910777      16.02373032  T
O        2.14277044       4.94957724      19.14191291  T
O        0.96089504       4.94136539      19.48227270  T
H        0.02450301       2.35202527      17.65865017  T
