74
Lattice="5.855999434240528 0.0 3.585765481475687e-16 2.0120443058924784e-15 12.511759014755889 7.66124281456192e-16 0.0 0.0 25.023518029511784" Properties=species:S:1:pos:R:3:move_mask:L:1 arm=leader state=OH energy_eV=-450.06106389686744 force_converged=T pbc="T T T"
Mn       0.00000000       4.69190963       9.38381926  F
Ni       0.00000000      10.94778914       9.38381926  F
Mn       2.92799972       4.69190963       9.38381926  F
Cr       2.92799972      10.94778914       9.38381926  F
Cr       1.46399986       1.56396988       9.38381926  F
Ni       1.46399986       7.81984938       9.38381926  F
Mn       4.39199958       1.56396988       9.38381926  F
Ni       4.39199958       7.81984938       9.38381926  F
Mn       0.00741525       1.57882652      12.58667215  T
Ni       0.03032544       7.85041036      12.56530872  T
Mn       2.92923407       1.59491401      12.60102469  T
Cr       2.88569791       7.90669709      12.65992894  T
Ni       1.48159521       4.73099048      12.56787942  T
Mn       1.43580074      10.97399420      12.55215457  T
Cr       4.35142875       4.78195011      12.54081304  T
Mn       4.42268236      10.96872034      12.55046653  T
Cr      -0.11521028       4.77706390      15.71558389  T
Ni      -0.04511388      10.96761827      15.74489593  T
Ni       2.94269010       4.82938925      15.72144899  T
Mn       2.94013331      10.96636214      15.73725609  T
Cr       1.49690197       1.54037017      16.01694439  T
Cr       1.34198143       7.89942160      16.43297202  T
Ni       4.39819855       1.56637028      15.71182930  T
Cu       4.37878466       7.89847107      15.90331733  T
O        0.00000000       1.56396988      10.60371577  F
O        0.00000000       7.81984938      10.60371577  F
O        2.92799972       1.56396988      10.60371577  F
O        2.92799972       7.81984938      10.60371577  F
O        0.00000000       1.56396988       8.16392276  F
O        0.00000000       7.81984938       8.16392276  F
O        2.92799972       1.56396988       8.16392276  F
O        2.92799972       7.81984938       8.16392276  F
O        1.46399986       3.47201313       9.38381926  F
O        1.46399986       9.72789263       9.38381926  F
O        4.39199958       3.47201313       9.38381926  F
O        4.39199958       9.72789263       9.38381926  F
O        1.46399986       5.91180613       9.38381926  F
O        1.46399986      12.16768564       9.38381926  F
O        4.39199958       5.91180613       9.38381926  F
O        4.39199958      12.16768564       9.38381926  F
O       -0.03397357       4.76672970      13.95464059  T
O       -0.00364486      10.89897869      13.79022725  T
O        2.99374572       4.75882945      13.77991271  T
O        2.93702467      10.95532248      13.84168004  T
O        0.00000000       4.69190963      11.29186251  F
O        0.00000000      10.94778914      11.29186251  F
O        2.92799972       4.69190963      11.29186251  F
O        2.92799972      10.94778914      11.29186251  F
O        1.47366222       0.35249277      12.54971091  T
O        1.54170244       6.64269495      12.50844872  T
O        4.38895309       0.36473964      12.61863429  T
O        4.38749237       6.55676787      12.59006791  T
O        1.46595705       2.79436384      12.58820427  T
O        1.53637008       9.08264972      12.49598240  T
O        4.40707413       2.84819619      12.62265807  T
O        4.32228050       9.04798144      12.52690299  T
O        0.14740421       1.67666250      17.02415247  T
O        0.38836535       7.90491937      17.70985598  T
O        2.77967234       1.71532742      17.04569778  T
O        2.90817120       7.79372915      17.05026386  T
O        0.08601500       1.60865392      14.51761639  T
O        0.12626804       7.87641632      14.96588570  T
O        2.82402215       1.61207331      14.55491810  T
O        2.90324878       7.82546864      14.32620665  T
O        1.41877963       3.53429682      15.74194473  T
O        1.48375900       9.66817529      16.00533385  T
O        4.46630408       3.59354441      15.93028402  T
O        4.33828518       9.74215321      16.09605355  T
O        1.32791165       6.10701808      15.91335903  T
O        1.50702813      12.23366841      15.97980732  T
O        4.47987212       6.02045091      16.07357234  T
O        4.29175667      12.17278742      16.08730003  T
O        0.51695269       4.34336651      17.56846329  T
H        0.32723855       3.39276991      17.75430627  T
