73
Lattice="5.855999434240528 0.0 3.585765481475687e-16 2.0120443058924784e-15 12.511759014755889 7.66124281456192e-16 0.0 0.0 25.023518029511784" Properties=species:S:1:pos:R:3:move_mask:L:1 arm=leader state=O energy_eV=-445.1167614698512 force_converged=T pbc="T T T"
Mn       0.00000000       4.69190963       9.38381926  F
Ni       0.00000000      10.94778914       9.38381926  F
Mn       2.92799972       4.69190963       9.38381926  F
Cr       2.92799972      10.94778914       9.38381926  F
Cr       1.46399986       1.56396988       9.38381926  F
Ni       1.46399986       7.81984938       9.38381926  F
Mn       4.39199958       1.56396988       9.38381926  F
Ni       4.39199958       7.81984938       9.38381926  F
Mn       0.00254700       1.57695733      12.57374474  T
Ni       0.01307616       7.83801051      12.53388714  T
Mn       2.93278865       1.58953159      12.61382815  T
Cr       2.86336361       7.89387961      12.66340364  T
Ni       1.47539548       4.71773989      12.51892949  T
Mn       1.43257433      10.97003428      12.55404267  T
Cr       4.39015667       4.81229072      12.70601876  T
Mn       4.41948071      10.95611186      12.55179807  T
Cr      -0.00772135       4.68822837      16.58294312  T
Ni      -0.09134851      10.93368345      15.74965421  T
Ni       2.93224693       4.77258241      15.83358507  T
Mn       2.92158915      10.94427227      15.74284390  T
Cr       1.32538044       1.48146871      16.00789266  T
Cr       1.24427815       7.92462195      16.50447777  T
Ni       4.33368082       1.59217210      15.73584546  T
Cu       4.32841026       7.82733762      15.96459090  T
O        0.00000000       1.56396988      10.60371577  F
O        0.00000000       7.81984938      10.60371577  F
O        2.92799972       1.56396988      10.60371577  F
O        2.92799972       7.81984938      10.60371577  F
O        0.00000000       1.56396988       8.16392276  F
O        0.00000000       7.81984938       8.16392276  F
O        2.92799972       1.56396988       8.16392276  F
O        2.92799972       7.81984938       8.16392276  F
O        1.46399986       3.47201313       9.38381926  F
O        1.46399986       9.72789263       9.38381926  F
O        4.39199958       3.47201313       9.38381926  F
O        4.39199958       9.72789263       9.38381926  F
O        1.46399986       5.91180613       9.38381926  F
O        1.46399986      12.16768564       9.38381926  F
O        4.39199958       5.91180613       9.38381926  F
O        4.39199958      12.16768564       9.38381926  F
O       -0.14560176       4.69105452      13.73398348  T
O       -0.01184016      10.87651493      13.79296148  T
O        3.02282241       4.73981998      13.79160114  T
O        2.92594769      10.92861384      13.83990295  T
O        0.00000000       4.69190963      11.29186251  F
O        0.00000000      10.94778914      11.29186251  F
O        2.92799972       4.69190963      11.29186251  F
O        2.92799972      10.94778914      11.29186251  F
O        1.46483528       0.34484846      12.57826776  T
O        1.50821463       6.63336625      12.52091656  T
O        4.39460154       0.35539896      12.64383074  T
O        4.36782058       6.56310474      12.54627702  T
O        1.45911107       2.78717487      12.59081095  T
O        1.52462029       9.07340769      12.49696308  T
O        4.39159021       2.80938630      12.58507635  T
O        4.31190499       9.03573626      12.52685086  T
O        0.04979237       1.55294892      17.06661943  T
O        0.32485698       7.93135167      17.80962853  T
O        2.67794701       1.75957601      16.95549103  T
O        2.83401795       7.69912244      17.04619737  T
O        0.12387101       1.65828688      14.57293177  T
O        0.11121494       7.80498772      15.08034266  T
O        2.83261953       1.65818152      14.52309091  T
O        2.90030379       7.76830528      14.32176605  T
O        1.26466798       3.59876305      16.01930468  T
O        1.44802120       9.65688460      16.10820640  T
O        4.48891072       3.62528124      16.10257477  T
O        4.28294245       9.70544439      16.10252116  T
O        1.21153012       5.97062063      16.10065515  T
O        1.46159465      12.22038326      15.95709584  T
O        4.43120671       5.95688864      16.17448220  T
O        4.24789050      12.17632856      16.06510935  T
O        0.03822695       4.62634869      18.17299640  T
