72
Lattice="5.855999434240528 0.0 3.585765481475687e-16 2.0120443058924784e-15 12.511759014755889 7.66124281456192e-16 0.0 0.0 25.023518029511784" Properties=species:S:1:pos:R:3:move_mask:L:1 arm=leader state=slab energy_eV=-441.3923129824925 force_converged=T pbc="T T T"
Mn       0.00000000       4.69190963       9.38381926  F
Ni       0.00000000      10.94778914       9.38381926  F
Mn       2.92799972       4.69190963       9.38381926  F
Cr       2.92799972      10.94778914       9.38381926  F
Cr       1.46399986       1.56396988       9.38381926  F
Ni       1.46399986       7.81984938       9.38381926  F
Mn       4.39199958       1.56396988       9.38381926  F
Ni       4.39199958       7.81984938       9.38381926  F
Mn       0.03362764       1.58025424      12.56279566  T
Ni       0.02448631       7.83270373      12.53707998  T
Mn       2.95147206       1.59136484      12.62502892  T
Cr       2.88696972       7.89584138      12.64211383  T
Ni       1.48388944       4.72594829      12.55106768  T
Mn       1.43536523      10.96078726      12.55121669  T
Cr       4.30629952       4.76711240      12.53259517  T
Mn       4.42536430      10.96167784      12.55202347  T
Cr      -0.05379477       4.73211426      15.63298146  T
Ni      -0.07896482      10.90268513      15.75142787  T
Ni       2.93474380       4.78326106      15.80393173  T
Mn       2.93811669      10.91843321      15.73161184  T
Cr       1.28684371       1.41554118      16.04338387  T
Cr       1.26423852       7.90542773      16.49298040  T
Ni       4.33034635       1.55215215      15.75208368  T
Cu       4.34216166       7.81492247      15.94381226  T
O        0.00000000       1.56396988      10.60371577  F
O        0.00000000       7.81984938      10.60371577  F
O        2.92799972       1.56396988      10.60371577  F
O        2.92799972       7.81984938      10.60371577  F
O        0.00000000       1.56396988       8.16392276  F
O        0.00000000       7.81984938       8.16392276  F
O        2.92799972       1.56396988       8.16392276  F
O        2.92799972       7.81984938       8.16392276  F
O        1.46399986       3.47201313       9.38381926  F
O        1.46399986       9.72789263       9.38381926  F
O        4.39199958       3.47201313       9.38381926  F
O        4.39199958       9.72789263       9.38381926  F
O        1.46399986       5.91180613       9.38381926  F
O        1.46399986      12.16768564       9.38381926  F
O        4.39199958       5.91180613       9.38381926  F
O        4.39199958      12.16768564       9.38381926  F
O       -0.04841455       4.77262739      13.96078691  T
O       -0.00526081      10.88463471      13.78980245  T
O        2.98985579       4.76029325      13.79648438  T
O        2.93260124      10.94740046      13.83657850  T
O        0.00000000       4.69190963      11.29186251  F
O        0.00000000      10.94778914      11.29186251  F
O        2.92799972       4.69190963      11.29186251  F
O        2.92799972      10.94778914      11.29186251  F
O        1.48061458       0.34892813      12.55638191  T
O        1.51163085       6.62164052      12.49122126  T
O        4.41706889       0.36590111      12.64308950  T
O        4.39920269       6.54038814      12.57891885  T
O        1.48295787       2.80286700      12.58134815  T
O        1.52766997       9.06560186      12.51721817  T
O        4.42906356       2.84775416      12.64745736  T
O        4.32223380       9.03540515      12.53653599  T
O        0.04451856       1.50265994      17.12216108  T
O        0.35601090       7.98502847      17.80079862  T
O        2.65615353       1.79502922      16.92410951  T
O        2.85071149       7.67695527      17.03993786  T
O        0.19748884       1.64248831      14.61452419  T
O        0.12197581       7.79273592      15.05766427  T
O        2.86289263       1.59925284      14.50641971  T
O        2.90667681       7.71848355      14.29934622  T
O        1.21412518       3.64292096      16.08415660  T
O        1.47235617       9.62270917      16.03951027  T
O        4.52172376       3.61098244      16.04842539  T
O        4.28842550       9.67105045      16.08502518  T
O        1.22470634       5.97570568      16.15273817  T
O        1.47082219      12.17489521      16.01067255  T
O        4.49978635       5.96552290      16.18000078  T
O        4.25957927      12.14042360      16.08473124  T
